84
CIF: W-Y-CeO2-Ov-CO2.cif | data_image0
Ce     1.93596140     1.11772783     0.89035214
Ce     0.00298889     2.23483504     4.03611340
Ce    -5.80587435    10.05843661     7.22769036
Ce     5.80789581     1.11772783     0.89035214
Ce     3.85437601     2.22407880     4.00017808
Ce    -2.07935688     9.98288633     7.14655846
Ce     9.67981860     1.11772783     0.89035214
Ce     7.77885444     2.21483045     4.03707057
Ce     2.06595231     9.99930717     7.28943516
Ce     0.00000000     4.47091133     0.89035214
Ce    -1.94650687     5.57444433     4.08126238
Ce    -1.82006065     3.27266282     7.28640101
Ce     3.87193441     4.47091133     0.89035214
Ce     1.95676695     5.57635715     4.09243698
Ce     1.86850041     3.29423705     7.25212743
Ce     7.74385721     4.47091133     0.89035214
Ce     5.80894500     5.60893699     3.99923251
Ce    -1.93596721     7.82410489     0.89035214
Ce    -3.88837567     8.95082367     3.96888502
Ce    -3.87803945     6.86755912     7.14777088
Ce     1.93596721     7.82410489     0.89035214
Ce     0.00734213     8.95788575     4.08189329
Ce     0.02421175     6.69303144     7.28923292
Ce     5.80789000     7.82410489     0.89035214
Ce     3.87397074     8.93972255     4.03596666
Ce     3.88963762     6.79395500     7.24731021
Y      5.82203926     3.34414382     6.82426257
O      0.00000000     0.00000000     0.09999685
O      1.93375749     1.11449097     3.19355124
O      0.03216072     2.19430681     6.38433861
O      0.00000000     2.23545567     1.68070743
O     -5.80524022    10.05828285     4.79668725
O      1.95562844     0.94360364     8.06180106
O      3.87192279     0.00000000     0.09999685
O      5.80947354     1.09445562     3.23637538
O      4.03997201     2.18799261     6.59018058
O      3.87192279     2.23545567     1.68070743
O      3.82727998     0.02787470     4.81555930
O      6.56412189     1.15431052     9.35280024
O      7.74385721     0.00000000     0.09999685
O      9.67999310     1.11701962     3.21843833
O      7.64332012     2.29195831     6.52890790
O      7.74385721     2.23545567     1.68070743
O      7.76455356     0.01207115     4.83286620
O      9.85912415     1.01385826     8.12819614
O     -1.93596140     3.35318350     0.09999685
O      0.00533874     4.49681395     3.27080003
O     -2.15155792     5.55596526     6.50186103
O     -1.93596721     5.58864923     1.68070743
O      9.67975017     3.32911897     4.82907502
O      0.00697917     4.61503714     8.07524151
O      1.93596140     3.35318350     0.09999685
O      3.86056494     4.47756912     3.21836499
O      2.03636400     5.53190222     6.40808013
O      1.93595559     5.58864923     1.68070743
O      1.98772660     3.29264979     4.81906397
O      5.80789581     3.35318350     0.09999685
O      7.76411349     4.48115430     3.23567407
O      5.92863270     5.46614096     6.59229609
O      5.80789000     5.58864923     1.68070743
O      5.79539503     3.36067004     4.69627448
O      8.08089774     3.81119934     9.34470197
O     -3.87192860     6.70637706     0.09999685
O     -1.92003466     7.81416936     3.25018979
O     -3.87510278     8.94304605     6.30369122
O     -3.87192860     8.94183273     1.68070743
O      7.69618645     6.72989621     4.81661320
O     -2.00438352     7.86304203     8.02220439
O     -0.00000581     6.70637706     0.09999685
O      1.91586275     7.80726242     3.27037638
O     -0.07916377     9.14509362     6.50224619
O     -0.00000581     8.94183273     1.68070743
O     -0.03136106     6.72452315     4.97047931
O      3.87192860     6.70637706     0.09999685
O      5.80963302     7.82752864     3.19320742
O      3.92481845     8.93371101     6.38384966
O      3.87192860     8.94183273     1.68070743
O      3.94997365     6.69312503     4.81618401
O      5.96903531     7.89465829     8.06146790
O      3.98630784     4.39372734     8.94378317
O      1.81459052     7.74941409     8.07465553
O      5.08708977     3.76371331    10.89580205
W      6.69226172     2.84388676     9.85825205
C      4.89151292     3.87586457     9.62108798
