85
CIF: 1-NH3-NH2+H_fs.cif | data_image0
Ce     0.00937559     0.02922878     8.77498344
Ce     1.92996947     1.12848526     5.62665878
Ce     0.00000000     2.23543938     2.47426506
Ce     3.85581106     0.07614986     8.78849247
Ce     5.81232051     1.11213425     5.61960064
Ce     3.87189458     2.23543938     2.47426506
Ce     2.00512086    10.05152370     8.77057465
Ce     9.68715442     1.11601253     5.59774343
Ce     7.74390532     2.23543938     2.47426506
Ce     9.65077743     3.28767014     8.75949896
Ce     0.00812198     4.49214688     5.61012168
Ce    -1.93600537     5.58869904     2.47426506
Ce     2.01488486     3.40213280     8.82088657
Ce     3.87130609     4.47747048     5.61104691
Ce     1.93588921     5.58869904     2.47426506
Ce     5.82485602     3.34947296     8.73190773
Ce     7.74676626     4.46982638     5.61053058
Ce     5.80789995     5.58869904     2.47426506
Ce     7.65969128     6.72149963     8.75979405
Ce    -1.92274110     7.82941773     5.61673110
Ce    -3.87195266     8.94185811     2.47426506
Ce     1.92391768     7.82010378     5.70407588
Ce    -0.00005808     8.94185811     2.47426506
Ce     3.87661213     6.71169425     8.79071402
Ce     5.80221365     7.83524020     5.61120846
Ce     3.87195266     8.94185811     2.47426506
Cr    -0.64652161     6.33812512     8.51214555
O      0.01905219     0.01420096     6.42534391
O     -0.00998616     2.27610635     9.52267138
O      1.93594729     1.11771969     3.26466483
O      0.00676248     2.24168453     4.80732348
O      0.00000000     0.00000000     1.68386529
O      1.95804837     1.16125060     7.98041528
O     -1.95412774    10.02075649     6.46272345
O      3.88744963     2.24702381     9.56557696
O      5.80795803     1.11771969     3.26466483
O      3.85071117     2.22613473     4.82899893
O      3.87189458     0.00000000     1.68386529
O      5.80483225     1.12633761     7.94011838
O      7.74416632     0.01789136     6.41126012
O      7.77612810     2.23737275     9.54086841
O      9.67985261     1.11771969     3.26466483
O      7.76210619     2.23970960     4.80730395
O      7.74390532     0.00000000     1.68386529
O      9.69330475     1.10879789     7.94094858
O     -1.90117872     3.36028209     6.43945565
O     -2.06788070     5.54111648     9.47063889
O      0.00000000     4.47087876     3.26466483
O     -1.93549940     5.59491733     4.81297777
O     -1.93594729     3.35315907     1.68386529
O     -0.06558277     4.65260608     8.06203928
O      1.88663745     3.39574193     6.46697646
O      2.41896200     5.35044657     9.78872133
O      3.87201074     4.47087876     3.26466483
O      1.91782928     5.60151978     4.82466230
O      1.93594729     3.35315907     1.68386529
O      3.94421465     4.44166566     7.89094984
O      5.82268409     3.33429235     6.37414940
O      5.84508378     5.59837988     9.55225220
O      7.74390532     4.47087876     3.26466483
O      5.82163141     5.60098611     4.81788122
O      5.80795803     3.35315907     1.68386529
O      7.70249558     4.44532361     7.92291870
O     -3.84802098     6.73962647     6.45147499
O     -3.84900282     8.96542193     9.51580484
O     -1.93600537     7.82413842     3.26466483
O     -3.86958919     8.94758544     4.81065766
O     -3.87195266     6.70641873     1.68386529
O     -1.80070491     7.73903132     8.08144143
O     -0.04597828     6.68863049     6.50626479
O      0.00152355     9.44756100     9.93662302
O      1.93600537     7.82413842     3.26466483
O     -0.00512574     8.92740088     4.83272486
O     -0.00005808     6.70641873     1.68386529
O      2.03455291     7.90826550     8.02103374
O      3.86946834     6.70139127     6.41740010
O      3.94463585     9.01963545     9.61857786
O      5.80789995     7.82413842     3.26466483
O      3.87527131     8.94470605     4.82634675
O      3.87195266     6.70641873     1.68386529
O      5.79420102     7.84583717     7.96006011
N      0.12147491     6.72982994    10.11757784
H      0.03513717     8.45869156    10.13126808
H      1.11859621     6.37616051    10.11909618
H     -0.39703422     6.37929270    10.92975760
