87
CIF: 4-NHNO+2H-N2+OH+2H_is.cif | data_image0
Ce     0.07105222     0.05327961     8.73559883
Ce     1.92613978     1.12732425     5.58790426
Ce     0.00000000     2.23543938     2.47426506
Ce     3.76465892     0.08152790     8.77725955
Ce     5.81611030     1.08465633     5.64245035
Ce     3.87189458     2.23543938     2.47426506
Ce     7.86778846     0.02439405     8.80198311
Ce     9.68315876     1.11430971     5.59788175
Ce     7.74390532     2.23543938     2.47426506
Ce     9.64638688     3.32367290     8.78430378
Ce    -0.00048146     4.48333879     5.62401316
Ce    -1.93600537     5.58869904     2.47426506
Ce     1.95282297     3.35290775     8.79356385
Ce     3.85817043     4.45311481     5.59689273
Ce     1.93588921     5.58869904     2.47426506
Ce     5.81056768     3.29278747     8.75349131
Ce     7.73967882     4.48077112     5.64440377
Ce     5.80789995     5.58869904     2.47426506
Ce     7.59404061     6.73082777     8.92326833
Ce    -1.96531451     7.83712188     5.61982495
Ce    -3.87195266     8.94185811     2.47426506
Ce     1.97140087     7.83696943     5.67593845
Ce    -0.00005808     8.94185811     2.47426506
Ce     3.91431305     6.63456235     8.70881758
Ce     5.82054792     7.80869137     5.61002356
Ce     3.87195266     8.94185811     2.47426506
Cr    -0.63528880     6.45655153     8.47860096
O      0.02388669     0.00252891     6.39849618
O      0.01798238     2.28917181     9.53493103
O      1.93594729     1.11771969     3.26466483
O     -0.01425962     2.24502533     4.79420348
O      0.00000000     0.00000000     1.68386529
O      1.91768124     1.19737224     7.92642883
O     -1.95746952    10.04115316     6.39055161
O      3.83908642     2.34720434     9.59292285
O      5.80795803     1.11771969     3.26466483
O      3.85756605     2.23259478     4.81136477
O      3.87189458     0.00000000     1.68386529
O      5.84272437     1.02055926     8.07103239
O      7.74921262     0.03120790     6.36349530
O      7.80924742     2.35465721     9.62179375
O      9.67985261     1.11771969     3.26466483
O      7.75953059     2.25879985     4.82104758
O      7.74390532     0.00000000     1.68386529
O      9.73421830     1.07564709     7.98207136
O     -1.88249218     3.35327282     6.47328227
O     -1.95299102     5.59265221     9.39986406
O      0.00000000     4.47087876     3.26466483
O     -1.92328009     5.60024183     4.83883304
O     -1.93594729     3.35315907     1.68386529
O      0.00182991     4.70155585     8.10203699
O      1.85308907     3.37414030     6.41659104
O      2.33841360     5.36803226     9.99854112
O      3.87201074     4.47087876     3.26466483
O      1.88191668     5.61758248     4.83806016
O      1.93594729     3.35315907     1.68386529
O      3.77788072     4.45449092     7.89226846
O      5.78941785     3.29544596     6.43642440
O      5.71439239     5.43717962     9.40435586
O      7.74390532     4.47087876     3.26466483
O      5.83630740     5.55482587     4.80668105
O      5.80795803     3.35315907     1.68386529
O      7.73115098     4.45727303     7.94429217
O      7.72208130     6.74003652     6.45126262
O     -3.97444039     9.02494757     9.47837148
O     -1.93600537     7.82413842     3.26466483
O     -3.87365735     8.93907584     4.79392970
O     -3.87195266     6.70641873     1.68386529
O     -1.92109381     7.72010041     8.05383591
O     -0.07960159     6.72562848     6.64023430
O      0.26171669     7.20935605     9.57316495
O      1.93600537     7.82413842     3.26466483
O      0.00017092     8.89330521     4.84068701
O     -0.00005808     6.70641873     1.68386529
O      2.29642738     7.89346774     7.92773579
O      3.92957361     6.64057577     6.33253097
O      4.01552667     8.95344552     9.96681927
O      5.80789995     7.82413842     3.26466483
O      3.87702292     8.94031371     4.82031812
O      3.87195266     6.70641873     1.68386529
O      5.72425593     7.85109046     7.97935227
O      7.53814999     6.66662317    11.40940579
N      5.62820028     7.72990099    11.97045777
N      6.44025728     7.29656462    11.10713609
H      5.97102293     7.49752010    12.92905854
H      4.37305068     8.68211327    10.85700227
H      1.55061521     5.91749307    10.20413892
