87
CIF: 4-NHNO+2H-N2+OH+2H_ts.cif | data_image0
Ce     0.06616795     0.06211119     8.72754447
Ce     1.92739057     1.13054078     5.58700706
Ce     0.00000000     2.23543938     2.47426506
Ce     3.74647426     0.08132913     8.78942541
Ce     5.80948707     1.09263962     5.64584057
Ce     3.87189458     2.23543938     2.47426506
Ce     7.83401374     0.04244747     8.79039061
Ce     9.67972836     1.11846411     5.59687961
Ce     7.74390532     2.23543938     2.47426506
Ce     9.64746284     3.32146132     8.77979105
Ce     0.00574822     4.48548413     5.62191477
Ce    -1.93600537     5.58869904     2.47426506
Ce     1.95332759     3.35853354     8.79501631
Ce     3.86236224     4.45457473     5.59450824
Ce     1.93588921     5.58869904     2.47426506
Ce     5.79850607     3.32678117     8.76919674
Ce     7.73880053     4.48634488     5.64499500
Ce     5.80789995     5.58869904     2.47426506
Ce     7.63358611     6.73166706     8.93378996
Ce    -1.96424255     7.84214965     5.61802355
Ce    -3.87195266     8.94185811     2.47426506
Ce     1.97252011     7.84163055     5.67345933
Ce    -0.00005808     8.94185811     2.47426506
Ce     3.91575128     6.63252105     8.70406632
Ce     5.82160924     7.81205478     5.61356892
Ce     3.87195266     8.94185811     2.47426506
Cr    -0.60883759     6.46095646     8.46366442
O      0.02329832     0.01049817     6.39179976
O      0.00544135     2.30110611     9.53208364
O      1.93594729     1.11771969     3.26466483
O     -0.01518148     2.25016090     4.79647483
O      0.00000000     0.00000000     1.68386529
O      1.91668542     1.20154068     7.93010092
O     -1.96297172    10.04589039     6.39684829
O      3.83271601     2.36225221     9.60330599
O      5.80795803     1.11771969     3.26466483
O      3.86072217     2.23323538     4.80952560
O      3.87189458     0.00000000     1.68386529
O      5.81912783     1.03868465     8.08419512
O      7.73676548     0.04285336     6.36400090
O      7.79981202     2.36333224     9.62478956
O      9.67985261     1.11771969     3.26466483
O      7.75907508     2.26357462     4.82098239
O      7.74390532     0.00000000     1.68386529
O      9.72157229     1.07136149     7.98177058
O     -1.88775551     3.36027884     6.47902973
O     -1.91625171     5.57127398     9.35661759
O      0.00000000     4.47087876     3.26466483
O     -1.91694555     5.59912571     4.83853953
O      9.67985261     3.35315907     1.68386529
O      0.03885238     4.70790829     8.08210877
O      1.86850834     3.37564892     6.41398171
O      2.33966765     5.36774270    10.00248990
O      3.87201074     4.47087876     3.26466483
O      1.88349517     5.61857881     4.83491846
O      1.93594729     3.35315907     1.68386529
O      3.80245429     4.45738272     7.90059357
O      5.78984160     3.30138412     6.44174590
O      5.69377826     5.51030419     9.49220787
O      7.74390532     4.47087876     3.26466483
O      5.83592053     5.55524265     4.80473158
O      5.80795803     3.35315907     1.68386529
O      7.70223447     4.46736692     7.95863888
O     -3.88481238     6.74349255     6.42570108
O     -4.03088736     9.03880293     9.49929600
O     -1.93600537     7.82413842     3.26466483
O     -3.87314160     8.94600125     4.79208459
O      7.74384724     6.70641873     1.68386529
O     -1.90057792     7.73776270     8.05713808
O     -0.06881959     6.73542829     6.62919266
O      0.28136764     7.20943653     9.56696786
O      1.93600537     7.82413842     3.26466483
O     -0.00109071     8.89974218     4.83911428
O     -0.00005808     6.70641873     1.68386529
O      2.31078126     7.91803512     7.92481187
O      3.92785760     6.63980629     6.32562962
O      4.00907247     8.94198953    10.00667521
O      5.80789995     7.82413842     3.26466483
O      3.87392007     8.94502386     4.82256826
O      3.87195266     6.70641873     1.68386529
O      5.71371482     7.85888130     7.98215749
O      7.70047845     6.76594863    11.14794899
N      6.15572741     6.57990941    12.74380771
N      6.36898808     7.51699803    12.05065803
H      7.03324013     5.96796860    12.18340752
H      4.22991326     8.84324415    10.95216545
H      1.54954780     5.91617869    10.20173981
