84
CIF: Pd-Cu-CeO2-Ov-CO2.cif | data_image0
Ce     1.93038582     1.11050507     0.88387043
Ce    -0.00987898     2.22975805     4.02308706
Ce    -5.78190833    10.04442385     7.21843814
Ce     5.81181033     1.12175166     0.90127712
Ce     3.85424180     2.21901461     4.01110992
Ce    -1.87791081    10.05017470     7.22534707
Ce     9.66901012     1.12377363     0.90450652
Ce     7.73330718     2.24136560     4.10273265
Ce     1.96987642    10.04312285     7.22520203
Ce    -0.00709724     4.47602159     0.89067279
Ce    -1.92910920     5.57789182     4.05611873
Ce    -1.90487715     3.33177718     7.22516841
Ce     3.86254305     4.47635356     0.87798423
Ce     1.95163781     5.57944634     4.04549900
Ce     1.85123170     3.26088645     7.17553455
Ce     7.74213807     4.46545905     0.90125422
Ce     5.81318217     5.61205792     4.01109920
Ce    -1.94645625     7.83004003     0.90010904
Ce    -3.86192531     8.93600071     4.07261451
Ce    -3.83486024     6.66069932     7.22532924
Ce     1.92815559     7.82745473     0.89060408
Ce     0.01265589     8.94105517     4.05599704
Ce     0.02192424     6.69360444     7.21562031
Ce     5.81127600     7.83258510     0.88371011
Ce     3.87183490     8.95305655     4.02312514
Ce     3.90940527     6.82574032     7.17554157
Cu     4.99000571     3.82529866     6.47677211
Pd     6.60782601     2.89133937     8.12778505
O     11.61334069     0.00154917     0.10141687
O      1.93486714     1.10596546     3.22598066
O      0.00640951     2.21258772     6.38583491
O     -0.00785227     2.23805103     1.69392277
O     -5.78966285    10.04887918     4.85293906
O      1.94536713     1.11720388     7.98517763
O     -1.93899312    10.05733740     0.10496691
O      5.80493724     1.11118293     3.24659652
O      3.81688121     2.28945866     6.37572242
O      3.86763657     2.23577757     1.68132582
O      3.88027746     0.01081691     4.87627110
O      5.82454241     0.94364297     8.08399708
O      7.73821774     0.00761509     0.10924988
O      9.67575434     1.11993721     3.24547375
O      7.87522253     2.15938550     6.46222860
O      7.74357843     2.23531483     1.71563532
O      1.93911055    10.05403423     4.85434341
O      9.78307523     1.05798163     8.03867735
O      9.67032270     3.35425987     0.10911246
O     -0.00219532     4.47723010     3.22499944
O     -1.89696871     5.58177699     6.39250859
O     -1.94403436     5.59119430     1.70564938
O     -1.92984729     3.35300778     4.85436928
O      0.03111463     4.44030381     7.98084243
O      1.92738314     3.35244915     0.09928684
O      3.84779910     4.48482782     3.21572034
O      2.10244120     5.49243107     6.50546431
O      1.92862022     5.59252216     1.67404250
O      1.89336459     3.34927172     4.82915518
O      4.20034324     4.28135113     8.31214830
O      5.81155478     3.35101064     0.10766953
O      7.74778848     4.47649324     3.24647756
O      5.73355412     5.60919255     6.37570330
O      5.80528807     5.59217007     1.68114259
O      5.77676004     3.37107438     4.76473112
O      7.90283795     4.54325508     8.08387994
O     -3.87155109     6.71022987     0.10512724
O     -1.92509372     7.81778437     3.26761630
O     -3.83617428     8.92107482     6.42818352
O     -3.87509971     8.94378428     1.69355631
O      7.73854353     6.69359230     4.87626535
O     -1.87790673     7.79045459     7.98870300
O     -0.01209783     6.71325780     0.10434852
O      1.92928922     7.82259783     3.22485178
O      0.02537910     8.91133025     6.39248221
O     -0.00628994     8.94736548     1.70514550
O      0.06681382     6.66769364     4.89658105
O      1.97792519     7.81227222     7.98087843
O      3.86815347     6.71410280     0.09951587
O      5.81748992     7.83081617     3.22576297
O      3.89481070     8.94752598     6.38585281
O      3.86556896     8.94715423     1.69389986
O      3.85395381     6.74510372     4.82912132
O      5.81296389     7.81604717     7.98517447
O      5.02348612     3.80857372    10.37799601
C      5.12816401     3.74658000     9.17275189
