82
CIF: Pd-Cu-CeO2.cif | data_image0
Ce     1.93038582     1.11050507     0.88387043
Ce    -0.00277229     2.23016705     4.03764876
Ce    -5.76813260    10.03609870     7.21454051
Ce     5.81181033     1.12175166     0.90127712
Ce     3.86216944     2.23190042     4.02357811
Ce     3.89874071     0.00767718     7.21323696
Ce     9.66901012     1.12377363     0.90450652
Ce     7.71891398     2.24943952     4.07646690
Ce     1.99731508     9.97421895     7.23242659
Ce    -0.00709724     4.47602159     0.89067279
Ce    -1.94128135     5.58543412     4.05316013
Ce    -1.83192984     3.34182620     7.23244454
Ce     3.86254305     4.47635356     0.87798423
Ce     1.92983597     5.59176718     4.03704486
Ce     1.92310859     3.34786093     7.19397874
Ce     7.74213807     4.46545905     0.90125422
Ce     5.80579251     5.59841457     4.02353214
Ce    -1.94645625     7.83004003     0.90010904
Ce    -3.86903316     8.93987284     4.05730135
Ce     7.75014529     6.67855910     7.21326989
Ce     1.92815559     7.82745473     0.89060408
Ce    -0.00018402     8.94743215     4.05308165
Ce    -0.00688620     6.70980859     7.18913923
Ce     5.81127600     7.83258510     0.88371011
Ce     3.87483629     8.94629472     4.03767740
Ce     3.86964983     6.71936020     7.19401828
Cu     4.96739112     3.83795847     6.55832143
Pd     6.80127796     2.77914413     8.10871086
O     11.61334069     0.00154917     0.10141687
O      1.93213834     1.11151034     3.22892332
O      0.03542681     2.23216476     6.39088600
O     -0.00785227     2.23805103     1.69392277
O     -5.79846764    10.05366862     4.85829700
O      1.96897352     1.10171451     7.98898758
O     -1.93899312    10.05733740     0.10496691
O      5.80904710     1.11819868     3.24538469
O      3.87628332     2.24178825     6.40336995
O      3.86763657     2.23577757     1.68132582
O      3.87386399     0.00792296     4.86883958
O      5.91943513     0.96161445     8.13920133
O      7.73821774     0.00761509     0.10924988
O      9.67523829     1.12004183     3.24398999
O      7.79288307     2.20655841     6.50639319
O      7.74357843     2.23531483     1.71563532
O      7.75742247     0.02252052     4.87777172
O      9.78757994     1.05489981     8.00735863
O      9.67032270     3.35425987     0.10911246
O     -0.01103742     4.46680198     3.23859411
O     -1.91683693     5.58085900     6.40260746
O     -1.94403436     5.59119430     1.70564938
O      9.66658257     3.32950531     4.87781582
O      0.02779981     4.45990545     8.01374652
O      1.92738314     3.35244915     0.09928684
O      3.85517266     4.48038760     3.20839289
O      1.89506020     5.61175064     6.36551735
O      1.92862022     5.59252216     1.67404250
O      1.93762627     3.35407996     4.83997930
O      3.77258626     4.52776330     7.95137099
O      5.81155478     3.35101064     0.10766953
O      7.74361931     4.46916846     3.24526415
O      5.80422344     5.58106101     6.40338798
O      5.80528807     5.59217007     1.68114259
O      5.78362318     3.36690140     4.80288960
O      7.93424704     4.45139387     8.13911695
O     -3.87155109     6.71022987     0.10512724
O     -1.94694612     7.83025723     3.24439509
O     -3.84256850     8.92436047     6.41047229
O     -3.87509971     8.94378428     1.69355631
O      7.73760139     6.70015690     4.86879496
O     -1.92202272     7.81547707     7.99277706
O     -0.01209783     6.71325780     0.10434852
O      1.93373851     7.83515444     3.23846472
O      0.01586194     8.92831567     6.40256399
O     -0.00628994     8.94736548     1.70514550
O     -0.01791969     6.71626051     4.83538561
O      1.95897343     7.80463869     8.01376520
O      3.86815347     6.71410280     0.09951587
O      5.81116892     7.83016933     3.22876104
O      3.89210452     8.91199909     6.39089820
O      3.86556896     8.94715423     1.69389986
O      3.87164741     6.70389913     4.83997659
O      5.83781611     7.80275438     7.98904888
