81
CIF: Ti-Mo-CeO2-Ov.cif | data_image0
Ce     1.93596140     1.11772783     0.89035214
Ce     0.01195706     2.24719049     4.05521587
Ce     0.01860662     0.01649785     7.22040151
Ce     5.80789581     1.11772783     0.89035214
Ce     3.84970619     2.21895437     4.00966596
Ce    -2.07643383     9.92102350     7.21952267
Ce     9.67981860     1.11772783     0.89035214
Ce     7.77868968     2.20920011     3.97691445
Ce     1.97741422     9.98504069     7.43346425
Ce     0.00000000     4.47091133     0.89035214
Ce    -1.95338260     5.59567215     4.07791566
Ce    -1.73212905     3.42720776     7.32082266
Ce     3.87193441     4.47091133     0.89035214
Ce     1.96526038     5.60031504     4.10670872
Ce     1.86885232     3.34139275     7.27413805
Ce     7.74385721     4.47091133     0.89035214
Ce     5.80583180     5.64982330     3.98095559
Ce    -1.93596721     7.82410489     0.89035214
Ce    -3.87994336     8.94596945     4.02348616
Ce    -3.83850429     6.76739105     7.28408984
Ce     1.93596721     7.82410489     0.89035214
Ce     0.01543128     8.98116668     4.08947270
Ce     0.04099055     6.74699002     7.27485828
Ce     5.80789000     7.82410489     0.89035214
Ce     3.85598005     8.96471941     4.09205992
Ce     3.86650728     6.83586672     7.33538049
Mo     5.35576407     3.65545933     6.79347975
O      0.00000000     0.00000000     0.09999685
O      1.86568381     1.07256718     3.23080322
O      0.05951697     2.23709558     6.44689320
O      0.00000000     2.23545567     1.68070743
O      0.00904097     0.00024004     4.91147421
O      1.97001324     0.96940516     8.04867470
O      3.87192279     0.00000000     0.09999685
O      5.80258805     1.02357810     3.22348755
O      4.09057129     2.31159093     6.66511362
O      3.87192279     2.23545567     1.68070743
O     -1.98526145    10.03121707     4.95367398
O      4.93867141     4.06291370     8.72608257
O      7.74385721     0.00000000     0.09999685
O      9.76589155     1.08274886     3.23542707
O      6.61385287     1.51100015     8.83794416
O      7.74385721     2.23545567     1.68070743
O      7.75596003     0.01355694     5.00213346
O      9.74387410     1.30508511     7.98471818
O     -1.93596140     3.35318350     0.09999685
O     -0.03780676     4.48862842     3.28644003
O     -1.97000720     5.63746141     6.50130249
O     -1.93596721     5.58864923     1.68070743
O      9.64705908     3.35252325     5.03923244
O     -0.03862242     4.54652875     8.14657175
O      1.93596140     3.35318350     0.09999685
O      3.90330307     4.55923698     3.25119837
O      1.98045336     5.60098002     6.51676949
O      1.93595559     5.58864923     1.68070743
O      1.91211137     3.38807234     4.87846889
O      5.80789581     3.35318350     0.09999685
O      7.75411449     4.56915838     3.22690572
O      5.76412782     5.46345645     6.50813060
O      5.80789000     5.58864923     1.68070743
O      5.90855154     3.37939478     4.97459767
O      8.01750167     4.31690644     8.49794834
O     -3.87192860     6.70637706     0.09999685
O     -1.94185678     7.81473038     3.27949562
O     -3.87806382     8.89757795     6.40270291
O     -3.87192860     8.94183273     1.68070743
O      7.69201720     6.69611543     4.93796646
O     -2.02841347     7.83960703     8.12416812
O     -0.00000581     6.70637706     0.09999685
O      1.92862499     7.84931171     3.28352001
O     -0.10126787     9.03648514     6.58324059
O     -0.00000581     8.94183273     1.68070743
O      0.01504494     6.74401138     4.95458044
O      3.87192860     6.70637706     0.09999685
O      5.81708475     7.84141721     3.23715094
O      3.95924034     8.96868602     6.53143892
O      3.87192860     8.94183273     1.68070743
O      3.90714440     6.75633840     4.87753272
O      6.01005931     7.82837370     8.10591209
O      1.81227102     7.78499599     8.19682317
Ti     6.59492336     3.26875823     9.01436208
