83
CIF: Cu-Fe-CeO2-Ov-O2.cif | data_image0
Ce     1.93038582     1.11050507     0.88387043
Ce     0.00007450     2.23962093     4.06114884
Ce    -5.76174899    10.03271170     7.17508350
Ce     5.81181033     1.12175166     0.90127712
Ce     3.83101654     2.22215315     4.00150184
Ce    -1.90533922    10.05599319     7.24408986
Ce     9.66901012     1.12377363     0.90450652
Ce     7.77571137     2.21651136     4.02158067
Ce     7.72396386     0.01378733     7.26698982
Ce    -0.00709724     4.47602159     0.89067279
Ce    -1.94520357     5.57935722     4.06602401
Ce     9.65714625     3.36233760     7.26673312
Ce     3.86254305     4.47635356     0.87798423
Ce     1.94343641     5.58351959     4.08213317
Ce     1.88584686     3.31070268     7.24696996
Ce     7.74213807     4.46545905     0.90125422
Ce     5.79838021     5.62973699     4.00154806
Ce    -1.94645625     7.83004003     0.90010904
Ce    -3.86516163     8.93742505     4.06060330
Ce    -3.85385762     6.68095611     7.24395657
Ce     1.92815559     7.82745473     0.89060408
Ce     0.00321655     8.95363848     4.06570030
Ce     0.00698064     6.70144244     7.24782700
Ce     5.81127600     7.83258510     0.88371011
Ce     3.86804191     8.93884722     4.06105487
Ce     3.88355179     6.77004356     7.24682947
Fe     5.78518884     3.36575900     6.40547484
Cu     6.56854507     2.91346381     8.65008169
O     11.61334069     0.00154917     0.10141687
O      1.92237092     1.10369754     3.21746847
O     -0.00125694     2.18547245     6.44202549
O     -0.00785227     2.23805103     1.69392277
O     -5.79093808    10.04961338     4.86055742
O      2.02600872     1.00746306     7.97792593
O     -1.93899312    10.05733740     0.10496691
O      5.80436545     1.06645893     3.22851553
O      4.13931492     2.38700955     6.43771569
O      3.86763657     2.23577757     1.68132582
O      3.84936074     0.05828601     4.88839388
O      6.02064571     1.06215534     8.33599854
O      7.73821774     0.00761509     0.10924988
O      9.69611438     1.10778670     3.23897209
O      7.49694328     2.37694423     6.32626327
O      7.74357843     2.23531483     1.71563532
O      7.76788855     0.00847113     4.88126185
O      9.59452688     1.16635540     7.96761961
O      9.67032270     3.35425987     0.10911246
O     -0.00061210     4.48105893     3.25923444
O     -2.02085740     5.58010211     6.42113535
O     -1.94403436     5.59119430     1.70564938
O      9.68362786     3.32741822     4.88107339
O     -0.08600653     4.52494046     8.01320569
O      1.92738314     3.35244915     0.09928684
O      3.81532907     4.50314941     3.21339319
O      2.00100609     5.55063116     6.46278238
O      1.92862022     5.59252216     1.67404250
O      1.94152739     3.30879417     4.84898971
O      5.81155478     3.35101064     0.10766953
O      7.78576632     4.49884782     3.22844510
O      5.80965969     5.28046408     6.43679962
O      5.80528807     5.59217007     1.68114259
O      5.78898254     3.36315028     4.50156932
O      7.89767812     4.31344126     8.33538316
O     -3.87155109     6.71022987     0.10512724
O     -1.93789017     7.82514078     3.27923745
O     -3.82977573     8.91699991     6.38556057
O     -3.87509971     8.94378428     1.69355631
O      7.68196470     6.69606897     4.88831043
O     -1.93316343     7.82187987     8.00551781
O     -0.01209783     6.71325780     0.10434852
O      1.92650261     7.81861096     3.25889345
O     -0.03542126     9.01913618     6.42116225
O     -0.00628994     8.94736548     1.70514550
O      0.00534991     6.70258434     4.92043347
O      1.84543870     7.87019696     8.01248357
O      3.86815347     6.71410280     0.09951587
O      5.81245633     7.84197857     3.21767647
O      3.91452217     8.96742241     6.44185898
O      3.86556896     8.94715423     1.69389986
O      3.91285565     6.72309737     4.84839822
O      5.94857746     7.80003566     7.97750997
O      3.90833289     4.44916265     8.52570354
O      4.86109871     3.90097910     9.30514072
