86
CIF: 2-NH2+H+NO-NH2NO+H_fs.cif | data_image0
Ce     0.05572983     0.05924611     8.81602770
Ce     2.01632517     1.18161667     5.66353969
Ce     0.08654268     2.30545522     2.51258478
Ce     3.95573209     0.06632544     8.83539308
Ce     5.89669010     1.17274801     5.67218789
Ce     3.95958151     2.30377720     2.53142307
Ce     7.84280655     0.06617083     8.80484062
Ce     9.77205705     1.17257786     5.63342818
Ce     7.82572760     2.30570679     2.53546751
Ce    -1.84375034     3.31794264     8.79880774
Ce     0.09915757     4.53573901     5.69444450
Ce    -1.84758319     5.64210643     2.51926932
Ce     2.03182414     3.28825332     8.90237258
Ce     3.94798870     4.53909975     5.71870994
Ce     2.02084756     5.64576295     2.52074975
Ce     5.90821118     3.40418367     8.83457529
Ce     7.84040827     4.54388815     5.68058823
Ce     5.88976442     5.63851582     2.51494274
Ce    -3.86939365     6.81464158     8.82151686
Ce    -1.86598126     7.88922487     5.63638331
Ce    -3.77920010     9.00344841     2.49178575
Ce     0.04071572     6.89987814     8.75785344
Ce     2.03331244     7.87879863     5.65750107
Ce     0.08816295     9.00785023     2.51378858
Ce     4.03949331     6.81301561     8.87452361
Ce     5.88416885     7.88453957     5.63184390
Ce     3.94952450     9.00937450     2.49644796
O      0.07558351     0.06403920     6.44593284
O     -0.07144742     2.19661407     9.64593944
O      2.03580882     1.18594976     3.30420223
O      0.08588659     2.28696950     4.83588261
O      0.08171012     0.07740159     1.73640219
O      2.01671745     1.10656188     8.02973600
O      3.96202937     0.02972360     6.48709411
O      4.09360212     2.16781830     9.67057138
O      5.89840037     1.19979032     3.32240427
O      3.97004955     2.29137918     4.88855424
O      3.96873846     0.05940370     1.74252426
O      5.92910906     1.16721300     7.99112320
O      7.83511940     0.02086072     6.46066977
O      7.84718419     2.28721333     9.61167551
O      9.74665553     1.19273956     3.30893978
O      7.82742753     2.29874890     4.88041268
O      7.82502382     0.06148838     1.74159761
O      9.73087400     1.18114102     7.95121210
O     -1.80292251     3.40981594     6.47207854
O     -1.88448932     5.69265177    10.00338366
O      0.08950142     4.53443249     3.34230855
O     -1.85701236     5.65247177     4.86673112
O     -1.84332622     3.43103668     1.74458584
O      0.03971497     4.66311183     8.14315287
O      1.98616945     3.40433040     6.45119381
O      3.94516656     4.52073976     3.33860342
O      2.01800653     5.65269731     4.87879242
O      2.01633978     3.42065129     1.74508232
O      3.95540362     4.52126815     8.09107252
O      5.91627268     3.44186312     6.51684333
O      6.04405646     5.60902171     9.67133716
O      7.83370007     4.51457034     3.33458553
O      5.89922047     5.64037112     4.85044828
O      5.88799099     3.43220586     1.75029663
O      7.95213984     4.56866954     8.04259745
O     -3.80879099     6.77978126     6.45792844
O     -3.79112930     8.96851468     9.66249849
O     -1.84706607     7.88009914     3.30845606
O     -3.78481348     9.00798296     4.82961430
O     -3.77849747     6.75415940     1.74170501
O     -1.87594697     7.81200838     8.04276109
O      0.07055983     6.80177280     6.44158762
O      0.04902920     9.01691057     9.62705107
O      2.02069114     7.88325160     3.31564369
O      0.07721056     9.01627676     4.83850608
O      0.09297908     6.76102421     1.74606754
O      1.97275209     7.84505104     8.05570510
O      3.96862587     6.78310314     6.42941860
O      3.94584163     9.16112706     9.64710014
O      5.89472927     7.88682143     3.28648200
O      3.96050623     9.00958357     4.81996948
O      3.95105779     6.75236076     1.74277020
O      5.92384028     7.92250419     8.00751192
O      1.90774041     6.02387576    10.22476910
N      0.99811246     5.26383079    12.11300753
N      1.73866421     4.93405252    10.99947089
H     -1.79060309     5.67668320    10.97367838
H      1.22858724     6.19727606    12.47372343
H      1.08694736     4.53009765    12.81592315
