86
CIF: 4-NHNO+2H-N2+OH+2H_ts.cif | data_image0
Ce    11.60361171     0.01608796     8.79398763
Ce     1.92937543     1.12978538     5.61328235
Ce     0.00000000     2.23543938     2.47426506
Ce     3.79376942     0.05301937     8.77040234
Ce     5.81381801     1.10680752     5.62591935
Ce     3.87189458     2.23543938     2.47426506
Ce     7.83841159     0.04004227     8.74458892
Ce     9.69345578     1.11405335     5.57723963
Ce     7.74390532     2.23543938     2.47426506
Ce     9.70161493     3.26113073     8.74649843
Ce     0.01410851     4.47950142     5.64298071
Ce    -1.93600537     5.58869904     2.47426506
Ce     1.94186970     3.29385635     8.86877493
Ce     3.86449895     4.47695726     5.66446508
Ce     1.93588921     5.58869904     2.47426506
Ce     5.83025247     3.34599483     8.78112465
Ce     7.76052219     4.47545884     5.62578348
Ce     5.80789995     5.58869904     2.47426506
Ce     7.67067708     6.75739491     8.76783347
Ce    -1.93119925     7.82370845     5.62540390
Ce    -3.87195266     8.94185811     2.47426506
Ce    -0.02081459     6.73063211     8.82337638
Ce     1.93717820     7.81502131     5.63976757
Ce    -0.00005808     8.94185811     2.47426506
Ce     3.94349632     6.74977205     8.84187846
Ce     5.80083901     7.82962927     5.60881072
Ce     3.87195266     8.94185811     2.47426506
O     -0.00070871     0.00707353     6.40732113
O     -0.14119319     2.14658730     9.64158049
O      1.93594729     1.11771969     3.26466483
O      0.00607975     2.23751433     4.79854513
O      0.00000000     0.00000000     1.68386529
O      1.92332921     1.08517989     7.98891276
O     -1.95275772    10.05527646     6.43818860
O      3.99981334     2.13046203     9.62932416
O      5.80795803     1.11771969     3.26466483
O      3.88568568     2.23850441     4.83340617
O      3.87189458     0.00000000     1.68386529
O      5.83332104     1.01057851     7.97994586
O      1.96453809    10.05122154     6.40704875
O      7.76830349     2.22675540     9.55286520
O      9.67985261     1.11771969     3.26466483
O      7.74049148     2.24048817     4.81363110
O      7.74390532     0.00000000     1.68386529
O      9.68074610     1.12455890     7.91169850
O     -1.90674685     3.34028092     6.40950558
O     -2.03178848     5.55478300    10.00556591
O      0.00000000     4.47087876     3.26466483
O     -1.94325449     5.59169290     4.82150206
O      9.67985261     3.35315907     1.68386529
O     -0.06347587     4.50149337     8.07987409
O      1.91689008     3.35863619     6.41703984
O      3.87201074     4.47087876     3.26466483
O      1.94145657     5.58787648     4.82264182
O      1.93594729     3.35315907     1.68386529
O      3.90381039     4.45700263     8.02514020
O      5.84389057     3.33788176     6.47959880
O      5.97430017     5.54443848     9.62306343
O      7.74390532     4.47087876     3.26466483
O      5.81525516     5.57727609     4.83192523
O      5.80795803     3.35315907     1.68386529
O      7.86143381     4.51077983     7.98388261
O     -3.87118662     6.72451956     6.43539418
O     -3.88189162     8.95673673     9.63191569
O     -1.93600537     7.82413842     3.26466483
O     -3.86717995     8.94129878     4.81015587
O      7.74384724     6.70641873     1.68386529
O     -1.93767302     7.82950548     8.05603702
O     -0.00092694     6.71022946     6.39415610
O     -0.02192025     9.07539973     9.98716411
O      1.93600537     7.82413842     3.26466483
O     -0.00547084     8.95077915     4.82207497
O     -0.00005808     6.70641873     1.68386529
O      1.88289337     7.88048228     8.06931393
O      3.86408728     6.72736908     6.40888631
O      3.88559823     9.11909038     9.63717189
O      5.80789995     7.82413842     3.26466483
O      3.87574625     8.94113556     4.79803308
O      3.87195266     6.70641873     1.68386529
O      5.85054890     7.86871087     7.97964595
O      2.11601136     5.56219700    10.28370015
H     -2.10306985     5.51532555    10.97999032
H      2.62452808     5.56986733    11.68849583
H     -0.00629392     9.09798263    10.96676937
N      1.93091567     6.24997503    12.43484648
N      1.21051071     6.51178302    11.55004066
