83
CIF: 1-CO+Olat — CO2.cif | data_VESTA_phase_1
O      0.55978923     0.45000431     0.59999690
O      2.47055199     1.52175792     3.72233476
O      0.98036147     2.90364064     7.12633175
O      0.55978923     2.65902057     2.16203261
O      0.54478683     0.54525583     5.44675559
O      2.48345956     0.97759557     8.82534213
O      4.38603242     0.45000431     0.59999690
O      6.31544774     1.54301108     3.74776802
O      4.05616902     2.83104391     6.99971288
O      4.38603242     2.65902057     2.16203261
O      4.39059512     0.50896244     5.42291903
O      6.23449562     1.60954400     8.50152993
O      8.21216082     0.45000431     0.59999690
O     10.10726691     1.54549625     3.74546420
O      8.21077192     2.66488557     6.95735453
O      8.21216082     2.65902057     2.16203261
O      8.20533685     0.44754896     5.41534608
O     10.19633433     1.59797306     8.50241953
O     -1.35327498     3.76352870     0.59999690
O      0.52913589     4.88411090     3.72201542
O     -1.42602571     5.99564709     6.85112789
O     -1.35333237     5.97264438     2.16203261
O     -1.27641494     3.70501791     5.44755394
O      0.06297679     5.16929886     8.82600362
O      2.47296821     3.76352870     0.59999690
O      4.40815723     4.88204324     3.72774076
O      2.45327111     5.60295076     7.00080777
O      2.47291082     5.97264438     2.16203261
O      2.46642547     3.76084472     5.18820309
O      4.59358665     4.99291157     8.76966267
O      6.29909662     3.76352870     0.59999690
O      8.21288397     4.83034181     3.77475237
O      6.29113054     5.96890668     6.90758289
O      6.29903923     5.97264438     2.16203261
O      6.24636439     3.71424285     5.42716171
O      8.18017024     4.87604902     8.57538904
O     -3.26639657     7.07715251     0.59999690
O     -1.33977626     8.18889745     3.77450146
O     -3.28349954     9.21586834     6.85078573
O     -3.26639657     9.28616877     2.16203261
O     -3.30004005     7.05955752     5.32273707
O     -1.40053770     8.15777320     8.57297117
O      0.55984662     7.07715251     0.59999690
O      2.46977145     8.20131335     3.74728901
O      0.54587155     9.28003538     6.97564823
O      0.55984662     9.28616877     2.16203261
O      0.61250424     7.05288733     5.42405954
O      2.48701216     8.10409357     8.50278449
O      4.38597502     7.07715251     0.59999690
O      6.26557366     8.20071691     3.77443303
O      4.38839699     9.28704355     6.95801602
O      4.38597502     9.28616877     2.16203261
O      4.31581269     7.05972651     5.42898652
O      6.28833553     8.15304144     8.57445383
O      2.88571786     3.99125957    10.32681703
Ce     2.47285343     1.55451244     1.38101475
Ce     0.55434842     2.65661493     4.53154591
Ce     0.62506172     0.42241894     7.85144206
Ce     6.29909662     1.55451244     1.38101475
Ce     4.39008433     2.64359265     4.52255873
Ce     4.31320133     0.39942617     7.83027428
Ce    10.12522502     1.55451244     1.38101475
Ce     8.21706214     2.65581968     4.59292789
Ce     8.21420973     0.45365253     7.73595451
Ce     0.55978923     4.86803684     1.38101475
Ce    -1.35575433     5.96526840     4.56265888
Ce    -1.34650266     3.83804399     7.85141925
Ce     4.38603242     4.86803684     1.38101475
Ce     2.46022134     5.98543802     4.52260435
Ce     8.21216082     4.86803684     1.38101475
Ce     6.28364656     5.96477136     4.56603478
Ce     6.30691348     3.78225693     7.79731369
Ce    -1.35333237     8.18166064     1.38101475
Ce    -3.27453483     9.28851477     4.56268169
Ce    -3.28994471     7.06577044     7.74101836
Ce     2.47291082     8.18166064     1.38101475
Ce     0.54969963     9.28123820     4.59872165
Ce     0.47747690     7.04325481     7.83061643
Ce     6.29903923     8.18166064     1.38101475
Ce     4.38456317     9.29300796     4.59331566
Ce     4.40345104     7.07861379     7.79788394
Cr     2.52885703     3.79865904     7.19138616
C      3.04260026     4.09103410     9.17424543
