84
CIF: 2-CO+Olat — CO2.cif | data_VESTA_phase_1
O      0.55978923     0.45000431     0.59999690
O      2.47257221     1.53330899     3.70903647
O      1.06146855     2.97708233     7.22551007
O      0.55978923     2.65902057     2.16203261
O      0.57463667     0.58602253     5.45533219
O      2.51454334     0.99656237     8.81692520
O      4.38603242     0.45000431     0.59999690
O      6.31606758     1.55100338     3.73419601
O      4.07151004     2.87117441     6.96041108
O      4.38603242     2.65902057     2.16203261
O      4.37378486     0.53984811     5.39997207
O      6.25730340     1.63256660     8.47584576
O      8.21216082     0.45000431     0.59999690
O     10.11869950     1.55082445     3.74117591
O      8.24004210     2.69027405     6.94309821
O      8.21216082     2.65902057     2.16203261
O      8.20310429     0.46046190     5.40225308
O     10.21891828     1.61277472     8.51261564
O     -1.35327498     3.76352870     0.59999690
O      0.53582786     4.89518481     3.72092054
O     -1.38469163     5.99445421     6.90026084
O     -1.35333237     5.97264438     2.16203261
O     -1.24680615     3.70834803     5.45300556
O      0.00297293     5.08727837     9.02237578
O      2.47296821     3.76352870     0.59999690
O      4.41526816     4.88129769     3.72612124
O      2.42531522     5.58335770     7.03242257
O      2.47291082     5.97264438     2.16203261
O      2.46953040     3.77536805     5.20870937
O      6.29909662     3.76352870     0.59999690
O      8.21936932     4.83737980     3.78191475
O      6.27703494     5.89023620     6.98208068
O      6.29903923     5.97264438     2.16203261
O      6.26505713     3.70091241     5.41892726
O      8.18262090     4.85013369     8.61108685
O     -3.26639657     7.07715251     0.59999690
O     -1.34886149     8.18421539     3.78773132
O     -3.26357286     9.22203155     6.83995094
O     -3.26639657     9.28616877     2.16203261
O     -3.30748386     7.03610747     5.36801512
O     -1.40615642     8.18374818     8.58191273
O      0.55984662     7.07715251     0.59999690
O      2.47055199     8.21012079     3.74233922
O      0.49330576     9.31622937     6.93591303
O      0.55984662     9.28616877     2.16203261
O      0.62911937     7.06597919     5.42597559
O      2.38667859     8.28052063     8.50171241
O      4.38597502     7.07715251     0.59999690
O      6.28203957     8.20504110     3.79021762
O      4.41825257     9.34539530     6.94031538
O      4.38597502     9.28616877     2.16203261
O      4.32366399     7.06296717     5.40549211
O      6.39885626     8.20378858     8.60994634
O      3.10135296     4.04181783     8.98936956
O      4.34588636     4.71084498     8.92821568
O      0.81788904     5.68212822    11.26650195
Ce     2.47285343     1.55451244     1.38101475
Ce     0.57051589     2.67251007     4.51991275
Ce     0.65275360     0.42300544     7.86337174
Ce     6.29909662     1.55451244     1.38101475
Ce     4.38540684     2.65565068     4.50269113
Ce     4.30966596     0.41294548     7.81663384
Ce    10.12522502     1.55451244     1.38101475
Ce     8.23125531     2.65688333     4.56733495
Ce     8.22769697     0.45981575     7.72945363
Ce     0.55978923     4.86803684     1.38101475
Ce    -1.34462019     5.96749511     4.59160490
Ce    -1.35892814     3.81031945     7.86964452
Ce     4.38603242     4.86803684     1.38101475
Ce     2.46990346     5.99803285     4.51827043
Ce     8.21216082     4.86803684     1.38101475
Ce     6.27991031     5.96668991     4.59443335
Ce     6.37557787     3.74008860     7.76373722
Ce    -1.35333237     8.18166064     1.38101475
Ce    -3.27217026     9.29601004     4.56566982
Ce    -3.28797041     7.06515412     7.76188960
Ce     2.47291082     8.18166064     1.38101475
Ce     0.54777124     9.29030409     4.58991695
Ce     0.47250671     7.14381466     7.87429778
Ce     6.29903923     8.18166064     1.38101475
Ce     4.39255794     9.29596034     4.60223441
Ce     4.38580859     7.14758217     7.86147850
Cr     2.59666627     3.84226877     7.27293227
C      0.68605847     6.11148575    10.17893914
