82
CIF: Cr-CeO2-Ov+O2.cif | data_image0
O      0.55978923     0.45000431     0.59999690
O      2.47271546     1.53025476     3.70853097
O      1.08150855     2.94901272     7.21476628
O      0.55978923     2.65902057     2.16203261
O      0.57209149     0.57255074     5.45600644
O      2.52324009     0.98154653     8.83205475
O      4.38603242     0.45000431     0.59999690
O      6.31950595     1.54507566     3.73621129
O      4.08198323     2.85331586     6.96386845
O      4.38603242     2.65902057     2.16203261
O      4.38026580     0.52834153     5.40187868
O      6.26471602     1.61195335     8.49136634
O      8.21216082     0.45000431     0.59999690
O     10.11969295     1.54982909     3.74397513
O      8.23982322     2.67181029     6.94445483
O      8.21216082     2.65902057     2.16203261
O      8.20260133     0.45157228     5.40071196
O     10.24274910     1.63749152     8.51444090
O     -1.35327498     3.76352871     0.59999690
O      0.53803765     4.88994810     3.71815508
O     -1.43104507     6.00687890     6.85984084
O     -1.35333237     5.97264438     2.16203261
O     -1.23837677     3.70682352     5.46197163
O      0.07152377     5.20245038     8.84338147
O      2.47296821     3.76352871     0.59999690
O      4.41688975     4.87790008     3.72818183
O      2.47690364     5.56797879     7.00897213
O      2.47291082     5.97264438     2.16203261
O      2.47470621     3.76326366     5.20361464
O      6.29909662     3.76352871     0.59999690
O      8.22443366     4.83278328     3.78258937
O      6.27920090     5.88171997     6.99076492
O      6.29903923     5.97264438     2.16203261
O      6.26911479     3.69739842     5.41868992
O      8.20291720     4.84460670     8.61133241
O     -3.26639657     7.07715251     0.59999690
O     -1.34304608     8.17802024     3.78694978
O     -3.25739463     9.22191903     6.84257426
O     -3.26639657     9.28616878     2.16203261
O     -3.32818607     7.04976529     5.35071955
O     -1.40067856     8.16799942     8.59268182
O      0.55984662     7.07715251     0.59999690
O      2.46993553     8.20081859     3.74497948
O      0.50439542     9.30051323     6.93269482
O      0.55984662     9.28616878     2.16203261
O      0.63327053     7.04177896     5.43695729
O      2.35403589     8.23596699     8.54783946
O      4.38597502     7.07715251     0.59999690
O      6.27423132     8.20851175     3.77928338
O      4.39482673     9.34372584     6.95583030
O      4.38597502     9.28616878     2.16203261
O      4.33350005     7.06545008     5.40336710
O      6.39320687     8.20833937     8.61022898
O      3.10384582     4.03750877     8.98521254
O      4.35540687     4.69381339     8.93994341
Ce     2.47285343     1.55451244     1.38101475
Ce     0.57302376     2.66659820     4.52167984
Ce     0.65426405     0.43142336     7.86436340
Ce     6.29909662     1.55451244     1.38101475
Ce     4.39152212     2.64622534     4.50442875
Ce     4.31632042     0.39377249     7.82316097
Ce    10.12522502     1.55451244     1.38101475
Ce     8.23330292     2.65261034     4.57652239
Ce     8.21959960     0.44765712     7.73275452
Ce     0.55978923     4.86803684     1.38101475
Ce    -1.35009664     5.96303440     4.57524420
Ce    -1.30978802     3.85222719     7.87713712
Ce     4.38603242     4.86803684     1.38101475
Ce     2.47494502     5.98730105     4.51697740
Ce     8.21216082     4.86803684     1.38101475
Ce     6.27877166     5.96642904     4.59345631
Ce     6.39584578     3.72926446     7.76331962
Ce    -1.35333237     8.18166064     1.38101475
Ce    -3.27448818     9.29343268     4.56467295
Ce    -3.29813589     7.06911791     7.75863419
Ce     2.47291082     8.18166064     1.38101475
Ce     0.55019956     9.28256498     4.59093576
Ce     0.45841454     7.08599612     7.84806437
Ce     6.29903923     8.18166064     1.38101475
Ce     4.39176867     9.29362772     4.60283193
Ce     4.37890513     7.14003685     7.86099009
Cr     2.61251034     3.82666605     7.26599407
