81
CIF: O2 — 2Olat.cif | data_VESTA_phase_1
O      0.55978923     0.45000431     0.59999690
O      2.46987476     1.52038611     3.69571537
O      1.04593240     3.12061570     7.41353374
O      0.55978923     2.65902057     2.16203261
O      0.59036221     0.62417483     5.48471160
O      2.46004342     1.00966418     8.82347170
O      4.38603242     0.45000431     0.59999690
O      6.30406107     1.54694759     3.73526809
O      3.97121665     2.90011170     7.03474920
O      4.38603242     2.65902057     2.16203261
O      4.35685981     0.55608123     5.42846189
O      6.18969504     1.63258648     8.51927619
O      8.21216082     0.45000431     0.59999690
O     10.11697772     1.53639059     3.73015863
O      8.18244299     2.64285704     6.94515112
O      8.21216082     2.65902057     2.16203261
O      8.21686701     0.44394050     5.38655973
O     10.18590612     1.44604976     8.56724583
O     -1.35327498     3.76352870     0.59999690
O      0.51971778     4.89593036     3.71056475
O     -1.32391871     5.94020796     7.02437060
O     -1.35333237     5.97264438     2.16203261
O     -1.27138162     3.68548448     5.42098017
O      2.47296821     3.76352870     0.59999690
O      4.41122772     4.87177453     3.71879920
O      2.42306544     5.54844605     7.09261843
O      2.47291082     5.97264438     2.16203261
O      2.42945896     3.76286268     5.19436182
O      6.29909662     3.76352870     0.59999690
O      8.20960112     4.82733972     3.79740280
O      6.31411050     5.90769202     6.95201696
O      6.29903923     5.97264438     2.16203261
O      6.21618741     3.68756208     5.43890891
O      8.11517898     4.85742020     8.68385107
O     -3.26639657     7.07715251     0.59999690
O     -1.34712250     8.19026926     3.79676412
O     -3.27388629     9.19235865     6.85441254
O     -3.26639657     9.28616877     2.16203261
O     -3.25389648     7.01550046     5.38430153
O     -1.44826530     8.22584693     8.65732292
O      0.55984662     7.07715251     0.59999690
O      2.47536722     8.20189985     3.73579272
O      0.51485664     9.35055451     6.92562568
O      0.55984662     9.28616877     2.16203261
O      0.63000321     7.06512429     5.39552410
O      2.47356510     8.33182444     8.61662970
O      4.38597502     7.07715251     0.59999690
O      6.28925955     8.19861943     3.81555964
O      4.43821368     9.29133792     6.90224532
O      4.38597502     9.28616877     2.16203261
O      4.30130387     7.01743889     5.40797842
O      6.40464143     8.17020899     8.65830376
O      2.95693047     4.03889528     9.08820573
O      4.55803774     4.84336409     8.97470267
Ce     2.47285343     1.55451244     1.38101475
Ce     0.56494881     2.66753973     4.47643670
Ce     0.62266271     0.34082590     7.87901947
Ce     6.29909662     1.55451244     1.38101475
Ce     4.35791583     2.66072043     4.50734439
Ce     4.28088936     0.40523152     7.85655152
Ce    10.12522502     1.55451244     1.38101475
Ce     8.20913050     2.64241965     4.56888604
Ce     8.24284859     0.43373143     7.75240060
Ce     0.55978923     4.86803684     1.38101475
Ce    -1.34269754     5.95561600     4.62447426
Ce    -1.46058747     3.69726418     7.83198504
Ce     4.38603242     4.86803684     1.38101475
Ce     2.46986902     5.97369809     4.49867655
Ce     8.21216082     4.86803684     1.38101475
Ce     6.28236671     5.95096377     4.61108473
Ce     6.33077728     3.75448269     7.82833542
Ce    -1.35333237     8.18166064     1.38101475
Ce    -3.26451410     9.29243140     4.58077010
Ce    -3.26064584     7.03613729     7.79042503
Ce     2.47291082     8.18166064     1.38101475
Ce     0.55145010     9.29743155     4.57472543
Ce     0.52585878     7.25053772     7.80249158
Ce     6.29903923     8.18166064     1.38101475
Ce     4.38975145     9.28197381     4.59997621
Ce     4.41822961     7.11458908     7.89195279
Cr     2.58069394     3.86456570     7.47366116
