85
CIF: 1-NH3-NH2+H_ts.cif | data_image0
Ce     5.80757532    10.05830522     8.75074551
Ce     1.94648744     1.12318282     5.64383041
Ce     0.00000000     2.23543938     2.47426506
Ce     3.92750753     0.04072284     8.82132209
Ce     5.81650165     1.12058605     5.61023884
Ce     3.87189458     2.23543938     2.47426506
Ce     7.68200936     0.02006193     8.83090718
Ce     9.68104751     1.11441674     5.64065014
Ce     7.74390532     2.23543938     2.47426506
Ce     9.65635709     3.33625141     8.81778384
Ce     0.01571382     4.43942279     5.61195694
Ce    -1.93600537     5.58869904     2.47426506
Ce     1.99989019     3.37948622     8.82127606
Ce     3.87920292     4.47620551     5.61024998
Ce     1.93588921     5.58869904     2.47426506
Ce     5.82515947     3.36222742     8.74983359
Ce     7.76244637     4.48116651     5.62031169
Ce     5.80789995     5.58869904     2.47426506
Ce     7.71808745     6.69286024     8.81789668
Ce    -1.95477264     7.85261869     5.61194589
Ce    -3.87195266     8.94185811     2.47426506
Ce     1.95758556     7.83616957     5.61980492
Ce    -0.00005808     8.94185811     2.47426506
Ce     3.85918358     6.64141307     8.83082129
Ce     5.80604794     7.82630160     5.64061687
Ce     3.87195266     8.94185811     2.47426506
Cu    -0.03495051     6.68512361     8.10352647
O      0.00425019     0.00187564     6.44640500
O     -0.02241106     2.28446045     9.52081315
O      1.93594729     1.11771969     3.26466483
O      0.00097326     2.22098187     4.81610092
O      0.00000000     0.00000000     1.68386529
O      1.93672812     1.11700964     8.00272054
O     -1.94756749    10.04064912     6.44109671
O      3.91394687     2.25911810     9.55007870
O      5.80795803     1.11771969     3.26466483
O      3.87151238     2.23473016     4.82225669
O      3.87189458     0.00000000     1.68386529
O      5.81695211     1.16799750     7.89031872
O      1.95211390    10.01279752     6.45536545
O      7.74636591     2.25435293     9.55551014
O      9.67985261     1.11771969     3.26466483
O      7.77283696     2.23137499     4.82996153
O      7.74390532     0.00000000     1.68386529
O      9.67998360     1.10988595     7.98696679
O     -1.87573858     3.36319806     6.46956800
O     -2.28321010     5.38696835     9.86190751
O      0.00000000     4.47087876     3.26466483
O     -1.94979262     5.58018283     4.80842817
O      9.67985261     3.35315907     1.68386529
O      0.06792396     4.69868383     8.02907516
O      1.91486038     3.35150052     6.44121300
O      2.39947264     5.30961861     9.84293284
O      3.87201074     4.47087876     3.26466483
O      1.95160981     5.58058317     4.80738434
O      1.93594729     3.35315907     1.68386529
O      3.92089345     4.45287171     7.89032401
O      5.83886558     3.37053778     6.38513862
O      5.82683931     5.57970587     9.55559548
O      7.74390532     4.47087876     3.26466483
O      5.81922135     5.61555279     4.82988713
O      5.80795803     3.35315907     1.68386529
O      7.75534878     4.47651401     7.93564263
O     -3.83259501     6.75309256     6.46980050
O     -3.84064742     8.89581748     9.52096639
O     -1.93600537     7.82413842     3.26466483
O     -3.88355832     8.94927468     4.81593236
O      7.74384724     6.70641873     1.68386529
O     -1.70337183     7.76839021     8.02935741
O     -0.01129545     6.69917117     6.25500578
O     -0.00903448     9.48202378     9.84326471
O      1.93600537     7.82413842     3.26466483
O      0.00126525     8.95891593     4.80737526
O     -0.00005808     6.70641873     1.68386529
O      1.70731432     7.69151110     8.03372554
O      3.84024073     6.74318203     6.45516132
O      3.79255631     8.89487332     9.50540646
O      5.80789995     7.82413842     3.26466483
O      3.88534237     8.94949090     4.81711196
O      3.87195266     6.70641873     1.68386529
O      5.80169837     7.82674426     7.98686459
N     -0.12302831     6.63409549     9.95804469
H     -0.11950627     7.64432195    10.23472425
H      0.75325050     6.13246749    10.23472534
H     -1.20549110     6.00934584    10.03979950
