90
CIF: CH2CHCH2→CH2CCH2+H.cif | data_image0
O      0.00260992     0.00383004     0.19994992
O      1.92020367     1.02292534     3.32422017
O      0.30068893     2.35743623     6.54784381
O      0.00261004     2.21286003     1.76197005
O     11.44124915     0.05206292     4.99060216
O      1.85667928     1.36092147     8.42799331
O      3.82876002     0.00383004     0.19994992
O      5.75617363     1.10329878     3.33816576
O      3.58921013     2.45055378     6.59846811
O      3.82876002     2.21286003     1.76197005
O      3.84803399     0.03915928     5.00081656
O      5.82365040     1.21387734     8.17603418
O      7.65492998     0.00383004     0.19994992
O      9.55626524     1.10164808     3.31640035
O      7.69049005     2.20298129     6.51867283
O      7.65492998     2.21286003     1.76197005
O      7.66571793     0.00972414     4.96900660
O      9.64872604     1.13355040     8.09783773
O     -1.91046008     3.31737005     0.19994992
O     -0.06879769     4.46376230     3.32151133
O     -1.88679060     5.42993350     6.55815709
O     -1.91046995     5.52640997     1.76197005
O     -1.87139898     3.25958591     5.00042574
O      0.11631874     4.25866359     8.39354368
O      1.91569002     3.31737005     0.19994992
O      3.91251150     4.46349221     3.33500429
O      1.98298304     5.19771522     6.56845439
O      1.91568004     5.52640997     1.76197005
O      1.92008179     3.31563542     4.56243906
O      3.58804394     4.32331786     8.49778148
O      5.74185000     3.31737005     0.19994992
O      7.65680449     4.42804688     3.37327764
O      5.64116286     5.46031379     6.62328325
O      5.74184001     5.52640997     1.76197005
O      5.74655484     3.27442310     5.01681549
O      7.65381451     4.37874686     8.16578431
O     -3.82354999     6.63093003     0.19994992
O     -1.92198533     7.73002996     3.37844386
O     -3.89814704     8.92446904     6.56925554
O     -3.82354993     8.83994997     1.76197005
O      7.63885208     6.62708334     5.05953865
O     -2.04122672     7.65603369     8.19632125
O      0.00260998     6.63093003     0.19994992
O      1.91702363     7.74796583     3.33595764
O      0.06977602     8.87042308     6.56627779
O      0.00261004     8.83994997     1.76197005
O      0.03945035     6.62682267     4.99645283
O      2.04391506     7.72389124     8.16824049
O      3.82876995     6.63093003     0.19994992
O      5.74874397     7.72976195     3.36915805
O      3.82685450     8.85690808     6.50453595
O      3.82877001     8.83994997     1.76197005
O      3.79651421     6.64514283     5.00664544
O      5.69748444     7.75248376     8.15663249
Ce     1.91568997     1.10833996     0.98097002
Ce     0.04003959     2.23310463     4.12408864
Ce     5.71083868     9.93752047     7.29127080
Ce     5.74185005     1.10833996     0.98097002
Ce     3.80536365     2.22608855     4.15519110
Ce     3.85434560     0.02377164     7.38702127
Ce     9.56800004     1.10833996     0.98097002
Ce     7.66300733     2.20147098     4.13429950
Ce     7.66376049     0.00366657     7.31024291
Ce     0.00261004     4.42189001     0.98097002
Ce    -1.89851029     5.52369959     4.17722482
Ce    -1.88147718     3.30199421     7.31897167
Ce     3.82877001     4.42189001     0.98097002
Ce     1.91286675     5.49343557     4.14977045
Ce     7.65492998     4.42189001     0.98097002
Ce     5.73846515     5.52064053     4.17159445
Ce     5.79101292     3.27138938     7.33103578
Ce    -1.91046995     7.73543995     0.98097002
Ce    -3.81846776     8.84984217     4.17573523
Ce    -3.81610490     6.63033761     7.39331489
Ce     1.91569002     7.73543995     0.98097002
Ce     0.00442064     8.84024146     4.17234132
Ce     0.02727906     6.60869168     7.38786741
Ce     5.74184001     7.73543995     0.98097002
Ce     3.81871042     8.84598062     4.12296274
Ce     3.80386745     6.66978474     7.31378002
Rh     1.90839415     3.32079895     7.45399381
C      3.23207977     4.48762049     9.88145737
C      1.95276492     3.77313505    10.16775831
C      1.72545910     2.94997206    11.19687752
H      3.09857703     5.56749219    10.11748762
H      4.05894618     4.11917017    10.52549528
H      0.82779080     4.09089830     9.30673384
H      1.84144262     1.63842612     9.37060349
H      0.75551143     2.46592228    11.35085622
H      2.48933902     2.74860951    11.96457960
