83
CIF: CO+Olat — CO2.cif | data_image0
O      0.44818747     0.44330220     0.29999941
O      2.37020155     1.47035990     3.43263212
O      0.64251182     2.76079877     6.59520049
O      0.44818747     2.65231847     1.86203513
O      0.43114846     0.45997387     5.10469041
O      2.32977169     1.84548023     8.29228368
O      4.27443066     0.44330220     0.29999941
O      6.20143297     1.53804634     3.44512628
O      4.09673143     2.76577471     6.65588970
O      4.27443066     2.65231847     1.86203513
O      4.30242541     0.46482918     5.12127685
O      6.15825928     1.55217613     8.21329591
O      8.10055906     0.44330220     0.29999941
O     10.00238343     1.54174837     3.44052981
O      8.11995483     2.63185754     6.66199857
O      8.10055906     2.65231847     1.86203513
O      8.10155253     0.44250688     5.09154572
O     10.09034672     1.57422407     8.21518756
O     -1.46487674     3.75682660     0.29999941
O      0.38526200     4.90086934     3.42701608
O     -1.39935383     5.95382380     6.66307036
O     -1.46493413     5.96594227     1.86203513
O     -1.45240075     3.73844110     5.10570942
O      0.58989008     4.75924511     8.26074668
O      2.36136645     3.75682660     0.29999941
O      4.34903932     4.89980115     3.43502226
O      2.39689785     5.73933674     6.63522181
O      2.36130906     5.96594227     1.86203513
O      2.36977902     3.75675451     4.72873792
O      3.95047797     4.68746490     8.38999604
O      6.18749486     3.75682660     0.29999941
O      8.10255015     4.87201079     3.46930565
O      6.09671954     5.91036760     6.71571831
O      6.18743747     5.96594227     1.86203513
O      6.19567549     3.72831258     5.10900352
O      8.14403487     4.88619881     8.22629557
O     -3.37799833     7.07045040     0.29999941
O     -1.47020953     8.17246164     3.47596775
O     -3.37239778     9.37348796     6.69374466
O     -3.37799833     9.27946667     1.86203513
O     -3.39287128     7.07541045     5.15889125
O     -1.48044747     8.17778457     8.25115067
O      0.44824486     7.07045040     0.29999941
O      2.36474324     8.18900840     3.44075202
O      0.46545296     9.27217106     6.65778111
O      0.44824486     9.27946667     1.86203513
O      0.49313093     7.06563160     5.11398151
O      2.38083388     8.11342146     8.21669721
O      4.27437326     7.07045040     0.29999941
O      6.19567894     8.17116498     3.46558054
O      4.26521717     9.29246462     6.64674712
O      4.27437326     9.27946667     1.86203513
O      4.25662464     7.08665837     5.10894835
O      6.18442062     8.18267071     8.23585112
O      4.46255844     4.38063943    10.83460793
Ce     2.36125167     1.54781033     1.08101727
Ce     0.47640091     2.66917316     4.23516046
Ce     0.46165695     0.50413637     7.43841470
Ce     6.18749486     1.54781033     1.08101727
Ce     4.25799303     2.66865124     4.25636713
Ce     4.28142454     0.48104468     7.44148440
Ce    10.01362326     1.54781033     1.08101727
Ce     8.10497572     2.65027246     4.26261558
Ce     8.10594138     0.44025258     7.41763501
Ce     0.44818747     4.86133473     1.08101727
Ce    -1.45679046     5.96394380     4.27149167
Ce    -1.37877640     3.76617625     7.44742249
Ce     4.27443066     4.86133473     1.08101727
Ce     2.36720925     5.93497092     4.24874896
Ce     8.10055906     4.86133473     1.08101727
Ce     6.18628179     5.96029805     4.27627186
Ce     6.20616899     3.72901294     7.46713495
Ce    -1.46493413     8.17495854     1.08101727
Ce    -3.37856303     9.28717182     4.27339982
Ce    -3.36914939     7.07713615     7.49891450
Ce     2.36130906     8.17495854     1.08101727
Ce     0.45655198     9.27691951     4.26585199
Ce     0.49724305     6.99544071     7.44926007
Ce     6.18743747     8.17495854     1.08101727
Ce     4.27418626     9.28504284     4.24973317
Ce     4.24620188     7.07893094     7.42450956
Rh     2.34226007     3.70474761     7.52997861
C      4.96735589     4.32445268     9.78049865
