83
CIF: Rh-CeO2-Ov+CO2.cif | data_image0
O      0.44818377     0.44330429     0.29999845
O      2.37782560     1.52539689     3.43776507
O      0.13692764     2.47305747     6.45839859
O      0.44818377     2.65232056     1.86203416
O      0.47662684     0.36062626     5.02638643
O      2.30544670     1.75733036     8.04869923
O      4.27442696     0.44330429     0.29999845
O      6.17875010     1.53931571     3.44634706
O      4.25622543     2.93381712     6.75375989
O      4.27442696     2.65232056     1.86203416
O      4.28175794     0.53037677     5.15491232
O      6.17680810     1.55745813     8.26627085
O      8.10055537     0.44330429     0.29999845
O     10.00446490     1.54247776     3.43676246
O      8.12609461     2.62326956     6.62053092
O      8.10055537     2.65232056     1.86203416
O      8.09085959     0.43788690     5.07774280
O      9.95404534     1.51453205     8.34841770
O     -1.46488043     3.75682869     0.29999845
O      0.43662213     4.88594801     3.43750457
O     -1.43926355     5.97767803     6.67275485
O     -1.46493782     5.96594436     1.86203416
O     -1.52319089     3.82207012     5.02571696
O      0.60242970     4.70870869     8.04816481
O      2.36136276     3.75682869     0.29999845
O      4.29076097     4.86990031     3.45950368
O      2.59750822     5.80877011     6.75327462
O      2.36130537     5.96594436     1.86203416
O      2.32217879     3.73447829     5.01532352
O      4.81460278     5.15148583     9.69338038
O      6.18749116     3.75682869     0.29999845
O      8.08465933     4.89073906     3.42739191
O      6.06123474     5.89409668     6.74693762
O      6.18743377     5.96594436     1.86203416
O      6.22921576     3.74288230     5.06852374
O      8.11409573     4.85159426     8.25923276
O     -3.37800203     7.07045250     0.29999845
O     -1.44914773     8.18291790     3.49821738
O     -3.35412465     9.29586017     6.67277931
O     -3.37800203     9.27946876     1.86203416
O     -3.41588241     7.04915132     5.14462979
O     -1.48080496     8.16670608     8.30060259
O      0.44824116     7.07045250     0.29999845
O      2.34892713     8.17199235     3.44556031
O      0.43148526     9.27017849     6.66113946
O      0.44824116     9.27946876     1.86203416
O      0.52886447     7.03222021     5.15538037
O      2.36363391     8.15993030     8.26563649
O      4.27436957     7.07045250     0.29999845
O      6.20517581     8.14710287     3.42786271
O      4.26162978     9.31624070     6.61995819
O      4.27436957     9.27946876     1.86203416
O      4.28217819     7.11270903     5.06766251
O      6.18561923     8.19375039     8.26016839
O      3.72950748     4.51423083    11.68126861
Ce     2.36124797     1.54781243     1.08101631
Ce     0.44294113     2.64931721     4.24497772
Ce     0.44286406     0.50682990     7.42823392
Ce     6.18749116     1.54781243     1.08101631
Ce     4.24627398     2.68091420     4.27911385
Ce     4.23529620     0.50178772     7.45989962
Ce    10.01361957     1.54781243     1.08101631
Ce     8.10346680     2.65150257     4.22370669
Ce     8.09573572     0.44108159     7.46707169
Ce     0.44818377     4.86133682     1.08101631
Ce    -1.46138757     5.96342612     4.27043960
Ce    -1.41318325     3.72076060     7.42768171
Ce     4.27442696     4.86133682     1.08101631
Ce     2.37217321     5.92672925     4.27881875
Ce     8.10055537     4.86133682     1.08101631
Ce     6.18912965     5.96702714     4.25969187
Ce     6.30669055     3.69662301     7.39188321
Ce    -1.46493782     8.17496063     1.08101631
Ce    -3.37792807     9.28379002     4.27050266
Ce    -3.35415572     7.08495169     7.49102068
Ce     2.36130537     8.17496063     1.08101631
Ce     0.46626710     9.28952890     4.28529472
Ce     0.47978311     7.00648960     7.45989939
Ce     6.18743377     8.17496063     1.08101631
Ce     4.27517814     9.28267571     4.22368524
Ce     4.28136276     7.20430645     7.39145711
Rh     2.43901496     3.80106824     7.39030383
C      4.26506930     4.82875020    10.69122631
