83
CIF: Rh-CeO2+CO.cif | data_image0
O      0.44818991     0.44330082     0.30000005
O      2.36099665     1.47996030     3.42894332
O      0.62956518     2.76705756     6.61062436
O      0.44818991     2.65231708     1.86203576
O      0.42961696     0.46798223     5.10647255
O      2.35769347     1.74181621     8.24382125
O      4.27443310     0.44330082     0.30000005
O      6.19697758     1.53913329     3.44326581
O      4.10502709     2.77927293     6.62805388
O      4.27443310     2.65231708     1.86203576
O      4.28367691     0.47117516     5.11247762
O      6.13293247     1.57323306     8.22426926
O      8.10056151     0.44330082     0.30000005
O     10.00017278     1.54264583     3.44105724
O      8.09441337     2.64333057     6.66021058
O      8.10056151     2.65231708     1.86203576
O      8.09816784     0.44709217     5.09243330
O     10.07311942     1.58842369     8.21441198
O     -1.46487429     3.75682521     0.30000005
O      0.38482974     4.89884878     3.42921093
O     -1.40578316     5.94206770     6.66863846
O     -1.46493168     5.96594089     1.86203576
O     -1.46081287     3.73615014     5.10522543
O      0.64023367     4.75863364     8.24954072
O      2.36136890     3.75682521     0.30000005
O      4.33191529     4.89978640     3.42999410
O      2.35025517     5.76521346     6.61246113
O      2.36131151     5.96594089     1.86203576
O      2.36159397     3.76037636     4.76602021
O      3.91895974     4.72405726     8.29204111
O      6.18749731     3.75682521     0.30000005
O      8.10062967     4.87214200     3.46292850
O      6.09095967     5.90769871     6.71102010
O      6.18743991     5.96594089     1.86203576
O      6.18791349     3.73450864     5.09601785
O      8.12168159     4.88010709     8.24321910
O     -3.37799588     7.07044902     0.30000005
O     -1.47791790     8.17357585     3.47284132
O     -3.38558773     9.33662163     6.67101612
O     -3.37799588     9.27946528     1.86203576
O     -3.39848579     7.06032472     5.15052000
O     -1.48918753     8.16858711     8.25392226
O      0.44824731     7.07044902     0.30000005
O      2.35997969     8.19139863     3.44306506
O      0.45418400     9.28896660     6.65613800
O      0.44824731     9.27946528     1.86203576
O      0.47150776     7.08140356     5.10464138
O      2.36215354     8.12325907     8.22184029
O      4.27437571     7.07044902     0.30000005
O      6.19090130     8.17227674     3.46683423
O      4.25963822     9.29119097     6.65402881
O      4.27437571     9.27946528     1.86203576
O      4.24746138     7.08398032     5.10999389
O      6.18508892     8.16530291     8.25268449
O      5.09010001     4.19095761    11.25534460
Ce     2.36125412     1.54780895     1.08101790
Ce     0.47111920     2.66862436     4.24287172
Ce     0.48324440     0.51529705     7.44601410
Ce     6.18749731     1.54780895     1.08101790
Ce     4.25172993     2.66986572     4.24674165
Ce     4.22993996     0.50617153     7.44445494
Ce    10.01362571     1.54780895     1.08101790
Ce     8.09852414     2.65328169     4.25981272
Ce     8.09874671     0.44789187     7.41433278
Ce     0.44818991     4.86133335     1.08101790
Ce    -1.46644963     5.96623673     4.27038771
Ce    -1.39314931     3.75774860     7.43964184
Ce     4.27443310     4.86133335     1.08101790
Ce     2.35637773     5.94181773     4.23844022
Ce     8.10056151     4.86133335     1.08101790
Ce     6.17946096     5.96022347     4.27388522
Ce     6.16215817     3.72991573     7.45721376
Ce    -1.46493168     8.17495715     1.08101790
Ce    -3.38416294     9.28498539     4.27143021
Ce    -3.38344797     7.07158150     7.49752845
Ce     2.36131151     8.17495715     1.08101790
Ce     0.44644852     9.28404691     4.26651417
Ce     0.46903629     7.03458635     7.44132369
Ce     6.18743991     8.17495715     1.08101790
Ce     4.27113699     9.28607212     4.25959060
Ce     4.23360971     7.06867740     7.43281217
Rh     2.35705000     3.79360306     7.47822209
C      5.54937945     4.04504290    10.21824227
