80
CIF: Rh-CeO2-Ov.cif | data_image0
O      0.38480705     0.45536589     0.34942437
O      2.29678402     1.52906278     3.50980528
O      0.30865326     2.61672062     6.63517495
O      0.38191681     2.67105255     1.96138779
O      0.38602881     0.42822207     5.15108490
O      2.25382840     1.71687096     8.23168518
O      4.20544304     0.46821656     0.35292883
O      6.12309677     1.55578640     3.51871603
O      4.11444036     3.03546496     6.91456920
O      4.20020561     2.68153046     1.99778955
O      4.21164917     0.59250468     5.25222159
O      6.10908182     1.58640228     8.33167310
O      8.03108033     0.45472970     0.36319940
O      9.93821379     1.55494764     3.50664618
O      8.06969052     2.63755935     6.70519510
O      8.03468728     2.67937017     1.96111272
O      8.02579032     0.45551821     5.16905103
O      9.94089787     1.57176878     8.39719633
O     -1.53080802     3.78930122     0.35557908
O      0.35244769     4.90085240     3.52948100
O     -1.50415097     5.98622849     6.77774839
O     -1.54698570     6.01317857     2.00023319
O     -1.55309913     3.79071482     5.15446717
O      0.48201822     4.72084989     8.26927884
O      2.29728141     3.78085463     0.34935908
O      4.24179089     4.89278878     3.56016333
O      2.42025745     5.71648224     6.87953198
O      2.30567975     5.97081262     2.01178033
O      2.27043482     3.74397097     5.05462696
O      6.11230224     3.77753207     0.35434166
O      8.02730240     4.89566244     3.54269685
O      6.05943179     5.86916284     6.86223817
O      6.12234131     5.98637803     1.99348134
O      6.15265024     3.73009813     5.17128253
O      8.07114161     4.83398007     8.38241363
O     -3.44717015     7.08303612     0.33917595
O     -1.52226371     8.20580152     3.62108306
O     -3.39935764     9.33011435     6.73373413
O     -3.42987664     9.27218475     1.98358447
O     -3.48001098     7.06864643     5.24773745
O     -1.53585345     8.20648190     8.39279502
O      0.38757961     7.07900689     0.36309785
O      2.27631501     8.19573504     3.53853462
O      0.33685417     9.31128269     6.72350820
O      0.36055349     9.28748068     1.98729377
O      0.46002637     7.05302142     5.25890584
O      2.16655584     8.23770037     8.37811252
O      4.20236738     7.08071309     0.35412478
O      6.13870404     8.17584252     3.54252927
O      4.19644416     9.36240679     6.73494463
O      4.21527888     9.28511605     1.97640489
O      4.19718694     7.11037737     5.17074144
O      6.25631851     8.26739456     8.39676856
Ce     2.29812754     1.56413164     1.15909133
Ce     0.37349921     2.66192767     4.32480663
Ce     0.39815440     0.50406491     7.54327957
Ce     6.11190547     1.56481897     1.16740125
Ce     4.18554364     2.70478943     4.36252813
Ce     4.16641906     0.52797987     7.56252518
Ce     9.94816031     1.56203890     1.14214768
Ce     8.04685854     2.66096371     4.31012190
Ce     8.02283587     0.44695095     7.54394556
Ce     0.38254226     4.88589303     1.17160884
Ce    -1.52930017     5.97647953     4.38796668
Ce    -1.47650275     3.73986651     7.55167707
Ce     4.20800174     4.88154171     1.16546987
Ce     2.30890223     5.95069978     4.39498413
Ce     8.02951035     4.89201571     1.16508945
Ce     6.11767246     5.98637088     4.38980854
Ce     6.26695352     3.70680138     7.47204762
Ce    -1.53316364     8.19173524     1.17999907
Ce    -3.44982553     9.30668872     4.37472558
Ce    -3.42336050     7.10872107     7.60204015
Ce     2.29146110     8.18273258     1.18262645
Ce     0.38972419     9.30884406     4.38325732
Ce     0.39210044     7.05799155     7.57467863
Ce     6.12517479     8.18185030     1.16660985
Ce     4.20604879     9.28891722     4.34385562
Ce     4.20495364     7.21040309     7.57413733
Rh     2.16593369     3.73902585     7.41800641
