90
CIF: CH2CCH2+H.cif | data_image0
O      0.00215221     0.00213724     0.19997620
O      1.91093566     1.05947474     3.31097958
O      0.38750829     2.31029939     6.75549210
O      0.00215221     2.21116665     1.76198945
O     -0.01826657     0.09424691     4.99988035
O      1.54977751     1.14287431     8.64200743
O      3.82830339     0.00213724     0.19997620
O      5.75070323     1.10051331     3.33236608
O      3.30336103     2.42441581     6.94146199
O      3.82830339     2.21116665     1.76198945
O      3.82494086     0.11457386     5.01801573
O      5.83959553     1.03228641     8.23351922
O      7.65446604     0.00213724     0.19997620
O      9.55241084     1.10006605     3.32974621
O      7.67923099     2.21469014     6.51830143
O      7.65446604     2.21116665     1.76198945
O      1.90082127     9.93594764     4.97041654
O      9.60215367     1.12274071     8.13200055
O     -1.91092337     3.31568135     0.19997620
O     -0.05499138     4.43557821     3.29428646
O     -1.87784636     5.41824679     6.57870240
O     -1.91092911     5.52472071     1.76198945
O     -1.80511405     3.22828338     5.04448390
O      0.00449531     4.04399225     8.70200385
O      1.91522780     3.31568135     0.19997620
O      3.89054754     4.44605193     3.29515045
O      2.04979813     4.84686914     7.22716123
O      1.91522206     5.52472071     1.76198945
O      1.91704447     3.35172366     4.71372395
O      4.47637308     4.86895044     8.96779920
O      5.74139045     3.31568135     0.19997620
O      7.66023418     4.39578022     3.42741204
O      5.82775998     5.55879755     6.55596542
O      5.74138471     5.52472071     1.76198945
O      5.61832486     3.25029461     5.04998461
O      7.80328438     4.40232024     8.29548001
O     -3.82400470     6.62923541     0.19997620
O     -1.87423912     7.73158860     3.40575726
O     -3.88161007     8.88334367     6.54464007
O     -3.82400470     8.83826482     1.76198945
O     -3.76172837     6.64395211     5.01080700
O     -2.01540618     7.65035719     8.29334662
O      0.00214647     6.62923541     0.19997620
O      1.91200501     7.74481527     3.32320034
O     -0.01788337     8.80843036     6.50888656
O      0.00214647     8.83826482     1.76198945
O      0.13785065     6.52001215     5.06021846
O      1.91326538     7.83260422     8.22892986
O      3.82830913     6.62923541     0.19997620
O      5.72594497     7.72717392     3.42078352
O      3.83215884     8.86111446     6.49295513
O      3.82830913     8.83826482     1.76198945
O      3.70664694     6.54020976     5.04969291
O      5.82201757     7.85065015     8.27003938
Ce     1.91522780     1.10665194     0.98099423
Ce     0.04088237     2.22628051     4.09039323
Ce     5.65647600     9.83804833     7.32349234
Ce     5.74139045     1.10665194     0.98099423
Ce     3.80666673     2.23381202     4.10485255
Ce    -1.87237291     9.88159825     7.46302772
Ce     9.56754163     1.10665194     0.98099423
Ce     7.63642126     2.19536518     4.17361448
Ce     1.87153823     9.91630951     7.36235546
Ce     0.00215221     4.42019606     0.98099423
Ce    -1.88016139     5.50933620     4.21566092
Ce     9.45201050     3.26831457     7.36996154
Ce     3.82831486     4.42019606     0.98099423
Ce     1.92906443     5.50046961     4.05558053
Ce     7.65446604     4.42019606     0.98099423
Ce     5.73517560     5.50745863     4.24233991
Ce     5.79652094     3.32676944     7.55171491
Ce    -1.91092911     7.73375012     0.98099423
Ce    -3.80913790     8.84862760     4.20207007
Ce    -3.79882850     6.62389006     7.40045609
Ce     1.91523354     7.73375012     0.98099423
Ce     0.00220363     8.83758021     4.18818876
Ce    -0.02023886     6.67951890     7.49006409
Ce     5.74138471     7.73375012     0.98099423
Ce     3.81084582     8.82857618     4.15917223
Ce     3.89635116     6.69213268     7.50754679
Re     1.77721756     3.14209165     7.72207448
C      3.38648416     4.72610339     9.84185766
C      2.76434375     3.34459938     9.62951200
C      3.12507522     2.42977592    10.55368317
H      2.61880295     5.52539476     9.68759325
H      3.71514988     4.81841659    10.89721878
H      0.06418809     3.98525284     9.67176470
H      1.50225237     1.20360938     9.61167678
H      2.94686661     1.35223350    10.51625318
H      3.71467855     2.74610903    11.42099759
