90
CIF: H+OH→H2O.cif | data_image0
O      0.00215221     0.00213724     0.19997620
O      1.90458049     1.04675076     3.30069544
O      0.32045672     2.32233769     6.61474637
O      0.00215221     2.21116665     1.76198945
O     -0.02655051     0.06554858     4.97346605
O      1.23598345     1.26277500     8.69179835
O      3.82830339     0.00213724     0.19997620
O      5.74705702     1.09661533     3.32133955
O      3.11381804     2.41908995     7.09672569
O      3.82830339     2.21116665     1.76198945
O      3.81788022     0.12976679     5.02927551
O      5.81260891     1.03975463     8.21999529
O      7.65446604     0.00213724     0.19997620
O      9.54346602     1.09773714     3.32684675
O      7.67369197     2.22052528     6.52054911
O      7.65446604     2.21116665     1.76198945
O      1.88205274     9.93618195     4.96557243
O      9.58043690     1.11068455     8.10555045
O     -1.91092337     3.31568135     0.19997620
O     -0.05677854     4.43143143     3.29959273
O     -1.87398485     5.40610123     6.58464438
O     -1.91092911     5.52472071     1.76198945
O     -1.83261679     3.23577694     5.02428919
O      0.09266019     3.96380803     8.61184858
O      1.91522780     3.31568135     0.19997620
O      3.89117475     4.44700116     3.28750794
O      1.98625313     4.85146445     7.05807998
O      1.91522206     5.52472071     1.76198945
O      1.93042930     3.32842393     4.67363222
O      4.39084134     4.82884186     8.92901043
O      5.74139045     3.31568135     0.19997620
O      7.64504290     4.39399186     3.42409592
O      5.81544272     5.54935494     6.54603354
O      5.74138471     5.52472071     1.76198945
O      5.58262893     3.23003090     5.06961591
O      7.78411240     4.40524746     8.28399254
O     -3.82400470     6.62923541     0.19997620
O     -1.87960426     7.73523658     3.40361902
O     -3.88664843     8.89560526     6.55344983
O     -3.82400470     8.83826482     1.76198945
O     -3.76437067     6.64467041     5.01624971
O     -2.02978191     7.64686442     8.28672202
O      0.00214647     6.62923541     0.19997620
O      1.90436116     7.73996929     3.32148614
O     -0.03909423     8.80021744     6.51426808
O      0.00214647     8.83826482     1.76198945
O      0.12611022     6.52146323     5.05204939
O      1.89854441     7.83149358     8.22013397
O      3.82830913     6.62923541     0.19997620
O      5.72690106     7.71752360     3.41038070
O      3.80444580     8.84924165     6.47285389
O      3.82830913     8.83826482     1.76198945
O      3.71118647     6.54142560     5.02593178
O      5.80093913     7.82994865     8.24005295
Ce     1.91522780     1.10665194     0.98099423
Ce     0.03072317     2.22055564     4.08151515
Ce     5.62925055     9.81827735     7.29437745
Ce     5.74139045     1.10665194     0.98099423
Ce     3.80619834     2.22349860     4.07192928
Ce    -1.87685414     9.86784804     7.47124855
Ce     9.56754163     1.10665194     0.98099423
Ce     7.62990136     2.19486862     4.17515953
Ce     1.85795886     9.91624749     7.35645067
Ce     0.00215221     4.42019606     0.98099423
Ce    -1.88491005     5.50437877     4.21634769
Ce     9.45676495     3.26548397     7.37315951
Ce     3.82831486     4.42019606     0.98099423
Ce     1.92465701     5.48974302     4.06514084
Ce     7.65446604     4.42019606     0.98099423
Ce     5.72738015     5.50594828     4.23666915
Ce     5.78828778     3.33357270     7.55697689
Ce    -1.91092911     7.73375012     0.98099423
Ce    -3.81539627     8.84565873     4.19918662
Ce    -3.81301447     6.61958528     7.39942682
Ce     1.91523354     7.73375012     0.98099423
Ce    -0.00387939     8.83222208     4.18626711
Ce    -0.02572972     6.66793290     7.49445751
Ce     5.74138471     7.73375012     0.98099423
Ce     3.80239877     8.82018183     4.14529739
Ce     3.87041968     6.67649786     7.48364229
Re     1.56920003     3.21359874     7.71892581
C      3.29660642     4.70919058     9.80358013
C      2.64623197     3.34464622     9.61526988
C      2.99790142     2.37921874    10.47533590
H      2.54332306     5.52007216     9.64713582
H      3.62267123     4.79836084    10.85943433
H     -0.28195870     3.01077216    10.37863404
H      0.91710790     1.44645400     9.59731400
H      2.71045317     1.33167466    10.38729989
H      3.64076971     2.62046100    11.32861724
