90
CIF: H2O.cif | data_image0
O      0.00215221     0.00213724     0.19997620
O      1.91889576     1.11866348     3.33661145
O      0.39863145     2.06344345     6.73362300
O      0.00215221     2.21116665     1.76198945
O     11.45313929     0.02973599     4.94775783
O     -0.07478247     0.64771303     9.91268365
O      3.82830339     0.00213724     0.19997620
O      5.73642416     1.11303631     3.33862745
O      3.32546911     2.41465679     6.80635416
O      3.82830339     2.21116665     1.76198945
O      3.83392456     0.09111376     5.00416197
O      5.86748579     1.04525765     8.25335813
O      7.65446604     0.00213724     0.19997620
O      9.55068723     1.10581414     3.31449866
O      7.65902010     2.19634801     6.49313521
O      7.65446604     2.21116665     1.76198945
O      1.92328017     9.93122801     4.94245472
O      9.51063511     1.00836572     8.22818065
O     -1.91092337     3.31568135     0.19997620
O      0.00230413     4.41861890     3.30696299
O     -1.90596428     5.52938466     6.49887019
O     -1.91092911     5.52472071     1.76198945
O     -1.80534960     3.24945710     4.99141322
O      0.30195306     4.19855895     8.05486242
O      1.91522780     3.31568135     0.19997620
O      3.81450388     4.41278059     3.33823875
O      2.17188693     5.21743962     6.68618735
O      1.91522206     5.52472071     1.76198945
O      1.82091001     3.34720965     4.98140673
O      4.22605696     4.87816985     8.81172951
O      5.74139045     3.31568135     0.19997620
O      7.65024298     4.41651438     3.41839720
O      5.72122627     5.58302336     6.52748743
O      5.74138471     5.52472071     1.76198945
O      5.62098707     3.26755603     5.02827996
O      7.69604034     4.54734566     8.27484302
O     -3.82400470     6.62923541     0.19997620
O     -1.89437038     7.74196584     3.39123423
O     -3.88416243     8.96424919     6.63708642
O     -3.82400470     8.83826482     1.76198945
O     -3.81872098     6.68749928     5.00653919
O     -1.97170579     7.66234652     8.27647136
O      0.00214647     6.62923541     0.19997620
O      1.90951996     7.74198823     3.30798945
O      0.03547643     8.82423384     6.50255419
O      0.00214647     8.83826482     1.76198945
O      0.11191107     6.57640350     4.98824523
O      2.05059773     7.74699164     8.16290012
O      3.82830913     6.62923541     0.19997620
O      5.74701272     7.72778379     3.36111490
O      3.85883826     8.84587212     6.48432834
O      3.82830913     8.83826482     1.76198945
O      3.77095814     6.63468465     4.96783854
O      5.72889915     7.75619964     8.21722993
Ce     1.91522780     1.10665194     0.98099423
Ce    -0.02246653     2.18657357     4.08689987
Ce     5.64292850     9.80484692     7.36379295
Ce     5.74139045     1.10665194     0.98099423
Ce     3.82894963     2.21357840     4.13367464
Ce    -1.78030182     9.86624035     7.44846853
Ce     9.56754163     1.10665194     0.98099423
Ce     7.63836941     2.20997509     4.19651378
Ce     7.63731989     0.00959804     7.35124228
Ce     0.00215221     4.42019606     0.98099423
Ce    -1.88963377     5.52114777     4.20487835
Ce     9.51919338     3.30953562     7.40808112
Ce     3.82831486     4.42019606     0.98099423
Ce     1.92192228     5.54686881     4.09532616
Ce     7.65446604     4.42019606     0.98099423
Ce     5.73322825     5.52542727     4.20910544
Ce     5.80084799     3.34661239     7.53157158
Ce    -1.91092911     7.73375012     0.98099423
Ce    -3.81978261     8.85653010     4.20348326
Ce    -3.77459775     6.62152991     7.40468897
Ce     1.91523354     7.73375012     0.98099423
Ce     0.00765222     8.84376072     4.16789840
Ce     0.02406251     6.63560306     7.42510773
Ce     5.74138471     7.73375012     0.98099423
Ce     3.82302157     8.83542687     4.12082783
Ce     3.89760123     6.70872844     7.39645959
Re     1.72017661     3.40627941     7.05754618
C      3.11120924     4.51145719     9.61229272
C      2.49506279     3.24526874     9.06381077
C      2.60861777     2.10676194     9.76825477
H      2.35224793     5.32289912     9.63146983
H      3.43601737     4.35423001    10.66008097
H     10.49120534     0.92906026     9.57616886
H      0.39309549     1.46339461    10.17809159
H      2.22062798     1.14119760     9.42416383
H      3.08028425     2.08781380    10.75764941
