84
CIF: 1-NH3-NH2+H_is.cif | data_image0
Ce    11.59658117     0.01171074     8.76984703
Ce     1.92683068     1.12155027     5.60256455
Ce     0.00000000     2.23543938     2.47426506
Ce     3.87616707     0.01388204     8.77943318
Ce     5.80894121     1.10513252     5.64665722
Ce     3.87189458     2.23543938     2.47426506
Ce     7.75597874     0.03389382     8.87832942
Ce     9.68889630     1.10690535     5.62765919
Ce     7.74390532     2.23543938     2.47426506
Ce     9.65728581     3.33497188     8.77854408
Ce     0.01922147     4.49348633     5.63136802
Ce    -1.93600537     5.58869904     2.47426506
Ce     1.96690718     3.21207633     8.78731092
Ce     3.87053056     4.47669829     5.66478587
Ce     1.93588921     5.58869904     2.47426506
Ce     5.82570548     3.34963585     8.78782451
Ce     7.74918224     4.48223801     5.62235577
Ce     5.80789995     5.58869904     2.47426506
Ce     7.74235767     6.69423850     8.76703203
Ce    -1.95043347     7.83389348     5.57714254
Ce    -3.87195266     8.94185811     2.47426506
Ce     1.93580879     7.81379778     5.61224643
Ce    -0.00005808     8.94185811     2.47426506
Ce     4.05036640     6.76356124     8.79897802
Ce     5.80604949     7.83318877     5.59819564
Ce     3.87195266     8.94185811     2.47426506
Ir    -0.18064839     6.77303022     8.57345714
O     11.60708958     0.00465184     6.39829178
O     -0.12302223     2.23790382     9.57579414
O      1.93594729     1.11771969     3.26466483
O     -0.01022471     2.24201259     4.80514746
O      0.00000000     0.00000000     1.68386529
O      1.92773138     1.07492457     7.95358830
O     -1.94393457    10.02002108     6.43219281
O      3.96805269     2.12777992     9.66010133
O      5.80795803     1.11771969     3.26466483
O      3.87461885     2.22961894     4.83265268
O      3.87189458     0.00000000     1.68386529
O      5.79889333     1.17250046     7.93902267
O      1.93561053     9.90861342     6.47627891
O      7.77100978     2.36006738     9.63995408
O      9.67985261     1.11771969     3.26466483
O      7.76131096     2.22201034     4.86653076
O      7.74390532     0.00000000     1.68386529
O      9.67876474     1.16776219     7.90917219
O     -1.83476521     3.42384856     6.47539985
O     -1.92433779     5.63434396     9.43860226
O      0.00000000     4.47087876     3.26466483
O     -1.91717272     5.59312169     4.80235674
O     -1.93594729     3.35315907     1.68386529
O      0.19743019     4.84034149     8.14873956
O      1.90184604     3.34855445     6.39797827
O      3.87201074     4.47087876     3.26466483
O      1.91467617     5.60555183     4.83172055
O      1.93594729     3.35315907     1.68386529
O      3.87237688     4.47620575     8.05544578
O      5.78940030     3.37966715     6.41322748
O      5.96980087     5.56455262     9.64095293
O      7.74390532     4.47087876     3.26466483
O      5.80657254     5.59225516     4.82193690
O      5.80795803     3.35315907     1.68386529
O      7.74346708     4.45474671     7.92001385
O     -3.84647400     6.72135442     6.40596912
O     -3.81702488     8.91601650     9.55801686
O     -1.93600537     7.82413842     3.26466483
O     -3.87784654     8.95089982     4.79351180
O     -3.87195266     6.70641873     1.68386529
O     -1.85892098     7.72596997     7.98971464
O     -0.05943233     6.77544619     6.47542519
O     -0.13628821     8.82941171     9.42434053
O      1.93600537     7.82413842     3.26466483
O     -0.00044773     8.93550634     4.79608114
O     -0.00005808     6.70641873     1.68386529
O      1.69280113     7.25776360     8.31762133
O      3.85563855     6.75840431     6.40458350
O      4.01019738     9.02965766     9.61517933
O      5.80789995     7.82413842     3.26466483
O      3.86806903     8.95058476     4.79328362
O      3.87195266     6.70641873     1.68386529
O      5.88411438     7.85005061     7.92646938
N      0.05394510     6.63797288    10.64469206
H     -0.78225274     6.09767701    10.92364523
H     -0.00826477     7.65342719    10.86194001
H      0.92564389     6.22702663    10.98694132
