86
CIF: 2-NH2+H+NO-NH2NO+H_is.cif | data_image0
Ce     5.81010654    10.05161357     8.75590597
Ce     1.91955012     1.12042513     5.61701371
Ce     0.00000000     2.23543938     2.47426506
Ce     3.84754212     0.03377986     8.77205415
Ce     5.80806845     1.09288340     5.63890415
Ce     3.87189458     2.23543938     2.47426506
Ce     7.76014388     0.00073489     8.85914991
Ce     9.68566541     1.11030170     5.63358125
Ce     7.74390532     2.23543938     2.47426506
Ce     9.61489223     3.28305067     8.82518595
Ce     0.00358535     4.49096315     5.64746774
Ce    -1.93600537     5.58869904     2.47426506
Ce     1.91959738     3.28645307     8.84126003
Ce     3.85911054     4.47700381     5.65455003
Ce     1.93588921     5.58869904     2.47426506
Ce     5.80003887     3.31655713     8.77845747
Ce     7.74105896     4.47203035     5.62781461
Ce     5.80789995     5.58869904     2.47426506
Ce     7.70478928     6.63205781     8.83227828
Ce    -1.95097257     7.79611350     5.59492659
Ce    -3.87195266     8.94185811     2.47426506
Ce     1.95583440     7.82325000     5.56171208
Ce    -0.00005808     8.94185811     2.47426506
Ce     4.06072051     6.72007979     8.80516180
Ce     5.81978975     7.81565983     5.59830792
Ce     3.87195266     8.94185811     2.47426506
Ir    -0.02007613     6.87393505     8.47889251
O      5.81065072    10.04034226     6.41788829
O     -0.12613907     2.20628835     9.56170265
O      1.93594729     1.11771969     3.26466483
O     -0.00394298     2.23028889     4.81721595
O      0.00000000     0.00000000     1.68386529
O      1.92446798     1.09826499     7.96333938
O     -1.95410686     9.94065879     6.48449050
O      3.95316929     2.13435787     9.61984168
O      5.80795803     1.11771969     3.26466483
O      3.85925851     2.20901081     4.85451099
O      3.87189458     0.00000000     1.68386529
O      5.77913605     1.19209880     7.91420749
O      1.93725641     9.90830590     6.46594720
O      7.72607694     2.28481195     9.59742605
O      9.67985261     1.11771969     3.26466483
O      7.74961448     2.21060831     4.85984250
O      7.74390532     0.00000000     1.68386529
O      9.68964070     1.11130610     7.93027527
O     -1.87254749     3.37559177     6.46678981
O     -2.47919657     5.21437214    10.11037302
O      0.00000000     4.47087876     3.26466483
O     -1.92100584     5.58190014     4.81927100
O     -1.93594729     3.35315907     1.68386529
O     -0.03677761     4.86435139     8.11219992
O      1.87874718     3.37406910     6.43391380
O      3.87201074     4.47087876     3.26466483
O      1.94266918     5.58808271     4.81325863
O      1.93594729     3.35315907     1.68386529
O      3.86667668     4.52692398     8.02609210
O      5.78367490     3.38315396     6.41335705
O      5.85426553     5.56277402     9.62072874
O      7.74390532     4.47087876     3.26466483
O      5.79206036     5.58530726     4.81218482
O      5.80795803     3.35315907     1.68386529
O      7.73876659     4.45764924     7.93352859
O      7.73264035     6.71093810     6.38231625
O     -3.80255896     8.91044589     9.51239879
O     -1.93600537     7.82413842     3.26466483
O     -3.87013191     8.95230143     4.79679073
O     -3.87195266     6.70641873     1.68386529
O     -1.90047726     7.27890799     8.05314099
O      0.04635760     6.82741245     6.34609809
O     -0.10640347     8.83181588     9.11064104
O      1.93600537     7.82413842     3.26466483
O     -0.01208225     8.96975476     4.77356599
O     -0.00005808     6.70641873     1.68386529
O      1.88296820     7.13516000     8.41711129
O      3.86877845     6.76353985     6.43298287
O      4.01331410     8.88418286     9.55770422
O      5.80789995     7.82413842     3.26466483
O      3.88182356     8.95047725     4.78582146
O      3.87195266     6.70641873     1.68386529
O      5.86857350     7.79259077     7.95656959
O      2.97019977     5.21265605    11.92765515
N     -0.10896537     6.54762886    10.42561534
N      2.72870427     5.34793349    10.75193906
H     -1.64987954     5.69756589    10.42577851
H      0.00850028     7.42595638    10.94683004
H      0.61491640     5.87985698    10.73497086
