86
CIF: 4-NHNO+2H-N2+OH+2H_fs.cif | data_image0
Ce    11.59712618     0.03180416     8.77693590
Ce     1.91543356     1.13940844     5.63175555
Ce     0.00000000     2.23543938     2.47426506
Ce     3.76173021     0.07902978     8.77669170
Ce     5.81866539     1.08572392     5.65959244
Ce     3.87189458     2.23543938     2.47426506
Ce     7.84707303     0.06440352     8.87830734
Ce     9.68033360     1.12460095     5.62667259
Ce     7.74390532     2.23543938     2.47426506
Ce     9.63869506     3.36244969     8.81780661
Ce     0.00594509     4.45868232     5.58546506
Ce    -1.93600537     5.58869904     2.47426506
Ce     1.98383503     3.37096410     8.94870667
Ce     3.86239999     4.48145103     5.67063893
Ce     1.93588921     5.58869904     2.47426506
Ce     5.81947174     3.33557309     8.78449788
Ce     7.75336881     4.47088570     5.61649925
Ce     5.80789995     5.58869904     2.47426506
Ce     7.68444553     6.69240694     8.80209394
Ce    -1.97376150     7.82205248     5.57920506
Ce    -3.87195266     8.94185811     2.47426506
Ce     1.99152409     7.84159809     5.58438512
Ce    -0.00005808     8.94185811     2.47426506
Ce     3.98020899     6.71049377     8.92817265
Ce     5.80480057     7.81936393     5.63386281
Ce     3.87195266     8.94185811     2.47426506
Ir     0.01177598     7.05182129     8.28310800
O     -0.00586710     0.01234762     6.42083315
O     -0.13383534     2.33461184     9.55118345
O      1.93594729     1.11771969     3.26466483
O      0.00607995     2.22883809     4.79523204
O      0.00000000     0.00000000     1.68386529
O      1.92986797     1.11313026     7.98309133
O     -1.97226583     9.98786077     6.47487439
O      3.94435168     2.12876987     9.66310079
O      5.80795803     1.11771969     3.26466483
O      3.85063425     2.22806612     4.87074071
O      3.87189458     0.00000000     1.68386529
O      5.76134782     1.02299989     8.03038804
O      1.95413452    10.01763476     6.42063009
O      7.74426791     2.37218359     9.62930853
O      9.67985261     1.11771969     3.26466483
O      7.75765622     2.23414808     4.83422426
O      7.74390532     0.00000000     1.68386529
O      9.68583820     1.17332685     7.94390272
O     -1.84482425     3.38807341     6.45232737
O     -2.50926270     5.31163651    10.23351602
O      0.00000000     4.47087876     3.26466483
O     -1.94019945     5.59331825     4.79459424
O     -1.93594729     3.35315907     1.68386529
O     -0.25824805     5.11701884     8.21514641
O      1.82344333     3.41974569     6.48544853
O      3.87201074     4.47087876     3.26466483
O      1.95288640     5.58889354     4.79668385
O      1.93594729     3.35315907     1.68386529
O      3.94029398     4.44387850     7.97462925
O      5.83930145     3.30146747     6.45069815
O      5.97382046     5.53071476     9.63939471
O      7.74390532     4.47087876     3.26466483
O      5.80578602     5.57122297     4.83906025
O      5.80795803     3.35315907     1.68386529
O      7.79601943     4.50097845     7.91177066
O     -3.85629255     6.73095023     6.40208489
O     -3.80936261     8.97713536     9.59189759
O     -1.93600537     7.82413842     3.26466483
O     -3.87451280     8.95781600     4.80479036
O     -3.87195266     6.70641873     1.68386529
O     -1.87845642     7.59560232     8.08229129
O      0.02645577     6.68441298     6.30624739
O     -0.02013123     8.51376335     9.82950907
O      1.93600537     7.82413842     3.26466483
O     -0.01417354     8.94610448     4.81343493
O     -0.00005808     6.70641873     1.68386529
O      1.80644226     7.71230251     8.07681807
O      3.86003078     6.74645299     6.41875128
O      4.04870023     9.05827656     9.66123007
O      5.80789995     7.82413842     3.26466483
O      3.88829886     8.95417691     4.79774279
O      3.87195266     6.70641873     1.68386529
O      5.89399719     7.85327097     7.97324080
O      2.49172517     5.32726549    10.29631225
N     -0.05126258     7.18836448    12.63937501
N      0.70034246     6.41612744    12.93296523
H      8.57933260     5.02042313    11.00232242
H     -0.45231171     8.14030816    10.62048765
H      2.11148799     5.53282665    11.16544067
