85
CIF: Nb-W-CeO2-O-CO.cif | data_image0
Ce     1.93596140     1.11772783     0.89035214
Ce    -0.01953224     2.21111363     4.04276277
Ce    -5.58993768     9.98525219     7.16946882
Ce     5.80789581     1.11772783     0.89035214
Ce     3.84453828     2.18194862     3.99204474
Ce    -1.91147716     9.98750137     7.42603925
Ce     9.67981860     1.11772783     0.89035214
Ce     7.75420255     2.23132277     4.00846008
Ce     1.87166731     9.79221045     7.24561436
Ce     0.00000000     4.47091133     0.89035214
Ce    -1.95160648     5.56067406     4.06874359
Ce    -1.77449434     3.35410162     7.31923659
Ce     3.87193441     4.47091133     0.89035214
Ce     1.92813440     5.59102518     4.09653080
Ce     1.85298098     3.30856630     7.24245155
Ce     7.74385721     4.47091133     0.89035214
Ce     5.81528918     5.65185240     4.03178226
Ce    -1.93596721     7.82410489     0.89035214
Ce    -3.83481463     8.95124281     3.99391117
Ce    -3.77052902     6.90076036     7.23046626
Ce     1.93596721     7.82410489     0.89035214
Ce    -0.01615000     8.93543661     4.07575945
Ce     0.00591872     6.63819066     7.33893336
Ce     5.80789000     7.82410489     0.89035214
Ce     3.87932943     8.95562717     4.04951372
Ce     3.87701568     6.81833820     7.31954773
W      5.43018336     3.63788779     7.04968929
Nb     6.99811978     2.17623514     9.22203338
O      0.00000000     0.00000000     0.09999685
O      1.92993272     1.12513126     3.20292924
O     -0.06461167     2.10092320     6.50851670
O      0.00000000     2.23545567     1.68070743
O     -5.73314272    10.03980798     4.86672272
O      1.89820470     1.18576192     8.10502071
O      3.87192279     0.00000000     0.09999685
O      5.74559615     1.12238655     3.23963717
O      4.18689916     2.24346219     6.73632908
O      3.87192279     2.23545567     1.68070743
O      3.85495672     0.07019636     4.85336209
O      6.01285719     0.65232277     9.09619387
O      7.74385721     0.00000000     0.09999685
O      9.74552483     1.08446965     3.23791217
O      7.05406799     2.40320866     7.22883434
O      7.74385721     2.23545567     1.68070743
O      1.94474617    10.02166810     4.89729029
O      8.81411134     1.90053793     9.17663757
O     -1.93596140     3.35318350     0.09999685
O      0.02270373     4.42956385     3.28244964
O     -2.12788198     5.49162267     6.64284053
O     -1.93596721     5.58864923     1.68070743
O     -1.91551816     3.32673760     4.94990494
O      0.12010742     4.30176164     8.19254365
O      1.93596140     3.35318350     0.09999685
O      3.80130493     4.41927776     3.28028872
O      1.91207146     5.45788659     6.39242513
O      1.93595559     5.58864923     1.68070743
O      1.96314408     3.17837134     4.97476527
O      5.80789581     3.35318350     0.09999685
O      7.79653393     4.51143047     3.23867149
O      6.03605287     5.37207127     6.68280920
O      5.80789000     5.58864923     1.68070743
O      5.70479421     3.39850643     5.15441855
O      6.89915625     2.36199491    11.64806870
O     -3.87192860     6.70637706     0.09999685
O     -1.93000859     7.82773213     3.23779417
O     -3.78114769     8.98133380     6.40692484
O     -3.87192860     8.94183273     1.68070743
O     -3.81475698     6.78562136     4.92959978
O     -2.07704778     7.77483105     8.25667302
O     -0.00000581     6.70637706     0.09999685
O      1.92610379     7.80516445     3.26799210
O     -0.05458085     8.92697197     6.44562773
O     -0.00000581     8.94183273     1.68070743
O     -0.06796828     6.66127205     4.87010486
O      3.87192860     6.70637706     0.09999685
O      5.81506084     7.90983776     3.21608010
O      3.99235543     9.21008871     6.62537167
O      3.87192860     8.94183273     1.68070743
O      3.86763326     6.82585399     4.96286971
O      5.99723802     7.89364422     8.07426626
O      1.96225781     7.75094100     8.17541427
O      3.92178273     4.42981213     7.84576066
O      6.10518622     3.81675992     9.02569544
O      7.09851610     1.79337315    13.91718838
C      7.00260632     2.06715897    12.78649935
