85
CIF: Ru-Cr-CeO2-O-CO.cif | data_image0
Ce     1.93038582     1.11050507     0.88387043
Ce     0.00866006     2.23149114     4.04605450
Ce    -5.78475518    10.02384285     7.20779727
Ce     5.81181033     1.12175166     0.90127712
Ce     3.83999189     2.23206055     4.03202009
Ce    -1.94974476     9.99791893     7.22692015
Ce     9.66901012     1.12377363     0.90450652
Ce     7.74518796     2.23581957     4.05788143
Ce     2.00437843     9.96783942     7.21680833
Ce    -0.00709724     4.47602159     0.89067279
Ce    -1.94844170     5.58850060     4.06891017
Ce    -1.80886878     3.34729133     7.22767574
Ce     3.86254305     4.47635356     0.87798423
Ce     1.93040901     5.58339792     4.05944214
Ce     1.89848124     3.32091054     7.28681644
Ce     7.74213807     4.46545905     0.90125422
Ce     5.81140235     5.61677406     4.01792723
Ce    -1.94645625     7.83004003     0.90010904
Ce    -3.87196735     8.92774294     4.05986620
Ce     7.75728663     6.68150516     7.28677825
Ce     1.92815559     7.82745473     0.89060408
Ce    -0.00243794     8.95098914     4.05863907
Ce    -0.00391009     6.70236672     7.20611723
Ce     5.81127600     7.83258510     0.88371011
Ce     3.87392464     8.94951967     4.01555563
Ce     3.86016473     6.77754139     7.17486345
Cr     5.16464726     3.72216743     6.76629935
Ru     6.61160842     2.86633824     7.94116379
O     11.61334069     0.00154917     0.10141687
O      1.93675245     1.11012871     3.22731781
O     -0.01064392     2.19296710     6.39978562
O     -0.00785227     2.23805103     1.69392277
O      5.81254385    10.04734519     4.83920790
O      1.98709928     0.96010826     8.03738512
O     -1.93899312    10.05733740     0.10496691
O      5.80671849     1.15973738     3.25991962
O      4.00205383     2.28160133     6.45698188
O      3.86763657     2.23577757     1.68132582
O      3.86816383     0.02545362     4.88020315
O      5.97544053     1.01987037     8.20087196
O      7.73821774     0.00761509     0.10924988
O      9.67250306     1.12433728     3.23383877
O      7.73584960     2.23299481     6.50068483
O      7.74357843     2.23531483     1.71563532
O      7.75506522     0.03774537     4.85456430
O      9.71539096     1.05544798     8.01313422
O      9.67032270     3.35425987     0.10911246
O     -0.00741095     4.47065134     3.24831042
O     -1.90140329     5.55267446     6.39022618
O     -1.94403436     5.59119430     1.70564938
O      9.65918316     3.31745322     4.86197973
O     -0.07207808     4.52618271     8.08270277
O      1.92738314     3.35244915     0.09928684
O      3.87701004     4.47018302     3.22101985
O      1.92574862     5.65584388     6.39379692
O      1.92862022     5.59252216     1.67404250
O      1.95057163     3.34062772     4.82975473
O      5.81155478     3.35101064     0.10766953
O      7.71070506     4.43364699     3.25207115
O      5.76264065     5.48823508     6.40558425
O      5.80528807     5.59217007     1.68114259
O      5.73603610     3.39940161     4.97208086
O      7.93915968     4.27342444     8.26754567
O     -3.87155109     6.71022987     0.10512724
O     -1.93673841     7.83764947     3.25061538
O     -3.85441530     8.92763948     6.38746024
O     -3.87509971     8.94378428     1.69355631
O      7.71992899     6.68478520     4.81796214
O     -1.82001140     7.88396773     8.04552252
O     -0.01209783     6.71325780     0.10434852
O      1.93096303     7.83131498     3.24062659
O      0.03190660     8.95833787     6.39794705
O     -0.00628994     8.94736548     1.70514550
O     -0.01301973     6.72174845     4.84356717
O      1.97804593     7.83497259     8.04038320
O      3.86815347     6.71410280     0.09951587
O      5.80285557     7.83164436     3.21375377
O      3.86497635     8.93618098     6.34683189
O      3.86556896     8.94715423     1.69389986
O      3.88945414     6.71286967     4.83364125
O      5.68182681     7.85815297     8.01266771
O      3.97570647     4.49673501     7.89030571
O      5.67030723     3.38543407     9.95133253
O      5.75463856     3.35465109    12.29955668
C      5.72686812     3.36304991    11.12888106
