83
CIF: Ru-Cr-CeO2-O.cif | data_image0
Ce     1.93038582     1.11050507     0.88387043
Ce     0.00981668     2.23020022     4.03598932
Ce    -5.78292622    10.02687822     7.19257463
Ce     5.81181033     1.12175166     0.90127712
Ce     3.85596278     2.24450886     4.01095605
Ce    -1.95744566     9.97646331     7.22497404
Ce     9.66901012     1.12377363     0.90450652
Ce     7.71954207     2.24761949     4.11198368
Ce     2.01496006    10.03767164     7.18631068
Ce    -0.00709724     4.47602159     0.89067279
Ce    -1.95316071     5.58724571     4.07228369
Ce    -1.85304666     3.30145412     7.19212005
Ce     3.86254305     4.47635356     0.87798423
Ce     1.93034122     5.58318917     4.06249936
Ce     1.86273558     3.32709156     7.29758914
Ce     7.74213807     4.46545905     0.90125422
Ce     5.81121429     5.59621635     4.00712716
Ce    -1.94645625     7.83004003     0.90010904
Ce    -3.87543243     8.92828691     4.05634528
Ce     7.75698979     6.68316259     7.28524972
Ce     1.92815559     7.82745473     0.89060408
Ce    -0.00471730     8.95297011     4.06090409
Ce    -0.01177236     6.69937306     7.20623466
Ce     5.81127600     7.83258510     0.88371011
Ce     3.87469310     8.94996947     4.00707537
Ce     3.83011938     6.81726404     7.18557128
Cr     5.08469548     3.75943801     6.82603798
Ru     6.46228505     2.94080897     8.24887650
O     11.61334069     0.00154917     0.10141687
O      1.93962008     1.11269588     3.22076971
O     -0.01212510     2.18513924     6.38296788
O     -0.00785227     2.23805103     1.69392277
O     -5.79074179    10.04074631     4.83289658
O      2.00237927     0.98096670     7.99063865
O     -1.93899312    10.05733740     0.10496691
O      5.79775364     1.14355731     3.25556556
O      4.04776266     2.34408795     6.46148169
O      3.86763657     2.23577757     1.68132582
O      3.86168247     0.04827634     4.89549904
O      5.96080199     1.09089819     8.11682648
O      7.73821774     0.00761509     0.10924988
O      9.67569774     1.12095347     3.24490804
O      7.77354817     2.20044571     6.50700632
O      7.74357843     2.23531483     1.71563532
O      7.74009246     0.02063447     4.84044281
O      9.75181282     1.04793009     8.01912769
O      9.67032270     3.35425987     0.10911246
O     -0.00014097     4.47427766     3.24999522
O     -1.91853929     5.55337278     6.39561874
O     -1.94403436     5.59119430     1.70564938
O      9.66656710     3.33090606     4.84962631
O     -0.08656647     4.50611055     8.04624223
O      1.92738314     3.35244915     0.09928684
O      3.86301082     4.47970102     3.21078308
O      1.93393231     5.65023624     6.41843909
O      1.92862022     5.59252216     1.67404250
O      1.96016473     3.33832416     4.84497323
O      5.81155478     3.35101064     0.10766953
O      7.72058161     4.44737711     3.25182163
O      5.75406564     5.41043545     6.41564371
O      5.80528807     5.59217007     1.68114259
O      5.73942118     3.39252658     4.91347898
O      7.85873677     4.24118573     8.16740631
O     -3.87155109     6.71022987     0.10512724
O     -1.94189264     7.83868059     3.26122580
O     -3.84392758     8.92041685     6.39321776
O     -3.87509971     8.94378428     1.69355631
O      7.69705948     6.68220544     4.83328289
O     -1.82960542     7.87517340     8.04607784
O     -0.01209783     6.71325780     0.10434852
O      1.93164855     7.82136469     3.24238427
O      0.01489469     8.96746760     6.40625970
O     -0.00628994     8.94736548     1.70514550
O     -0.01092733     6.71885398     4.85761979
O      1.98232026     7.86193319     8.01043891
O      3.86815347     6.71410280     0.09951587
O      5.80153088     7.82759235     3.20902888
O      3.86757678     8.95801499     6.33377405
O      3.86556896     8.94715423     1.69389986
O      3.89617427     6.70890266     4.85402501
O      5.67705362     7.84438154     7.96946728
O      3.96488077     4.49594917     7.94669909
O      5.68607214     3.37465758     9.71828611
