84
CIF: Ru-Cr-CeO2-Ov-CO2.cif | data_image0
Ce     1.93038582     1.11050507     0.88387043
Ce    -0.00374180     2.23126949     4.01539566
Ce    -5.79812815    10.05013770     7.21988259
Ce     5.81181033     1.12175166     0.90127712
Ce     3.83389612     2.21504326     3.99564643
Ce    -1.92701572    10.00348906     7.23584972
Ce     9.66901012     1.12377363     0.90450652
Ce     7.76454053     2.21851732     4.08980912
Ce     1.97368478    10.01954456     7.28155687
Ce    -0.00709724     4.47602159     0.89067279
Ce    -1.94328224     5.58334972     4.08732894
Ce    -1.86191382     3.30510615     7.22869583
Ce     3.86254305     4.47635356     0.87798423
Ce     1.94405764     5.58255857     4.05014343
Ce     1.82650127     3.29593328     7.19219681
Ce     7.74213807     4.46545905     0.90125422
Ce     5.81803162     5.64218959     4.00621194
Ce    -1.94645625     7.83004003     0.90010904
Ce    -3.87136179     8.93049365     4.08140138
Ce    -3.85960562     6.69011862     7.33408070
Ce     1.92815559     7.82745473     0.89060408
Ce     0.00856480     8.95004684     4.07256721
Ce     0.00417516     6.69770704     7.22812209
Ce     5.81127600     7.83258510     0.88371011
Ce     3.86068645     8.95168380     4.03094649
Ce     3.84730177     6.84927711     7.20699846
Cr     5.16001271     3.73165722     6.62565052
Ru     6.46396707     2.94914103     7.96097153
O     11.61334069     0.00154917     0.10141687
O      1.93912996     1.10461433     3.21453177
O      0.02288932     2.22859327     6.35653088
O     -0.00785227     2.23805103     1.69392277
O     -5.79300288    10.05349905     4.83832290
O      1.97519799     1.14683127     7.96921538
O     -1.93899312    10.05733740     0.10496691
O      5.79272292     1.15563732     3.25587375
O      3.88597743     2.39873264     6.39275839
O      3.86763657     2.23577757     1.68132582
O      3.85764786     0.05010643     4.89276208
O      5.75120538     1.13032262     8.15031144
O      7.73821774     0.00761509     0.10924988
O      9.67887866     1.12415280     3.23701694
O      7.84193625     2.22326600     6.47856868
O      7.74357843     2.23531483     1.71563532
O      7.73681745     0.00950813     4.80184911
O      9.88707483     1.14628110     8.07307649
O      9.67032270     3.35425987     0.10911246
O     -0.00321954     4.48236408     3.23241113
O     -1.88763958     5.54230716     6.43568285
O     -1.94403436     5.59119430     1.70564938
O      9.68384738     3.34020409     4.84143059
O      0.04791850     4.42419406     8.02423314
O      1.92738314     3.35244915     0.09928684
O      3.87766969     4.47002386     3.22907429
O      2.05665271     5.48671140     6.44346827
O      1.92862022     5.59252216     1.67404250
O      1.91373236     3.33051012     4.81860580
O      4.02578152     4.37339572     8.21317408
O      5.81155478     3.35101064     0.10766953
O      7.71646874     4.45308883     3.25999831
O      5.65887495     5.50647012     6.41287460
O      5.80528807     5.59217007     1.68114259
O      5.76308152     3.38871986     4.92563515
O      7.85923151     4.30002281     8.23099370
O     -3.87155109     6.71022987     0.10512724
O     -1.93216056     7.82821707     3.28068365
O     -3.84996936     8.95511513     6.43942619
O     -3.87509971     8.94378428     1.69355631
O      7.71202854     6.68720541     4.85963303
O     -1.81740390     7.87369433     8.06791005
O     -0.01209783     6.71325780     0.10434852
O      1.92182245     7.81304381     3.22930862
O     -0.03309069     8.92986500     6.39286768
O     -0.00628994     8.94736548     1.70514550
O      0.04227248     6.68067960     4.89268667
O      1.93372937     7.68486566     8.03130824
O      3.86815347     6.71410280     0.09951587
O      5.81261042     7.83068137     3.22063004
O      3.89732441     8.94583912     6.36324443
O      3.86556896     8.94715423     1.69389986
O      3.86449294     6.73764510     4.82830194
O      5.67847716     7.86699575     8.03463948
O      4.82508124     3.95451262    10.32387774
C      4.98345439     3.83463666     9.13352302
