85
CIF: Pd-Ti-CeO2-O-CO.cif | data_image0
Ce     1.93038582     1.11050507     0.88387043
Ce    -0.00904258     2.23102162     4.02856841
Ce    -5.77145012    10.04424006     7.20067876
Ce     5.81181033     1.12175166     0.90127712
Ce     3.84973512     2.22162367     3.99687093
Ce    -1.88770763    10.05284881     7.22136555
Ce     9.66901012     1.12377363     0.90450652
Ce     7.73751049     2.24331257     4.09233956
Ce     1.96337307    10.01279106     7.21916971
Ce    -0.00709724     4.47602159     0.89067279
Ce    -1.94155473     5.58898181     4.05966450
Ce    -1.86507493     3.34982543     7.23270415
Ce     3.86254305     4.47635356     0.87798423
Ce     1.93815332     5.59755193     4.05228275
Ce     1.87753112     3.32511748     7.17068493
Ce     7.74213807     4.46545905     0.90125422
Ce     5.79976995     5.61494733     4.02384908
Ce    -1.94645625     7.83004003     0.90010904
Ce    -3.86495553     8.93891519     4.06111073
Ce    -3.81401389     6.70523154     7.25653876
Ce     1.92815559     7.82745473     0.89060408
Ce    -0.00100172     8.95142409     4.04677428
Ce     0.01512912     6.71747546     7.19705244
Ce     5.81127600     7.83258510     0.88371011
Ce     3.87575738     8.93850548     4.05462494
Ce     3.87565418     6.75436846     7.27800834
Ti     5.24168074     3.66040731     6.79324541
Pd     6.85367499     2.78240993     8.34474451
O     11.61334069     0.00154917     0.10141687
O      1.92661711     1.11177258     3.21877391
O      0.01265613     2.21806298     6.37930079
O     -0.00785227     2.23805103     1.69392277
O     -5.78527145    10.04881938     4.85418854
O      1.97985456     1.13737858     7.96520592
O     -1.93899312    10.05733740     0.10496691
O      5.81102644     1.14201683     3.24752086
O      3.95144065     2.27228647     6.37335476
O      3.86763657     2.23577757     1.68132582
O      3.87371538     0.02735996     4.85227708
O      5.87858666     0.93508230     8.19892831
O      7.73821774     0.00761509     0.10924988
O      9.67525871     1.12154541     3.25358622
O      7.74859090     2.24739809     6.43844066
O      7.74357843     2.23531483     1.71563532
O      7.74529025     0.01211798     4.85998548
O      9.72920220     1.11888130     8.02400478
O      9.67032270     3.35425987     0.10911246
O     -0.00190168     4.47248960     3.24230823
O     -1.91438177     5.59472694     6.40511606
O     -1.94403436     5.59119430     1.70564938
O      9.67857686     3.35137460     4.86203402
O      0.03171425     4.43126139     8.01822036
O      1.92738314     3.35244915     0.09928684
O      3.85377327     4.47665592     3.20921464
O      1.88056660     5.55980774     6.38421607
O      1.92862022     5.59252216     1.67404250
O      1.94078982     3.32877158     4.84595914
O      5.81155478     3.35101064     0.10766953
O      7.72378046     4.46693200     3.26125131
O      5.83966622     5.42287214     6.44705643
O      5.80528807     5.59217007     1.68114259
O      5.70765796     3.39656028     4.87234933
O      8.01570423     4.50643451     8.25347146
O     -3.87155109     6.71022987     0.10512724
O     -1.95059303     7.82412502     3.25167456
O     -3.80493727     8.95363815     6.39666655
O     -3.87509971     8.94378428     1.69355631
O      7.71667411     6.69894719     4.89605137
O     -1.91403968     7.83210345     8.00963303
O     -0.01209783     6.71325780     0.10434852
O      1.93621743     7.82770585     3.24150312
O     -0.01572819     8.95795397     6.37331297
O     -0.00628994     8.94736548     1.70514550
O     -0.00739510     6.72216479     4.84197482
O      1.82758358     7.86979592     8.02995181
O      3.86815347     6.71410280     0.09951587
O      5.81711765     7.82996493     3.22844933
O      3.89567901     8.99117291     6.40331785
O      3.86556896     8.94715423     1.69389986
O      3.89686143     6.70248190     4.83479000
O      5.97334104     7.85623415     8.00168795
O      3.90090440     4.34064095     7.86362864
O      5.43096844     3.62223837    10.99554211
O      5.48752618     3.55749668    13.34772920
C      5.45991874     3.58950117    12.17244815
