82
CIF: Pd-Ti-CeO2.cif | data_image0
Ce     1.93038582     1.11050507     0.88387043
Ce    -0.00168927     2.23792388     4.02905226
Ce    -5.79641654    10.05247555     7.20756288
Ce     5.81181033     1.12175166     0.90127712
Ce     3.86555416     2.22527519     4.02191222
Ce    -1.88678837    10.04642893     7.25507450
Ce     9.66901012     1.12377363     0.90450652
Ce     7.75645646     2.22783065     4.07571097
Ce     7.76683990     0.00847958     7.19943355
Ce    -0.00709724     4.47602159     0.89067279
Ce    -1.94243013     5.59185681     4.05131474
Ce     9.68347125     3.32828326     7.19945473
Ce     3.86254305     4.47635356     0.87798423
Ce     1.92923974     5.59219859     4.03113107
Ce     1.85978043     3.33649395     7.18249962
Ce     7.74213807     4.46545905     0.90125422
Ce     5.81322133     5.59882796     4.02191587
Ce    -1.94645625     7.83004003     0.90010904
Ce    -3.87238475     8.94181513     4.07703644
Ce    -3.83650128     6.66949934     7.25506764
Ce     1.92815559     7.82745473     0.89060408
Ce    -0.00627749     8.94530092     4.05118172
Ce    -0.00084522     6.70640036     7.18915253
Ce     5.81127600     7.83258510     0.88371011
Ce     3.86871581     8.94160215     4.02909040
Ce     3.84791718     6.77997086     7.18250720
Ti     5.22243195     3.69063969     6.84424951
Pd     6.67343302     2.85265584     8.45357933
O     11.61334069     0.00154917     0.10141687
O      1.93994433     1.11422222     3.22911166
O     -0.01347370     2.21802255     6.38164343
O     -0.00785227     2.23805103     1.69392277
O     -5.78830155    10.04786203     4.85622541
O      1.95355404     1.14246209     7.96184222
O     -1.93899312    10.05733740     0.10496691
O      5.79076498     1.13958033     3.24940329
O      3.93325908     2.31788062     6.43143658
O      3.86763657     2.23577757     1.68132582
O      3.86581563     0.03475485     4.89594978
O      5.85265615     0.91626214     8.18217009
O      7.73821774     0.00761509     0.10924988
O      9.68667966     1.11346665     3.24896158
O      7.96473930     2.10741645     6.26599361
O      7.74357843     2.23531483     1.71563532
O      1.91621389     9.99618847     4.80627431
O      9.74236288     1.08110768     8.05020294
O      9.67032270     3.35425987     0.10911246
O      0.02238180     4.48180070     3.22027686
O     -1.93294181     5.59423756     6.39986890
O     -1.94403436     5.59119430     1.70564938
O     -1.89137442     3.40143635     4.80628116
O      0.02737941     4.45334573     7.98004223
O      1.92738314     3.35244915     0.09928684
O      3.86818944     4.47291148     3.22576705
O      1.91158959     5.60230816     6.37254003
O      1.92862022     5.59252216     1.67404250
O      1.93704593     3.33853675     4.85927570
O      3.84804194     4.48421812     7.86111389
O      5.81155478     3.35101064     0.10766953
O      7.71597040     4.47437320     3.24932425
O      5.76672486     5.49368025     6.43139538
O      5.80528807     5.59217007     1.68114259
O      5.74388574     3.38975655     4.92699559
O      7.93993701     4.53172095     8.18192401
O     -3.87155109     6.71022987     0.10512724
O     -1.95893380     7.83716278     3.25706413
O     -3.84178394     8.92395371     6.44321790
O     -3.87509971     8.94378428     1.69355631
O      7.71034145     6.69374908     4.89595990
O     -1.91239998     7.80989753     8.01684405
O     -0.01209783     6.71325780     0.10434852
O      1.93752403     7.79883116     3.22012378
O     -0.00370084     8.93563737     6.39978635
O     -0.00628994     8.94736548     1.70514550
O     -0.01037125     6.71201219     4.84459116
O      1.96447802     7.80846390     7.98003311
O      3.86815347     6.71410280     0.09951587
O      5.81275578     7.82209371     3.22893800
O      3.87992327     8.96151481     6.38167070
O      3.86556896     8.94715423     1.69389986
O      3.88490885     6.71231154     4.85922526
O      5.79492084     7.79571394     7.96184486
