86
CIF: 2-NH2+H+NO-NH2NO+H_is.cif | data_image0
Ce     0.00625336     0.01322114     8.74924044
Ce     1.91678844     1.11792087     5.58810163
Ce     0.00000000     2.23543938     2.47426506
Ce    -1.97676212    10.03713656     8.72088953
Ce     5.80249021     1.09746330     5.61693186
Ce     3.87189458     2.23543938     2.47426506
Ce     7.79819164     0.07007391     8.76603276
Ce     9.69656829     1.13675072     5.62937136
Ce     7.74390532     2.23543938     2.47426506
Ce    -1.94424315     3.40013115     8.89422436
Ce    -0.00910950     4.50328860     5.67035846
Ce    -1.93600537     5.58869904     2.47426506
Ce     1.93145139     3.25150833     8.77554700
Ce     3.86199362     4.47770545     5.63743347
Ce     1.93588921     5.58869904     2.47426506
Ce     5.79113903     3.31639851     8.76395483
Ce     7.74410404     4.47313064     5.63998138
Ce     5.80789995     5.58869904     2.47426506
Ce     7.68628939     6.66085319     8.82026066
Ce    -1.95641133     7.79895495     5.60290764
Ce    -3.87195266     8.94185811     2.47426506
Ce     1.96294695     7.80192490     5.59749843
Ce    -0.00005808     8.94185811     2.47426506
Ce     4.01280744     6.73108895     8.79435690
Ce     5.81474064     7.82018194     5.59584623
Ce     3.87195266     8.94185811     2.47426506
Pd     0.00699848     6.94856503     8.44461445
O      5.80443975    10.05764794     6.41368255
O      0.10737537     2.17877364     9.54436210
O      1.93594729     1.11771969     3.26466483
O      0.00114445     2.23322527     4.80903838
O      0.00000000     0.00000000     1.68386529
O      1.94743121     1.09579262     7.90738175
O     -1.94763900     9.96581076     6.45158042
O      3.87605403     2.13271581     9.51971759
O      5.80795803     1.11771969     3.26466483
O      3.85994196     2.21499397     4.83671861
O      3.87189458     0.00000000     1.68386529
O      5.80057064     1.16666979     7.90420965
O      1.95208326     9.93746257     6.49693939
O      7.61562338     2.13016670     9.60608108
O      9.67985261     1.11771969     3.26466483
O      7.74111399     2.20859645     4.85992621
O      7.74390532     0.00000000     1.68386529
O      9.67521101     1.11163436     7.95306503
O     -1.87293358     3.38943032     6.42609998
O     -2.56319509     5.41803641    10.15795769
O      0.00000000     4.47087876     3.26466483
O     -1.93336341     5.59477383     4.81988208
O     -1.93594729     3.35315907     1.68386529
O      0.06857331     4.83140363     8.10810269
O      1.88200268     3.35404199     6.44054804
O      3.87201074     4.47087876     3.26466483
O      1.94245638     5.58588683     4.82572176
O      1.93594729     3.35315907     1.68386529
O      3.79257412     4.50352253     8.02808930
O      5.75982305     3.37546437     6.42106854
O      5.79570373     5.55927847     9.57157557
O      7.74390532     4.47087876     3.26466483
O      5.80137442     5.57688523     4.80416865
O      5.80795803     3.35315907     1.68386529
O      7.68841406     4.47133388     7.93892131
O      7.71957939     6.72252623     6.38940108
O     -3.84701303     8.97638612     9.51999231
O     -1.93600537     7.82413842     3.26466483
O     -3.87579749     8.95313781     4.79370616
O     -3.87195266     6.70641873     1.68386529
O     -1.95770082     7.49263902     8.07552339
O      0.01729593     6.82712037     6.32569159
O      0.03996158     8.89371542     9.04982911
O      1.93600537     7.82413842     3.26466483
O      0.00941948     8.97739525     4.78504639
O     -0.00005808     6.70641873     1.68386529
O      1.96574438     7.23577498     8.20418055
O      3.91293623     6.73207627     6.40140074
O      3.87243382     8.97686605     9.52276562
O      5.80789995     7.82413842     3.26466483
O      3.87087971     8.95505970     4.79897869
O      3.87195266     6.70641873     1.68386529
O      5.81815189     7.83399024     7.97819446
O      3.04598552     5.80718720    11.08304472
N     -0.18809987     6.65564686    10.41130727
N      2.39160133     4.86319836    10.63468047
H     -1.71117013     5.91261823    10.42393537
H      0.01000060     7.57083274    10.83683569
H      0.59657621     6.04151664    10.67302272
