86
CIF: 2-NH2+H+NO-NH2NO+H_ts.cif | data_image0
Ce     0.00523601     0.01007733     8.76701272
Ce     1.91859946     1.11425962     5.58491005
Ce     0.00000000     2.23543938     2.47426506
Ce    -1.96683093    10.00412302     8.71448966
Ce     5.80025976     1.10251024     5.61832683
Ce     3.87189458     2.23543938     2.47426506
Ce     7.77450441     0.02057460     8.75498537
Ce     9.69994072     1.13766532     5.63692745
Ce     7.74390532     2.23543938     2.47426506
Ce     9.66406760     3.37589541     8.90082663
Ce    -0.00121958     4.50837070     5.67238190
Ce    -1.93600537     5.58869904     2.47426506
Ce     1.94264465     3.22763166     8.75315030
Ce     3.86263977     4.47680614     5.63157376
Ce     1.93588921     5.58869904     2.47426506
Ce     5.79906645     3.31000523     8.76886260
Ce     7.74697151     4.47396497     5.64300898
Ce     5.80789995     5.58869904     2.47426506
Ce     7.70009711     6.70135900     8.79009872
Ce    -1.95074631     7.80778935     5.62206823
Ce    -3.87195266     8.94185811     2.47426506
Ce     1.95049760     7.81419531     5.60975549
Ce    -0.00005808     8.94185811     2.47426506
Ce     4.02276942     6.74641453     8.76684216
Ce     5.81269021     7.82408957     5.58518173
Ce     3.87195266     8.94185811     2.47426506
Pd     0.09759268     6.89050546     8.53683333
O     -0.00169631     0.00490507     6.41189264
O      0.12713432     2.18990928     9.56281662
O      1.93594729     1.11771969     3.26466483
O      0.00076231     2.24234713     4.80995554
O      0.00000000     0.00000000     1.68386529
O      1.94945282     1.08587442     7.91501980
O     -1.94555518    10.00953796     6.42062141
O      3.86683605     2.16696273     9.52461977
O      5.80795803     1.11771969     3.26466483
O      3.86088486     2.23038426     4.82422517
O      3.87189458     0.00000000     1.68386529
O      5.78930769     1.13250081     7.91849578
O      1.94529083     9.97808786     6.47190933
O      7.60778274     2.13125338     9.59260333
O      9.67985261     1.11771969     3.26466483
O      7.74803948     2.22613402     4.85993145
O      7.74390532     0.00000000     1.68386529
O      9.67576261     1.08684886     7.96989718
O     -1.85260669     3.39721928     6.45782722
O     -2.50235297     5.45154186    10.10475134
O      0.00000000     4.47087876     3.26466483
O     -1.92242240     5.59217499     4.82684661
O      9.67985261     3.35315907     1.68386529
O      0.18648143     4.79122580     8.16319064
O      1.89228293     3.33814256     6.43913109
O      3.87201074     4.47087876     3.26466483
O      1.93656088     5.58763779     4.83534135
O      1.93594729     3.35315907     1.68386529
O      3.76004651     4.51968678     8.03707690
O      5.75345850     3.36968533     6.44063722
O      5.78483365     5.58981030     9.56303441
O      7.74390532     4.47087876     3.26466483
O      5.79621211     5.57085748     4.80127800
O      5.80795803     3.35315907     1.68386529
O      7.69052638     4.47630108     7.94683490
O      7.70894891     6.70137381     6.37376467
O     -3.88757042     8.97770867     9.56172101
O     -1.93600537     7.82413842     3.26466483
O     -3.87882160     8.94986872     4.79538764
O      7.74384724     6.70641873     1.68386529
O     -2.04750232     7.68706668     8.00570135
O      0.01186380     6.80822356     6.39472609
O      0.02339156     8.87596037     9.19799226
O      1.93600537     7.82413842     3.26466483
O      0.00924610     8.96270187     4.79393936
O     -0.00005808     6.70641873     1.68386529
O      2.01426020     7.53121727     8.10329991
O      3.91593254     6.71935455     6.40333079
O      3.90092485     8.95285946     9.56615205
O      5.80789995     7.82413842     3.26466483
O      3.87147164     8.95368970     4.80622314
O      3.87195266     6.70641873     1.68386529
O      5.81939665     7.84435378     7.95580445
O      3.01634724     5.02973501    11.81826763
N     -0.03920421     6.57225207    10.48896224
N      2.67507993     5.13010619    10.66469485
H     -1.65565726     5.89611083    10.42788504
H      0.13515690     7.47995362    10.94169740
H      0.73023503     5.94550221    10.77122106
