86
CIF: 3-NH2NO+H-NHNO+2H_fs.cif | data_image0
Ce     0.00495504     0.00293933     8.77791768
Ce     1.93475697     1.10131692     5.59033794
Ce     0.00000000     2.23543938     2.47426506
Ce    -1.96550800     9.99618598     8.76160430
Ce     5.79665662     1.10864088     5.62174443
Ce     3.87189458     2.23543938     2.47426506
Ce     7.74082670     0.05759928     8.79540327
Ce     9.67164033     1.13029138     5.63253008
Ce     7.74390532     2.23543938     2.47426506
Ce     9.62293567     3.31511316     8.87098696
Ce    -0.01864092     4.42791468     5.61079966
Ce    -1.93600537     5.58869904     2.47426506
Ce     1.92751773     3.18054336     8.77209016
Ce     3.84229826     4.48738912     5.64644844
Ce     1.93588921     5.58869904     2.47426506
Ce     5.77220125     3.35619029     8.77968028
Ce     7.74538029     4.47162757     5.63813863
Ce     5.80789995     5.58869904     2.47426506
Ce    -3.86829704     6.75533361     8.75511630
Ce    -1.93811206     7.82097328     5.65495726
Ce    -3.87195266     8.94185811     2.47426506
Ce     1.97047003     7.85220919     5.60569378
Ce    -0.00005808     8.94185811     2.47426506
Ce     4.01564336     6.81007541     8.80174431
Ce     5.81488444     7.82951844     5.59192581
Ce     3.87195266     8.94185811     2.47426506
Pd     0.64692232     6.33246682     8.25507924
O     11.60554756     0.00761468     6.40486141
O      0.13685106     2.13110658     9.61141480
O      1.93594729     1.11771969     3.26466483
O      0.00837638     2.22943386     4.79821845
O      0.00000000     0.00000000     1.68386529
O      1.95012143     1.05856295     7.93065382
O     -1.93870562    10.04261762     6.39582648
O      3.84182593     2.19780847     9.52554298
O      5.80795803     1.11771969     3.26466483
O      3.86515560     2.24837961     4.82065556
O      3.87189458     0.00000000     1.68386529
O      5.78190930     1.05774196     7.94537855
O      1.94379024    10.05352357     6.42090961
O      7.56238954     2.19862544     9.59515338
O      9.67985261     1.11771969     3.26466483
O      7.71096822     2.24029250     4.82539520
O      7.74390532     0.00000000     1.68386529
O      9.66065126     1.08200958     7.99142331
O      9.68212022     3.33399674     6.37768143
O     -2.39431103     5.45151986    10.20148133
O      0.00000000     4.47087876     3.26466483
O     -1.91822343     5.59782381     4.83261607
O     -1.93594729     3.35315907     1.68386529
O     -0.06802478     4.48599248     8.04737109
O      1.90782540     3.32369795     6.45107686
O      3.87201074     4.47087876     3.26466483
O      1.96013844     5.57268557     4.81283285
O      1.93594729     3.35315907     1.68386529
O      3.74054316     4.54387522     8.07860025
O      5.74965623     3.36758512     6.48479393
O      5.82671957     5.64343205     9.54330636
O      7.74390532     4.47087876     3.26466483
O      5.78676790     5.58242679     4.82453033
O      5.80795803     3.35315907     1.68386529
O      7.72864542     4.52471607     7.95178601
O     -3.87697304     6.71572826     6.38865083
O     -3.87985679     8.94481354     9.60700810
O     -1.93600537     7.82413842     3.26466483
O     -3.87012529     8.93811884     4.80525940
O     -3.87195266     6.70641873     1.68386529
O     -2.00974323     7.84050290     7.98634041
O      0.09808732     6.67835893     6.38342536
O     -0.01190826     9.32836744     9.96949082
O      1.93600537     7.82413842     3.26466483
O      0.00783996     8.92650884     4.82237685
O     -0.00005808     6.70641873     1.68386529
O      1.90891659     7.90312091     8.10762002
O      3.87314946     6.74501117     6.45178196
O      3.95980377     8.96359656     9.58680750
O      5.80789995     7.82413842     3.26466483
O      3.87508790     8.94221945     4.80115783
O      3.87195266     6.70641873     1.68386529
O      5.85171628     7.85393968     7.94775464
O      2.64942808     5.95772573    10.58349795
N      0.47788050     6.33046489    10.38271046
N      1.47500199     5.46903485    10.27421621
H     -2.63651761     5.43321667    11.14460095
H      0.10022745     8.41257891    10.31756704
H     -0.42013048     5.79164864    10.33936310
