84
CIF: 6-OH+2H-H2O+H_is.cif | data_image0
Ce     0.00812652     0.02253700     8.76432965
Ce     1.93804246     1.11108628     5.57842810
Ce     0.00633061     2.23453402     2.44746797
Ce     3.80512125     0.00944103     8.74420534
Ce     5.81915831     1.08960295     5.61746816
Ce     3.89030562     2.23533878     2.46006489
Ce     7.81227415     0.02261893     8.77056197
Ce     9.70366444     1.12873715     5.62214604
Ce     7.75726349     2.23865844     2.47472313
Ce    -1.89880182     3.37281834     8.86395423
Ce     0.01749311     4.46134000     5.63186203
Ce    -1.91608427     5.58980560     2.47953287
Ce     1.95714602     3.30856076     8.77378982
Ce     3.87948469     4.46466531     5.62528498
Ce     1.95813347     5.57612457     2.46808112
Ce     5.82193813     3.32430049     8.75907190
Ce     7.77050054     4.47176372     5.64208441
Ce     5.82061925     5.57733172     2.47060050
Ce     7.66656761     6.74439566     8.76479951
Ce    -1.95026587     7.82526595     5.60653564
Ce    -3.84326164     8.92717113     2.43899367
Ce     1.97155384     7.81986521     5.60658687
Ce     0.01196427     8.93089317     2.46510366
Ce     3.91762467     6.72715268     8.77980023
Ce     5.81232133     7.82918439     5.58592768
Ce     3.88391693     8.94628433     2.44334534
Pd    -0.03318910     6.81915480     8.35556181
O      0.01087165     0.00312007     6.40171367
O      0.14309996     2.18951187     9.59010039
O      1.95714613     1.10816309     3.23099669
O      0.01830893     2.22172759     4.78413458
O     11.61516103     0.00010060     1.66485539
O      1.94894403     1.09276318     7.92504775
O     -1.95089709    10.02472428     6.40883040
O      3.88411543     2.19643287     9.51313098
O      5.81579870     1.11138216     3.26145834
O      3.88351895     2.22571785     4.81095344
O     -1.91370303    10.04287890     1.66279407
O      5.79686017     1.00607510     7.94620706
O      1.97537417    10.01365902     6.44662549
O      7.63539632     2.16354500     9.55056562
O      9.68130459     1.12747748     3.26626808
O      7.75381474     2.22858866     4.83284969
O      1.95122207    10.05535278     1.67630714
O      9.70436336     1.08867967     7.97871241
O     -1.86847567     3.36723318     6.42379796
O     -2.42217556     5.48202101    10.13175252
O      0.01602980     4.46504420     3.27863597
O     -1.94622977     5.58319181     4.81428875
O     -1.92160178     3.35547277     1.67722328
O      0.14409843     4.64971972     8.10234106
O      1.92035413     3.33458193     6.42123068
O      3.89140913     4.45780131     3.27130685
O      1.97655870     5.57285058     4.81105267
O      1.95035088     3.35597575     1.67058126
O      3.84748963     4.48405179     7.96298619
O      5.81523145     3.32469504     6.45768901
O      5.78802294     5.61683771     9.53698783
O      7.76051592     4.47812165     3.27749079
O      5.81490126     5.57550719     4.81748850
O      5.82770489     3.35195192     1.67607810
O      7.74247910     4.53349958     7.96610979
O     -3.87801148     6.73648131     6.40768933
O     -3.89704451     8.97428587     9.58573250
O     -1.91614235     7.81890744     3.27382623
O     -3.87043908     8.94203305     4.77339553
O     -3.84471361     6.70370265     1.67103933
O     -1.97076451     7.79777905     8.05089243
O      0.00684896     6.72632362     6.23619721
O     -0.00769455     9.25767714     9.96680754
O      1.95389370     7.81749910     3.26741325
O      0.02006427     8.96504858     4.79754005
O      0.01690099     6.69877345     1.68317819
O      1.94188269     7.71938638     8.09060476
O      3.88715482     6.72371115     6.41988868
O      3.88079619     8.95839838     9.59218966
O      5.82758873     7.81518540     3.24038712
O      3.89163733     8.94709152     4.78524207
O      3.88409117     6.69464903     1.67607810
O      5.80086376     7.85644183     7.96045360
O      2.42980117     5.31117171    10.09084110
H     -2.06081663     5.80479588    10.97406097
H     -0.00946189     8.80956940    10.83004019
H      1.71257202     5.70864192    10.61597953
