89
CIF: CH2+CH2CO.cif | data_image0
O      0.00261135     0.00382715     0.19995339
O      1.91943499     1.10502204     3.31101407
O      0.09210768     2.45504273     6.59615825
O      0.00261135     2.21285656     1.76196664
O      0.01705204     0.09448843     4.99530099
O      3.82876252     0.00382715     0.19995339
O      5.74075605     1.09273156     3.32593181
O      3.69910676     2.50921166     6.67697710
O      3.82876252     2.21285656     1.76196664
O      3.81924876     0.11118403     5.01432091
O      5.69608979     1.01022149     8.17791871
O      7.65492518     0.00382715     0.19995339
O      9.56280354     1.09782003     3.32307060
O      7.68280293     2.20849166     6.52239017
O      7.65492518     2.21285656     1.76196664
O      7.65189976     0.00058676     4.95592283
O      9.61821170     1.15480688     8.13884309
O     -1.91046424     3.31737126     0.19995339
O      0.01252698     4.41350739     3.33958753
O     -1.91709095     5.49515483     6.53053847
O     -1.91046998     5.52641062     1.76196664
O      9.57649877     3.28774644     4.96158540
O     -0.46682855     4.48154921     8.78096381
O      1.91568694     3.31737126     0.19995339
O      3.81355889     4.41979886     3.34944921
O      1.98747604     5.04950330     6.84621625
O      1.91568120     5.52641062     1.76196664
O      1.90327364     3.23033308     4.97150067
O      4.66442371     4.90450335     9.32718493
O      5.74184959     3.31737126     0.19995339
O      7.65859891     4.42757202     3.35828534
O      5.74393509     5.54613506     6.56863243
O      5.74184385     5.52641062     1.76196664
O      5.73259180     3.28830190     4.94079080
O      7.74967383     4.47145140     8.26534681
O     -3.82354556     6.63092532     0.19995339
O     -1.89335366     7.74606820     3.38888534
O     -3.82503619     8.82008042     6.47538295
O     -3.82354556     8.83995473     1.76196664
O     -3.82079622     6.62254897     4.97090346
O     -2.01998275     7.83143451     8.23044982
O      0.00260561     6.63092532     0.19995339
O      1.91330440     7.73230073     3.33117456
O     -0.04148681     8.85742641     6.48520213
O      0.00260561     8.83995473     1.76196664
O      0.10494511     6.57416844     5.01358277
O      1.93946664     7.94158850     8.19150392
O      3.82876826     6.63092532     0.19995339
O      5.73212806     7.74587264     3.38184682
O      3.87772916     8.90413755     6.48837401
O      3.82876826     8.83995473     1.76196664
O      3.74393493     6.61313390     4.99015602
O      5.83785665     7.87078044     8.24609026
O      1.91849241     1.15911912     7.92188121
O      1.59874290     3.56492346     8.99858503
Ce     1.91568694     1.10834185     0.98097142
Ce    -0.02510373     2.21091441     4.10356056
Ce     0.00648160     0.00629959     7.34888119
Ce     5.74184959     1.10834185     0.98097142
Ce     3.85542895     2.21851994     4.11113019
Ce    -1.89399582     9.91479053     7.35490780
Ce     9.56800076     1.10834185     0.98097142
Ce     7.65007375     2.21590596     4.14062384
Ce     7.64185485     0.00629368     7.33857609
Ce     0.00261135     4.42188597     0.98097142
Ce    -1.89702817     5.52198923     4.19471422
Ce     9.48156207     3.33454027     7.37963287
Ce     3.82877400     4.42188597     0.98097142
Ce     1.91374219     5.51837112     4.16327830
Ce     7.65492518     4.42188597     0.98097142
Ce     5.73812615     5.52390968     4.20685836
Ce     5.84890387     3.29869831     7.40279839
Ce    -1.91046998     7.73544003     0.98097142
Ce    -3.82195134     8.85141271     4.16232567
Ce    -3.81801082     6.65629524     7.36412920
Ce     1.91569268     7.73544003     0.98097142
Ce     0.01608160     8.82388369     4.17493970
Ce    -0.00343346     6.68023806     7.52341378
Ce     5.74184385     7.73544003     0.98097142
Ce     3.81840215     8.83583179     4.15684549
Ce     3.83375160     6.75540651     7.41396329
Ta     1.88871703     3.07649522     7.05097643
C      1.01802438     5.45563555    10.32252706
C      0.72091944     4.48996320     9.40531402
C      4.87168358     5.08834518    10.52655689
H      0.23432152     6.10900783    10.70352551
H      1.99841174     5.49199458    10.79012879
H      5.42885315     4.34367222    11.12818008
H      4.51245504     6.00864439    11.02840342
