89
CIF: CH2COCH2.cif | data_image0
O      0.00261135     0.00382715     0.19995339
O      1.92425304     1.11872722     3.34251128
O      0.27875285     2.19401164     6.60408422
O      0.00261135     2.21285656     1.76196664
O      0.00774948     0.03047174     4.96963793
O      3.82876252     0.00382715     0.19995339
O      5.73644979     1.10296742     3.34564645
O      3.46093250     2.41908015     6.70808644
O      3.82876252     2.21285656     1.76196664
O      3.83806522     0.09369819     5.03206956
O      5.71828473     0.98561693     8.15405933
O      7.65492518     0.00382715     0.19995339
O      9.55549500     1.10900594     3.33659580
O      7.67779597     2.19511693     6.52164164
O      7.65492518     2.21285656     1.76196664
O      1.91371939     9.93369373     4.98163776
O      9.59830171     1.15179915     8.13088350
O     -1.91046424     3.31737126     0.19995339
O     -0.00823796     4.42841988     3.31373884
O     -1.91604696     5.55794812     6.47034265
O     -1.91046998     5.52641062     1.76196664
O     -1.84562384     3.27362521     5.00799170
O      0.03751418     4.40550871     7.86788037
O      1.91568694     3.31737126     0.19995339
O      3.81966829     4.42159939     3.34546920
O      2.14583189     5.26579513     6.65145555
O      1.91568120     5.52641062     1.76196664
O      1.83552894     3.37260005     4.94874638
O      4.44463790     4.98709554     8.83494043
O      5.74184959     3.31737126     0.19995339
O      7.66262932     4.38853011     3.36563107
O      5.72549680     5.57437568     6.50574119
O      5.74184385     5.52641062     1.76196664
O      5.67923692     3.27547627     4.99543422
O      7.80733337     4.45751898     8.18285447
O     -3.82354556     6.63092532     0.19995339
O     -1.88105287     7.74088822     3.37946329
O     -3.79450097     8.74669435     6.44722434
O     -3.82354556     8.83995473     1.76196664
O      7.65357162     6.59250626     4.92501265
O     -1.86725356     7.67170916     8.17919022
O      0.00260561     6.63092532     0.19995339
O      1.90786258     7.74962252     3.32740221
O     -0.01125303     8.79562046     6.50570761
O      0.00260561     8.83995473     1.76196664
O      0.10207230     6.57916037     5.02271471
O      1.92977122     7.71401219     8.09229918
O      3.82876826     6.63092532     0.19995339
O      5.73978709     7.73748095     3.35033878
O      3.86235074     8.86566007     6.53945209
O      3.82876826     8.83995473     1.76196664
O      3.79159286     6.65656392     4.97093333
O      5.78658910     7.75356346     8.18440197
O      1.92421624     0.56826742     8.37976315
O      2.26511787     3.38269749     8.95800033
Ce     1.91568694     1.10834185     0.98097142
Ce    -0.00288922     2.19059897     4.11691573
Ce    -5.65693766     9.89798038     7.41764159
Ce     5.74184959     1.10834185     0.98097142
Ce     3.81783215     2.22474624     4.18333330
Ce    -1.95264125     9.88909531     7.43222727
Ce     9.56800076     1.10834185     0.98097142
Ce     7.63337473     2.20735321     4.17586984
Ce     7.64603280     0.01616318     7.33458264
Ce     0.00261135     4.42188597     0.98097142
Ce    -1.90129649     5.51325392     4.15529597
Ce     9.55868234     3.30256624     7.33817932
Ce     3.82877400     4.42188597     0.98097142
Ce     1.93484067     5.54697882     4.11367738
Ce     7.65492518     4.42188597     0.98097142
Ce     5.73899896     5.51649195     4.17743154
Ce     5.74336437     3.31728453     7.48016828
Ce    -1.91046998     7.73544003     0.98097142
Ce    -3.82098098     8.83569044     4.16152861
Ce    -3.79686186     6.59229286     7.33992058
Ce     1.91569268     7.73544003     0.98097142
Ce     0.00351572     8.85296814     4.17146032
Ce     0.00326878     6.63740854     7.34558217
Ce     5.74184385     7.73544003     0.98097142
Ce     3.84050984     8.84714215     4.15774000
Ce     3.91385888     6.73575674     7.37357733
Ta     1.75695230     3.39858978     7.07454187
C      1.46150909     4.62720215    10.81059266
C      2.44593078     4.23980055     9.98173227
C      3.88804859     4.68289897    10.10314069
H      0.45377050     4.22755703    10.70820523
H      1.67143721     5.32537729    11.61971128
H      4.46562083     3.85622374    10.56996954
H      3.95890261     5.54797706    10.78727404
