84
CIF: 1-NH3-NH2+H_fs.cif | data_image0
Ce     5.76756718    10.04299219     8.80025772
Ce     1.92581636     1.08346991     5.57917251
Ce     0.00000000     2.23543938     2.47426506
Ce     3.84283062     0.02107339     8.78102020
Ce     5.80343680     1.12720303     5.62362558
Ce     3.87189458     2.23543938     2.47426506
Ce     1.96211495    10.05933048     8.72189718
Ce     9.68128614     1.11705207     5.57874585
Ce     7.74390532     2.23543938     2.47426506
Ce    -1.88521344     3.26950812     8.69973683
Ce     0.00724000     4.50753562     5.64927719
Ce    -1.93600537     5.58869904     2.47426506
Ce     1.88097628     3.18433383     8.68367179
Ce     3.85756100     4.49128926     5.64182303
Ce     1.93588921     5.58869904     2.47426506
Ce     5.81373097     3.36446182     8.81272314
Ce     7.74992449     4.49204136     5.62611428
Ce     5.80789995     5.58869904     2.47426506
Ce     7.64428178     6.74929342     8.76527452
Ce    -1.87939659     7.79562872     5.62656398
Ce    -3.87195266     8.94185811     2.47426506
Ce     1.90913931     7.81730141     5.65776343
Ce    -0.00005808     8.94185811     2.47426506
Ce     3.85818073     6.81701073     8.79117115
Ce     5.79518909     7.83108711     5.60040473
Ce     3.87195266     8.94185811     2.47426506
Co    -0.61205102     7.23831417     9.44906628
O      5.80413897    10.05124799     6.41315913
O     -0.01598649     2.15876676     9.63749824
O      1.93594729     1.11771969     3.26466483
O      0.00327449     2.22812731     4.80585412
O      0.00000000     0.00000000     1.68386529
O      1.90404520     1.08809406     7.95787551
O     -1.95084285    10.01092744     6.47401285
O      3.83825863     2.17877254     9.58858471
O      5.80795803     1.11771969     3.26466483
O      3.89163528     2.22608002     4.82998839
O      3.87189458     0.00000000     1.68386529
O      5.79478754     1.11528906     8.00419393
O      7.73148827     0.07848525     6.38540023
O      7.75898485     2.26882380     9.53531397
O      9.67985261     1.11771969     3.26466483
O      7.71320745     2.27548161     4.81510505
O      7.74390532     0.00000000     1.68386529
O      9.69108341     1.12944094     7.93235775
O      9.67254074     3.34367679     6.40671513
O     -1.84445655     5.76204542     9.95669130
O      0.00000000     4.47087876     3.26466483
O     -1.98273650     5.57255148     4.81437739
O     -1.93594729     3.35315907     1.68386529
O      0.02439717     4.30509569     8.00989182
O      1.95345356     3.30080569     6.40120327
O      3.87201074     4.47087876     3.26466483
O      1.96661404     5.55429350     4.82197689
O      1.93594729     3.35315907     1.68386529
O      3.66976814     4.48786537     8.14452661
O      5.78967337     3.41962849     6.53570332
O      5.91841496     5.51866869     9.60363861
O      7.74390532     4.47087876     3.26466483
O      5.83049200     5.58093740     4.81764772
O      5.80795803     3.35315907     1.68386529
O      7.88788892     4.54493031     8.02816886
O     -3.86496355     6.75646009     6.46833793
O     -3.91180243     8.93794321     9.58514433
O     -1.93600537     7.82413842     3.26466483
O     -3.86530873     8.93592785     4.80056285
O     -3.87195266     6.70641873     1.68386529
O     -1.87145969     7.73454186     8.16766301
O     -0.01240457     6.69924531     6.21102084
O     -0.10862026     8.97933299     9.67184846
O      1.93600537     7.82413842     3.26466483
O     -0.01235556     8.99406562     4.81475747
O     -0.00005808     6.70641873     1.68386529
O      2.03467970     7.99645339     7.91109708
O      3.90003223     6.67613635     6.38428640
O      3.87903475     9.12306568     9.67813650
O      5.80789995     7.82413842     3.26466483
O      3.87194449     8.94813080     4.81154637
O      3.87195266     6.70641873     1.68386529
O      5.79213130     7.85055519     7.98682027
N      0.79035265     6.61752715    10.46418746
H     -1.78868437     5.66578672    10.92536136
H      1.25947539     7.36375093    10.99103961
H      0.58244645     5.84796637    11.11104468
