86
CIF: 3-NH2NO+H-NHNO+2H_ts.cif | data_image0
Ce     5.80828389    10.03490722     8.77660169
Ce     1.93725776     1.10213566     5.60241672
Ce     0.00000000     2.23543938     2.47426506
Ce    -1.94231185    10.04481025     8.79159672
Ce     5.81079645     1.10184933     5.63060232
Ce     3.87189458     2.23543938     2.47426506
Ce     7.79871804     0.04081679     8.76600550
Ce     9.68825943     1.11700664     5.59487818
Ce     7.74390532     2.23543938     2.47426506
Ce    -1.88434738     3.28269664     8.75133747
Ce     0.00604086     4.46573486     5.67740164
Ce    -1.93600537     5.58869904     2.47426506
Ce     1.90037229     3.21607744     8.77383223
Ce     3.86251215     4.47199813     5.65287369
Ce     1.93588921     5.58869904     2.47426506
Ce     5.81501495     3.34867243     8.78069498
Ce     7.75586009     4.47140332     5.61837180
Ce     5.80789995     5.58869904     2.47426506
Ce     7.71204349     6.69780524     8.76372678
Ce    -1.92971503     7.81144226     5.60327252
Ce    -3.87195266     8.94185811     2.47426506
Ce     1.95182409     7.81181437     5.60325558
Ce    -0.00005808     8.94185811     2.47426506
Ce     3.91665589     6.73795587     8.83212793
Ce     5.80558971     7.81763993     5.61703073
Ce     3.87195266     8.94185811     2.47426506
Co     0.01121001     7.70850843     8.03803171
O      5.81040091    10.04707230     6.41951756
O      0.01306160     2.11115782     9.62650047
O      1.93594729     1.11771969     3.26466483
O      0.01007040     2.23044395     4.81530043
O      0.00000000     0.00000000     1.68386529
O      1.93535656     1.08645874     7.97539514
O     -1.94641630    10.03232753     6.46048731
O      3.85810989     2.15276095     9.59273636
O      5.80795803     1.11771969     3.26466483
O      3.88802342     2.22388655     4.82807962
O      3.87189458     0.00000000     1.68386529
O      5.81369498     1.09799613     8.00833814
O      7.76953852     0.00879324     6.43064851
O      7.76884352     2.24206015     9.55705621
O      9.67985261     1.11771969     3.26466483
O      7.72485339     2.23478512     4.81686703
O      7.74390532     0.00000000     1.68386529
O      9.70739397     1.14044735     7.94013742
O      9.67848566     3.33811656     6.39621041
O     -2.39434810     5.31899161    10.20096653
O      0.00000000     4.47087876     3.26466483
O     -1.93158842     5.58844057     4.82207411
O      9.67985261     3.35315907     1.68386529
O      0.00418437     4.27700196     8.01214565
O      1.95021931     3.31419084     6.42788298
O      3.87201074     4.47087876     3.26466483
O      1.93706692     5.57427705     4.83224952
O      1.93594729     3.35315907     1.68386529
O      3.77930841     4.42155174     8.05694322
O      5.80265973     3.36390105     6.48119857
O      5.93678532     5.50598381     9.58210544
O      7.74390532     4.47087876     3.26466483
O      5.81437372     5.57883323     4.82523044
O      5.80795803     3.35315907     1.68386529
O      7.84020122     4.48943286     7.94505631
O     -3.85973669     6.72749494     6.43658205
O     -3.81994141     8.90275116     9.56609080
O     -1.93600537     7.82413842     3.26466483
O     -3.86837902     8.93935480     4.80562190
O      7.74384724     6.70641873     1.68386529
O     -1.81931369     7.73099392     8.04294415
O      0.00282618     6.71452084     6.43326585
O      0.07444827     8.83784626     9.62261513
O      1.93600537     7.82413842     3.26466483
O      0.00238807     8.95575071     4.80487833
O     -0.00005808     6.70641873     1.68386529
O      1.82581785     7.81757599     7.97839006
O      3.88128401     6.70850512     6.41375918
O      3.86817306     9.07985948     9.58226870
O      5.80789995     7.82413842     3.26466483
O      3.87772582     8.94184700     4.80421643
O      3.87195266     6.70641873     1.68386529
O      5.85708900     7.83395187     7.99060604
O      2.10449614     5.56793047    10.21653848
H     -2.86788617     5.03345526    11.00624373
H      0.27894794     7.65477018    10.25501333
H     -0.87108372     6.17592870    10.66896044
N      0.13067282     6.48923744    10.59373150
N      0.83840630     5.43320482    10.50655188
