86
CIF: 4-NHNO+2H-N2+OH+2H_is.cif | data_image0
Ce     5.78935162    10.03330498     8.77340204
Ce     1.92476253     1.10617433     5.58500409
Ce     0.00000000     2.23543938     2.47426506
Ce     3.79488943     0.01787203     8.75753374
Ce     5.80776643     1.10680737     5.62673499
Ce     3.87189458     2.23543938     2.47426506
Ce     7.82801337     0.06853440     8.74431953
Ce     9.69031338     1.12275328     5.58738413
Ce     7.74390532     2.23543938     2.47426506
Ce    -1.88311781     3.30608983     8.75938545
Ce     0.00313836     4.47981538     5.68418023
Ce    -1.93600537     5.58869904     2.47426506
Ce     1.89063373     3.22507897     8.74963840
Ce     3.86021857     4.47851590     5.64935956
Ce     1.93588921     5.58869904     2.47426506
Ce     5.81090908     3.34875870     8.76591909
Ce     7.75625574     4.47592266     5.61863192
Ce     5.80789995     5.58869904     2.47426506
Ce     7.69910866     6.68970966     8.77353558
Ce    -1.93953415     7.82070043     5.60491859
Ce    -3.87195266     8.94185811     2.47426506
Ce     1.94581549     7.81776734     5.61613293
Ce    -0.00005808     8.94185811     2.47426506
Ce     3.89179390     6.70885384     8.87901607
Ce     5.79090136     7.81531563     5.62740682
Ce     3.87195266     8.94185811     2.47426506
Co    -0.02376629     7.70997992     8.07835573
O      5.79874032    10.03949106     6.41164071
O     -0.00341510     2.13917173     9.63069304
O      1.93594729     1.11771969     3.26466483
O      0.00227182     2.23491774     4.81043338
O      0.00000000     0.00000000     1.68386529
O      1.89911874     1.08142907     7.95275347
O     -1.96252398    10.05280293     6.43953758
O      3.83854206     2.14930221     9.55863603
O      5.80795803     1.11771969     3.26466483
O      3.88489422     2.22954589     4.82257953
O      3.87189458     0.00000000     1.68386529
O      5.80688039     1.06980779     8.00891377
O      7.77435842     0.01558667     6.42639461
O      7.76535986     2.22577686     9.53257446
O      9.67985261     1.11771969     3.26466483
O      7.73231945     2.23809377     4.81555591
O      7.74390532     0.00000000     1.68386529
O      9.71232879     1.15093503     7.92901678
O     -1.92761019     3.35518315     6.40379295
O     -2.36251146     5.30673023    10.08262077
O      0.00000000     4.47087876     3.26466483
O     -1.92903578     5.59809193     4.82557509
O     -1.93594729     3.35315907     1.68386529
O      0.01816830     4.31586790     8.04227760
O      1.93328649     3.32008476     6.40857422
O      3.87201074     4.47087876     3.26466483
O      1.92366826     5.58606801     4.83603535
O      1.93594729     3.35315907     1.68386529
O      3.80397797     4.41293988     7.99985866
O      5.81494832     3.34821347     6.46932209
O      5.91278478     5.49811353     9.56949380
O      7.74390532     4.47087876     3.26466483
O      5.80950795     5.58036778     4.82996247
O      5.80795803     3.35315907     1.68386529
O      7.82557913     4.49140099     7.94258412
O     -3.86791732     6.72940275     6.44326679
O     -3.85107270     8.91619231     9.56866441
O     -1.93600537     7.82413842     3.26466483
O     -3.87508614     8.93772975     4.80393850
O     -3.87195266     6.70641873     1.68386529
O     -1.85025011     7.77630325     8.03024725
O     -0.00925239     6.73277385     6.46613359
O     -0.01577020     8.88076656     9.68019962
O      1.93600537     7.82413842     3.26466483
O     -0.00092843     8.95556864     4.80947913
O     -0.00005808     6.70641873     1.68386529
O      1.79242667     7.84356517     8.00900702
O      3.85887229     6.71934005     6.42582909
O      3.86438922     9.09784839     9.57128913
O      5.80789995     7.82413842     3.26466483
O      3.87103056     8.94262397     4.80247146
O      3.87195266     6.70641873     1.68386529
O      5.83337430     7.82340941     8.00383323
O      2.20702202     5.13863361    10.26388994
H     -2.27557504     5.42715510    11.04419947
H      0.09165977     8.19129895    10.39590405
H      0.04589868     5.63764773    10.82084507
N      0.59785716     6.51231901    10.98614105
N      1.80250715     6.34518048    10.68533144
