84
CIF: 6-OH+2H-H2O+H_fs.cif | data_image0
Ce    11.59683785     0.01161744     8.78209386
Ce     1.92701258     1.12405349     5.60681070
Ce     0.00000000     2.23543938     2.47426506
Ce     3.82192280     0.04291618     8.78655016
Ce     5.80231721     1.10838635     5.62098360
Ce     3.87189458     2.23543938     2.47426506
Ce     7.80272007     0.06430804     8.76281156
Ce     9.68272427     1.11589543     5.58870961
Ce     7.74390532     2.23543938     2.47426506
Ce    -1.90632432     3.30239642     8.75265796
Ce    -0.00891951     4.45915346     5.69714876
Ce    -1.93600537     5.58869904     2.47426506
Ce     1.88291286     3.25206003     8.80385419
Ce     3.85908352     4.47554450     5.66211122
Ce     1.93588921     5.58869904     2.47426506
Ce     5.81180881     3.34372486     8.77535757
Ce     7.74465183     4.47436800     5.62471202
Ce     5.80789995     5.58869904     2.47426506
Ce     7.71566253     6.70076946     8.79575423
Ce    -1.96037120     7.82750552     5.59286850
Ce    -3.87195266     8.94185811     2.47426506
Ce     1.96065498     7.81379154     5.59778482
Ce    -0.00005808     8.94185811     2.47426506
Ce     4.00506039     6.74986153     8.80693801
Ce     5.80952933     7.83051368     5.61122254
Ce     3.87195266     8.94185811     2.47426506
Co    -0.02563678     7.67625079     8.12924244
O      5.79909282    10.05789819     6.40264841
O     -0.12464640     2.09546783     9.66198031
O      1.93594729     1.11771969     3.26466483
O     -0.00284013     2.23884985     4.81503485
O      0.00000000     0.00000000     1.68386529
O      1.91494231     1.07295183     7.96713688
O     -1.95430142    10.03402980     6.44774990
O      3.97969897     2.11685620     9.63141332
O      5.80795803     1.11771969     3.26466483
O      3.88517627     2.22488398     4.82424864
O      3.87189458     0.00000000     1.68386529
O      5.82972704     1.11196704     7.94872405
O      1.95649072     9.99869350     6.44804509
O      7.74547899     2.20150165     9.55858323
O      9.67985261     1.11771969     3.26466483
O      7.72073888     2.21721791     4.81817838
O      7.74390532     0.00000000     1.68386529
O      9.67502450     1.13316001     7.90771268
O      9.65359787     3.33978553     6.37398687
O     -2.26940874     5.38761721     9.99745560
O      0.00000000     4.47087876     3.26466483
O     -1.91809482     5.60853925     4.83291087
O     -1.93594729     3.35315907     1.68386529
O     -0.08595200     4.35805187     7.99365297
O      1.94008375     3.34178451     6.38533459
O      3.87201074     4.47087876     3.26466483
O      1.91187143     5.60417185     4.84379090
O      1.93594729     3.35315907     1.68386529
O      3.85502115     4.47381275     8.04604406
O      5.80006318     3.36577042     6.44851283
O      5.94550495     5.55399490     9.61646844
O      7.74390532     4.47087876     3.26466483
O      5.81125771     5.59016901     4.82512204
O      5.80795803     3.35315907     1.68386529
O      7.78986009     4.47890706     7.95955035
O     -3.85686722     6.72898677     6.43937123
O     -3.83647708     8.92158312     9.58509442
O     -1.93600537     7.82413842     3.26466483
O     -3.87268327     8.94280117     4.80068427
O     -3.87195266     6.70641873     1.68386529
O     -1.84632914     7.75527393     8.04264007
O     -0.00555946     6.79446019     6.50007328
O     -0.00908368     8.89014050     9.46592832
O      1.93600537     7.82413842     3.26466483
O     -0.00288254     8.94276922     4.80697575
O     -0.00005808     6.70641873     1.68386529
O      1.79166848     7.70440828     8.10214453
O      3.87265464     6.74411261     6.40658571
O      3.84993390     9.08463565     9.58018001
O      5.80789995     7.82413842     3.26466483
O      3.87253584     8.94350698     4.79096371
O      3.87195266     6.70641873     1.68386529
O      5.86753774     7.85610691     7.97559204
O      1.81985650     5.74529960    10.26413993
H     -1.46791479     5.89209415    10.22865900
H      1.27367900     6.37440089     9.72181465
H      1.60405833     5.93757645    11.19443850
