82
CIF: O2.cif | data_image0
Ce     5.80593627    10.05893417     8.80022239
Ce     1.92983941     1.10876114     5.58735869
Ce     0.00000000     2.23543938     2.47426506
Ce     3.83648532     0.02149643     8.74709397
Ce     5.80435282     1.11886756     5.62271601
Ce     3.87189458     2.23543938     2.47426506
Ce     1.98637135    10.04520441     8.73262537
Ce     9.68242283     1.11550579     5.59667788
Ce     7.74390532     2.23543938     2.47426506
Ce    -1.89990992     3.31341782     8.73319141
Ce     0.00278838     4.49167382     5.66891027
Ce    -1.93600537     5.58869904     2.47426506
Ce     1.89206198     3.25072703     8.72030660
Ce     3.87055150     4.47115091     5.62818229
Ce     1.93588921     5.58869904     2.47426506
Ce     5.80513266     3.35421526     8.78166812
Ce     7.74122100     4.47287917     5.62271486
Ce     5.80789995     5.58869904     2.47426506
Ce     7.70713682     6.72495271     8.74724380
Ce    -1.90325175     7.80482087     5.61978408
Ce    -3.87195266     8.94185811     2.47426506
Ce     1.91871241     7.81012291     5.66834666
Ce    -0.00005808     8.94185811     2.47426506
Ce     3.93785845     6.79281794     8.71945222
Ce     5.81222465     7.83279076     5.58715854
Ce     3.87195266     8.94185811     2.47426506
Co    -0.54835030     7.02084563     8.84627118
O      5.80782720    10.05853293     6.40516203
O     -0.00229142     2.15309749     9.63541736
O      1.93594729     1.11771969     3.26466483
O     -0.00197158     2.24478900     4.81910087
O      0.00000000     0.00000000     1.68386529
O      1.91603321     1.10783966     7.94834699
O      3.86987343     0.01437247     6.42569043
O      3.85288852     2.20854551     9.55577200
O      5.80795803     1.11771969     3.26466483
O      3.88955414     2.23146529     4.80176163
O      3.87189458     0.00000000     1.68386529
O      5.81341611     1.10498745     8.01386843
O      7.72642380     0.04561456     6.40925096
O      7.76504107     2.22217790     9.55057968
O      9.67985261     1.11771969     3.26466483
O      7.72369167     2.24671996     4.80553499
O      7.74390532     0.00000000     1.68386529
O      9.68764701     1.11214906     7.95682574
O      9.63101153     3.34418951     6.40896666
O     -1.83984876     5.76687167     9.36963155
O      0.00000000     4.47087876     3.26466483
O     -1.92145871     5.59606834     4.83059939
O     -1.93594729     3.35315907     1.68386529
O      0.01474284     4.17668658     7.91838925
O      1.99243589     3.32816523     6.39542162
O      3.87201074     4.47087876     3.26466483
O      1.91497805     5.59994889     4.84251630
O      1.93594729     3.35315907     1.68386529
O      3.81281800     4.50480232     8.05746068
O      5.79035837     3.36321502     6.47224108
O      5.82225108     5.61630197     9.55637868
O      7.74390532     4.47087876     3.26466483
O      5.81984922     5.57511016     4.80182710
O      5.80795803     3.35315907     1.68386529
O      7.75776808     4.47090069     8.01337706
O      7.73003745     6.69990672     6.42516313
O     -3.89581789     8.95354139     9.56717147
O     -1.93600537     7.82413842     3.26466483
O     -3.86130809     8.93551934     4.80565950
O     -3.87195266     6.70641873     1.68386529
O     -2.01634979     7.86928893     7.94803791
O     -0.01864457     6.71636487     6.58137637
O     -0.10902358     8.76869822     9.36910128
O      1.93600537     7.82413842     3.26466483
O      0.00035876     8.92525481     4.83051667
O     -0.00005808     6.70641873     1.68386529
O      2.19672386     7.95583597     7.91821804
O      3.92081166     6.66921400     6.39446251
O      3.94096548     8.98302497     9.63430157
O      5.80789995     7.82413842     3.26466483
O      3.86218780     8.93831580     4.81899827
O      3.87195266     6.70641873     1.68386529
O      5.80530077     7.84340521     7.94789282
O      0.71212039     6.29850485     9.94787379
O      1.84655812     5.63814229     9.54095575
