83
CIF: Cu-W-CeO2-O.cif | data_image0
Ce     1.93596140     1.11772783     0.89035214
Ce     0.02495823     2.23804512     4.03484948
Ce    -5.76099727    10.02058706     7.17987046
Ce     5.80789581     1.11772783     0.89035214
Ce     3.85480157     2.24924853     4.07459821
Ce     3.82024346     0.04471132     7.29426859
Ce     9.67981860     1.11772783     0.89035214
Ce     7.80907941     2.18853879     3.93265725
Ce     1.92887418     9.99949310     7.18750655
Ce     0.00000000     4.47091133     0.89035214
Ce    -1.96862005     5.60165364     4.04261535
Ce    -1.85935354     3.41126693     7.12275966
Ce     3.87193441     4.47091133     0.89035214
Ce     1.91516197     5.60100605     4.05100232
Ce     1.93894974     3.45730990     7.28877182
Ce     7.74385721     4.47091133     0.89035214
Ce     5.78636108     5.60266666     4.06239508
Ce    -1.93596721     7.82410489     0.89035214
Ce    -3.88301847     8.94701820     4.06371277
Ce     7.67372176     6.70944293     7.31827572
Ce     1.93596721     7.82410489     0.89035214
Ce    -0.02092016     8.96526565     4.06327228
Ce    -0.06946521     6.75968532     7.21941564
Ce     5.80789000     7.82410489     0.89035214
Ce     3.87486463     8.92073405     4.05856047
Ce     3.74814753     6.65817825     7.31776072
W      6.11519146     3.21929635     6.85968761
Cu     9.32261343     1.45641386    10.01722213
O      0.00000000     0.00000000     0.09999685
O      1.93810980     1.12301693     3.22539026
O     -0.12505166     2.19913733     6.38899960
O      0.00000000     2.23545567     1.68070743
O     -5.78662208    10.05112057     4.83485002
O      1.84783426     1.23136876     7.96663245
O      3.87192279     0.00000000     0.09999685
O      5.79981220     1.13430086     3.22152991
O      4.11834001     2.67647745     6.46562384
O      3.87192279     2.23545567     1.68070743
O      3.84139016     0.10152257     4.87681511
O      5.90171818     1.73951661     7.96235948
O      7.74385721     0.00000000     0.09999685
O      9.71325160     1.10109724     3.21298940
O      7.73591757     2.26377861     6.27246077
O      7.74385721     2.23545567     1.68070743
O      1.93998909    10.05422180     4.78554464
O      9.65668047     1.23174541     8.28812617
O     -1.93596140     3.35318350     0.09999685
O      0.00677915     4.48592368     3.23966171
O     -1.99403253     5.52368059     6.39862919
O     -1.93596721     5.58864923     1.68070743
O     -1.92650770     3.35833951     4.79431883
O     -0.08840825     4.46927831     7.98339680
O      1.93596140     3.35318350     0.09999685
O      3.89409941     4.46156577     3.27745916
O      1.84562368     5.62486058     6.30346475
O      1.93595559     5.58864923     1.68070743
O      1.92696551     3.30721504     4.87977622
O      5.80789581     3.35318350     0.09999685
O      7.72979694     4.47221673     3.21400442
O      5.53765520     5.12889698     6.54193168
O      5.80789000     5.58864923     1.68070743
O      5.96564102     3.27900843     4.88036474
O      7.41994213     4.13701992     7.89049339
O     -3.87192860     6.70637706     0.09999685
O     -1.97803089     7.84208077     3.26031412
O     -3.90595711     8.95586124     6.42832341
O     -3.87192860     8.94183273     1.68070743
O      7.63333023     6.66616479     4.88994649
O     -1.85962893     7.76375525     8.06605147
O     -0.00000581     6.70637706     0.09999685
O      1.93101655     7.80489522     3.24866244
O     -0.00833310     9.01285665     6.40645164
O     -0.00000581     8.94183273     1.68070743
O     -0.07686168     6.74681703     4.84521350
O      3.87192860     6.70637706     0.09999685
O      5.80307816     7.81551952     3.22851553
O      3.87377359     9.05670595     6.41060347
O      3.87192860     8.94183273     1.68070743
O      3.91566786     6.72573529     4.90048065
O      5.66984906     7.83578182     7.99345379
O      1.87659937     7.79638948     8.01178446
O      3.25940065     4.79876546     8.35136067
O      8.93389094     1.69095645    11.65079478
