89
CIF: CH2+CH2CO.cif | data_image0
O      0.00261135     0.00382715     0.19995339
O      1.91452865     1.09322856     3.30398631
O      0.08977353     2.51592256     6.60436892
O      0.00261135     2.21285656     1.76196664
O      0.00479139     0.09921724     4.99991729
O      1.88974345     1.13088693     7.80925318
O      3.82876252     0.00382715     0.19995339
O      5.74351601     1.09211088     3.32555273
O      3.68735592     2.61448306     6.75134796
O      3.82876252     2.21285656     1.76196664
O      3.81225940     0.12862206     5.02548683
O      5.69616378     1.02975197     8.16088100
O      7.65492518     0.00382715     0.19995339
O      9.56039784     1.09823287     3.32512302
O      7.67687189     2.21052462     6.53015841
O      7.65492518     2.21285656     1.76196664
O      7.64873128     0.00191056     4.96254666
O      9.60991698     1.16580938     8.14513423
O     -1.91046424     3.31737126     0.19995339
O      0.00685644     4.41825806     3.34047382
O     -1.93184526     5.48657009     6.55339495
O     -1.91046998     5.52641062     1.76196664
O      9.57166695     3.28563447     4.97131369
O      1.91568694     3.31737126     0.19995339
O      3.82238421     4.43101202     3.34114735
O      1.92966535     5.07418733     6.72466419
O      1.91568120     5.52641062     1.76196664
O      1.93073092     3.22474298     4.93310324
O      4.74548480     4.92010117     9.32825558
O      5.74184959     3.31737126     0.19995339
O      7.65414502     4.42031421     3.35724355
O      5.74006862     5.53019400     6.57645744
O      5.74184385     5.52641062     1.76196664
O      5.72885737     3.28225378     4.95471696
O      7.72148938     4.43286247     8.28070751
O     -3.82354556     6.63092532     0.19995339
O     -1.90091511     7.75176618     3.38849055
O     -3.83376704     8.78829808     6.45448961
O     -3.82354556     8.83995473     1.76196664
O      7.65302467     6.60464041     4.96501078
O     -2.03253611     7.83593816     8.21904750
O      0.00260561     6.63092532     0.19995339
O      1.91017703     7.73650764     3.33343553
O     -0.04964114     8.87455159     6.48242443
O      0.00260561     8.83995473     1.76196664
O      0.07801919     6.58863484     5.00647322
O      1.90785546     7.89804361     8.19291472
O      3.82876826     6.63092532     0.19995339
O      5.72990971     7.74711127     3.38287563
O      3.85846084     8.90545203     6.50238657
O      3.82876826     8.83995473     1.76196664
O      3.74766493     6.61894891     4.99393292
O      5.83510741     7.85497338     8.24142482
O     -0.29855478     4.48603836     8.73208423
O      1.78965828     3.53432444     8.95990660
Ce     1.91568694     1.10834185     0.98097142
Ce    -0.01452334     2.21779195     4.11072907
Ce     0.01162713     0.01475731     7.33681203
Ce     5.74184959     1.10834185     0.98097142
Ce     3.84571100     2.22529973     4.11249354
Ce    -1.92933644     9.93810507     7.35017309
Ce     9.56800076     1.10834185     0.98097142
Ce     7.65267408     2.21297481     4.14262885
Ce     7.63014492     0.00476103     7.34041438
Ce     0.00261135     4.42188597     0.98097142
Ce    -1.90382021     5.51701521     4.19261713
Ce     9.49201002     3.32778883     7.39767781
Ce     3.82877400     4.42188597     0.98097142
Ce     1.91135659     5.51839730     4.15308221
Ce     7.65492518     4.42188597     0.98097142
Ce     5.73259325     5.52193677     4.20215040
Ce     5.82915493     3.29056944     7.38686369
Ce    -1.91046998     7.73544003     0.98097142
Ce    -3.82696424     8.85423313     4.15830667
Ce    -3.83094076     6.65624088     7.35445127
Ce     1.91569268     7.73544003     0.98097142
Ce     0.00885475     8.83291899     4.16936677
Ce    -0.03505611     6.70221993     7.46684452
Ce     5.74184385     7.73544003     0.98097142
Ce     3.81490911     8.83944527     4.15774838
Ce     3.83475100     6.75846954     7.41255529
Ru     1.85639249     3.17805933     7.00827941
C      0.95192570     4.83087283    10.71597219
C      0.80410014     4.27796480     9.46179405
C      5.28650358     5.17387492    10.40508107
H      0.12913224     5.38094502    11.16698637
H      1.86759656     4.66607350    11.27902979
H      5.95670759     4.43664672    10.88774698
H      5.12263909     6.14918058    10.90446350
