     142
 i =      175, time =      175.000, E =     -7795.1234096986
  O         3.8260000000        2.2080000000        0.0000000000
  O         7.6520000000        2.2080000000        0.0000000000
  O        11.4780000000        2.2080000000        0.0000000000
  O        15.3050000000        2.2080000000        0.0000000000
  O         5.7390000000        5.5220000000        0.0000000000
  O         9.5650000000        5.5220000000        0.0000000000
  O        13.3910000000        5.5220000000        0.0000000000
  O        17.2180000000        5.5220000000        0.0000000000
  O         7.6520000000        8.8350000000        0.0000000000
  O        11.4780000000        8.8350000000        0.0000000000
  O        15.3050000000        8.8350000000        0.0000000000
  O        19.1310000000        8.8350000000        0.0000000000
  O         9.5650000000       12.1490000000        0.0000000000
  O        13.3910000000       12.1490000000        0.0000000000
  O        17.2180000000       12.1490000000        0.0000000000
  O        21.0440000000       12.1490000000        0.0000000000
  O         1.9130000000        3.3130000000        1.5620000000
  O         5.7390000000        3.3130000000        1.5620000000
  O         9.5650000000        3.3130000000        1.5620000000
  O        13.3910000000        3.3130000000        1.5620000000
  O         3.8260000000        6.6260000000        1.5620000000
  O         7.6520000000        6.6260000000        1.5620000000
  O        11.4780000000        6.6260000000        1.5620000000
  O        15.3050000000        6.6260000000        1.5620000000
  O         5.7390000000        9.9400000000        1.5620000000
  O         9.5650000000        9.9400000000        1.5620000000
  O        13.3910000000        9.9400000000        1.5620000000
  O        17.2180000000        9.9400000000        1.5620000000
  O         7.6520000000       13.2530000000        1.5620000000
  O        11.4780000000       13.2530000000        1.5620000000
  O        15.3050000000       13.2530000000        1.5620000000
  O        19.1310000000       13.2530000000        1.5620000000
  O         1.7999825365        1.2446746365        3.1689707214
  O         5.5819530047        1.1376163008        3.1044875849
  O         9.5480385238        1.0685294522        3.1546593198
  O        13.3754939931        1.1272852899        3.2429127022
  O         3.7596281249        4.3231276850        3.2172980190
  O         7.7165682764        4.6480059789        3.1374249614
  O        11.2685724354        4.3972390394        3.3431436484
  O        15.3024603504        4.2976194014        3.0287245538
  O         5.6637309577        7.6965288360        3.1234337528
  O         9.4961399492        7.6813135672        3.3232471927
  O        13.4010473100        7.7150094064        3.1941156002
  O        17.2827720114        7.6130797652        3.0249525250
  O         7.4627846850       11.1025187955        3.0397934327
  O        11.5521810592       10.9681813976        3.0233440569
  O        15.3394354860       11.1308690051        3.1545926168
  O        18.9145781692       11.0482488401        3.0148347089
  O         3.7850777456        2.5417038803        5.3299259975
  O         7.4929189174        2.1576760142        4.4864024850
  O        11.6405698598        2.2270234906        4.6756995512
  O        15.2904966384        2.3987619375        5.0288678593
  O         5.6317252219        5.4075825212        4.6931815305
  O         8.5047004996        4.0474606004        5.8894922016
  O        13.6949186837        5.5773272914        4.7513895240
  O        17.3411651707        5.5147918523        4.7914853548
  O         7.5326367202        8.8677842530        4.5273785285
  O        11.6228147610        8.8184838560        4.6875067040
  O        15.2582399775        8.8654201557        4.7425355102
  O        18.9883912221        8.9098688776        4.7061501411
  O         9.6383363184       11.9844976923        4.3608504989
  O        13.4612193992       12.1233313610        4.5616326635
  O        17.2451564216       12.4121906571        4.9519169985
  O        20.7746157708       12.1851651225        4.5621738238
 Ce         1.9130000000        1.1040000000        0.7810000000
 Ce         5.7390000000        1.1040000000        0.7810000000
 Ce         9.5650000000        1.1040000000        0.7810000000
 Ce        13.3910000000        1.1040000000        0.7810000000
 Ce         3.8260000000        4.4170000000        0.7810000000
 Ce         7.6520000000        4.4170000000        0.7810000000
 Ce        11.4780000000        4.4170000000        0.7810000000
 Ce        15.3050000000        4.4170000000        0.7810000000
 Ce         5.7390000000        7.7310000000        0.7810000000
 Ce         9.5650000000        7.7310000000        0.7810000000
 Ce        13.3910000000        7.7310000000        0.7810000000
 Ce        17.2180000000        7.7310000000        0.7810000000
 Ce         7.6520000000       11.0440000000        0.7810000000
 Ce        11.4780000000       11.0440000000        0.7810000000
 Ce        15.3050000000       11.0440000000        0.7810000000
 Ce        19.1310000000       11.0440000000        0.7810000000
 Ce         1.8373441096        3.3251764335        3.9647985726
 Ce         5.6425895367        3.2231896079        4.0131667437
 Ce         9.5300127561        3.1972880655        4.0362264726
 Ce        13.5050963926        3.0719061288        3.9718356803
 Ce        19.0527067563        6.5102596845        3.8751736726
 Ce         7.4690910809        6.6337690216        3.9349172199
 Ce        11.6163315240        6.6220555044        3.9272544333
 Ce        15.4117134068        6.6588051628        4.0512970207
 Ce        20.9314151900        9.9894373444        3.8757347438
 Ce         9.5688306071        9.8864278700        3.8472671755
 Ce        13.5262487359        9.9495539127        3.8630545757
 Ce        17.2583595390        9.9402144725        3.9783922727
 Ce        15.2353569857       -0.0426410397        3.8611100504
 Ce         3.8186090072       -0.1345350972        3.8721211308
 Ce        15.2235209260       13.2518882716        4.0186732392
 Ce        19.1189357833       13.4060799495        4.0797298623
 Pt         9.6788853723        5.6790271714        6.3604881696
 Pt        13.8870200734        5.6384232531        6.7568242141
 Pt        11.8233100698        9.5627356940        6.6362526141
 Pt         9.4029959590        3.0157643732        7.6601699490
 Pt        11.3229705834        2.8467628824        9.5300715738
 Pt         7.2281109747        7.1881636357        7.0122143833
 Pt        11.7208188636        4.1167099364        7.2726749739
 Pt        13.7232246518        4.3117097926        9.1188395322
 Pt         7.5313161929        9.9076259787        6.3572236117
 Pt         9.4520895325        8.2459278405        6.9502940780
 Pt        11.8078427462        7.1901659017        7.5594632989
 Pt        14.0574982648        7.0252075126        8.9614041341
 Pt         9.7186342886       11.7900114607        6.7231827661
 Pt        12.1080339375       12.0245795733        7.8350626773
 Pt        13.4240418870        9.7597522082        8.8906048130
 Pt         8.8013631319        3.3060751931       10.2174098415
 Pt         5.9847899930        7.0573118438        9.4415425569
 Pt         7.7543342081        5.1635862134        8.5629296160
 Pt        11.1994803155        5.5968512220        9.5207786974
 Pt        13.1821213089        3.2868483935       11.5317108808
 Pt         7.4380134723        9.1624347397        9.1946113369
 Pt        10.7990125355        9.1570116308        9.0704049480
 Pt        13.4765104739        5.9256982508       11.3872458161
 Pt         7.3962362307       11.9181530756        8.0041580832
 Pt         9.6024530520       11.7673314622        9.3383685227
 Pt        11.0874112917        7.5100483766       11.5679540749
 Pt        13.5127541992        8.5302434769       11.2383268052
 Pt        12.0403200756       11.5017076887       10.4641900786
 Pt         5.8604757360        6.4632455063       12.1559728968
 Pt         8.1797625436        5.3389974122       11.7006641810
 Pt        10.6201938446        4.1624496889       11.8330888790
 Pt         6.1139960104        8.9518523136       11.5434108888
 Pt         9.0356620987        7.0740776392        9.9736334354
 Pt        10.0534288319        6.1753993324       13.4443920649
 Pt        12.4813783537        4.9724785192       13.6552490421
 Pt         7.3553626603       11.3152117045       10.7096317440
 Pt         9.2194006831        9.5410944883       11.2807405428
 Pt        12.5969820795        7.5533188813       13.6980918526
 Pt         9.8831739050       11.7815368547       12.1541949246
 Pt        11.7935376244       10.1123594941       12.6927566961
 Pt         7.8591666298        7.7060422544       13.0185648753
 Pt         7.8326083919       10.5130626766       13.4061221669
 Pt         9.9814908301        8.7420416201       14.1007086424
 Pt         3.2346798627        0.8167537729        6.3252689127
 Pt        15.9078260375        0.5854348328        6.4968602924
 Pt        16.9572338371       13.9844289690        6.4684167752
     142
 i =      176, time =      176.000, E =     -7795.1210182118
  O         3.8260000000        2.2080000000        0.0000000000
  O         7.6520000000        2.2080000000        0.0000000000
  O        11.4780000000        2.2080000000        0.0000000000
  O        15.3050000000        2.2080000000        0.0000000000
  O         5.7390000000        5.5220000000        0.0000000000
  O         9.5650000000        5.5220000000        0.0000000000
  O        13.3910000000        5.5220000000        0.0000000000
  O        17.2180000000        5.5220000000        0.0000000000
  O         7.6520000000        8.8350000000        0.0000000000
  O        11.4780000000        8.8350000000        0.0000000000
  O        15.3050000000        8.8350000000        0.0000000000
  O        19.1310000000        8.8350000000        0.0000000000
  O         9.5650000000       12.1490000000        0.0000000000
  O        13.3910000000       12.1490000000        0.0000000000
  O        17.2180000000       12.1490000000        0.0000000000
  O        21.0440000000       12.1490000000        0.0000000000
  O         1.9130000000        3.3130000000        1.5620000000
  O         5.7390000000        3.3130000000        1.5620000000
  O         9.5650000000        3.3130000000        1.5620000000
  O        13.3910000000        3.3130000000        1.5620000000
  O         3.8260000000        6.6260000000        1.5620000000
  O         7.6520000000        6.6260000000        1.5620000000
  O        11.4780000000        6.6260000000        1.5620000000
  O        15.3050000000        6.6260000000        1.5620000000
  O         5.7390000000        9.9400000000        1.5620000000
  O         9.5650000000        9.9400000000        1.5620000000
  O        13.3910000000        9.9400000000        1.5620000000
  O        17.2180000000        9.9400000000        1.5620000000
  O         7.6520000000       13.2530000000        1.5620000000
  O        11.4780000000       13.2530000000        1.5620000000
  O        15.3050000000       13.2530000000        1.5620000000
  O        19.1310000000       13.2530000000        1.5620000000
  O         1.8003171285        1.2497123704        3.1668320393
  O         5.5812031016        1.1350573732        3.0966055197
  O         9.5587602772        1.0656157346        3.1485740143
  O        13.3819608052        1.1355941544        3.2419442957
  O         3.7591449886        4.3239886606        3.2215054640
  O         7.7276280871        4.6432593295        3.1378720038
  O        11.2778049893        4.3960200299        3.3470600979
  O        15.3063522905        4.2956157083        3.0245929229
  O         5.6734616205        7.6917054579        3.1348940534
  O         9.4849526739        7.6758961340        3.3227429125
  O        13.4003343895        7.7197741740        3.1944391296
  O        17.2841892803        7.6181870046        3.0266145846
  O         7.4690010248       11.0952136123        3.0333231517
  O        11.5556515437       10.9697414300        3.0231440371
  O        15.3401838504       11.1230343511        3.1585253670
  O        18.9156154337       11.0512041296        3.0135367115
  O         3.7777334579        2.5406147708        5.3340995900
  O         7.4938245391        2.1540030652        4.4980395854
  O        11.6449231328        2.2308775062        4.6687920506
  O        15.2982507881        2.3956515544        5.0316393145
  O         5.6395569613        5.4066406032        4.6937128880
  O         8.5016111073        4.0476896420        5.8793677845
  O        13.7088024374        5.5805099168        4.7450751666
  O        17.3507627712        5.5177321258        4.7900101990
  O         7.5362447424        8.8648904315        4.5314192569
  O        11.6248431298        8.8205612716        4.6838735803
  O        15.2603488385        8.8605711564        4.7530503235
  O        18.9914750523        8.9147322433        4.7058965564
  O         9.6437662108       11.9832325595        4.3745288746
  O        13.4560507239       12.1167642745        4.5493073351
  O        17.2414781728       12.4129400223        4.9398306021
  O        20.7711619996       12.1807939268        4.5542100189
 Ce         1.9130000000        1.1040000000        0.7810000000
 Ce         5.7390000000        1.1040000000        0.7810000000
 Ce         9.5650000000        1.1040000000        0.7810000000
 Ce        13.3910000000        1.1040000000        0.7810000000
 Ce         3.8260000000        4.4170000000        0.7810000000
 Ce         7.6520000000        4.4170000000        0.7810000000
 Ce        11.4780000000        4.4170000000        0.7810000000
 Ce        15.3050000000        4.4170000000        0.7810000000
 Ce         5.7390000000        7.7310000000        0.7810000000
 Ce         9.5650000000        7.7310000000        0.7810000000
 Ce        13.3910000000        7.7310000000        0.7810000000
 Ce        17.2180000000        7.7310000000        0.7810000000
 Ce         7.6520000000       11.0440000000        0.7810000000
 Ce        11.4780000000       11.0440000000        0.7810000000
 Ce        15.3050000000       11.0440000000        0.7810000000
 Ce        19.1310000000       11.0440000000        0.7810000000
 Ce         1.8366262934        3.3256374120        3.9653740548
 Ce         5.6412461261        3.2203461884        4.0149224651
 Ce         9.5312322278        3.1977177139        4.0345047142
 Ce        13.5050451501        3.0723710462        3.9733427806
 Ce        19.0517403253        6.5121839258        3.8732827183
 Ce         7.4691005606        6.6328875049        3.9332413818
 Ce        11.6174084512        6.6187047652        3.9255052583
 Ce        15.4141676329        6.6619603917        4.0523749978
 Ce        20.9316044518        9.9906971149        3.8755650146
 Ce         9.5668079929        9.8848740968        3.8469717442
 Ce        13.5307254067        9.9518316160        3.8630647696
 Ce        17.2590045627        9.9387444518        3.9777454818
 Ce        15.2350966013       -0.0451048666        3.8604322335
 Ce         3.8173393852       -0.1360596922        3.8722536017
 Ce        15.2237967637       13.2539723001        4.0188013268
 Ce        19.1182897560       13.4085566853        4.0807105021
 Pt         9.6792628767        5.6783886878        6.3621941377
 Pt        13.8892000211        5.6388189297        6.7572024256
 Pt        11.8211257531        9.5632190023        6.6366290471
 Pt         9.4041009823        3.0166838201        7.6608511642
 Pt        11.3219244970        2.8467755837        9.5292061822
 Pt         7.2292137171        7.1899301103        7.0130022084
 Pt        11.7194421460        4.1160884646        7.2741477406
 Pt        13.7235134475        4.3102366527        9.1199896802
 Pt         7.5283394046        9.9091569300        6.3592542260
 Pt         9.4496842899        8.2482078290        6.9526437751
 Pt        11.8082038671        7.1910281141        7.5594693840
 Pt        14.0586161450        7.0254051127        8.9633142576
 Pt         9.7190053278       11.7906743149        6.7253846873
 Pt        12.1101015674       12.0239222552        7.8337108956
 Pt        13.4277575760        9.7593156890        8.8908521077
 Pt         8.8026142747        3.3072504665       10.2168936323
 Pt         5.9826983692        7.0565642175        9.4409602262
 Pt         7.7549292598        5.1626050915        8.5645500233
 Pt        11.1982788584        5.5964264402        9.5237797751
 Pt        13.1813801568        3.2854187960       11.5325050539
 Pt         7.4375478148        9.1642964635        9.1937599108
 Pt        10.8010849181        9.1570621318        9.0700746988
 Pt        13.4757923621        5.9266818449       11.3868681664
 Pt         7.3961791169       11.9164531454        8.0032051472
 Pt         9.6001990377       11.7675617664        9.3372178552
 Pt        11.0894121833        7.5086255194       11.5698740837
 Pt        13.5127224111        8.5326670325       11.2370041206
 Pt        12.0401642478       11.5030943297       10.4672407981
 Pt         5.8599126918        6.4636066700       12.1548687427
 Pt         8.1812208291        5.3400242470       11.7009285751
 Pt        10.6189948396        4.1624136492       11.8364527914
 Pt         6.1139397367        8.9511489232       11.5411587504
 Pt         9.0383504323        7.0716988237        9.9704435317
 Pt        10.0539693577        6.1739801766       13.4447065403
 Pt        12.4803701157        4.9673015425       13.6541461106
 Pt         7.3562550557       11.3154841998       10.7100171646
 Pt         9.2210653646        9.5406739713       11.2796751749
 Pt        12.5973352998        7.5542953473       13.6997200448
 Pt         9.8824682164       11.7829857992       12.1527330753
 Pt        11.7945985881       10.1133584258       12.6917531024
 Pt         7.8573315614        7.7089331125       13.0181557033
 Pt         7.8330382156       10.5127018949       13.4065587279
 Pt         9.9796619435        8.7432920427       14.0998704051
 Pt         3.2367361953        0.8188337233        6.3290337389
 Pt        15.9076943635        0.5841232560        6.4985530582
 Pt        16.9573005230       13.9831546361        6.4666777442
     142
 i =      177, time =      177.000, E =     -7795.1190521404
  O         3.8260000000        2.2080000000        0.0000000000
  O         7.6520000000        2.2080000000        0.0000000000
  O        11.4780000000        2.2080000000        0.0000000000
  O        15.3050000000        2.2080000000        0.0000000000
  O         5.7390000000        5.5220000000        0.0000000000
  O         9.5650000000        5.5220000000        0.0000000000
  O        13.3910000000        5.5220000000        0.0000000000
  O        17.2180000000        5.5220000000        0.0000000000
  O         7.6520000000        8.8350000000        0.0000000000
  O        11.4780000000        8.8350000000        0.0000000000
  O        15.3050000000        8.8350000000        0.0000000000
  O        19.1310000000        8.8350000000        0.0000000000
  O         9.5650000000       12.1490000000        0.0000000000
  O        13.3910000000       12.1490000000        0.0000000000
  O        17.2180000000       12.1490000000        0.0000000000
  O        21.0440000000       12.1490000000        0.0000000000
  O         1.9130000000        3.3130000000        1.5620000000
  O         5.7390000000        3.3130000000        1.5620000000
  O         9.5650000000        3.3130000000        1.5620000000
  O        13.3910000000        3.3130000000        1.5620000000
  O         3.8260000000        6.6260000000        1.5620000000
  O         7.6520000000        6.6260000000        1.5620000000
  O        11.4780000000        6.6260000000        1.5620000000
  O        15.3050000000        6.6260000000        1.5620000000
  O         5.7390000000        9.9400000000        1.5620000000
  O         9.5650000000        9.9400000000        1.5620000000
  O        13.3910000000        9.9400000000        1.5620000000
  O        17.2180000000        9.9400000000        1.5620000000
  O         7.6520000000       13.2530000000        1.5620000000
  O        11.4780000000       13.2530000000        1.5620000000
  O        15.3050000000       13.2530000000        1.5620000000
  O        19.1310000000       13.2530000000        1.5620000000
  O         1.8008662962        1.2541454218        3.1645860904
  O         5.5802363601        1.1323735183        3.0888979766
  O         9.5695295107        1.0631201778        3.1422398106
  O        13.3891439332        1.1433361520        3.2399860546
  O         3.7586400900        4.3247027756        3.2250339781
  O         7.7389125678        4.6377689549        3.1384077290
  O        11.2876141131        4.3957327546        3.3506561429
  O        15.3104112480        4.2938183356        3.0210581534
  O         5.6830977981        7.6870689435        3.1462579325
  O         9.4743891785        7.6701618895        3.3216967182
  O        13.3997382725        7.7242591132        3.1942752999
  O        17.2851003103        7.6237181513        3.0288679248
  O         7.4757605724       11.0879132730        3.0270511789
  O        11.5589129402       10.9713465967        3.0230553314
  O        15.3414551021       11.1146326587        3.1622458238
  O        18.9171293998       11.0541187877        3.0128438764
  O         3.7704394630        2.5393281088        5.3377409626
  O         7.4944823573        2.1504692783        4.5096884635
  O        11.6490136067        2.2348241458        4.6623586587
  O        15.3059593566        2.3919968057        5.0345027492
  O         5.6473474986        5.4059967606        4.6942101622
  O         8.4990903619        4.0479339811        5.8695152311
  O        13.7219806551        5.5833560167        4.7387125797
  O        17.3595389077        5.5207947899        4.7885814886
  O         7.5397335236        8.8626157658        4.5357820704
  O        11.6267256306        8.8229572956        4.6803668353
  O        15.2631473219        8.8555125211        4.7634040750
  O        18.9947474097        8.9195512895        4.7057017163
  O         9.6486157539       11.9821459212        4.3886773121
  O        13.4503678583       12.1102440355        4.5373787812
  O        17.2374828480       12.4132857707        4.9283918618
  O        20.7685671839       12.1759851896        4.5466135014
 Ce         1.9130000000        1.1040000000        0.7810000000
 Ce         5.7390000000        1.1040000000        0.7810000000
 Ce         9.5650000000        1.1040000000        0.7810000000
 Ce        13.3910000000        1.1040000000        0.7810000000
 Ce         3.8260000000        4.4170000000        0.7810000000
 Ce         7.6520000000        4.4170000000        0.7810000000
 Ce        11.4780000000        4.4170000000        0.7810000000
 Ce        15.3050000000        4.4170000000        0.7810000000
 Ce         5.7390000000        7.7310000000        0.7810000000
 Ce         9.5650000000        7.7310000000        0.7810000000
 Ce        13.3910000000        7.7310000000        0.7810000000
 Ce        17.2180000000        7.7310000000        0.7810000000
 Ce         7.6520000000       11.0440000000        0.7810000000
 Ce        11.4780000000       11.0440000000        0.7810000000
 Ce        15.3050000000       11.0440000000        0.7810000000
 Ce        19.1310000000       11.0440000000        0.7810000000
 Ce         1.8359662370        3.3261114153        3.9659740770
 Ce         5.6399376781        3.2175951287        4.0166858478
 Ce         9.5324167635        3.1981212340        4.0327819603
 Ce        13.5049356057        3.0730796129        3.9748629082
 Ce        19.0508706187        6.5141337518        3.8714236198
 Ce         7.4690989635        6.6319636115        3.9315771166
 Ce        11.6184451449        6.6153547989        3.9237858232
 Ce        15.4166561582        6.6651459875        4.0533466320
 Ce        20.9317321516        9.9919594231        3.8753695960
 Ce         9.5647971601        9.8832759156        3.8467029669
 Ce        13.5351561508        9.9541214391        3.8630919245
 Ce        17.2596337926        9.9372904690        3.9770383953
 Ce        15.2348714265       -0.0476200237        3.8597913485
 Ce         3.8161315728       -0.1375930472        3.8723418625
 Ce        15.2241437593       13.2561064899        4.0188782533
 Ce        19.1175224265       13.4109388945        4.0816313230
 Pt         9.6796307657        5.6777522686        6.3639113833
 Pt        13.8913589803        5.6391953512        6.7576347261
 Pt        11.8189153474        9.5637668752        6.6369829272
 Pt         9.4051887497        3.0175990922        7.6615222695
 Pt        11.3208744162        2.8467740654        9.5283659860
 Pt         7.2302780759        7.1916705003        7.0138288776
 Pt        11.7180681375        4.1155083697        7.2755985017
 Pt        13.7237677459        4.3088082299        9.1211363768
 Pt         7.5253535280        9.9106907158        6.3613092591
 Pt         9.4473437241        8.2505237382        6.9550008369
 Pt        11.8085534022        7.1918117961        7.5595070870
 Pt        14.0597087536        7.0256270264        8.9652632784
 Pt         9.7194069522       11.7912779091        6.7275769644
 Pt        12.1121677611       12.0232425943        7.8323821318
 Pt        13.4314384376        9.7588737102        8.8910959877
 Pt         8.8038462981        3.3084390046       10.2163445030
 Pt         5.9806537866        7.0557751029        9.4404042204
 Pt         7.7555458333        5.1616455451        8.5662079661
 Pt        11.1970885531        5.5960133934        9.5268157150
 Pt        13.1806123495        3.2840130233       11.5332915059
 Pt         7.4370889684        9.1661713013        9.1928534166
 Pt        10.8031492484        9.1571183814        9.0697757681
 Pt        13.4750575808        5.9276554770       11.3864853447
 Pt         7.3960802665       11.9147031290        8.0023012639
 Pt         9.5980044458       11.7677789526        9.3360727167
 Pt        11.0914185501        7.5072143553       11.5717312439
 Pt        13.5126631723        8.5351061234       11.2356620024
 Pt        12.0399744394       11.5044499944       10.4702716756
 Pt         5.8593119462        6.4639395146       12.1537171539
 Pt         8.1826972501        5.3410292422       11.7012088670
 Pt        10.6178122705        4.1623851929       11.8398121833
 Pt         6.1139067074        8.9504964045       11.5388840487
 Pt         9.0410437978        7.0693473417        9.9672217049
 Pt        10.0544818992        6.1725539672       13.4450384710
 Pt        12.4793493940        4.9621007387       13.6529985954
 Pt         7.3571315575       11.3157641764       10.7104316362
 Pt         9.2227626622        9.5401725507       11.2785873200
 Pt        12.5976658134        7.5553275772       13.7013133218
 Pt         9.8817602696       11.7844629399       12.1512499579
 Pt        11.7956658624       10.1142946226       12.6907411479
 Pt         7.8555671912        7.7118453778       13.0177463132
 Pt         7.8334844416       10.5123059708       13.4069553241
 Pt         9.9778497499        8.7445703049       14.0990194636
 Pt         3.2388284578        0.8209341910        6.3328284587
 Pt        15.9075302611        0.5828689781        6.5002163264
 Pt        16.9573968792       13.9818808989        6.4649075978
     142
 i =      178, time =      178.000, E =     -7795.1170374290
  O         3.8260000000        2.2080000000        0.0000000000
  O         7.6520000000        2.2080000000        0.0000000000
  O        11.4780000000        2.2080000000        0.0000000000
  O        15.3050000000        2.2080000000        0.0000000000
  O         5.7390000000        5.5220000000        0.0000000000
  O         9.5650000000        5.5220000000        0.0000000000
  O        13.3910000000        5.5220000000        0.0000000000
  O        17.2180000000        5.5220000000        0.0000000000
  O         7.6520000000        8.8350000000        0.0000000000
  O        11.4780000000        8.8350000000        0.0000000000
  O        15.3050000000        8.8350000000        0.0000000000
  O        19.1310000000        8.8350000000        0.0000000000
  O         9.5650000000       12.1490000000        0.0000000000
  O        13.3910000000       12.1490000000        0.0000000000
  O        17.2180000000       12.1490000000        0.0000000000
  O        21.0440000000       12.1490000000        0.0000000000
  O         1.9130000000        3.3130000000        1.5620000000
  O         5.7390000000        3.3130000000        1.5620000000
  O         9.5650000000        3.3130000000        1.5620000000
  O        13.3910000000        3.3130000000        1.5620000000
  O         3.8260000000        6.6260000000        1.5620000000
  O         7.6520000000        6.6260000000        1.5620000000
  O        11.4780000000        6.6260000000        1.5620000000
  O        15.3050000000        6.6260000000        1.5620000000
  O         5.7390000000        9.9400000000        1.5620000000
  O         9.5650000000        9.9400000000        1.5620000000
  O        13.3910000000        9.9400000000        1.5620000000
  O        17.2180000000        9.9400000000        1.5620000000
  O         7.6520000000       13.2530000000        1.5620000000
  O        11.4780000000       13.2530000000        1.5620000000
  O        15.3050000000       13.2530000000        1.5620000000
  O        19.1310000000       13.2530000000        1.5620000000
  O         1.8016276762        1.2579323838        3.1622466293
  O         5.5790836656        1.1295936210        3.0814483799
  O         9.5802950566        1.0610677363        3.1357042117
  O        13.3970089079        1.1504317070        3.2370513677
  O         3.7581404202        4.3252621786        3.2278562965
  O         7.7503954235        4.6315264055        3.1390134696
  O        11.2979720509        4.3963606083        3.3539126797
  O        15.3146089240        4.2922321729        3.0181544401
  O         5.6925779925        7.6826407318        3.1574371072
  O         9.4645019600        7.6641516198        3.3201037436
  O        13.3992655907        7.7284346459        3.1936172532
  O        17.2855052180        7.6296601019        3.0316882052
  O         7.4830429169       11.0806599951        3.0210384827
  O        11.5619252093       10.9729956025        3.0230664507
  O        15.3432623577       11.1057273658        3.1657234723
  O        18.9190994397       11.0569661091        3.0127522213
  O         3.7632278239        2.5378811916        5.3408253126
  O         7.4948687614        2.1470610495        4.5213332186
  O        11.6528138896        2.2388420185        4.6564538908
  O        15.3136077831        2.3878090075        5.0374600095
  O         5.6550847315        5.4056124048        4.6946666678
  O         8.4971670765        4.0482195927        5.8599433456
  O        13.7343494050        5.5858251601        4.7323836262
  O        17.3674355472        5.5239743943        4.7872222343
  O         7.5430905287        8.8610000716        4.5404619899
  O        11.6284325209        8.8256606156        4.6770055924
  O        15.2666270076        8.8502539104        4.7736059214
  O        18.9982161885        8.9243190060        4.7055642866
  O         9.6528705087       11.9812108535        4.4032327866
  O        13.4442088158       12.1038189775        4.5258763300
  O        17.2331750301       12.4132231453        4.9176700427
  O        20.7668561885       12.1707609392        4.5393703940
 Ce         1.9130000000        1.1040000000        0.7810000000
 Ce         5.7390000000        1.1040000000        0.7810000000
 Ce         9.5650000000        1.1040000000        0.7810000000
 Ce        13.3910000000        1.1040000000        0.7810000000
 Ce         3.8260000000        4.4170000000        0.7810000000
 Ce         7.6520000000        4.4170000000        0.7810000000
 Ce        11.4780000000        4.4170000000        0.7810000000
 Ce        15.3050000000        4.4170000000        0.7810000000
 Ce         5.7390000000        7.7310000000        0.7810000000
 Ce         9.5650000000        7.7310000000        0.7810000000
 Ce        13.3910000000        7.7310000000        0.7810000000
 Ce        17.2180000000        7.7310000000        0.7810000000
 Ce         7.6520000000       11.0440000000        0.7810000000
 Ce        11.4780000000       11.0440000000        0.7810000000
 Ce        15.3050000000       11.0440000000        0.7810000000
 Ce        19.1310000000       11.0440000000        0.7810000000
 Ce         1.8353641270        3.3265983004        3.9665984519
 Ce         5.6386647396        3.2149387363        4.0184570337
 Ce         9.5335670139        3.1985010418        4.0310575442
 Ce        13.5047754794        3.0740369874        3.9763962017
 Ce        19.0501024634        6.5161077448        3.8695989734
 Ce         7.4690901061        6.6309926646        3.9299283691
 Ce        11.6194432039        6.6120095578        3.9220970863
 Ce        15.4191815372        6.6683651006        4.0542111120
 Ce        20.9317997626        9.9932207453        3.8751487902
 Ce         9.5628002258        9.8816328754        3.8464602931
 Ce        13.5395365440        9.9564164005        3.8631364877
 Ce        17.2602472987        9.9358542138        3.9762713995
 Ce        15.2346838019       -0.0501832373        3.8591867796
 Ce         3.8149856077       -0.1391351933        3.8723844483
 Ce        15.2245610612       13.2582858101        4.0189017890
 Ce        19.1166360531       13.4132258132        4.0824894762
 Pt         9.6799883133        5.6771171600        6.3656391055
 Pt        13.8934961836        5.6395523440        6.7581188529
 Pt        11.8166790293        9.5643785386        6.6373120821
 Pt         9.4062579288        3.0185090353        7.6621821000
 Pt        11.3198206883        2.8467580042        9.5275520241
 Pt         7.2313021152        7.1933830256        7.0146947068
 Pt        11.7166994048        4.1149711453        7.2770260023
 Pt        13.7239866039        4.3074253175        9.1222798181
 Pt         7.5223593383        9.9122261647        6.3633871482
 Pt         9.4450708855        8.2528751779        6.9573653485
 Pt        11.8088909532        7.1925160913        7.5595769413
 Pt        14.0607755982        7.0258726377        8.9672504380
 Pt         9.7198401708       11.7918226243        6.7297586640
 Pt        12.1142317960       12.0225401238        7.8310781699
 Pt        13.4350833252        9.7584268719        8.8913357620
 Pt         8.8050591826        3.3096402905       10.2157641343
 Pt         5.9786572887        7.0549446617        9.4398742432
 Pt         7.7561825103        5.1607091683        8.5679024958
 Pt        11.1959109645        5.5956115200        9.5298855928
 Pt        13.1798177267        3.2826315517       11.5340695910
 Pt         7.4366360008        9.1680582597        9.1918925895
 Pt        10.8052063177        9.1571807067        9.0695093399
 Pt        13.4743068237        5.9286184537       11.3860983134
 Pt         7.3959379033       11.9129035703        8.0014473970
 Pt         9.5958703400       11.7679832868        9.3349340717
 Pt        11.0934300095        7.5058167311       11.5735246175
 Pt        13.5125761363        8.5375599467       11.2343015987
 Pt        12.0397510122       11.5057752479       10.4732801301
 Pt         5.8586740876        6.4642437841       12.1525183519
 Pt         8.1841904471        5.3420127618       11.7015050749
 Pt        10.6166467554        4.1623628162       11.8431656025
 Pt         6.1138968176        8.9498952561       11.5365867417
 Pt         9.0437421667        7.0670254325        9.9639687797
 Pt        10.0549656270        6.1711228445       13.4453893593
 Pt        12.4783163289        4.9568787096       13.6518059250
 Pt         7.3579923970       11.3160512031       10.7108756711
 Pt         9.2244929965        9.5395900622       11.2774775314
 Pt        12.5979738104        7.5564134202       13.7028715465
 Pt         9.8810498424       11.7859663409       12.1497459711
 Pt        11.7967382765       10.1151678841       12.6897211825
 Pt         7.8538738510        7.7147776048       13.0173366176
 Pt         7.8339471880       10.5118752295       13.4073116190
 Pt         9.9760546437        8.7458761239       14.0981552128
 Pt         3.2409558317        0.8230525263        6.3366532470
 Pt        15.9073344412        0.5816727562        6.5018487402
 Pt        16.9575228566       13.9806081341        6.4631056330
     142
 i =      179, time =      179.000, E =     -7795.1153745270
  O         3.8260000000        2.2080000000        0.0000000000
  O         7.6520000000        2.2080000000        0.0000000000
  O        11.4780000000        2.2080000000        0.0000000000
  O        15.3050000000        2.2080000000        0.0000000000
  O         5.7390000000        5.5220000000        0.0000000000
  O         9.5650000000        5.5220000000        0.0000000000
  O        13.3910000000        5.5220000000        0.0000000000
  O        17.2180000000        5.5220000000        0.0000000000
  O         7.6520000000        8.8350000000        0.0000000000
  O        11.4780000000        8.8350000000        0.0000000000
  O        15.3050000000        8.8350000000        0.0000000000
  O        19.1310000000        8.8350000000        0.0000000000
  O         9.5650000000       12.1490000000        0.0000000000
  O        13.3910000000       12.1490000000        0.0000000000
  O        17.2180000000       12.1490000000        0.0000000000
  O        21.0440000000       12.1490000000        0.0000000000
  O         1.9130000000        3.3130000000        1.5620000000
  O         5.7390000000        3.3130000000        1.5620000000
  O         9.5650000000        3.3130000000        1.5620000000
  O        13.3910000000        3.3130000000        1.5620000000
  O         3.8260000000        6.6260000000        1.5620000000
  O         7.6520000000        6.6260000000        1.5620000000
  O        11.4780000000        6.6260000000        1.5620000000
  O        15.3050000000        6.6260000000        1.5620000000
  O         5.7390000000        9.9400000000        1.5620000000
  O         9.5650000000        9.9400000000        1.5620000000
  O        13.3910000000        9.9400000000        1.5620000000
  O        17.2180000000        9.9400000000        1.5620000000
  O         7.6520000000       13.2530000000        1.5620000000
  O        11.4780000000       13.2530000000        1.5620000000
  O        15.3050000000       13.2530000000        1.5620000000
  O        19.1310000000       13.2530000000        1.5620000000
  O         1.8025985346        1.2610377363        3.1598297437
  O         5.5777771670        1.1267467305        3.0743445473
  O         9.5910080453        1.0594680240        3.1290048159
  O        13.4055307677        1.1568119909        3.2331635992
  O         3.7576720268        4.3256612218        3.2299532929
  O         7.7620595242        4.6245210172        3.1396733169
  O        11.3088568375        4.3978885150        3.3568101668
  O        15.3189207231        4.2908585752        3.0159119563
  O         5.7018281131        7.6784445318        3.1683157494
  O         9.4553664945        7.6579154476        3.3179608697
  O        13.3989237661        7.7322711415        3.1924596909
  O        17.2854099718        7.6360047599        3.0350479407
  O         7.4908362697       11.0734750541        3.0153529160
  O        11.5646487385       10.9746871373        3.0231641507
  O        15.3456124308       11.0964039567        3.1689356893
  O        18.9215018867       11.0597238940        3.0132514403
  O         3.7561267721        2.5363100375        5.3433279643
  O         7.4949611170        2.1437634958        4.5329102246
  O        11.6562964733        2.2429052330        4.6511238129
  O        15.3211792438        2.3831010371        5.0405135870
  O         5.6627428518        5.4054473930        4.6950750592
  O         8.4958725876        4.0485687552        5.8506414330
  O        13.7458522331        5.5878834556        4.7261801228
  O        17.3744018511        5.5272621953        4.7859490889
  O         7.5463070103        8.8600748423        4.5454482174
  O        11.6299355496        8.8286550435        4.6737990216
  O        15.2707814118        8.8448082885        4.7836714092
  O        19.0018843327        8.9290275559        4.7054829670
  O         9.6565175602       11.9803993090        4.4181313938
  O        13.4376179447       12.0975434991        4.5148679443
  O        17.2285655109       12.4127498858        4.9076994885
  O        20.7660458168       12.1651551892        4.5324844989
 Ce         1.9130000000        1.1040000000        0.7810000000
 Ce         5.7390000000        1.1040000000        0.7810000000
 Ce         9.5650000000        1.1040000000        0.7810000000
 Ce        13.3910000000        1.1040000000        0.7810000000
 Ce         3.8260000000        4.4170000000        0.7810000000
 Ce         7.6520000000        4.4170000000        0.7810000000
 Ce        11.4780000000        4.4170000000        0.7810000000
 Ce        15.3050000000        4.4170000000        0.7810000000
 Ce         5.7390000000        7.7310000000        0.7810000000
 Ce         9.5650000000        7.7310000000        0.7810000000
 Ce        13.3910000000        7.7310000000        0.7810000000
 Ce        17.2180000000        7.7310000000        0.7810000000
 Ce         7.6520000000       11.0440000000        0.7810000000
 Ce        11.4780000000       11.0440000000        0.7810000000
 Ce        15.3050000000       11.0440000000        0.7810000000
 Ce        19.1310000000       11.0440000000        0.7810000000
 Ce         1.8348200107        3.3270976098        3.9672468009
 Ce         5.6374277682        3.2123791271        4.0202358560
 Ce         9.5346837149        3.1988599788        4.0293309706
 Ce        13.5045724707        3.0752473478        3.9779426144
 Ce        19.0494402948        6.5181045486        3.8678112649
 Ce         7.4690780090        6.6299701196        3.9282988476
 Ce        11.6204040414        6.6086730638        3.9204400725
 Ce        15.4217461282        6.6716207064        4.0549678713
 Ce        20.9318091001        9.9944776689        3.8749029252
 Ce         9.5608192571        9.8799449169        3.8462434818
 Ce        13.5438618308        9.9587090409        3.8631991312
 Ce        17.2608453796        9.9344369860        3.9754451623
 Ce        15.2345360906       -0.0527915697        3.8586177364
 Ce         3.8139009401       -0.1406860821        3.8723802195
 Ce        15.2250471857       13.2605052433        4.0188696007
 Ce        19.1156339867       13.4154164265        4.0832820402
 Pt         9.6803338437        5.6764824105        6.3673767263
 Pt        13.8956114307        5.6398893795        6.7586517359
 Pt        11.8144171938        9.5650517049        6.6376146615
 Pt         9.4073063395        3.0194129793        7.6628304802
 Pt        11.3187633637        2.8467271503        9.5267649844
 Pt         7.2322851166        7.1950651642        7.0156007882
 Pt        11.7153392405        4.1144787721        7.2784286683
 Pt        13.7241689587        4.3060885106        9.1234204642
 Pt         7.5193577820        9.9137609867        6.3654866962
 Pt         9.4428684270        8.2552617893        6.9597373493
 Pt        11.8092159489        7.1931411181        7.5596804940
 Pt        14.0618156497        7.0261415721        8.9692748391
 Pt         9.7203064766       11.7923086889        6.7319290937
 Pt        12.1162926966       12.0218152790        7.8298011330
 Pt        13.4386911345        9.7579749821        8.8915709526
 Pt         8.8062537355        3.3108544097       10.2151538281
 Pt         5.9767094070        7.0540723677        9.4393696287
 Pt         7.7568383826        5.1597987042        8.5696323988
 Pt        11.1947474444        5.5952211262        9.5329894442
 Pt        13.1789958460        3.2812749709       11.5348380878
 Pt         7.4361876456        9.1699571367        9.1908781170
 Pt        10.8072562411        9.1572492336        9.0692761842
 Pt        13.4735405936        5.9295694968       11.3857073741
 Pt         7.3957503660       11.9110556332        8.0006442863
 Pt         9.5937975725       11.7681745926        9.3338026693
 Pt        11.0954471357        7.5044348877       11.5752530999
 Pt        13.5124603392        8.5400273020       11.2329248242
 Pt        12.0394943040       11.5070715127       10.4762633419
 Pt         5.8580002292        6.4645190543       12.1512720040
 Pt         8.1856977815        5.3429743709       11.7018163190
 Pt        10.6154991595        4.1623450100       11.8465114768
 Pt         6.1139101018        8.9493456980       11.5342660336
 Pt         9.0464453330        7.0647351932        9.9606861782
 Pt        10.0554200077        6.1696895528       13.4457610826
 Pt        12.4772710520        4.9516387870       13.6505676937
 Pt         7.3588370283       11.3163449899       10.7113497005
 Pt         9.2262581972        9.5389260049       11.2763471792
 Pt        12.5982596201        7.5575509452       13.7043942582
 Pt         9.8803366404       11.7874949026       12.1482215085
 Pt        11.7978154964       10.1159773932       12.6886939378
 Pt         7.8522510451        7.7177281917       13.0169268746
 Pt         7.8344268917       10.5114097356       13.4076275845
 Pt         9.9742773651        8.7472087756       14.0972770463
 Pt         3.2431174565        0.8251861173        6.3405079247
 Pt        15.9071075601        0.5805355305        6.5034492291
 Pt        16.9576780148       13.9793366358        6.4612716651
     142
 i =      180, time =      180.000, E =     -7795.1138404869
  O         3.8260000000        2.2080000000        0.0000000000
  O         7.6520000000        2.2080000000        0.0000000000
  O        11.4780000000        2.2080000000        0.0000000000
  O        15.3050000000        2.2080000000        0.0000000000
  O         5.7390000000        5.5220000000        0.0000000000
  O         9.5650000000        5.5220000000        0.0000000000
  O        13.3910000000        5.5220000000        0.0000000000
  O        17.2180000000        5.5220000000        0.0000000000
  O         7.6520000000        8.8350000000        0.0000000000
  O        11.4780000000        8.8350000000        0.0000000000
  O        15.3050000000        8.8350000000        0.0000000000
  O        19.1310000000        8.8350000000        0.0000000000
  O         9.5650000000       12.1490000000        0.0000000000
  O        13.3910000000       12.1490000000        0.0000000000
  O        17.2180000000       12.1490000000        0.0000000000
  O        21.0440000000       12.1490000000        0.0000000000
  O         1.9130000000        3.3130000000        1.5620000000
  O         5.7390000000        3.3130000000        1.5620000000
  O         9.5650000000        3.3130000000        1.5620000000
  O        13.3910000000        3.3130000000        1.5620000000
  O         3.8260000000        6.6260000000        1.5620000000
  O         7.6520000000        6.6260000000        1.5620000000
  O        11.4780000000        6.6260000000        1.5620000000
  O        15.3050000000        6.6260000000        1.5620000000
  O         5.7390000000        9.9400000000        1.5620000000
  O         9.5650000000        9.9400000000        1.5620000000
  O        13.3910000000        9.9400000000        1.5620000000
  O        17.2180000000        9.9400000000        1.5620000000
  O         7.6520000000       13.2530000000        1.5620000000
  O        11.4780000000       13.2530000000        1.5620000000
  O        15.3050000000       13.2530000000        1.5620000000
  O        19.1310000000       13.2530000000        1.5620000000
  O         1.8037766534        1.2634314515        3.1573543471
  O         5.5763478676        1.1238618697        3.0676641238
  O         9.6016063478        1.0583279679        3.1221647165
  O        13.4146837774        1.1624188687        3.2283590661
  O         3.7572588574        4.3258958050        3.2313143903
  O         7.7738717695        4.6167602950        3.1403718597
  O        11.3202490641        4.4003104265        3.3593315941
  O        15.3233267618        4.2896938115        3.0143529518
  O         5.7107495358        7.6745188003        3.1787903465
  O         9.4470616639        7.6515019238        3.3152650005
  O        13.3987168481        7.7357411193        3.1908001521
  O        17.2848263425        7.6427484704        3.0389177818
  O         7.4991405494       11.0663646071        3.0100619412
  O        11.5670435152       10.9764178808        3.0233348312
  O        15.3485081264       11.0867443140        3.1718690186
  O        18.9243121440       11.0623743858        3.0143238266
  O         3.7491581556        2.5346393199        5.3452301969
  O         7.4947404370        2.1405623470        4.5443357373
  O        11.6594377169        2.2469887158        4.6464050272
  O        15.3286449490        2.3778920800        5.0436684387
  O         5.6702797132        5.4054614223        4.6954273866
  O         8.4952291454        4.0490001194        5.8416197525
  O        13.7564660610        5.5895046130        4.7201863946
  O        17.3804085640        5.5306503761        4.7847752357
  O         7.5493802708        8.8598560602        4.5507326778
  O        11.6312101119        8.8319199379        4.6707656886
  O        15.2756036774        8.8391946775        4.7935919555
  O        19.0057503256        8.9336669249        4.7054561270
  O         9.6595490378       11.9796831878        4.4333701029
  O        13.4306538661       12.0914825017        4.5044206424
  O        17.2236653122       12.4118663406        4.8984766913
  O        20.7661459505       12.1592131322        4.5259740814
 Ce         1.9130000000        1.1040000000        0.7810000000
 Ce         5.7390000000        1.1040000000        0.7810000000
 Ce         9.5650000000        1.1040000000        0.7810000000
 Ce        13.3910000000        1.1040000000        0.7810000000
 Ce         3.8260000000        4.4170000000        0.7810000000
 Ce         7.6520000000        4.4170000000        0.7810000000
 Ce        11.4780000000        4.4170000000        0.7810000000
 Ce        15.3050000000        4.4170000000        0.7810000000
 Ce         5.7390000000        7.7310000000        0.7810000000
 Ce         9.5650000000        7.7310000000        0.7810000000
 Ce        13.3910000000        7.7310000000        0.7810000000
 Ce        17.2180000000        7.7310000000        0.7810000000
 Ce         7.6520000000       11.0440000000        0.7810000000
 Ce        11.4780000000       11.0440000000        0.7810000000
 Ce        15.3050000000       11.0440000000        0.7810000000
 Ce        19.1310000000       11.0440000000        0.7810000000
 Ce         1.8343337621        3.3276088344        3.9679184230
 Ce         5.6362276097        3.2099182805        4.0220218637
 Ce         9.5357673225        3.1992004463        4.0276016249
 Ce        13.5043341554        3.0767137416        3.9795012394
 Ce        19.0488880708        6.5201230960        3.8660629691
 Ce         7.4690672532        6.6288917696        3.9266932254
 Ce        11.6213295401        6.6053496282        3.9188154840
 Ce        15.4243519475        6.6749155548        4.0556166168
 Ce        20.9317618574        9.9957269904        3.8746326858
 Ce         9.5588559980        9.8782121276        3.8460522579
 Ce        13.5481277246        9.9609916625        3.8632802772
 Ce        17.2614285933        9.9330400610        3.9745607665
 Ce        15.2344304753       -0.0554421467        3.8580837516
 Ce         3.8128767848       -0.1422457988        3.8723278177
 Ce        15.2256008828       13.2627597759        4.0187802834
 Ce        19.1145197158       13.4175088449        4.0840073049
 Pt         9.6806666121        5.6758485493        6.3691230529
 Pt        13.8977037457        5.6402054970        6.7592313571
 Pt        11.8121301517        9.5657857412        6.6378899974
 Pt         9.4083324759        3.0203091630        7.6634657688
 Pt        11.3177035559        2.8466808915        9.5260067039
 Pt         7.2332257645        7.1967151505        7.0165483204
 Pt        11.7139897606        4.1140335425        7.2798060698
 Pt        13.7243146853        4.3047980739        9.1245574603
 Pt         7.5163493741        9.9152944709        6.3676067527
 Pt         9.4407382464        8.2576831555        6.9621168882
 Pt        11.8095279435        7.1936856454        7.5598184772
 Pt        14.0628288160        7.0264333956        8.9713347643
 Pt         9.7208063363       11.7927358424        6.7340871402
 Pt        12.1183512101       12.0210690249        7.8285512723
 Pt        13.4422603356        9.7575191742        8.8918016797
 Pt         8.8074294170        3.3120809887       10.2145141930
 Pt         5.9748106984        7.0531597540        9.4388904180
 Pt         7.7575136879        5.1589140843        8.5713955262
 Pt        11.1935994518        5.5948423497        9.5361261384
 Pt        13.1781460273        3.2799433733       11.5355963016
 Pt         7.4357438926        9.1718663349        9.1898104696
 Pt        10.8092982123        9.1573260967        9.0690763268
 Pt        13.4727588107        5.9305081093       11.3853133205
 Pt         7.3955166591       11.9091607134        7.9998927290
 Pt         9.5917884106       11.7683514689        9.3326793818
 Pt        11.0974689053        7.5030685227       11.5769167238
 Pt        13.5123161887        8.5425066346       11.2315320957
 Pt        12.0392041528       11.5083382342       10.4792192247
 Pt         5.8572917709        6.4647651851       12.1499782444
 Pt         8.1872175886        5.3439146872       11.7021420989
 Pt        10.6143697420        4.1623303287       11.8498482854
 Pt         6.1139463354        8.9488489071       11.5319209237
 Pt         9.0491514190        7.0624780670        9.9573754523
 Pt        10.0558456294        6.1682559375       13.4461542887
 Pt        12.4762148109        4.9463836410       13.6492850598
 Pt         7.3596647806       11.3166454129       10.7118541385
 Pt         9.2280577856        9.5381813804       11.2751969118
 Pt        12.5985224735        7.5587377894       13.7058809856
 Pt         9.8796204809       11.7890484829       12.1466765023
 Pt        11.7988964225       10.1167228683       12.6876614397
 Pt         7.8506995494        7.7206957693       13.0165175156
 Pt         7.8349240702       10.5109095400       13.4079025143
 Pt         9.9725186506        8.7485677893       14.0963844741
 Pt         3.2453124159        0.8273325133        6.3443929218
 Pt        15.9068491455        0.5794581504        6.5050167067
 Pt        16.9578634444       13.9780674610        6.4594051147
     142
 i =      181, time =      181.000, E =     -7795.1125790942
  O         3.8260000000        2.2080000000        0.0000000000
  O         7.6520000000        2.2080000000        0.0000000000
  O        11.4780000000        2.2080000000        0.0000000000
  O        15.3050000000        2.2080000000        0.0000000000
  O         5.7390000000        5.5220000000        0.0000000000
  O         9.5650000000        5.5220000000        0.0000000000
  O        13.3910000000        5.5220000000        0.0000000000
  O        17.2180000000        5.5220000000        0.0000000000
  O         7.6520000000        8.8350000000        0.0000000000
  O        11.4780000000        8.8350000000        0.0000000000
  O        15.3050000000        8.8350000000        0.0000000000
  O        19.1310000000        8.8350000000        0.0000000000
  O         9.5650000000       12.1490000000        0.0000000000
  O        13.3910000000       12.1490000000        0.0000000000
  O        17.2180000000       12.1490000000        0.0000000000
  O        21.0440000000       12.1490000000        0.0000000000
  O         1.9130000000        3.3130000000        1.5620000000
  O         5.7390000000        3.3130000000        1.5620000000
  O         9.5650000000        3.3130000000        1.5620000000
  O        13.3910000000        3.3130000000        1.5620000000
  O         3.8260000000        6.6260000000        1.5620000000
  O         7.6520000000        6.6260000000        1.5620000000
  O        11.4780000000        6.6260000000        1.5620000000
  O        15.3050000000        6.6260000000        1.5620000000
  O         5.7390000000        9.9400000000        1.5620000000
  O         9.5650000000        9.9400000000        1.5620000000
  O        13.3910000000        9.9400000000        1.5620000000
  O        17.2180000000        9.9400000000        1.5620000000
  O         7.6520000000       13.2530000000        1.5620000000
  O        11.4780000000       13.2530000000        1.5620000000
  O        15.3050000000       13.2530000000        1.5620000000
  O        19.1310000000       13.2530000000        1.5620000000
  O         1.8051581805        1.2650877867        3.1548410650
  O         5.5748270918        1.1209689857        3.0614670187
  O         9.6120135646        1.0576587354        3.1151982910
  O        13.4244229779        1.1671982981        3.2226891989
  O         3.7569234840        4.3259651290        3.2319370389
  O         7.7857816436        4.6082824381        3.1410943178
  O        11.3321235913        4.4036223628        3.3614615107
  O        15.3278111779        4.2887309876        3.0134918797
  O         5.7192385314        7.6709102775        3.1888041207
  O         9.4396424247        7.6449443254        3.3120149984
  O        13.3986501424        7.7388223196        3.1886371474
  O        17.2837704223        7.6498892290        3.0432698151
  O         7.5079522488       11.0593333621        3.0052273778
  O        11.5690697965       10.9781824350        3.0235638616
  O        15.3519534273       11.0768117749        3.1745145267
  O        18.9275058264       11.0649054070        3.0159460931
  O         3.7423422055        2.5328907511        5.3465140581
  O         7.4941927370        2.1374411308        4.5555604290
  O        11.6622139290        2.2510606257        4.6423183517
  O        15.3359615791        2.3722059143        5.0469286701
  O         5.6776463170        5.4056163968        4.6957156379
  O         8.4952538541        4.0495324717        5.8329083555
  O        13.7661703905        5.5906606581        4.7144731122
  O        17.3854460431        5.5341353858        4.7837124685
  O         7.5523100507        8.8603519986        4.5563169711
  O        11.6322347558        8.8354328267        4.6679258941
  O        15.2810874966        8.8334364141        4.8033249412
  O        19.0098105545        8.9382232555        4.7054821599
  O         9.6619585262       11.9790355970        4.4489640943
  O        13.4233982811       12.0857157010        4.4945631790
  O        17.2184933225       12.4105757847        4.8899829098
  O        20.7671578001       12.1529953951        4.5198677230
 Ce         1.9130000000        1.1040000000        0.7810000000
 Ce         5.7390000000        1.1040000000        0.7810000000
 Ce         9.5650000000        1.1040000000        0.7810000000
 Ce        13.3910000000        1.1040000000        0.7810000000
 Ce         3.8260000000        4.4170000000        0.7810000000
 Ce         7.6520000000        4.4170000000        0.7810000000
 Ce        11.4780000000        4.4170000000        0.7810000000
 Ce        15.3050000000        4.4170000000        0.7810000000
 Ce         5.7390000000        7.7310000000        0.7810000000
 Ce         9.5650000000        7.7310000000        0.7810000000
 Ce        13.3910000000        7.7310000000        0.7810000000
 Ce        17.2180000000        7.7310000000        0.7810000000
 Ce         7.6520000000       11.0440000000        0.7810000000
 Ce        11.4780000000       11.0440000000        0.7810000000
 Ce        15.3050000000       11.0440000000        0.7810000000
 Ce        19.1310000000       11.0440000000        0.7810000000
 Ce         1.8339053355        3.3281310716        3.9686125340
 Ce         5.6350649201        3.2075578634        4.0238144435
 Ce         9.5368185625        3.1995253881        4.0258690126
 Ce        13.5040678321        3.0784382982        3.9810709860
 Ce        19.0484490897        6.5221624228        3.8643564280
 Ce         7.4690627904        6.6277532708        3.9251159177
 Ce        11.6222217479        6.6020438211        3.9172238541
 Ce        15.4270004131        6.6782521236        4.0561574014
 Ce        20.9316596817        9.9969656462        3.8743388446
 Ce         9.5569123376        9.8764350794        3.8458863805
 Ce        13.5523299508        9.9632562966        3.8633805159
 Ce        17.2619974838        9.9316644788        3.9736196877
 Ce        15.2343693432       -0.0581322899        3.8575839449
 Ce         3.8119116410       -0.1438145910        3.8722260338
 Ce        15.2262203519       13.2650441763        4.0186323660
 Ce        19.1132974049       13.4195008856        4.0846635266
 Pt         9.6809858357        5.6752154181        6.3708770309
 Pt        13.8997719684        5.6405002250        6.7598562043
 Pt        11.8098181737        9.5665799440        6.6381382295
 Pt         9.4093348701        3.0211961876        7.6640860323
 Pt        11.3166432252        2.8466197993        9.5252786570
 Pt         7.2341221753        7.1983317846        7.0175377813
 Pt        11.7126529230        4.1136370276        7.2811572619
 Pt        13.7244237674        4.3035544312        9.1256905920
 Pt         7.5133346890        9.9168265053        6.3697461462
 Pt         9.4386822614        8.2601389841        6.9645038636
 Pt        11.8098274606        7.1941484921        7.5599916871
 Pt        14.0638148308        7.0267475995        8.9734294127
 Pt         9.7213405893       11.7931041426        6.7362320949
 Pt        12.1204079908       12.0203017756        7.8273286788
 Pt        13.4457896323        9.7570607734        8.8920277618
 Pt         8.8085854759        3.3133199460       10.2138465816
 Pt         5.9729616563        7.0522083325        9.4384368141
 Pt         7.7582082399        5.1580549534        8.5731906670
 Pt        11.1924676070        5.5944739072        9.5392931091
 Pt        13.1772682457        3.2786368621       11.5363439438
 Pt         7.4353051693        9.1737845564        9.1886893983
 Pt        10.8113325606        9.1574123985        9.0689095773
 Pt        13.4719614284        5.9314337117       11.3849168296
 Pt         7.3952362897       11.9072201582        7.9991932809
 Pt         9.5898442427       11.7685135159        9.3315656663
 Pt        11.0994939866        7.5017175123       11.5785157352
 Pt        13.5121441963        8.5449966028       11.2301241730
 Pt        12.0388809286       11.5095749156       10.4821448811
 Pt         5.8565491949        6.4649820716       12.1486376898
 Pt         8.1887488994        5.3448348669       11.7024817474
 Pt        10.6132588555        4.1623175093       11.8531747583
 Pt         6.1140052238        8.9484049895       11.5295514658
 Pt         9.0518598285        7.0602555482        9.9540384091
 Pt        10.0562420819        6.1668240943       13.4465701006
 Pt        12.4751480088        4.9411160586       13.6479582650
 Pt         7.3604755039       11.3169516923       10.7123904347
 Pt         9.2298913698        9.5373566669       11.2740260906
 Pt        12.5987616987        7.5599719906       13.7073314399
 Pt         9.8789010519       11.7906259128       12.1451112334
 Pt        11.7999797245       10.1174044690       12.6866248181
 Pt         7.8492199805        7.7236788763       13.0161082835
 Pt         7.8354384794       10.5103749366       13.4081362615
 Pt         9.9707796240        8.7499529291       14.0954773320
 Pt         3.2475391414        0.8294890500        6.3483085413
 Pt        15.9065590052        0.5784413063        6.5065505355
 Pt        16.9580796748       13.9768013604        6.4575052854
     142
 i =      182, time =      182.000, E =     -7795.1116966540
  O         3.8260000000        2.2080000000        0.0000000000
  O         7.6520000000        2.2080000000        0.0000000000
  O        11.4780000000        2.2080000000        0.0000000000
  O        15.3050000000        2.2080000000        0.0000000000
  O         5.7390000000        5.5220000000        0.0000000000
  O         9.5650000000        5.5220000000        0.0000000000
  O        13.3910000000        5.5220000000        0.0000000000
  O        17.2180000000        5.5220000000        0.0000000000
  O         7.6520000000        8.8350000000        0.0000000000
  O        11.4780000000        8.8350000000        0.0000000000
  O        15.3050000000        8.8350000000        0.0000000000
  O        19.1310000000        8.8350000000        0.0000000000
  O         9.5650000000       12.1490000000        0.0000000000
  O        13.3910000000       12.1490000000        0.0000000000
  O        17.2180000000       12.1490000000        0.0000000000
  O        21.0440000000       12.1490000000        0.0000000000
  O         1.9130000000        3.3130000000        1.5620000000
  O         5.7390000000        3.3130000000        1.5620000000
  O         9.5650000000        3.3130000000        1.5620000000
  O        13.3910000000        3.3130000000        1.5620000000
  O         3.8260000000        6.6260000000        1.5620000000
  O         7.6520000000        6.6260000000        1.5620000000
  O        11.4780000000        6.6260000000        1.5620000000
  O        15.3050000000        6.6260000000        1.5620000000
  O         5.7390000000        9.9400000000        1.5620000000
  O         9.5650000000        9.9400000000        1.5620000000
  O        13.3910000000        9.9400000000        1.5620000000
  O        17.2180000000        9.9400000000        1.5620000000
  O         7.6520000000       13.2530000000        1.5620000000
  O        11.4780000000       13.2530000000        1.5620000000
  O        15.3050000000       13.2530000000        1.5620000000
  O        19.1310000000       13.2530000000        1.5620000000
  O         1.8067381140        1.2659839569        3.1523108840
  O         5.5732458835        1.1180975710        3.0557948747
  O         9.6221552870        1.0574782347        3.1081191009
  O        13.4346712534        1.1710978174        3.2162234992
  O         3.7566876719        4.3258722700        3.2318246358
  O         7.7977580626        4.5991405140        3.1418268133
  O        11.3444328490        4.4078106422        3.3631868567
  O        15.3323619651        4.2879618436        3.0133357184
  O         5.7272059416        7.6676619464        3.1983302666
  O         9.4331400526        7.6382615877        3.3082133201
  O        13.3987303940        7.7414992504        3.1859703006
  O        17.2822610329        7.6574225255        3.0480796955
  O         7.5172479137       11.0523999288        3.0009009752
  O        11.5706886111       10.9799729108        3.0238357622
  O        15.3559554106       11.0666505390        3.1768665001
  O        18.9310590285       11.0673095156        3.0180899181
  O         3.7356985111        2.5310864080        5.3471593481
  O         7.4933068596        2.1343833221        4.5665805776
  O        11.6646019131        2.2550821623        4.6388705018
  O        15.3430785707        2.3660623285        5.0502960551
  O         5.6847987885        5.4058792383        4.6959319899
  O         8.4959633327        4.0501846445        5.8245558625
  O        13.7749259611        5.5913214116        4.7091014277
  O        17.3895176942        5.5377181643        4.7827698844
  O         7.5550958297        8.8615653148        4.5622067701
  O        11.6329914548        8.8391699637        4.6652993452
  O        15.2872219840        8.8275621790        4.8128103880
  O        19.0140620290        8.9426794153        4.7055597550
  O         9.6637432956       11.9784277941        4.4648734862
  O        13.4159438921       12.0803233863        4.4852894626
  O        17.2130765756       12.4088887090        4.8822076067
  O        20.7690743417       12.1465799877        4.5141961090
 Ce         1.9130000000        1.1040000000        0.7810000000
 Ce         5.7390000000        1.1040000000        0.7810000000
 Ce         9.5650000000        1.1040000000        0.7810000000
 Ce        13.3910000000        1.1040000000        0.7810000000
 Ce         3.8260000000        4.4170000000        0.7810000000
 Ce         7.6520000000        4.4170000000        0.7810000000
 Ce        11.4780000000        4.4170000000        0.7810000000
 Ce        15.3050000000        4.4170000000        0.7810000000
 Ce         5.7390000000        7.7310000000        0.7810000000
 Ce         9.5650000000        7.7310000000        0.7810000000
 Ce        13.3910000000        7.7310000000        0.7810000000
 Ce        17.2180000000        7.7310000000        0.7810000000
 Ce         7.6520000000       11.0440000000        0.7810000000
 Ce        11.4780000000       11.0440000000        0.7810000000
 Ce        15.3050000000       11.0440000000        0.7810000000
 Ce        19.1310000000       11.0440000000        0.7810000000
 Ce         1.8335347043        3.3286628919        3.9693285922
 Ce         5.6339396838        3.2052991051        4.0256131534
 Ce         9.5378386518        3.1998381681        4.0241327220
 Ce        13.5037807007        3.0804220260        3.9826507818
 Ce        19.0481258845        6.5242214204        3.8626938674
 Ce         7.4690698288        6.6265503252        3.9235709919
 Ce        11.6230826069        6.5987602222        3.9156655977
 Ce        15.4296923572        6.6816322828        4.0565905664
 Ce        20.9315041833        9.9981908547        3.8740220715
 Ce         9.5549903203        9.8746145676        3.8457456400
 Ce        13.5564641244        9.9654945559        3.8635004167
 Ce        17.2625528838        9.9303109558        3.9726236598
 Ce        15.2343550735       -0.0608593553        3.8571174038
 Ce         3.8110033376       -0.1453924211        3.8720740774
 Ce        15.2269034866       13.2673533926        4.0184245672
 Ce        19.1119719448       13.4213902314        4.0852490515
 Pt         9.6812909573        5.6745829619        6.3726378885
 Pt        13.9018146964        5.6407735051        6.7605245781
 Pt        11.8074815476        9.5674332254        6.6383589795
 Pt         9.4103122515        3.0220729882        7.6646902531
 Pt        11.3155831215        2.8465442574        9.5245814329
 Pt         7.2349730782        7.1999138802        7.0185693788
 Pt        11.7113305521        4.1132904582        7.2824811402
 Pt        13.7244960494        4.3023586924        9.1268201057
 Pt         7.5103145335        9.9183561951        6.3719039581
 Pt         9.4367024708        8.2626283579        6.9668983717
 Pt        11.8101145701        7.1945287823        7.5602009184
 Pt        14.0647730444        7.0270835247        8.9755584948
 Pt         9.7219098930       11.7934142049        6.7383634032
 Pt        12.1224629170       12.0195133423        7.8261343045
 Pt        13.4492782444        9.7566006102        8.8922484803
 Pt         8.8097220836        3.3145714006       10.2131525470
 Pt         5.9711641187        7.0512187357        9.4380083411
 Pt         7.7589204906        5.1572224992        8.5750178120
 Pt        11.1913527926        5.5941148774        9.5424877124
 Pt        13.1763627402        3.2773552668       11.5370808250
 Pt         7.4348716845        9.1757102745        9.1875150655
 Pt        10.8133601310        9.1575087736        9.0687759737
 Pt        13.4711488724        5.9323457958       11.3845182970
 Pt         7.3949081657       11.9052346975        7.9985463494
 Pt         9.5879659022       11.7686606953        9.3304628908
 Pt        11.1015221625        7.5003825279       11.5800500977
 Pt        13.5119443434        8.5474960174       11.2287024229
 Pt        12.0385258308       11.5107820173       10.4850371287
 Pt         5.8557731705        6.4651696671       12.1472509163
 Pt         8.1902903827        5.3457357146       11.7028340748
 Pt        10.6121666699        4.1623049043       11.8564892723
 Pt         6.1140864073        8.9480134080       11.5271580557
 Pt         9.0545706444        7.0580694270        9.9506768553
 Pt        10.0566079185        6.1653960637       13.4470097865
 Pt        12.4740709723        4.9358386079       13.6465870601
 Pt         7.3612693431       11.3172634535       10.7129598326
 Pt         9.2317589793        9.5364514295       11.2728338687
 Pt        12.5989772370        7.5612520760       13.7087458471
 Pt         9.8781780388       11.7922255084       12.1435263326
 Pt        11.8010642149       10.1180224597       12.6855839599
 Pt         7.8478119836        7.7266760336       13.0156987471
 Pt         7.8359694843       10.5098065847       13.4083291755
 Pt         9.9690611559        8.7513640241       14.0945559934
 Pt         3.2497964639        0.8316531781        6.3522550972
 Pt        15.9062377101        0.5774857849        6.5080502144
 Pt        16.9583266794       13.9755390327        6.4555714995
     142
 i =      183, time =      183.000, E =     -7795.1113717603
  O         3.8260000000        2.2080000000        0.0000000000
  O         7.6520000000        2.2080000000        0.0000000000
  O        11.4780000000        2.2080000000        0.0000000000
  O        15.3050000000        2.2080000000        0.0000000000
  O         5.7390000000        5.5220000000        0.0000000000
  O         9.5650000000        5.5220000000        0.0000000000
  O        13.3910000000        5.5220000000        0.0000000000
  O        17.2180000000        5.5220000000        0.0000000000
  O         7.6520000000        8.8350000000        0.0000000000
  O        11.4780000000        8.8350000000        0.0000000000
  O        15.3050000000        8.8350000000        0.0000000000
  O        19.1310000000        8.8350000000        0.0000000000
  O         9.5650000000       12.1490000000        0.0000000000
  O        13.3910000000       12.1490000000        0.0000000000
  O        17.2180000000       12.1490000000        0.0000000000
  O        21.0440000000       12.1490000000        0.0000000000
  O         1.9130000000        3.3130000000        1.5620000000
  O         5.7390000000        3.3130000000        1.5620000000
  O         9.5650000000        3.3130000000        1.5620000000
  O        13.3910000000        3.3130000000        1.5620000000
  O         3.8260000000        6.6260000000        1.5620000000
  O         7.6520000000        6.6260000000        1.5620000000
  O        11.4780000000        6.6260000000        1.5620000000
  O        15.3050000000        6.6260000000        1.5620000000
  O         5.7390000000        9.9400000000        1.5620000000
  O         9.5650000000        9.9400000000        1.5620000000
  O        13.3910000000        9.9400000000        1.5620000000
  O        17.2180000000        9.9400000000        1.5620000000
  O         7.6520000000       13.2530000000        1.5620000000
  O        11.4780000000       13.2530000000        1.5620000000
  O        15.3050000000       13.2530000000        1.5620000000
  O        19.1310000000       13.2530000000        1.5620000000
  O         1.8085114454        1.2661026260        3.1497852763
  O         5.5716341210        1.1152767428        3.0506765925
  O         9.6319765259        1.0578055392        3.1009497183
  O        13.4453315189        1.1740865352        3.2090424787
  O         3.7565709943        4.3256229363        3.2309871521
  O         7.8097950546        4.5893875016        3.1425565324
  O        11.3571048285        4.4128344703        3.3644967414
  O        15.3369693840        4.2873773340        3.0138838412
  O         5.7345846252        7.6648090477        3.2073429214
  O         9.4275770204        7.6314696060        3.3038683714
  O        13.3989623945        7.7437622011        3.1828011204
  O        17.2803196580        7.6653348721        3.0533262690
  O         7.5269839181       11.0456023034        2.9971206623
  O        11.5718629855       10.9817790481        3.0241352519
  O        15.3605209267       11.0563003633        3.1789227257
  O        18.9349484454       11.0695845063        3.0207216086
  O         3.7292493860        2.5292462015        5.3471491551
  O         7.4920753116        2.1313713964        4.5774089210
  O        11.6665826872        2.2590107855        4.6360573552
  O        15.3499526659        2.3594717201        5.0537677217
  O         5.6917040626        5.4062204224        4.6960678075
  O         8.4973639120        4.0509713592        5.8166228593
  O        13.7826772627        5.5914631367        4.7041185041
  O        17.3926354403        5.5414008181        4.7819527633
  O         7.5577374892        8.8634895202        4.5684086450
  O        11.6334684705        8.8431055443        4.6629037509
  O        15.2939816346        8.8216073430        4.8219997834
  O        19.0185048286        8.9470160061        4.7056878060
  O         9.6649058421       11.9778316054        4.4810094284
  O        13.4083794563       12.0753733714        4.4765857984
  O        17.2074471353       12.4068240665        4.8751567765
  O        20.7718831282       12.1400514658        4.5089767395
 Ce         1.9130000000        1.1040000000        0.7810000000
 Ce         5.7390000000        1.1040000000        0.7810000000
 Ce         9.5650000000        1.1040000000        0.7810000000
 Ce        13.3910000000        1.1040000000        0.7810000000
 Ce         3.8260000000        4.4170000000        0.7810000000
 Ce         7.6520000000        4.4170000000        0.7810000000
 Ce        11.4780000000        4.4170000000        0.7810000000
 Ce        15.3050000000        4.4170000000        0.7810000000
 Ce         5.7390000000        7.7310000000        0.7810000000
 Ce         9.5650000000        7.7310000000        0.7810000000
 Ce        13.3910000000        7.7310000000        0.7810000000
 Ce        17.2180000000        7.7310000000        0.7810000000
 Ce         7.6520000000       11.0440000000        0.7810000000
 Ce        11.4780000000       11.0440000000        0.7810000000
 Ce        15.3050000000       11.0440000000        0.7810000000
 Ce        19.1310000000       11.0440000000        0.7810000000
 Ce         1.8332217439        3.3292025189        3.9700661090
 Ce         5.6328518273        3.2031427509        4.0274175144
 Ce         9.5388288121        3.2001421784        4.0223923419
 Ce        13.5034798506        3.0826643602        3.9842392790
 Ce        19.0479202638        6.5262990072        3.8610775064
 Ce         7.4690938808        6.6252788673        3.9220624982
 Ce        11.6239142726        6.5955037569        3.9141412489
 Ce        15.4324280288        6.6850572752        4.0569170383
 Ce        20.9312970082        9.9994000310        3.8736831119
 Ce         9.5530920415        9.8727518019        3.8456298641
 Ce        13.5605257883        9.9676979680        3.8636404526
 Ce        17.2630958787        9.9289799676        3.9715747181
 Ce        15.2343900597       -0.0636207670        3.8566835217
 Ce         3.8101492019       -0.1469790097        3.8718714813
 Ce        15.2276480012       13.2696826003        4.0181558440
 Ce        19.1105486569       13.4231741793        4.0857626649
 Pt         9.6815822611        5.6739518681        6.3744046647
 Pt        13.9038308724        5.6410251523        6.7612344405
 Pt        11.8051208546        9.5683451775        6.6385511534
 Pt         9.4112636665        3.0229385553        7.6652777928
 Pt        11.3145232494        2.8464536312        9.5239156873
 Pt         7.2357767664        7.2014600224        7.0196430466
 Pt        11.7100249160        4.1129950201        7.2837766470
 Pt        13.7245313182        4.3012117762        9.1279458963
 Pt         7.5072899115        9.9198826186        6.3740794249
 Pt         9.4348014361        8.2651501435        6.9693005270
 Pt        11.8103887439        7.1948261100        7.5604464882
 Pt        14.0657028685        7.0274409891        8.9777210793
 Pt         9.7225146884       11.7936668245        6.7404803417
 Pt        12.1245155383       12.0187030396        7.8249693743
 Pt        13.4527248572        9.7561393592        8.8924633799
 Pt         8.8108390661        3.3158349989       10.2124338337
 Pt         5.9694200415        7.0501914630        9.4376046728
 Pt         7.7596484936        5.1564183663        8.5768765252
 Pt        11.1902567081        5.5937650456        9.5457089885
 Pt        13.1754295668        3.2760981315       11.5378066503
 Pt         7.4344429786        9.1776414394        9.1862888443
 Pt        10.8153815402        9.1576158769        9.0686759587
 Pt        13.4703216597        5.9332441395       11.3841183976
 Pt         7.3945307086       11.9032052546        7.9979527769
 Pt         9.5861544904       11.7687926753        9.3293722407
 Pt        11.1035532165        7.4990649085       11.5815193210
 Pt        13.5117162795        8.5500039474       11.2272679966
 Pt        12.0381399887       11.5119598841       10.4878934695
 Pt         5.8549649013        6.4653281165       12.1458182794
 Pt         8.1918405388        5.3466178251       11.7031988595
 Pt        10.6110934820        4.1622907535       11.8597901768
 Pt         6.1141895625        8.9476741252       11.5247405657
 Pt         9.0572834801        7.0559218369        9.9472919390
 Pt        10.0569421739        6.1639738796       13.4474742813
 Pt        12.4729840478        4.9305538669       13.6451716650
 Pt         7.3620467179       11.3175806705       10.7135624274
 Pt         9.2336603376        9.5354654623       11.2716203651
 Pt        12.5991691447        7.5625764808       13.7101244251
 Pt         9.8774513891       11.7938456690       12.1419224422
 Pt        11.8021484545       10.1185767107       12.6845388500
 Pt         7.8464754530        7.7296857747       13.0152885659
 Pt         7.8365169995       10.5092050721       13.4084813332
 Pt         9.9673637333        8.7528004737       14.0936201331
 Pt         3.2520837672        0.8338219969        6.3562329203
 Pt        15.9058858090        0.5765922265        6.5095151857
 Pt        16.9586043514       13.9742809017        6.4536029157
     142
 i =      184, time =      184.000, E =     -7795.1111563207
  O         3.8260000000        2.2080000000        0.0000000000
  O         7.6520000000        2.2080000000        0.0000000000
  O        11.4780000000        2.2080000000        0.0000000000
  O        15.3050000000        2.2080000000        0.0000000000
  O         5.7390000000        5.5220000000        0.0000000000
  O         9.5650000000        5.5220000000        0.0000000000
  O        13.3910000000        5.5220000000        0.0000000000
  O        17.2180000000        5.5220000000        0.0000000000
  O         7.6520000000        8.8350000000        0.0000000000
  O        11.4780000000        8.8350000000        0.0000000000
  O        15.3050000000        8.8350000000        0.0000000000
  O        19.1310000000        8.8350000000        0.0000000000
  O         9.5650000000       12.1490000000        0.0000000000
  O        13.3910000000       12.1490000000        0.0000000000
  O        17.2180000000       12.1490000000        0.0000000000
  O        21.0440000000       12.1490000000        0.0000000000
  O         1.9130000000        3.3130000000        1.5620000000
  O         5.7390000000        3.3130000000        1.5620000000
  O         9.5650000000        3.3130000000        1.5620000000
  O        13.3910000000        3.3130000000        1.5620000000
  O         3.8260000000        6.6260000000        1.5620000000
  O         7.6520000000        6.6260000000        1.5620000000
  O        11.4780000000        6.6260000000        1.5620000000
  O        15.3050000000        6.6260000000        1.5620000000
  O         5.7390000000        9.9400000000        1.5620000000
  O         9.5650000000        9.9400000000        1.5620000000
  O        13.3910000000        9.9400000000        1.5620000000
  O        17.2180000000        9.9400000000        1.5620000000
  O         7.6520000000       13.2530000000        1.5620000000
  O        11.4780000000       13.2530000000        1.5620000000
  O        15.3050000000       13.2530000000        1.5620000000
  O        19.1310000000       13.2530000000        1.5620000000
  O         1.8104732616        1.2654316627        3.1472857786
  O         5.5700187603        1.1125343384        3.0461343755
  O         9.6414433845        1.0586527078        3.0937308706
  O        13.4563310450        1.1761647767        3.2012202183
  O         3.7565891748        4.3252254508        3.2294406009
  O         7.8218695754        4.5790858526        3.1432711551
  O        11.3700862556        4.4186370434        3.3653851751
  O        15.3416248658        4.2869684374        3.0151296579
  O         5.7413240253        7.6623802927        3.2157957936
  O         9.4229802914        7.6245905708        3.2989971433
  O        13.3993463330        7.7456057857        3.1791347676
  O        17.2779711366        7.6735999494        3.0589891697
  O         7.5371238362       11.0389814684        2.9939098179
  O        11.5725589203       10.9835876406        3.0244475280
  O        15.3656461670       11.0458169262        3.1806831313
  O        18.9391516340       11.0717324725        3.0238026707
  O         3.7230225984        2.5273877010        5.3464742876
  O         7.4904934621        2.1283875340        4.5880346704
  O        11.6681451090        2.2628038119        4.6338696041
  O        15.3565541282        2.3524349694        5.0573368637
  O         5.6983405445        5.4066120835        4.6961136082
  O         8.4994516048        4.0519025290        5.8091604008
  O        13.7893663837        5.5910710757        4.6995595211
  O        17.3948140446        5.5451854780        4.7812633771
  O         7.5602347493        8.8661081546        4.5749197620
  O        11.6336630707        8.8472121908        4.6607566342
  O        15.3013242031        8.8156086075        4.8308748529
  O        19.0231430561        8.9512121185        4.7058651229
  O         9.6654543786       11.9772227116        4.4973300354
  O        13.4007806103       12.0709149281        4.4684524760
  O        17.2016382884       12.4044073536        4.8688504055
  O        20.7755672281       12.1334905654        4.5042140402
 Ce         1.9130000000        1.1040000000        0.7810000000
 Ce         5.7390000000        1.1040000000        0.7810000000
 Ce         9.5650000000        1.1040000000        0.7810000000
 Ce        13.3910000000        1.1040000000        0.7810000000
 Ce         3.8260000000        4.4170000000        0.7810000000
 Ce         7.6520000000        4.4170000000        0.7810000000
 Ce        11.4780000000        4.4170000000        0.7810000000
 Ce        15.3050000000        4.4170000000        0.7810000000
 Ce         5.7390000000        7.7310000000        0.7810000000
 Ce         9.5650000000        7.7310000000        0.7810000000
 Ce        13.3910000000        7.7310000000        0.7810000000
 Ce        17.2180000000        7.7310000000        0.7810000000
 Ce         7.6520000000       11.0440000000        0.7810000000
 Ce        11.4780000000       11.0440000000        0.7810000000
 Ce        15.3050000000       11.0440000000        0.7810000000
 Ce        19.1310000000       11.0440000000        0.7810000000
 Ce         1.8329663458        3.3297478396        3.9708244215
 Ce         5.6318014484        3.2010892119        4.0292269755
 Ce         9.5397898846        3.2004405692        4.0206476950
 Ce        13.5031723133        3.0851630954        3.9858345397
 Ce        19.0478336862        6.5283940945        3.8595095609
 Ce         7.4691404292        6.6239352098        3.9205948468
 Ce        11.6247191247        6.5922793562        3.9126515885
 Ce        15.4352072291        6.6885276383        4.0571380762
 Ce        20.9310398735       10.0005907267        3.8733230111
 Ce         9.5512191297        9.8708484132        3.8455390135
 Ce        13.5645107224        9.9698583855        3.8638010303
 Ce        17.2636279171        9.9276718922        3.9704752311
 Ce        15.2344765950       -0.0664141139        3.8562820799
 Ce         3.8093461560       -0.1485737139        3.8716180432
 Ce        15.2284514045       13.2720273989        4.0178253991
 Ce        19.1090332008       13.4248495209        4.0862034507
 Pt         9.6818602298        5.6733235333        6.3761762528
 Pt        13.9058198261        5.6412545925        6.7619841799
 Pt        11.8027367094        9.5693158430        6.6387128506
 Pt         9.4121885436        3.0237916000        7.6658479064
 Pt        11.3134643747        2.8463470052        9.5232831004
 Pt         7.2365313861        7.2029684090        7.0207592906
 Pt        11.7087385617        4.1127523716        7.2850434676
 Pt        13.7245285680        4.3001139304        9.1290676206
 Pt         7.5042617853        9.9214050415        6.3762721186
 Pt         9.4329818359        8.2677033581        6.9717101595
 Pt        11.8106488468        7.1950400437        7.5607285082
 Pt        14.0666040714        7.0278194149        8.9799157049
 Pt         9.7231551849       11.7938624470        6.7425817250
 Pt        12.1265659676       12.0178712322        7.8238349381
 Pt        13.4561283809        9.7556776517        8.8926720637
 Pt         8.8119354509        3.3171102175       10.2116918939
 Pt         5.9677303085        7.0491271480        9.4372257251
 Pt         7.7603916133        5.1556438583        8.5787650473
 Pt        11.1891815063        5.5934247393        9.5489573341
 Pt        13.1744678986        3.2748660578       11.5385201732
 Pt         7.4340183994        9.1795763502        9.1850116242
 Pt        10.8173971232        9.1577339502        9.0686108090
 Pt        13.4694800786        5.9341285520       11.3837181712
 Pt         7.3941028407       11.9011339063        7.9974137813
 Pt         9.5844111666       11.7689091668        9.3282944692
 Pt        11.1055854438        7.4977656626       11.5829223367
 Pt        13.5114601207        8.5525187350       11.2258216647
 Pt        12.0377234780       11.5131081494       10.4907122507
 Pt         5.8541255880        6.4654573959       12.1443399693
 Pt         8.1933985811        5.3474817763       11.7035767179
 Pt        10.6100398253        4.1622737200       11.8630755338
 Pt         6.1143141424        8.9473878267       11.5222984188
 Pt         9.0599972493        7.0538142001        9.9438843902
 Pt        10.0572453473        6.1625594193       13.4479642899
 Pt        12.4718877818        4.9252645218       13.6437124016
 Pt         7.3628078925       11.3179035272       10.7141977772
 Pt         9.2355943946        9.5344000333       11.2703862805
 Pt        12.5993373195        7.5639425987       13.7114663454
 Pt         9.8767213028       11.7954856608       12.1403000754
 Pt        11.8032314728       10.1190671818       12.6834911021
 Pt         7.8452107491        7.7327056810       13.0148775946
 Pt         7.8370811497       10.5085710260       13.4085924035
 Pt         9.9656881841        8.7542613538       14.0926692183
 Pt         3.2544001800        0.8359926942        6.3602422007
 Pt        15.9055033364        0.5757610834        6.5109447708
 Pt        16.9589130932       13.9730274949        6.4515989002
     142
 i =      185, time =      185.000, E =     -7795.1116034269
  O         3.8260000000        2.2080000000        0.0000000000
  O         7.6520000000        2.2080000000        0.0000000000
  O        11.4780000000        2.2080000000        0.0000000000
  O        15.3050000000        2.2080000000        0.0000000000
  O         5.7390000000        5.5220000000        0.0000000000
  O         9.5650000000        5.5220000000        0.0000000000
  O        13.3910000000        5.5220000000        0.0000000000
  O        17.2180000000        5.5220000000        0.0000000000
  O         7.6520000000        8.8350000000        0.0000000000
  O        11.4780000000        8.8350000000        0.0000000000
  O        15.3050000000        8.8350000000        0.0000000000
  O        19.1310000000        8.8350000000        0.0000000000
  O         9.5650000000       12.1490000000        0.0000000000
  O        13.3910000000       12.1490000000        0.0000000000
  O        17.2180000000       12.1490000000        0.0000000000
  O        21.0440000000       12.1490000000        0.0000000000
  O         1.9130000000        3.3130000000        1.5620000000
  O         5.7390000000        3.3130000000        1.5620000000
  O         9.5650000000        3.3130000000        1.5620000000
  O        13.3910000000        3.3130000000        1.5620000000
  O         3.8260000000        6.6260000000        1.5620000000
  O         7.6520000000        6.6260000000        1.5620000000
  O        11.4780000000        6.6260000000        1.5620000000
  O        15.3050000000        6.6260000000        1.5620000000
  O         5.7390000000        9.9400000000        1.5620000000
  O         9.5650000000        9.9400000000        1.5620000000
  O        13.3910000000        9.9400000000        1.5620000000
  O        17.2180000000        9.9400000000        1.5620000000
  O         7.6520000000       13.2530000000        1.5620000000
  O        11.4780000000       13.2530000000        1.5620000000
  O        15.3050000000       13.2530000000        1.5620000000
  O        19.1310000000       13.2530000000        1.5620000000
  O         1.8126194866        1.2639665430        3.1448313740
  O         5.5684244749        1.1098977368        3.0421867578
  O         9.6505300946        1.0600187812        3.0865225340
  O        13.4676169585        1.1773544034        3.1928193519
  O         3.7567546418        4.3246909220        3.2272081730
  O         7.8339200103        4.5682996205        3.1439577069
  O        11.3833604432        4.4251593396        3.3658451897
  O        15.3463203115        4.2867271048        3.0170569473
  O         5.7473812145        7.6603996250        3.2236202968
  O         9.4193748179        7.6176563150        3.2936234231
  O        13.3998826578        7.7470310144        3.1749786830
  O        17.2752479448        7.6821795458        3.0650434971
  O         7.5476528592       11.0325646805        2.9912806701
  O        11.5727483505       10.9853849687        3.0247560325
  O        15.3713049101       11.0352812609        3.1821469726
  O        18.9436472411       11.0737592036        3.0272895648
  O         3.7170542289        2.5255297973        5.3451357560
  O         7.4885593916        2.1254173774        4.5984091545
  O        11.6692846324        2.2664202099        4.6322900749
  O        15.3628673366        2.3449503112        5.0609900955
  O         5.7046963614        5.4070262039        4.6960588808
  O         8.5022150385        4.0529815830        5.8022004915
  O        13.7949511800        5.5901367314        4.6954413811
  O        17.3960751093        5.5490733947        4.7806993899
  O         7.5625846736        8.8693921021        4.5817186867
  O        11.6335801357        8.8514651547        4.6588619858
  O        15.3092019603        8.8095986445        4.8394412109
  O        19.0279861215        8.9552445423        4.7060896756
  O         9.6654050369       11.9765809314        4.5138411660
  O        13.3932127334       12.0669837660        4.4609087614
  O        17.1956782607       12.4016669868        4.8633051143
  O        20.7801068315       12.1269686639        4.4999019490
 Ce         1.9130000000        1.1040000000        0.7810000000
 Ce         5.7390000000        1.1040000000        0.7810000000
 Ce         9.5650000000        1.1040000000        0.7810000000
 Ce        13.3910000000        1.1040000000        0.7810000000
 Ce         3.8260000000        4.4170000000        0.7810000000
 Ce         7.6520000000        4.4170000000        0.7810000000
 Ce        11.4780000000        4.4170000000        0.7810000000
 Ce        15.3050000000        4.4170000000        0.7810000000
 Ce         5.7390000000        7.7310000000        0.7810000000
 Ce         9.5650000000        7.7310000000        0.7810000000
 Ce        13.3910000000        7.7310000000        0.7810000000
 Ce        17.2180000000        7.7310000000        0.7810000000
 Ce         7.6520000000       11.0440000000        0.7810000000
 Ce        11.4780000000       11.0440000000        0.7810000000
 Ce        15.3050000000       11.0440000000        0.7810000000
 Ce        19.1310000000       11.0440000000        0.7810000000
 Ce         1.8327680761        3.3302965708        3.9716030369
 Ce         5.6307888407        3.1991383308        4.0310408327
 Ce         9.5407231009        3.2007362810        4.0188991145
 Ce        13.5028645727        3.0879146389        3.9874347016
 Ce        19.0478670144        6.5305058998        3.8579925078
 Ce         7.4692152993        6.6225165219        3.9191725614
 Ce        11.6254998702        6.5890918981        3.9111982675
 Ce        15.4380287961        6.6920431722        4.0572560242
 Ce        20.9307347151       10.0017605137        3.8729432297
 Ce         9.5493731986        9.8689063612        3.8454738695
 Ce        13.5684145555        9.9719677302        3.8639832952
 Ce        17.2641505408        9.9263872563        3.9693285072
 Ce        15.2346169843       -0.0692371979        3.8559132092
 Ce         3.8085903287       -0.1501760247        3.8713142036
 Ce        15.2293112454       13.2743833080        4.0174331363
 Ce        19.1074313986       13.4264128029        4.0865712551
 Pt         9.6821243228        5.6726987431        6.3779513417
 Pt        13.9077817154        5.6414612554        6.7627717377
 Pt        11.8003298027        9.5703450627        6.6388427170
 Pt         9.4130855426        3.0246309360        7.6663997030
 Pt        11.3124077651        2.8462230134        9.5226855557
 Pt         7.2372345786        7.2044369132        7.0219188522
 Pt        11.7074738900        4.1125640084        7.2862806796
 Pt        13.7244875415        4.2990639344        9.1301848228
 Pt         7.5012309411        9.9229230158        6.3784818887
 Pt         9.4312455814        8.2702878558        6.9741268927
 Pt        11.8108943636        7.1951705512        7.5610462236
 Pt        14.0674773552        7.0282183872        8.9821406861
 Pt         9.7238311248       11.7940014801        6.7446664672
 Pt        12.1286149706       12.0170194098        7.8227324596
 Pt        13.4594881569        9.7552166406        8.8928748544
 Pt         8.8130097729        3.3183970131       10.2109279760
 Pt         5.9660948031        7.0480266341        9.4368723283
 Pt         7.7611502680        5.1548993166        8.5806812233
 Pt        11.1881292985        5.5930938190        9.5522333354
 Pt        13.1734774747        3.2736590678       11.5392207162
 Pt         7.4335970720        9.1815137767        9.1836841260
 Pt        10.8194070742        9.1578634725        9.0685820231
 Pt        13.4686245172        5.9349989702       11.3833193239
 Pt         7.3936234795       11.8990232705        7.9969310520
 Pt         9.5827380953       11.7690098222        9.3272307841
 Pt        11.1076164548        7.4964859735       11.5842577821
 Pt        13.5111755003        8.5550392060       11.2243648898
 Pt        12.0372750162       11.5142257841       10.4934928321
 Pt         5.8532578710        6.4655581829       12.1428156669
 Pt         8.1949636564        5.3483288310       11.7039682687
 Pt        10.6090052437        4.1622529962       11.8663434258
 Pt         6.1144606722        8.9471550323       11.5198312368
 Pt         9.0627105176        7.0517477891        9.9404549997
 Pt        10.0575180447        6.1611554266       13.4484802384
 Pt        12.4707826666        4.9199735460       13.6422110426
 Pt         7.3635528420       11.3182314219       10.7148666040
 Pt         9.2375603525        9.5332566746       11.2691325429
 Pt        12.5994805448        7.5653483947       13.7127701946
 Pt         9.8759880707       11.7971436035       12.1386592695
 Pt        11.8043114723       10.1194935588       12.6824430177
 Pt         7.8440185173        7.7357338955       13.0144657247
 Pt         7.8376632904       10.5079038162       13.4086606648
 Pt         9.9640353972        8.7557458838       14.0917012634
 Pt         3.2567444779        0.8381627224        6.3642828929
 Pt        15.9050902581        0.5749928580        6.5123384463
 Pt        16.9592533638       13.9717794671        6.4495590393
     142
 i =      186, time =      186.000, E =     -7795.1123173740
  O         3.8260000000        2.2080000000        0.0000000000
  O         7.6520000000        2.2080000000        0.0000000000
  O        11.4780000000        2.2080000000        0.0000000000
  O        15.3050000000        2.2080000000        0.0000000000
  O         5.7390000000        5.5220000000        0.0000000000
  O         9.5650000000        5.5220000000        0.0000000000
  O        13.3910000000        5.5220000000        0.0000000000
  O        17.2180000000        5.5220000000        0.0000000000
  O         7.6520000000        8.8350000000        0.0000000000
  O        11.4780000000        8.8350000000        0.0000000000
  O        15.3050000000        8.8350000000        0.0000000000
  O        19.1310000000        8.8350000000        0.0000000000
  O         9.5650000000       12.1490000000        0.0000000000
  O        13.3910000000       12.1490000000        0.0000000000
  O        17.2180000000       12.1490000000        0.0000000000
  O        21.0440000000       12.1490000000        0.0000000000
  O         1.9130000000        3.3130000000        1.5620000000
  O         5.7390000000        3.3130000000        1.5620000000
  O         9.5650000000        3.3130000000        1.5620000000
  O        13.3910000000        3.3130000000        1.5620000000
  O         3.8260000000        6.6260000000        1.5620000000
  O         7.6520000000        6.6260000000        1.5620000000
  O        11.4780000000        6.6260000000        1.5620000000
  O        15.3050000000        6.6260000000        1.5620000000
  O         5.7390000000        9.9400000000        1.5620000000
  O         9.5650000000        9.9400000000        1.5620000000
  O        13.3910000000        9.9400000000        1.5620000000
  O        17.2180000000        9.9400000000        1.5620000000
  O         7.6520000000       13.2530000000        1.5620000000
  O        11.4780000000       13.2530000000        1.5620000000
  O        15.3050000000       13.2530000000        1.5620000000
  O        19.1310000000       13.2530000000        1.5620000000
  O         1.8149449300        1.2617044398        3.1424436206
  O         5.5668728062        1.1073930387        3.0388546518
  O         9.6592082175        1.0618938250        3.0794013723
  O        13.4791492731        1.1776843102        3.1838892292
  O         3.7570766124        4.3240333142        3.2243195080
  O         7.8458975833        4.5570737256        3.1446070058
  O        11.3969178673        4.4323427433        3.3658785704
  O        15.3510464485        4.2866445442        3.0196488125
  O         5.7527155490        7.6588900352        3.2307418005
  O         9.4167878900        7.6107090050        3.2877885199
  O        13.4005723175        7.7480416363        3.1703498002
  O        17.2721908526        7.6910322661        3.0714576528
  O         7.5585695168       11.0263722647        2.9892448488
  O        11.5724035619       10.9871562803        3.0250473603
  O        15.3774520518       11.0247806957        3.1833163354
  O        18.9484131159       11.0756724456        3.0311412051
  O         3.7113802352        2.5236985437        5.3431353388
  O         7.4862742404        2.1224460117        4.6084639365
  O        11.6700086087        2.2698164814        4.6313047379
  O        15.3688668000        2.3370247064        5.0647181100
  O         5.7107676692        5.4074389605        4.6958924058
  O         8.5056524653        4.0542124103        5.7957454529
  O        13.7994012599        5.5886574411        4.6917935257
  O        17.3964364830        5.5530672567        4.7802572804
  O         7.5647827305        8.8733121687        4.5887689723
  O        11.6332270146        8.8558474887        4.6572311067
  O        15.3175697495        8.8035937888        4.8477130298
  O        19.0330471423        8.9590919556        4.7063608829
  O         9.6647766459       11.9758810297        4.5305153280
  O        13.3857404920       12.0636088279        4.4539923999
  O        17.1895910643       12.3986354173        4.8585392344
  O        20.7854880659       12.1205470001        4.4960360142
 Ce         1.9130000000        1.1040000000        0.7810000000
 Ce         5.7390000000        1.1040000000        0.7810000000
 Ce         9.5650000000        1.1040000000        0.7810000000
 Ce        13.3910000000        1.1040000000        0.7810000000
 Ce         3.8260000000        4.4170000000        0.7810000000
 Ce         7.6520000000        4.4170000000        0.7810000000
 Ce        11.4780000000        4.4170000000        0.7810000000
 Ce        15.3050000000        4.4170000000        0.7810000000
 Ce         5.7390000000        7.7310000000        0.7810000000
 Ce         9.5650000000        7.7310000000        0.7810000000
 Ce        13.3910000000        7.7310000000        0.7810000000
 Ce        17.2180000000        7.7310000000        0.7810000000
 Ce         7.6520000000       11.0440000000        0.7810000000
 Ce        11.4780000000       11.0440000000        0.7810000000
 Ce        15.3050000000       11.0440000000        0.7810000000
 Ce        19.1310000000       11.0440000000        0.7810000000
 Ce         1.8326271970        3.3308459313        3.9724006876
 Ce         5.6298139557        3.1972896249        4.0328583218
 Ce         9.5416291668        3.2010321549        4.0171467496
 Ce        13.5025625123        3.0909145736        3.9890368534
 Ce        19.0480206662        6.5326333246        3.8565282821
 Ce         7.4693238607        6.6210202489        3.9177989537
 Ce        11.6262586566        6.5859469419        3.9097816385
 Ce        15.4408908514        6.6956033681        4.0572724986
 Ce        20.9303833250       10.0029072828        3.8725445815
 Ce         9.5475561561        9.8669275968        3.8454344295
 Ce        13.5722330192        9.9740184228        3.8641876069
 Ce        17.2646656973        9.9251263944        3.9681374958
 Ce        15.2348138035       -0.0720884052        3.8555762974
 Ce         3.8078779907       -0.1517853853        3.8709600924
 Ce        15.2302249097       13.2767464923        4.0169788670
 Ce        19.1057486697       13.4278602426        4.0868648960
 Pt         9.6823742240        5.6720786621        6.3797288100
 Pt        13.9097152099        5.6416446193        6.7635961637
 Pt        11.7979002611        9.5714310523        6.6389400894
 Pt         9.4139541954        3.0254545308        7.6669320463
 Pt        11.3113550144        2.8460824824        9.5221239735
 Pt         7.2378860202        7.2058640672        7.0231221557
 Pt        11.7062330547        4.1124314633        7.2874883352
 Pt        13.7244071085        4.2980622413        9.1312977184
 Pt         7.4981981690        9.9244362170        6.3807093380
 Pt         9.4295938538        8.2729032091        6.9765509717
 Pt        11.8111253057        7.1952173663        7.5613997338
 Pt        14.0683223700        7.0286362503        8.9843940213
 Pt         9.7245423795       11.7940848068        6.7467342864
 Pt        12.1306622301       12.0161483621        7.8216626217
 Pt        13.4628037310        9.7547568669        8.8930705516
 Pt         8.8140628334        3.3196939834       10.2101432580
 Pt         5.9645136870        7.0468909474        9.4365438997
 Pt         7.7619237948        5.1541852328        8.5826230245
 Pt        11.1871015070        5.5927717926        9.5555351735
 Pt        13.1724573119        3.2724779880       11.5399063806
 Pt         7.4331783567        9.1834537074        9.1823063591
 Pt        10.8214116841        9.1580057062        9.0685900104
 Pt        13.4677552465        5.9358536693       11.3829225003
 Pt         7.3930927587       11.8968745131        7.9965049157
 Pt         9.5811363525       11.7690940852        9.3261819823
 Pt        11.1096459067        7.4952259298       11.5855260196
 Pt        13.5108636299        8.5575642958       11.2228986628
 Pt        12.0367950017       11.5153140973       10.4962327117
 Pt         5.8523619987        6.4656303207       12.1412460114
 Pt         8.1965337045        5.3491590918       11.7043726275
 Pt        10.6079906528        4.1622268723       11.8695924330
 Pt         6.1146292159        8.9469769587       11.5173384305
 Pt         9.0654213447        7.0497244134        9.9370056368
 Pt        10.0577609789        6.1597637025       13.4490237314
 Pt        12.4696695700        4.9146828100       13.6406676071
 Pt         7.3642813812       11.3185635223       10.7155688620
 Pt         9.2395582755        9.5320363976       11.2678602928
 Pt        12.5995992097        7.5667913583       13.7140366326
 Pt         9.8752505490       11.7988186170       12.1370000615
 Pt        11.8053878875       10.1198565666       12.6813966320
 Pt         7.8428982194        7.7387693971       13.0140531103
 Pt         7.8382633574       10.5072041268       13.4086855729
 Pt         9.9624056572        8.7572540730       14.0907165590
 Pt         3.2591152135        0.8403296490        6.3683545026
 Pt        15.9046470533        0.5742872543        6.5136962540
 Pt        16.9596255702       13.9705377301        6.4474828414
     142
 i =      187, time =      187.000, E =     -7795.1132871242
  O         3.8260000000        2.2080000000        0.0000000000
  O         7.6520000000        2.2080000000        0.0000000000
  O        11.4780000000        2.2080000000        0.0000000000
  O        15.3050000000        2.2080000000        0.0000000000
  O         5.7390000000        5.5220000000        0.0000000000
  O         9.5650000000        5.5220000000        0.0000000000
  O        13.3910000000        5.5220000000        0.0000000000
  O        17.2180000000        5.5220000000        0.0000000000
  O         7.6520000000        8.8350000000        0.0000000000
  O        11.4780000000        8.8350000000        0.0000000000
  O        15.3050000000        8.8350000000        0.0000000000
  O        19.1310000000        8.8350000000        0.0000000000
  O         9.5650000000       12.1490000000        0.0000000000
  O        13.3910000000       12.1490000000        0.0000000000
  O        17.2180000000       12.1490000000        0.0000000000
  O        21.0440000000       12.1490000000        0.0000000000
  O         1.9130000000        3.3130000000        1.5620000000
  O         5.7390000000        3.3130000000        1.5620000000
  O         9.5650000000        3.3130000000        1.5620000000
  O        13.3910000000        3.3130000000        1.5620000000
  O         3.8260000000        6.6260000000        1.5620000000
  O         7.6520000000        6.6260000000        1.5620000000
  O        11.4780000000        6.6260000000        1.5620000000
  O        15.3050000000        6.6260000000        1.5620000000
  O         5.7390000000        9.9400000000        1.5620000000
  O         9.5650000000        9.9400000000        1.5620000000
  O        13.3910000000        9.9400000000        1.5620000000
  O        17.2180000000        9.9400000000        1.5620000000
  O         7.6520000000       13.2530000000        1.5620000000
  O        11.4780000000       13.2530000000        1.5620000000
  O        15.3050000000       13.2530000000        1.5620000000
  O        19.1310000000       13.2530000000        1.5620000000
  O         1.8174485683        1.2586453330        3.1401402459
  O         5.5653837084        1.1050452123        3.0361619379
  O         9.6674373434        1.0642587431        3.0724462766
  O        13.4908733959        1.1771879909        3.1744705901
  O         3.7575628357        4.3232685973        3.2208118099
  O         7.8577747202        4.5454460250        3.1452112788
  O        11.4107108629        4.4401066529        3.3654870408
  O        15.3557910307        4.2867153797        3.0228796180
  O         5.7572884922        7.6578706157        3.2370959542
  O         9.4152346466        7.6038026257        3.2815454566
  O        13.4014183153        7.7486475664        3.1652753680
  O        17.2688513049        7.7001225296        3.0781848721
  O         7.5698572925       11.0204269889        2.9878066675
  O        11.5715008439       10.9888879139        3.0253100655
  O        15.3840367951       11.0143816950        3.1841953250
  O        18.9534239691       11.0774800472        3.0353175209
  O         3.7060401580        2.5219223545        5.3404756978
  O         7.4836411067        2.1194591679        4.6181520400
  O        11.6703252577        2.2729525322        4.6308902916
  O        15.3745228550        2.3286892547        5.0684970375
  O         5.7165514743        5.4078268796        4.6956049225
  O         8.5097507174        4.0555989542        5.7897858099
  O        13.8027027318        5.5866431858        4.6886364812
  O        17.3959234387        5.5571735644        4.7799297117
  O         7.5668246796        8.8778275852        4.5960142731
  O        11.6326163842        8.8603486253        4.6558695165
  O        15.3263915223        8.7975993409        4.8556956320
  O        19.0383361293        8.9627290531        4.7066779954
  O         9.6635955582       11.9750990279        4.5472507169
  O        13.3784363346       12.0608189731        4.4477481801
  O        17.1833867893       12.3953435636        4.8545628941
  O        20.7916911974       12.1142783324        4.4926036565
 Ce         1.9130000000        1.1040000000        0.7810000000
 Ce         5.7390000000        1.1040000000        0.7810000000
 Ce         9.5650000000        1.1040000000        0.7810000000
 Ce        13.3910000000        1.1040000000        0.7810000000
 Ce         3.8260000000        4.4170000000        0.7810000000
 Ce         7.6520000000        4.4170000000        0.7810000000
 Ce        11.4780000000        4.4170000000        0.7810000000
 Ce        15.3050000000        4.4170000000        0.7810000000
 Ce         5.7390000000        7.7310000000        0.7810000000
 Ce         9.5650000000        7.7310000000        0.7810000000
 Ce        13.3910000000        7.7310000000        0.7810000000
 Ce        17.2180000000        7.7310000000        0.7810000000
 Ce         7.6520000000       11.0440000000        0.7810000000
 Ce        11.4780000000       11.0440000000        0.7810000000
 Ce        15.3050000000       11.0440000000        0.7810000000
 Ce        19.1310000000       11.0440000000        0.7810000000
 Ce         1.8325437646        3.3313927371        3.9732165831
 Ce         5.6288761728        3.1955422253        4.0346782994
 Ce         9.5425098003        3.2013308576        4.0153909607
 Ce        13.5022715351        3.0941571034        3.9906385951
 Ce        19.0482942359        6.5347753907        3.8551186699
 Ce         7.4694714393        6.6194446869        3.9164765556
 Ce        11.6269976723        6.5828500392        3.9084016435
 Ce        15.4437904890        6.6992067403        4.0571894145
 Ce        20.9299875878       10.0040290710        3.8721282265
 Ce         9.5457699468        9.8649145626        3.8454206457
 Ce        13.5759615984        9.9760030336        3.8644137517
 Ce        17.2651758769        9.9238896215        3.9669052537
 Ce        15.2350692055       -0.0749660503        3.8552708217
 Ce         3.8072045479       -0.1534010696        3.8705559306
 Ce        15.2311898915       13.2791131599        4.0164620071
 Ce        19.1039910165       13.4291883134        4.0870839106
 Pt         9.6826098308        5.6714644953        6.3815078281
 Pt        13.9116189668        5.6418050834        6.7644558369
 Pt        11.7954484002        9.5725717922        6.6390059746
 Pt         9.4147926095        3.0262607599        7.6674439789
 Pt        11.3103064855        2.8459260837        9.5215984299
 Pt         7.2384859276        7.2072483331        7.0243692059
 Pt        11.7050176460        4.1123559573        7.2886650511
 Pt        13.7242882844        4.2971101701        9.1324066157
 Pt         7.4951642840        9.9259438299        6.3829546115
 Pt         9.4280275360        8.2755486010        6.9789828153
 Pt        11.8113423068        7.1951803815        7.5617908528
 Pt        14.0691378338        7.0290732598        8.9866753025
 Pt         9.7252898503       11.7941135349        6.7487852988
 Pt        12.1327073625       12.0152572554        7.8206265291
 Pt        13.4660727592        9.7542984408        8.8932592456
 Pt         8.8150958571        3.3210018191       10.2093390595
 Pt         5.9629885584        7.0457205340        9.4362398333
 Pt         7.7627106038        5.1535027032        8.5845904881
 Pt        11.1860986231        5.5924573289        9.5588598854
 Pt        13.1714080167        3.2713218177       11.5405776613
 Pt         7.4327623298        9.1853956193        9.1808786705
 Pt        10.8234115735        9.1581621716        9.0686337158
 Pt        13.4668723839        5.9366926047       11.3825277225
 Pt         7.3925097638       11.8946883749        7.9961350273
 Pt         9.5796072361       11.7691615249        9.3251496916
 Pt        11.1116752028        7.4939857367       11.5867274663
 Pt        13.5105240253        8.5600931435       11.2214235648
 Pt        12.0362854973       11.5163736547       10.4989280494
 Pt         5.8514394674        6.4656738749       12.1396313162
 Pt         8.1981061996        5.3499725354       11.7047874807
 Pt        10.6069954268        4.1621935111       11.8728216718
 Pt         6.1148188506        8.9468528992       11.5148200791
 Pt         9.0681289358        7.0477461276        9.9335388411
 Pt        10.0579731531        6.1583866598       13.4495960332
 Pt        12.4685492947        4.9093951347       13.6390824630
 Pt         7.3649926905       11.3188991715       10.7163056636
 Pt         9.2415892766        9.5307384076       11.2665693785
 Pt        12.5996934352        7.5682707365       13.7152659980
 Pt         9.8745088541       11.8005092824       12.1353230218
 Pt        11.8064599204       10.1201559021       12.6803512223
 Pt         7.8418489283        7.7418109311       13.0136395012
 Pt         7.8388807290       10.5064729259       13.4086686622
 Pt         9.9607999587        8.7587857168       14.0897159184
 Pt         3.2615113979        0.8424910464        6.3724564861
 Pt        15.9041748278        0.5736448648        6.5150187917
 Pt        16.9600296635       13.9693027808        6.4453695126
     142
 i =      188, time =      188.000, E =     -7795.1143796825
  O         3.8260000000        2.2080000000        0.0000000000
  O         7.6520000000        2.2080000000        0.0000000000
  O        11.4780000000        2.2080000000        0.0000000000
  O        15.3050000000        2.2080000000        0.0000000000
  O         5.7390000000        5.5220000000        0.0000000000
  O         9.5650000000        5.5220000000        0.0000000000
  O        13.3910000000        5.5220000000        0.0000000000
  O        17.2180000000        5.5220000000        0.0000000000
  O         7.6520000000        8.8350000000        0.0000000000
  O        11.4780000000        8.8350000000        0.0000000000
  O        15.3050000000        8.8350000000        0.0000000000
  O        19.1310000000        8.8350000000        0.0000000000
  O         9.5650000000       12.1490000000        0.0000000000
  O        13.3910000000       12.1490000000        0.0000000000
  O        17.2180000000       12.1490000000        0.0000000000
  O        21.0440000000       12.1490000000        0.0000000000
  O         1.9130000000        3.3130000000        1.5620000000
  O         5.7390000000        3.3130000000        1.5620000000
  O         9.5650000000        3.3130000000        1.5620000000
  O        13.3910000000        3.3130000000        1.5620000000
  O         3.8260000000        6.6260000000        1.5620000000
  O         7.6520000000        6.6260000000        1.5620000000
  O        11.4780000000        6.6260000000        1.5620000000
  O        15.3050000000        6.6260000000        1.5620000000
  O         5.7390000000        9.9400000000        1.5620000000
  O         9.5650000000        9.9400000000        1.5620000000
  O        13.3910000000        9.9400000000        1.5620000000
  O        17.2180000000        9.9400000000        1.5620000000
  O         7.6520000000       13.2530000000        1.5620000000
  O        11.4780000000       13.2530000000        1.5620000000
  O        15.3050000000       13.2530000000        1.5620000000
  O        19.1310000000       13.2530000000        1.5620000000
  O         1.8201314393        1.2547932472        3.1379357041
  O         5.5639755612        1.1028773805        3.0341285618
  O         9.6751723754        1.0670960983        3.0657252791
  O        13.5027054355        1.1759117974        3.1646185348
  O         3.7582182173        4.3224152825        3.2167281014
  O         7.8695023584        4.5334894074        3.1457654916
  O        11.4246697311        4.4483829109        3.3646748001
  O        15.3605369970        4.2869344269        3.0267173140
  O         5.7610640006        7.6573562659        3.2426358870
  O         9.4147145428        7.5969877671        3.2749414535
  O        13.4024180137        7.7488609961        3.1597938584
  O        17.2652894863        7.7094217866        3.0851584383
  O         7.5814753976       11.0147536727        2.9869653848
  O        11.5700230925       10.9905656245        3.0255330504
  O        15.3910172223       11.0041218753        3.1847860700
  O        18.9586510633       11.0791889789        3.0397821590
  O         3.7010620005        2.5202314881        5.3371609713
  O         7.4806662361        2.1164444218        4.6274602867
  O        11.6702515344        2.2757938225        4.6310235315
  O        15.3797920681        2.3199942961        5.0723000897
  O         5.7220398797        5.4081665496        4.6951848416
  O         8.5144891609        4.0571419552        5.7843125469
  O        13.8048572618        5.5841088457        4.6859798291
  O        17.3945679690        5.5613961412        4.7797062209
  O         7.5687061621        8.8828886157        4.6033893178
  O        11.6317643484        8.8649524777        4.6547728395
  O        15.3356342237        8.7916195751        4.8633719068
  O        19.0438567681        8.9661293402        4.7070396688
  O         9.6618895425       11.9742185958        4.5639757677
  O        13.3713784731       12.0586406025        4.4422073702
  O        17.1770722313       12.3918211014        4.8513727133
  O        20.7986871094       12.1082169799        4.4895922184
 Ce         1.9130000000        1.1040000000        0.7810000000
 Ce         5.7390000000        1.1040000000        0.7810000000
 Ce         9.5650000000        1.1040000000        0.7810000000
 Ce        13.3910000000        1.1040000000        0.7810000000
 Ce         3.8260000000        4.4170000000        0.7810000000
 Ce         7.6520000000        4.4170000000        0.7810000000
 Ce        11.4780000000        4.4170000000        0.7810000000
 Ce        15.3050000000        4.4170000000        0.7810000000
 Ce         5.7390000000        7.7310000000        0.7810000000
 Ce         9.5650000000        7.7310000000        0.7810000000
 Ce        13.3910000000        7.7310000000        0.7810000000
 Ce        17.2180000000        7.7310000000        0.7810000000
 Ce         7.6520000000       11.0440000000        0.7810000000
 Ce        11.4780000000       11.0440000000        0.7810000000
 Ce        15.3050000000       11.0440000000        0.7810000000
 Ce        19.1310000000       11.0440000000        0.7810000000
 Ce         1.8325177683        3.3319335261        3.9740501963
 Ce         5.6279748871        3.1938948400        4.0365000222
 Ce         9.5433662546        3.2016346838        4.0136326260
 Ce        13.5019969398        3.0976355026        3.9922372158
 Ce        19.0486869614        6.5369311289        3.8537657134
 Ce         7.4696629374        6.6177886240        3.9152086434
 Ce        11.6277198232        6.5798066004        3.9070588288
 Ce        15.4467236345        6.7028506535        4.0570097820
 Ce        20.9295494659       10.0051239921        3.8716955746
 Ce         9.5440165308        9.8628699501        3.8454328628
 Ce        13.5795961198        9.9779146515        3.8646620306
 Ce        17.2656838517        9.9226771363        3.9656356049
 Ce        15.2353854963       -0.0778684732        3.8549967077
 Ce         3.8065649249       -0.1550219599        3.8701027383
 Ce        15.2322035092       13.2814799555        4.0158827850
 Ce        19.1021643728       13.4303931394        4.0872281372
 Pt         9.6828320799        5.6708576545        6.3832873689
 Pt        13.9134915424        5.6419420808        6.7653495896
 Pt        11.7929745802        9.5737664617        6.6390410580
 Pt         9.4155997946        3.0270487340        7.6679345903
 Pt        11.3092632091        2.8457543393        9.5211100077
 Pt         7.2390332118        7.2085893882        7.0256596877
 Pt        11.7038298361        4.1123387372        7.2898101036
 Pt        13.7241312035        4.2962087174        9.1335113933
 Pt         7.4921300654        9.9274458696        6.3852183660
 Pt         9.4265480441        8.2782223925        6.9814222136
 Pt        11.8115454797        7.1950593840        7.5622201786
 Pt        14.0699235424        7.0295289222        8.9889839023
 Pt         9.7260740356       11.7940890473        6.7508199426
 Pt        12.1347507115       12.0143462677        7.8196239156
 Pt        13.4692949503        9.7538425314        8.8934402624
 Pt         8.8161085510        3.3223204698       10.2085167477
 Pt         5.9615202964        7.0445166148        9.4359600128
 Pt         7.7635091891        5.1528516639        8.5865830877
 Pt        11.1851213332        5.5921487563        9.5622054536
 Pt        13.1703296945        3.2701902504       11.5412346325
 Pt         7.4323495859        9.1873376940        9.1794016779
 Pt        10.8254070078        9.1583334872        9.0687127986
 Pt        13.4659759733        5.9375153477       11.3821353564
 Pt         7.3918745047       11.8924667983        7.9958221600
 Pt         9.5781503694       11.7692116148        9.3241354727
 Pt        11.1137033135        7.4927659596       11.5878624497
 Pt        13.5101571193        8.5626242589       11.2199408583
 Pt        12.0357477850       11.5174045947       10.5015765478
 Pt         5.8504908550        6.4656890659       12.1379725664
 Pt         8.1996801436        5.3507704314       11.7052123748
 Pt        10.6060200837        4.1621511930       11.8760296315
 Pt         6.1150293907        8.9467820966       11.5122763414
 Pt         9.0708333537        7.0458145115        9.9300559926
 Pt        10.0581539668        6.1570261458       13.4501978956
 Pt        12.4674224213        4.9041132499       13.6374557172
 Pt         7.3656876617       11.3192381917       10.7170777870
 Pt         9.2436524922        9.5293634911       11.2652590742
 Pt        12.5997628097        7.5697850178       13.7164583571
 Pt         9.8737627840       11.8022143596       12.1336288098
 Pt        11.8075259124       10.1203917495       12.6793071107
 Pt         7.8408700025        7.7448568611       13.0132241156
 Pt         7.8395148933       10.5057110533       13.4086099914
 Pt         9.9592195161        8.7603402099       14.0886996418
 Pt         3.2639319211        0.8446443563        6.3765887066
 Pt        15.9036734257        0.5730656910        6.5163064175
 Pt        16.9604659889       13.9680752783        6.4432184368
     142
 i =      189, time =      189.000, E =     -7795.1156615138
  O         3.8260000000        2.2080000000        0.0000000000
  O         7.6520000000        2.2080000000        0.0000000000
  O        11.4780000000        2.2080000000        0.0000000000
  O        15.3050000000        2.2080000000        0.0000000000
  O         5.7390000000        5.5220000000        0.0000000000
  O         9.5650000000        5.5220000000        0.0000000000
  O        13.3910000000        5.5220000000        0.0000000000
  O        17.2180000000        5.5220000000        0.0000000000
  O         7.6520000000        8.8350000000        0.0000000000
  O        11.4780000000        8.8350000000        0.0000000000
  O        15.3050000000        8.8350000000        0.0000000000
  O        19.1310000000        8.8350000000        0.0000000000
  O         9.5650000000       12.1490000000        0.0000000000
  O        13.3910000000       12.1490000000        0.0000000000
  O        17.2180000000       12.1490000000        0.0000000000
  O        21.0440000000       12.1490000000        0.0000000000
  O         1.9130000000        3.3130000000        1.5620000000
  O         5.7390000000        3.3130000000        1.5620000000
  O         9.5650000000        3.3130000000        1.5620000000
  O        13.3910000000        3.3130000000        1.5620000000
  O         3.8260000000        6.6260000000        1.5620000000
  O         7.6520000000        6.6260000000        1.5620000000
  O        11.4780000000        6.6260000000        1.5620000000
  O        15.3050000000        6.6260000000        1.5620000000
  O         5.7390000000        9.9400000000        1.5620000000
  O         9.5650000000        9.9400000000        1.5620000000
  O        13.3910000000        9.9400000000        1.5620000000
  O        17.2180000000        9.9400000000        1.5620000000
  O         7.6520000000       13.2530000000        1.5620000000
  O        11.4780000000       13.2530000000        1.5620000000
  O        15.3050000000       13.2530000000        1.5620000000
  O        19.1310000000       13.2530000000        1.5620000000
  O         1.8229975669        1.2501553206        3.1358420252
  O         5.5626645571        1.1009105705        3.0327711523
  O         9.6823741095        1.0703950175        3.0592889502
  O        13.5145394613        1.1739229898        3.1544217319
  O         3.7590440180        4.3214936151        3.2121154694
  O         7.8809932827        4.5213140960        3.1462616675
  O        11.4387533133        4.4571343546        3.3634479191
  O        15.3652607940        4.2872968251        3.0311265770
  O         5.7640126739        7.6573557088        3.2473335417
  O         9.4152171257        7.5903036662        3.2680122324
  O        13.4035645870        7.7486963852        3.1539574829
  O        17.2615663264        7.7189009658        3.0922975830
  O         7.5933808021       11.0093652628        2.9867165476
  O        11.5679571082       10.9921752243        3.0257071600
  O        15.3983583761       10.9940282069        3.1850900760
  O        18.9640624016       11.0808041504        3.0445048887
  O         3.6964638616        2.5186503548        5.3331956381
  O         7.4773574238        2.1133920226        4.6364025128
  O        11.6698109169        2.2783137734        4.6316808789
  O        15.3846331766        2.3109878552        5.0760894051
  O         5.7272190770        5.4084363954        4.6946191980
  O         8.5198413469        4.0588384350        5.7793249100
  O        13.8058757899        5.5810754543        4.6838286289
  O        17.3924092516        5.5657358276        4.7795735418
  O         7.5704257312        8.8884358338        4.6108304711
  O        11.6306915186        8.8696429640        4.6539414685
  O        15.3452490125        8.7856692499        4.8707071492
  O        19.0496030221        8.9692640148        4.7074444239
  O         9.6596938485       11.9732222666        4.5806833219
  O        13.3646457979       12.0570934933        4.4373870322
  O        17.1706531601       12.3880980065        4.8489566209
  O        20.8064313922       12.1024262538        4.4869894158
 Ce         1.9130000000        1.1040000000        0.7810000000
 Ce         5.7390000000        1.1040000000        0.7810000000
 Ce         9.5650000000        1.1040000000        0.7810000000
 Ce        13.3910000000        1.1040000000        0.7810000000
 Ce         3.8260000000        4.4170000000        0.7810000000
 Ce         7.6520000000        4.4170000000        0.7810000000
 Ce        11.4780000000        4.4170000000        0.7810000000
 Ce        15.3050000000        4.4170000000        0.7810000000
 Ce         5.7390000000        7.7310000000        0.7810000000
 Ce         9.5650000000        7.7310000000        0.7810000000
 Ce        13.3910000000        7.7310000000        0.7810000000
 Ce        17.2180000000        7.7310000000        0.7810000000
 Ce         7.6520000000       11.0440000000        0.7810000000
 Ce        11.4780000000       11.0440000000        0.7810000000
 Ce        15.3050000000       11.0440000000        0.7810000000
 Ce        19.1310000000       11.0440000000        0.7810000000
 Ce         1.8325493162        3.3324647534        3.9749010357
 Ce         5.6271094034        3.1923457753        4.0383227869
 Ce         9.5441997295        3.2019452127        4.0118726364
 Ce        13.5017437441        3.1013419682        3.9938296511
 Ce        19.0491977164        6.5390996116        3.8524715093
 Ce         7.4699027222        6.6160514731        3.9139987238
 Ce        11.6284281362        6.5768219468        3.9057540363
 Ce        15.4496855301        6.7065316753        4.0567371411
 Ce        20.9290707684       10.0061901732        3.8712481551
 Ce         9.5422979095        9.8607965388        3.8454714836
 Ce        13.5831327233        9.9797472538        3.8649327189
 Ce        17.2661926438        9.9214892372        3.9643327635
 Ce        15.2357648569       -0.0807939497        3.8547539334
 Ce         3.8059541428       -0.1566466865        3.8696016586
 Ce        15.2332630638       13.2838437199        4.0152418117
 Ce        19.1002742663       13.4314706742        4.0872978437
 Pt         9.6830429005        5.6702609018        6.3850663949
 Pt        13.9153317797        5.6420550170        6.7662765374
 Pt        11.7904797165        9.5750159522        6.6390453505
 Pt         9.4163755542        3.0278176349        7.6684036834
 Pt        11.3082262982        2.8455662793        9.5206602803
 Pt         7.2395260775        7.2098866668        7.0269934142
 Pt        11.7026716927        4.1123812750        7.2909232836
 Pt        13.7239355141        4.2953580602        9.1346112672
 Pt         7.4890964162        9.9289425917        6.3875012100
 Pt         9.4251575722        8.2809226638        6.9838688064
 Pt        11.8117334980        7.1948542619        7.5626877610
 Pt        14.0706796591        7.0300031345        8.9913186330
 Pt         9.7268947926       11.7940125063        6.7528382755
 Pt        12.1367932226       12.0134153516        7.8186545711
 Pt        13.4724697392        9.7533906970        8.8936130656
 Pt         8.8170989914        3.3236493485       10.2076776798
 Pt         5.9601098248        7.0432807806        9.4357047524
 Pt         7.7643186646        5.1522319104        8.5885997566
 Pt        11.1841712394        5.5918451768        9.5655711734
 Pt        13.1692223352        3.2690830194       11.5418767986
 Pt         7.4319404946        9.1892770974        9.1778763470
 Pt        10.8273981583        9.1585193409        9.0688275436
 Pt        13.4650663101        5.9383223106       11.3817461072
 Pt         7.3911862978       11.8902125344        7.9955677201
 Pt         9.5767661786       11.7692437065        9.3231407155
 Pt        11.1157271311        7.4915672794       11.5889306074
 Pt        13.5097633687        8.5651561401       11.2184510867
 Pt        12.0351822716       11.5184053635       10.5041767211
 Pt         5.8495169597        6.4656761550       12.1362703325
 Pt         8.2012558577        5.3515547442       11.7056482079
 Pt        10.6050647065        4.1620985618       11.8792138097
 Pt         6.1152605154        8.9467638858       11.5097069438
 Pt         9.0735349779        7.0439308957        9.9265578783
 Pt        10.0583031982        6.1556836753       13.4508296316
 Pt        12.4662895738        4.8988395438       13.6357886516
 Pt         7.3663673070       11.3195811053       10.7178854081
 Pt         9.2457455888        9.5279133074       11.2639287607
 Pt        12.5998069123        7.5713323275       13.7176131427
 Pt         9.8730127928       11.8039334788       12.1319180780
 Pt        11.8085845185       10.1205645359       12.6782651942
 Pt         7.8399615519        7.7479045718       13.0128062209
 Pt         7.8401653457       10.5049192807       13.4085094657
 Pt         9.9576656380        8.7619166063       14.0876673115
 Pt         3.2663761965        0.8467869747        6.3807513558
 Pt        15.9031423179        0.5725497923        6.5175592668
 Pt        16.9609351465       13.9668559766        6.4410289556
     142
 i =      190, time =      190.000, E =     -7795.1167998387
  O         3.8260000000        2.2080000000        0.0000000000
  O         7.6520000000        2.2080000000        0.0000000000
  O        11.4780000000        2.2080000000        0.0000000000
  O        15.3050000000        2.2080000000        0.0000000000
  O         5.7390000000        5.5220000000        0.0000000000
  O         9.5650000000        5.5220000000        0.0000000000
  O        13.3910000000        5.5220000000        0.0000000000
  O        17.2180000000        5.5220000000        0.0000000000
  O         7.6520000000        8.8350000000        0.0000000000
  O        11.4780000000        8.8350000000        0.0000000000
  O        15.3050000000        8.8350000000        0.0000000000
  O        19.1310000000        8.8350000000        0.0000000000
  O         9.5650000000       12.1490000000        0.0000000000
  O        13.3910000000       12.1490000000        0.0000000000
  O        17.2180000000       12.1490000000        0.0000000000
  O        21.0440000000       12.1490000000        0.0000000000
  O         1.9130000000        3.3130000000        1.5620000000
  O         5.7390000000        3.3130000000        1.5620000000
  O         9.5650000000        3.3130000000        1.5620000000
  O        13.3910000000        3.3130000000        1.5620000000
  O         3.8260000000        6.6260000000        1.5620000000
  O         7.6520000000        6.6260000000        1.5620000000
  O        11.4780000000        6.6260000000        1.5620000000
  O        15.3050000000        6.6260000000        1.5620000000
  O         5.7390000000        9.9400000000        1.5620000000
  O         9.5650000000        9.9400000000        1.5620000000
  O        13.3910000000        9.9400000000        1.5620000000
  O        17.2180000000        9.9400000000        1.5620000000
  O         7.6520000000       13.2530000000        1.5620000000
  O        11.4780000000       13.2530000000        1.5620000000
  O        15.3050000000       13.2530000000        1.5620000000
  O        19.1310000000       13.2530000000        1.5620000000
  O         1.8260522472        1.2447431435        3.1338705299
  O         5.5614650017        1.0991606686        3.0321013952
  O         9.6890151818        1.0741485999        3.0531724873
  O        13.5262806847        1.1713092279        3.1440058778
  O         3.7600363588        4.3205268498        3.2070215436
  O         7.8921888422        4.5089947516        3.1466885030
  O        11.4529249691        4.4663137119        3.3618124540
  O        15.3699336769        4.2877971455        3.0360738242
  O         5.7661143244        7.6578700616        3.2511767963
  O         9.4167165362        7.5837793593        3.2607795422
  O        13.4048573617        7.7481755953        3.1478293785
  O        17.2577354675        7.7285200247        3.0995193355
  O         7.6055420610       11.0042563642        2.9870525267
  O        11.5652956140       10.9937043170        3.0258251970
  O        15.4060130777       10.9841446787        3.1851092126
  O        18.9696230303       11.0823279324        3.0494635163
  O         3.6922498887        2.5171949102        5.3285886260
  O         7.4737226229        2.1102927515        4.6449976556
  O        11.6690320180        2.2804865510        4.6328360155
  O        15.3890233119        2.3016940477        5.0798323066
  O         5.7320708066        5.4086218590        4.6938946501
  O         8.5257882463        4.0606828096        5.7748255809
  O        13.8057790636        5.5775620455        4.6821951258
  O        17.3894923746        5.5701896173        4.7795169360
  O         7.5719823986        8.8944047636        4.6182792258
  O        11.6294215570        8.8744161473        4.6533800218
  O        15.3551659652        8.7797807252        4.8776575371
  O        19.0555584431        8.9721038662        4.7078909813
  O         9.6570472588       11.9720951551        4.5973349751
  O        13.3583139763       12.0561877599        4.4332908201
  O        17.1641451180       12.3842097168        4.8473001664
  O        20.8148690511       12.0969809868        4.4847876168
 Ce         1.9130000000        1.1040000000        0.7810000000
 Ce         5.7390000000        1.1040000000        0.7810000000
 Ce         9.5650000000        1.1040000000        0.7810000000
 Ce        13.3910000000        1.1040000000        0.7810000000
 Ce         3.8260000000        4.4170000000        0.7810000000
 Ce         7.6520000000        4.4170000000        0.7810000000
 Ce        11.4780000000        4.4170000000        0.7810000000
 Ce        15.3050000000        4.4170000000        0.7810000000
 Ce         5.7390000000        7.7310000000        0.7810000000
 Ce         9.5650000000        7.7310000000        0.7810000000
 Ce        13.3910000000        7.7310000000        0.7810000000
 Ce        17.2180000000        7.7310000000        0.7810000000
 Ce         7.6520000000       11.0440000000        0.7810000000
 Ce        11.4780000000       11.0440000000        0.7810000000
 Ce        15.3050000000       11.0440000000        0.7810000000
 Ce        19.1310000000       11.0440000000        0.7810000000
 Ce         1.8326386543        3.3329826379        3.9757684600
 Ce         5.6262792101        3.1908931093        4.0401458345
 Ce         9.5450119477        3.2022642234        4.0101123276
 Ce        13.5015160647        3.1052680782        3.9954131665
 Ce        19.0498251834        6.5412798873        3.8512379430
 Ce         7.4701948865        6.6142333107        3.9128491470
 Ce        11.6291246754        6.5739012022        3.9044883697
 Ce        15.4526707564        6.7102457871        4.0563749807
 Ce        20.9285535050       10.0072259183        3.8707873651
 Ce         9.5406160334        9.8586970160        3.8455370612
 Ce        13.5865675860        9.9814952837        3.8652258633
 Ce        17.2667057509        9.9203262336        3.9630011673
 Ce        15.2362096461       -0.0837410902        3.8545427277
 Ce         3.8053668201       -0.1582738365        3.8690539893
 Ce        15.2343658846       13.2862018751        4.0145397847
 Ce        19.0983262601       13.4324173348        4.0872930408
 Pt         9.6832428259        5.6696764132        6.3868440169
 Pt        13.9171387416        5.6421444108        6.7672358120
 Pt        11.7879649061        9.5763203818        6.6390176144
 Pt         9.4171197438        3.0285659272        7.6688507851
 Pt        11.3071969710        2.8453611166        9.5202498740
 Pt         7.2399634034        7.2111384649        7.0283703084
 Pt        11.7015448122        4.1124842216        7.2920040736
 Pt        13.7237005832        4.2945581005        9.1357064859
 Pt         7.4860641981        9.9304340956        6.3898042271
 Pt         9.4238574308        8.2836489517        6.9863226468
 Pt        11.8119059688        7.1945650496        7.5631931576
 Pt        14.0714060087        7.0304949544        8.9936779572
 Pt         9.7277508808       11.7938850579        6.7548403828
 Pt        12.1388345579       12.0124646333        7.8177200811
 Pt        13.4755961492        9.7529432167        8.8937771142
 Pt         8.8180669722        3.3249873664       10.2068238208
 Pt         5.9587583774        7.0420137384        9.4354737445
 Pt         7.7651379400        5.1516447057        8.5906394955
 Pt        11.1832508146        5.5915467111        9.5689565729
 Pt        13.1680855927        3.2680005292       11.5425027599
 Pt         7.4315337436        9.1912130865        9.1763030042
 Pt        10.8293862865        9.1587204549        9.0689787467
 Pt        13.4641441131        5.9391132135       11.3813611830
 Pt         7.3904441709       11.8879269189        7.9953727626
 Pt         9.5754563067       11.7692578663        9.3221665506
 Pt        11.1177460078        7.4903899367       11.5899313352
 Pt        13.5093427967        8.5676875498       11.2169555311
 Pt        12.0345889311       11.5193760687       10.5067268982
 Pt         5.8485192656        6.4656358643       12.1345249721
 Pt         8.2028321425        5.3523257300       11.7060946603
 Pt        10.6041291220        4.1620343094       11.8823721247
 Pt         6.1155118836        8.9467986854       11.5071117862
 Pt         9.0762318207        7.0420973798        9.9230456842
 Pt        10.0584210528        6.1543616645       13.4514922197
 Pt        12.4651511467        4.8935760283       13.6340819485
 Pt         7.3670318029       11.3199271909       10.7187281929
 Pt         9.2478679997        9.5263887553       11.2625797125
 Pt        12.5998260836        7.5729108605       13.7187301167
 Pt         9.8722585056       11.8056646526       12.1301907591
 Pt        11.8096352875       10.1206748543       12.6772272346
 Pt         7.8391232902        7.7509521056       13.0123854885
 Pt         7.8408323277       10.5040981443       13.4083666576
 Pt         9.9561386664        8.7635146256       14.0866183326
 Pt         3.2688433670        0.8489172129        6.3849435369
 Pt        15.9025829410        0.5720966368        6.5187776550
 Pt        16.9614370892       13.9656453116        6.4388005251
     142
 i =      191, time =      191.000, E =     -7795.1179535616
  O         3.8260000000        2.2080000000        0.0000000000
  O         7.6520000000        2.2080000000        0.0000000000
  O        11.4780000000        2.2080000000        0.0000000000
  O        15.3050000000        2.2080000000        0.0000000000
  O         5.7390000000        5.5220000000        0.0000000000
  O         9.5650000000        5.5220000000        0.0000000000
  O        13.3910000000        5.5220000000        0.0000000000
  O        17.2180000000        5.5220000000        0.0000000000
  O         7.6520000000        8.8350000000        0.0000000000
  O        11.4780000000        8.8350000000        0.0000000000
  O        15.3050000000        8.8350000000        0.0000000000
  O        19.1310000000        8.8350000000        0.0000000000
  O         9.5650000000       12.1490000000        0.0000000000
  O        13.3910000000       12.1490000000        0.0000000000
  O        17.2180000000       12.1490000000        0.0000000000
  O        21.0440000000       12.1490000000        0.0000000000
  O         1.9130000000        3.3130000000        1.5620000000
  O         5.7390000000        3.3130000000        1.5620000000
  O         9.5650000000        3.3130000000        1.5620000000
  O        13.3910000000        3.3130000000        1.5620000000
  O         3.8260000000        6.6260000000        1.5620000000
  O         7.6520000000        6.6260000000        1.5620000000
  O        11.4780000000        6.6260000000        1.5620000000
  O        15.3050000000        6.6260000000        1.5620000000
  O         5.7390000000        9.9400000000        1.5620000000
  O         9.5650000000        9.9400000000        1.5620000000
  O        13.3910000000        9.9400000000        1.5620000000
  O        17.2180000000        9.9400000000        1.5620000000
  O         7.6520000000       13.2530000000        1.5620000000
  O        11.4780000000       13.2530000000        1.5620000000
  O        15.3050000000       13.2530000000        1.5620000000
  O        19.1310000000       13.2530000000        1.5620000000
  O         1.8293006397        1.2385760755        3.1320302941
  O         5.5603899666        1.0976433530        3.0321260077
  O         9.6950786180        1.0783516949        3.0474014581
  O        13.5378689142        1.1681635890        3.1334961595
  O         3.7611888143        4.3195400378        3.2014903581
  O         7.9030500882        4.4965767448        3.1470391379
  O        11.4671149041        4.4758315068        3.3597764150
  O        15.3745213094        4.2884293543        3.0415317400
  O         5.7673597446        7.6588912731        3.2541633345
  O         9.4191772222        7.5774334390        3.2532556162
  O        13.4062976024        7.7473245084        3.1414762992
  O        17.2538405663        7.7382259326        3.1067511819
  O         7.6179244259       10.9994163945        2.9879616883
  O        11.5620346348       10.9951430772        3.0258818458
  O        15.4139071649       10.9745392737        3.1848451806
  O        18.9752970437       11.0837608475        3.0546412713
  O         3.6884242310        2.5158794990        5.3233435300
  O         7.4697661847        2.1071391084        4.6532471912
  O        11.6679476466        2.2822913674        4.6344599369
  O        15.3929554254        2.2921236072        5.0834928535
  O         5.7365753142        5.4087119230        4.6929977721
  O         8.5323146361        4.0626691053        5.7708226376
  O        13.8045955786        5.5735945840        4.6810899342
  O        17.3858700906        5.5747496398        4.7795205340
  O         7.5733774200        8.9007242194        4.6256860846
  O        11.6279806345        8.8792705821        4.6530849385
  O        15.3653173249        8.7740009805        4.8841887726
  O        19.0616986884        8.9746198274        4.7083780494
  O         9.6539893106       11.9708246860        4.6138157681
  O        13.3524533065       12.0559213227        4.4299144232
  O        17.1575750070       12.3801948007        4.8463847679
  O        20.8239475260       12.0919602513        4.4829792073
 Ce         1.9130000000        1.1040000000        0.7810000000
 Ce         5.7390000000        1.1040000000        0.7810000000
 Ce         9.5650000000        1.1040000000        0.7810000000
 Ce        13.3910000000        1.1040000000        0.7810000000
 Ce         3.8260000000        4.4170000000        0.7810000000
 Ce         7.6520000000        4.4170000000        0.7810000000
 Ce        11.4780000000        4.4170000000        0.7810000000
 Ce        15.3050000000        4.4170000000        0.7810000000
 Ce         5.7390000000        7.7310000000        0.7810000000
 Ce         9.5650000000        7.7310000000        0.7810000000
 Ce        13.3910000000        7.7310000000        0.7810000000
 Ce        17.2180000000        7.7310000000        0.7810000000
 Ce         7.6520000000       11.0440000000        0.7810000000
 Ce        11.4780000000       11.0440000000        0.7810000000
 Ce        15.3050000000       11.0440000000        0.7810000000
 Ce        19.1310000000       11.0440000000        0.7810000000
 Ce         1.8327861655        3.3334829580        3.9766518063
 Ce         5.6254835706        3.1895343610        4.0419681691
 Ce         9.5458049309        3.2025931262        4.0083533421
 Ce        13.5013173921        3.1094047161        3.9969850635
 Ce        19.0505677239        6.5434710861        3.8500666473
 Ce         7.4705430789        6.6123351202        3.9117611092
 Ce        11.6298113352        6.5710494266        3.9032627858
 Ce        15.4556731220        6.7139882652        4.0559267197
 Ce        20.9279999988       10.0082297974        3.8703146262
 Ce         9.5389729221        9.8565744700        3.8456299126
 Ce        13.5898966022        9.9831540819        3.8655413122
 Ce        17.2672269059        9.9191887749        3.9616454547
 Ce        15.2367220723       -0.0867087704        3.8543631807
 Ce         3.8047973765       -0.1599017381        3.8684613814
 Ce        15.2355092002       13.2885521638        4.0137773311
 Ce        19.0963258807       13.4332297335        4.0872138091
 Pt         9.6834319625        5.6691062661        6.3886195682
 Pt        13.9189117415        5.6422107794        6.7682259839
 Pt        11.7854307980        9.5776781159        6.6389571383
 Pt         9.4178316047        3.0292921363        7.6692749032
 Pt        11.3061758751        2.8451388155        9.5198790933
 Pt         7.2403445775        7.2123428145        7.0297903276
 Pt        11.7004510748        4.1126480190        7.2930512718
 Pt        13.7234265076        4.2938085601        9.1367972624
 Pt         7.4830347336        9.9319194927        6.3921286989
 Pt         9.4226486033        8.2864010197        6.9887840592
 Pt        11.8120631355        7.1941927072        7.5637361431
 Pt        14.0721020913        7.0310037798        8.9960603164
 Pt         9.7286424673       11.7937076436        6.7568270402
 Pt        12.1408737681       12.0114940540        7.8168224979
 Pt        13.4786727567        9.7525002381        8.8939318337
 Pt         8.8190128927        3.3263347149       10.2059570269
 Pt         5.9574662870        7.0407155486        9.4352665449
 Pt         7.7659662674        5.1510918901        8.5927013831
 Pt        11.1823620245        5.5912528449        9.5723617830
 Pt        13.1669195969        3.2669426985       11.5431117491
 Pt         7.4311280789        9.1931457874        9.1746817434
 Pt        10.8313728346        9.1589371156        9.0691676220
 Pt        13.4632099858        5.9398875217       11.3809817552
 Pt         7.3896476462       11.8856116772        7.9952382016
 Pt         9.5742220764       11.7692544102        9.3212141886
 Pt        11.1197600359        7.4892346230       11.5908638294
 Pt        13.5088951067        8.5702177303       11.2154558949
 Pt        12.0339679701       11.5203173538       10.5092246405
 Pt         5.8474995201        6.4655685502       12.1327369549
 Pt         8.2044070543        5.3530832290       11.7065507545
 Pt        10.6032129709        4.1619572132       11.8855031155
 Pt         6.1157835663        8.9468865818       11.5044912744
 Pt         9.0789216309        7.0403158432        9.9195212322
 Pt        10.0585076912        6.1530630041       13.4521865500
 Pt        12.4640076242        4.8883248058       13.6323365590
 Pt         7.3676808691       11.3202753192       10.7196065387
 Pt         9.2500204210        9.5247904406       11.2612126563
 Pt        12.5998205198        7.5745195163       13.7198092317
 Pt         9.8714999286       11.8074050105       12.1284472395
 Pt        11.8106771558       10.1207230956       12.6761943730
 Pt         7.8383542103        7.7539977967       13.0119613179
 Pt         7.8415160993       10.5032483880       13.4081813774
 Pt         9.9546391920        8.7651340823       14.0855523281
 Pt         3.2713324761        0.8510333879        6.3891640324
 Pt        15.9019964651        0.5717059891        6.5199625541
 Pt        16.9619715273       13.9644432940        6.4365329214
     142
 i =      192, time =      192.000, E =     -7795.1190057090
  O         3.8260000000        2.2080000000        0.0000000000
  O         7.6520000000        2.2080000000        0.0000000000
  O        11.4780000000        2.2080000000        0.0000000000
  O        15.3050000000        2.2080000000        0.0000000000
  O         5.7390000000        5.5220000000        0.0000000000
  O         9.5650000000        5.5220000000        0.0000000000
  O        13.3910000000        5.5220000000        0.0000000000
  O        17.2180000000        5.5220000000        0.0000000000
  O         7.6520000000        8.8350000000        0.0000000000
  O        11.4780000000        8.8350000000        0.0000000000
  O        15.3050000000        8.8350000000        0.0000000000
  O        19.1310000000        8.8350000000        0.0000000000
  O         9.5650000000       12.1490000000        0.0000000000
  O        13.3910000000       12.1490000000        0.0000000000
  O        17.2180000000       12.1490000000        0.0000000000
  O        21.0440000000       12.1490000000        0.0000000000
  O         1.9130000000        3.3130000000        1.5620000000
  O         5.7390000000        3.3130000000        1.5620000000
  O         9.5650000000        3.3130000000        1.5620000000
  O        13.3910000000        3.3130000000        1.5620000000
  O         3.8260000000        6.6260000000        1.5620000000
  O         7.6520000000        6.6260000000        1.5620000000
  O        11.4780000000        6.6260000000        1.5620000000
  O        15.3050000000        6.6260000000        1.5620000000
  O         5.7390000000        9.9400000000        1.5620000000
  O         9.5650000000        9.9400000000        1.5620000000
  O        13.3910000000        9.9400000000        1.5620000000
  O        17.2180000000        9.9400000000        1.5620000000
  O         7.6520000000       13.2530000000        1.5620000000
  O        11.4780000000       13.2530000000        1.5620000000
  O        15.3050000000       13.2530000000        1.5620000000
  O        19.1310000000       13.2530000000        1.5620000000
  O         1.8327449409        1.2316868618        3.1303279829
  O         5.5594520343        1.0963718310        3.0328439812
  O         9.7005515402        1.0829972354        3.0419992914
  O        13.5492614370        1.1645767259        3.1229861596
  O         3.7624926672        4.3185587041        3.1955578269
  O         7.9135118597        4.4841217353        3.1473081908
  O        11.4812726713        4.4855775431        3.3573501083
  O        15.3789875406        4.2891847043        3.0474808657
  O         5.7677507605        7.6604032828        3.2562948842
  O         9.4225634274        7.5712746493        3.2454459189
  O        13.4078804827        7.7461677579        3.1349579249
  O        17.2499209524        7.7479613662        3.1139370472
  O         7.6304671933       10.9948504029        2.9894276103
  O        11.5581743951       10.9964842148        3.0258719583
  O        15.4219508832       10.9652833048        3.1842981702
  O        18.9810499445       11.0851049425        3.0600233105
  O         3.6849870541        2.5147138382        5.3174613053
  O         7.4654934461        2.1039248834        4.6611305195
  O        11.6665927639        2.2837137586        4.6365242492
  O        15.3964303144        2.2822835591        5.0870403944
  O         5.7407122980        5.4086996492        4.6919145804
  O         8.5394092589        4.0647860068        5.7673306831
  O        13.8023596935        5.5692070948        4.6805078922
  O        17.3816024966        5.5794009652        4.7795665139
  O         7.5746138771        8.9073124128        4.6330099962
  O        11.6263965264        8.8841919874        4.6530366787
  O        15.3756628238        8.7683714992        4.8902827960
  O        19.0679957592        8.9767882561        4.7089044894
  O         9.6505549365       11.9694034102        4.6300312953
  O        13.3471300284       12.0562806781        4.4272449253
  O        17.1509803562       12.3760937164        4.8461915849
  O        20.8336308804       12.0874373577        4.4815585458
 Ce         1.9130000000        1.1040000000        0.7810000000
 Ce         5.7390000000        1.1040000000        0.7810000000
 Ce         9.5650000000        1.1040000000        0.7810000000
 Ce        13.3910000000        1.1040000000        0.7810000000
 Ce         3.8260000000        4.4170000000        0.7810000000
 Ce         7.6520000000        4.4170000000        0.7810000000
 Ce        11.4780000000        4.4170000000        0.7810000000
 Ce        15.3050000000        4.4170000000        0.7810000000
 Ce         5.7390000000        7.7310000000        0.7810000000
 Ce         9.5650000000        7.7310000000        0.7810000000
 Ce        13.3910000000        7.7310000000        0.7810000000
 Ce        17.2180000000        7.7310000000        0.7810000000
 Ce         7.6520000000       11.0440000000        0.7810000000
 Ce        11.4780000000       11.0440000000        0.7810000000
 Ce        15.3050000000       11.0440000000        0.7810000000
 Ce        19.1310000000       11.0440000000        0.7810000000
 Ce         1.8329920837        3.3339616055        3.9775505110
 Ce         5.6247215313        3.1882669511        4.0437888003
 Ce         9.5465804739        3.2029328990        4.0065975479
 Ce        13.5011512910        3.1137427911        3.9985427755
 Ce        19.0514234700        6.5456724769        3.8489592429
 Ce         7.4709502053        6.6103588202        3.9107363424
 Ce        11.6304908098        6.5682721754        3.9020787957
 Ce        15.4586853245        6.7177534216        4.0553966359
 Ce        20.9274128911       10.0092003152        3.8698315918
 Ce         9.5373708660        9.8544319994        3.8457509886
 Ce        13.5931155382        9.9847195284        3.8658794491
 Ce        17.2677601291        9.9180772807        3.9602706402
 Ce        15.2373042828       -0.0896960018        3.8542156282
 Ce         3.8042401196       -0.1615287089        3.8678260880
 Ce        15.2366899765       13.2908923836        4.0129554622
 Ce        19.0942786234       13.4339044134        4.0870603768
 Pt         9.6836112177        5.6685529348        6.3903918375
 Pt        13.9206501944        5.6422534968        6.7692462409
 Pt        11.7828781296        9.5790876947        6.6388643557
 Pt         9.4185098324        3.0299950439        7.6696757917
 Pt        11.3051635653        2.8448992877        9.5195490089
 Pt         7.2406695408        7.2134982544        7.0312535251
 Pt        11.6993926697        4.1128741170        7.2940647817
 Pt        13.7231132469        4.2931100001        9.1378838136
 Pt         7.4800087776        9.9333983422        6.3944761829
 Pt         9.4215312539        8.2891773938        6.9912528426
 Pt        11.8122048322        7.1937380301        7.5643170513
 Pt        14.0727676408        7.0315291092        8.9984643646
 Pt         9.7295695760       11.7934816613        6.7587993077
 Pt        12.1429110556       12.0105043450        7.8159625017
 Pt        13.4816989760        9.7520620893        8.8940769812
 Pt         8.8199368096        3.3276911924       10.2050780582
 Pt         5.9562341266        7.0393864983        9.4350829588
 Pt         7.7668025052        5.1505743873        8.5947838626
 Pt        11.1815061869        5.5909626171        9.5757860369
 Pt        13.1657242385        3.2659095459       11.5437032694
 Pt         7.4307231941        9.1950741553        9.1730136844
 Pt        10.8333582706        9.1591700978        9.0693944373
 Pt        13.4622641163        5.9406447329       11.3806084172
 Pt         7.3887966577       11.8832695987        7.9951647307
 Pt         9.5730638961       11.7692328300        9.3202850007
 Pt        11.1217685024        7.4881021617       11.5917278033
 Pt        13.5084202942        8.5727452837       11.2139532066
 Pt        12.0333203285       11.5212296471       10.5116681855
 Pt         5.8464593001        6.4654747163       12.1309063231
 Pt         8.2059790654        5.3538281717       11.7070163335
 Pt        10.6023162256        4.1618656498       11.8886051764
 Pt         6.1160753818        8.9470270863       11.5018450654
 Pt         9.0816035874        7.0385874131        9.9159857285
 Pt        10.0585636427        6.1517894731       13.4529130821
 Pt        12.4628597504        4.8830886084       13.6305532551
 Pt         7.3683145490       11.3206253983       10.7205206050
 Pt         9.2522021755        9.5231198106       11.2598280586
 Pt        12.5997898993        7.5761563488       13.7208500248
 Pt         9.8707372713       11.8091538082       12.1266884274
 Pt        11.8117089579       10.1207090889       12.6751675368
 Pt         7.8376534384        7.7570397940       13.0115334039
 Pt         7.8422165458       10.5023707389       13.4079535485
 Pt         9.9531684080        8.7667740864       14.0844694822
 Pt         3.2738424973        0.8531339379        6.3934115431
 Pt        15.9013831221        0.5713775337        6.5211149265
 Pt        16.9625386454       13.9632508764        6.4342261230
     142
 i =      193, time =      193.000, E =     -7795.1199944411
  O         3.8260000000        2.2080000000        0.0000000000
  O         7.6520000000        2.2080000000        0.0000000000
  O        11.4780000000        2.2080000000        0.0000000000
  O        15.3050000000        2.2080000000        0.0000000000
  O         5.7390000000        5.5220000000        0.0000000000
  O         9.5650000000        5.5220000000        0.0000000000
  O        13.3910000000        5.5220000000        0.0000000000
  O        17.2180000000        5.5220000000        0.0000000000
  O         7.6520000000        8.8350000000        0.0000000000
  O        11.4780000000        8.8350000000        0.0000000000
  O        15.3050000000        8.8350000000        0.0000000000
  O        19.1310000000        8.8350000000        0.0000000000
  O         9.5650000000       12.1490000000        0.0000000000
  O        13.3910000000       12.1490000000        0.0000000000
  O        17.2180000000       12.1490000000        0.0000000000
  O        21.0440000000       12.1490000000        0.0000000000
  O         1.9130000000        3.3130000000        1.5620000000
  O         5.7390000000        3.3130000000        1.5620000000
  O         9.5650000000        3.3130000000        1.5620000000
  O        13.3910000000        3.3130000000        1.5620000000
  O         3.8260000000        6.6260000000        1.5620000000
  O         7.6520000000        6.6260000000        1.5620000000
  O        11.4780000000        6.6260000000        1.5620000000
  O        15.3050000000        6.6260000000        1.5620000000
  O         5.7390000000        9.9400000000        1.5620000000
  O         9.5650000000        9.9400000000        1.5620000000
  O        13.3910000000        9.9400000000        1.5620000000
  O        17.2180000000        9.9400000000        1.5620000000
  O         7.6520000000       13.2530000000        1.5620000000
  O        11.4780000000       13.2530000000        1.5620000000
  O        15.3050000000       13.2530000000        1.5620000000
  O        19.1310000000       13.2530000000        1.5620000000
  O         1.8363819341        1.2241236745        3.1287688560
  O         5.5586613716        1.0953586975        3.0342480049
  O         9.7054197600        1.0880712313        3.0369909059
  O        13.5604051857        1.1606451530        3.1125311138
  O         3.7639369710        4.3176092498        3.1892494301
  O         7.9234866420        4.4717363718        3.1474907945
  O        11.4953906351        4.4954556827        3.3545469653
  O        15.3832950818        4.2900540218        3.0539099809
  O         5.7673022277        7.6623823904        3.2575763480
  O         9.4268410994        7.5653074245        3.2373649595
  O        13.4095978043        7.7447303006        3.1283234559
  O        17.2460193173        7.7576742471        3.1210383277
  O         7.6431001197       10.9905813552        2.9914313394
  O        11.5537171045       10.9977209849        3.0257931914
  O        15.4300626661       10.9564204001        3.1834677167
  O        18.9868518685       11.0863644187        3.0655930971
  O         3.6819380734        2.5137045013        5.3109338496
  O         7.4609073070        2.1006490133        4.6686098892
  O        11.6650070376        2.2847481188        4.6390008697
  O        15.3994473950        2.2721983350        5.0904459306
  O         5.7444641944        5.4085822289        4.6906307973
  O         8.5470602019        4.0670202476        5.7643673882
  O        13.7991131539        5.5644385883        4.6804402608
  O        17.3767515432        5.5841248889        4.7796355171
  O         7.5756992503        8.9140847988        4.6402146908
  O        11.6246955003        8.8891596280        4.6532170320
  O        15.3861791445        8.7629258369        4.8959371989
  O        19.0744240830        8.9785921963        4.7094691947
  O         9.6467798456       11.9678210950        4.6459521365
  O        13.3424057536       12.0572387408        4.4252667922
  O        17.1444016722       12.3719411659        4.8467002507
  O        20.8439003311       12.0834724243        4.4805216300
 Ce         1.9130000000        1.1040000000        0.7810000000
 Ce         5.7390000000        1.1040000000        0.7810000000
 Ce         9.5650000000        1.1040000000        0.7810000000
 Ce        13.3910000000        1.1040000000        0.7810000000
 Ce         3.8260000000        4.4170000000        0.7810000000
 Ce         7.6520000000        4.4170000000        0.7810000000
 Ce        11.4780000000        4.4170000000        0.7810000000
 Ce        15.3050000000        4.4170000000        0.7810000000
 Ce         5.7390000000        7.7310000000        0.7810000000
 Ce         9.5650000000        7.7310000000        0.7810000000
 Ce        13.3910000000        7.7310000000        0.7810000000
 Ce        17.2180000000        7.7310000000        0.7810000000
 Ce         7.6520000000       11.0440000000        0.7810000000
 Ce        11.4780000000       11.0440000000        0.7810000000
 Ce        15.3050000000       11.0440000000        0.7810000000
 Ce        19.1310000000       11.0440000000        0.7810000000
 Ce         1.8332568289        3.3344141776        3.9784641950
 Ce         5.6239919518        3.1870878066        4.0456068221
 Ce         9.5473401900        3.2032832209        4.0048470679
 Ce        13.5010210846        3.1182724604        4.0000837273
 Ce        19.0523902144        6.5478833658        3.8479172087
 Ce         7.4714182234        6.6083068240        3.9097762994
 Ce        11.6311660255        6.5655752478        3.9009372452
 Ce        15.4616998372        6.7215349592        4.0547891345
 Ce        20.9267946194       10.0101363039        3.8693399429
 Ce         9.5358121710        9.8522729380        3.8459009722
 Ce        13.5962206951        9.9861886953        3.8662403194
 Ce        17.2683096946        9.9169925832        3.9588819465
 Ce        15.2379584037       -0.0927014656        3.8541008306
 Ce         3.8036894302       -0.1631525914        3.8671505835
 Ce        15.2379056166       13.2932208537        4.0120757859
 Ce        19.0921892637       13.4344380675        4.0868336277
 Pt         9.6837820722        5.6680192766        6.3921597583
 Pt        13.9223531516        5.6422715692        6.7702956922
 Pt        11.7803076152        9.5805484052        6.6387403573
 Pt         9.4191536666        3.0306735956        7.6700530925
 Pt        11.3041609613        2.8446426945        9.5192607485
 Pt         7.2409382652        7.2146044099        7.0327595836
 Pt        11.6983716314        4.1131639683        7.2950446658
 Pt        13.7227609430        4.2924627369        9.1389657354
 Pt         7.4769867937        9.9348710699        6.3968485799
 Pt         9.4205060479        8.2919762595        6.9937286082
 Pt        11.8123302434        7.1932013710        7.5649361807
 Pt        14.0734032109        7.0320706345        9.0008885808
 Pt         9.7305319648       11.7932090932        6.7607589725
 Pt        12.1449471734       12.0094962211        7.8151399912
 Pt        13.4846746660        9.7516302690        8.8942121108
 Pt         8.8208381233        3.3290559790       10.2041878588
 Pt         5.9550623671        7.0380281914        9.4349235767
 Pt         7.7676454651        5.1500915402        8.5968852167
 Pt        11.1806841283        5.5906741289        9.5792273636
 Pt        13.1644996374        3.2649004505       11.5442770653
 Pt         7.4303192114        9.1969963495        9.1713002865
 Pt        10.8353420101        9.1594199098        9.0696587935
 Pt        13.4613066304        5.9413842269       11.3802415403
 Pt         7.3878916788       11.8809032508        7.9951532784
 Pt         9.5719815378       11.7691918264        9.3193810178
 Pt        11.1237694666        7.4869935800       11.5925237829
 Pt        13.5079189458        8.5752692107       11.2124482593
 Pt        12.0326465388       11.5221127581       10.5140560537
 Pt         5.8453999913        6.4653549206       12.1290333251
 Pt         8.2075471875        5.3545622963       11.7074914486
 Pt        10.6014386222        4.1617579964       11.8916764011
 Pt         6.1163876197        8.9472199949       11.4991725532
 Pt         9.0842775701        7.0369131678        9.9124405152
 Pt        10.0585889890        6.1505424875       13.4536724672
 Pt        12.4617086816        4.8778697695       13.6287337086
 Pt         7.3689340552       11.3209771374       10.7214708437
 Pt         9.2544117371        9.5213788189       11.2584255966
 Pt        12.5997340081        7.5778197568       13.7218529167
 Pt         9.8699702655       11.8109104285       12.1249146091
 Pt        11.8127290422       10.1206330189       12.6741472250
 Pt         7.8370201165        7.7600767312       13.0111013547
 Pt         7.8429337517       10.5014655924       13.4076824778
 Pt         9.9517271040        8.7684338890       14.0833698540
 Pt         3.2763727698        0.8552172176        6.3976847210
 Pt        15.9007426430        0.5711106684        6.5222356362
 Pt        16.9631391403       13.9620688618        6.4318796727
     142
 i =      194, time =      194.000, E =     -7795.1208621224
  O         3.8260000000        2.2080000000        0.0000000000
  O         7.6520000000        2.2080000000        0.0000000000
  O        11.4780000000        2.2080000000        0.0000000000
  O        15.3050000000        2.2080000000        0.0000000000
  O         5.7390000000        5.5220000000        0.0000000000
  O         9.5650000000        5.5220000000        0.0000000000
  O        13.3910000000        5.5220000000        0.0000000000
  O        17.2180000000        5.5220000000        0.0000000000
  O         7.6520000000        8.8350000000        0.0000000000
  O        11.4780000000        8.8350000000        0.0000000000
  O        15.3050000000        8.8350000000        0.0000000000
  O        19.1310000000        8.8350000000        0.0000000000
  O         9.5650000000       12.1490000000        0.0000000000
  O        13.3910000000       12.1490000000        0.0000000000
  O        17.2180000000       12.1490000000        0.0000000000
  O        21.0440000000       12.1490000000        0.0000000000
  O         1.9130000000        3.3130000000        1.5620000000
  O         5.7390000000        3.3130000000        1.5620000000
  O         9.5650000000        3.3130000000        1.5620000000
  O        13.3910000000        3.3130000000        1.5620000000
  O         3.8260000000        6.6260000000        1.5620000000
  O         7.6520000000        6.6260000000        1.5620000000
  O        11.4780000000        6.6260000000        1.5620000000
  O        15.3050000000        6.6260000000        1.5620000000
  O         5.7390000000        9.9400000000        1.5620000000
  O         9.5650000000        9.9400000000        1.5620000000
  O        13.3910000000        9.9400000000        1.5620000000
  O        17.2180000000        9.9400000000        1.5620000000
  O         7.6520000000       13.2530000000        1.5620000000
  O        11.4780000000       13.2530000000        1.5620000000
  O        15.3050000000       13.2530000000        1.5620000000
  O        19.1310000000       13.2530000000        1.5620000000
  O         1.8402012098        1.2159473022        3.1273571933
  O         5.5580269016        1.0946124793        3.0363254914
  O         9.7096656507        1.0935470930        3.0324080271
  O        13.5712182163        1.1564710485        3.1021735539
  O         3.7655077794        4.3167183517        3.1825841030
  O         7.9329187163        4.4595241997        3.1475798692
  O        11.5094409952        4.5053534414        3.3513794496
  O        15.3874104364        4.2910274524        3.0608119694
  O         5.7660407640        7.6647973433        3.2580145086
  O         9.4319741896        7.5595370761        3.2290473498
  O        13.4114461583        7.7430419499        3.1216080353
  O        17.2421876026        7.7673219364        3.1280252151
  O         7.6557777074       10.9866344622        2.9939501149
  O        11.5486690793       10.9988486122        3.0256458312
  O        15.4381780789       10.9479665722        3.1823531446
  O        18.9926771443       11.0875489912        3.0713276654
  O         3.6792733043        2.5128529249        5.3037521124
  O         7.4560154747        2.0973119919        4.6756524530
  O        11.6632295355        2.2853897652        4.6418603244
  O        15.4020012238        2.2619157750        5.0936850916
  O         5.7478166514        5.4083614927        4.6891317410
  O         8.5552512894        4.0693490033        5.7619442012
  O        13.7949092876        5.5593268250        4.6808771407
  O        17.3713750605        5.5889025869        4.7797075938
  O         7.5766408949        8.9209640785        4.6472580196
  O        11.6229031447        8.8941566687        4.6536126348
  O        15.3968385184        8.7576989951        4.9011628349
  O        19.0809612115        8.9800211070        4.7100701392
  O         9.6426966741       11.9660713485        4.6615361090
  O        13.3383382320       12.0587618120        4.4239638974
  O        17.1378746149       12.3677626402        4.8478898536
  O        20.8547325946       12.0801221417        4.4798659180
 Ce         1.9130000000        1.1040000000        0.7810000000
 Ce         5.7390000000        1.1040000000        0.7810000000
 Ce         9.5650000000        1.1040000000        0.7810000000
 Ce        13.3910000000        1.1040000000        0.7810000000
 Ce         3.8260000000        4.4170000000        0.7810000000
 Ce         7.6520000000        4.4170000000        0.7810000000
 Ce        11.4780000000        4.4170000000        0.7810000000
 Ce        15.3050000000        4.4170000000        0.7810000000
 Ce         5.7390000000        7.7310000000        0.7810000000
 Ce         9.5650000000        7.7310000000        0.7810000000
 Ce        13.3910000000        7.7310000000        0.7810000000
 Ce        17.2180000000        7.7310000000        0.7810000000
 Ce         7.6520000000       11.0440000000        0.7810000000
 Ce        11.4780000000       11.0440000000        0.7810000000
 Ce        15.3050000000       11.0440000000        0.7810000000
 Ce        19.1310000000       11.0440000000        0.7810000000
 Ce         1.8335807106        3.3348365388        3.9793923984
 Ce         5.6232937232        3.1859940474        4.0474211067
 Ce         9.5480865222        3.2036441100        4.0031041549
 Ce        13.5009292552        3.1229841841        4.0016057258
 Ce        19.0534657732        6.5501032594        3.8469419785
 Ce         7.4719485922        6.6061823867        3.9088819455
 Ce        11.6318392154        6.5629647137        3.8998391082
 Ce        15.4647085706        6.7253260216        4.0541086159
 Ce        20.9261478583       10.0110364611        3.8688415991
 Ce         9.5342992061        9.8501002184        3.8460806517
 Ce        13.5992084098        9.9875590697        3.8666238220
 Ce        17.2688801473        9.9159355163        3.9574848460
 Ce        15.2386864608       -0.0957240232        3.8540193610
 Ce         3.8031396739       -0.1647714920        3.8664371296
 Ce        15.2391532933       13.2955357559        4.0111395832
 Ce        19.0900628245       13.4348280299        4.0865341792
 Pt         9.6839457243        5.6675080984        6.3939225500
 Pt        13.9240194968        5.6422650852        6.7713738945
 Pt        11.7777202321        9.5820598225        6.6385858539
 Pt         9.4197625145        3.0313266839        7.6704065722
 Pt        11.3031694633        2.8443690359        9.5190153879
 Pt         7.2411503998        7.2156608566        7.0343080030
 Pt        11.6973895397        4.1135183580        7.2959901924
 Pt        13.7223699015        4.2918669429        9.1400432272
 Pt         7.4739691083        9.9363380935        6.3992472597
 Pt         9.4195734337        8.2947961474        6.9962111943
 Pt        11.8124392554        7.1925831354        7.5655938384
 Pt        14.0740088653        7.0326277794        9.0033319632
 Pt         9.7315291282       11.7928918782        6.7627077354
 Pt        12.1469828224       12.0084699895        7.8143552386
 Pt        13.4875993377        9.7512056027        8.8943368630
 Pt         8.8217166104        3.3304288555       10.2032879022
 Pt         5.9539517427        7.0366417632        9.4347887515
 Pt         7.7684939431        5.1496429119        8.5990047434
 Pt        11.1798966594        5.5903861345        9.5826838132
 Pt        13.1632456130        3.2639152780       11.5448327182
 Pt         7.4299166050        9.1989115484        9.1695418900
 Pt        10.8373244057        9.1596872201        9.0699600771
 Pt        13.4603377649        5.9421057866       11.3798819280
 Pt         7.3869324738       11.8785150344        7.9952043342
 Pt         9.5709754615       11.7691307391        9.3185037858
 Pt        11.1257618252        7.4859089599       11.5932519072
 Pt        13.5073915236        8.5777881332       11.2109423006
 Pt        12.0319475562       11.5229665192       10.5163865404
 Pt         5.8443231225        6.4652098318       12.1271183492
 Pt         8.2091107402        5.3552864172       11.7079753610
 Pt        10.6005797452        4.1616329306       11.8947152812
 Pt         6.1167201556        8.9474644107       11.4964739326
 Pt         9.0869426008        7.0352947610        9.9088873752
 Pt        10.0585835190        6.1493240590       13.4544651672
 Pt        12.4605547302        4.8726707280       13.6268784978
 Pt         7.3695393706       11.3213302937       10.7224578958
 Pt         9.2566483824        9.5195680402       11.2570054795
 Pt        12.5996524924        7.5795082456       13.7228176045
 Pt         9.8691985809       11.8126741543       12.1231261010
 Pt        11.8137364965       10.1204950797       12.6731344181
 Pt         7.8364532506        7.7631069736       13.0106644906
 Pt         7.8436674393       10.5005333490       13.4073684907
 Pt         9.9503165511        8.7701127937       14.0822536415
 Pt         3.2789221372        0.8572820598        6.4019820924
 Pt        15.9000757672        0.5709046811        6.5233256416
 Pt        16.9637732166       13.9608980401        6.4294934283
     142
 i =      195, time =      195.000, E =     -7795.1214996710
  O         3.8260000000        2.2080000000        0.0000000000
  O         7.6520000000        2.2080000000        0.0000000000
  O        11.4780000000        2.2080000000        0.0000000000
  O        15.3050000000        2.2080000000        0.0000000000
  O         5.7390000000        5.5220000000        0.0000000000
  O         9.5650000000        5.5220000000        0.0000000000
  O        13.3910000000        5.5220000000        0.0000000000
  O        17.2180000000        5.5220000000        0.0000000000
  O         7.6520000000        8.8350000000        0.0000000000
  O        11.4780000000        8.8350000000        0.0000000000
  O        15.3050000000        8.8350000000        0.0000000000
  O        19.1310000000        8.8350000000        0.0000000000
  O         9.5650000000       12.1490000000        0.0000000000
  O        13.3910000000       12.1490000000        0.0000000000
  O        17.2180000000       12.1490000000        0.0000000000
  O        21.0440000000       12.1490000000        0.0000000000
  O         1.9130000000        3.3130000000        1.5620000000
  O         5.7390000000        3.3130000000        1.5620000000
  O         9.5650000000        3.3130000000        1.5620000000
  O        13.3910000000        3.3130000000        1.5620000000
  O         3.8260000000        6.6260000000        1.5620000000
  O         7.6520000000        6.6260000000        1.5620000000
  O        11.4780000000        6.6260000000        1.5620000000
  O        15.3050000000        6.6260000000        1.5620000000
  O         5.7390000000        9.9400000000        1.5620000000
  O         9.5650000000        9.9400000000        1.5620000000
  O        13.3910000000        9.9400000000        1.5620000000
  O        17.2180000000        9.9400000000        1.5620000000
  O         7.6520000000       13.2530000000        1.5620000000
  O        11.4780000000       13.2530000000        1.5620000000
  O        15.3050000000       13.2530000000        1.5620000000
  O        19.1310000000       13.2530000000        1.5620000000
  O         1.8441880153        1.2072197238        3.1260968523
  O         5.5575552135        1.0941402282        3.0390603198
  O         9.7132690860        1.0993865761        3.0282869656
  O        13.5816033356        1.1521559475        3.0919765484
  O         3.7671889136        4.3159143541        3.1755797098
  O         7.9417681682        4.4475602775        3.1475715000
  O        11.5233616390        4.5151568767        3.3478587121
  O        15.3913038101        4.2920949781        3.0681772729
  O         5.7640043274        7.6676095388        3.2576187894
  O         9.4379240720        7.5539710571        3.2205545316
  O        13.4134262283        7.7411350617        3.1148371292
  O        17.2384868937        7.7768617184        3.1348661013
  O         7.6684810431       10.9830266396        2.9969581407
  O        11.5430386926       10.9998622357        3.0254320188
  O        15.4462319621       10.9399304079        3.1809537727
  O        18.9985038571       11.0886730844        3.0771940793
  O         3.6769878548        2.5121579622        5.2959108497
  O         7.4508293951        2.0939219963        4.6822381204
  O        11.6613021990        2.2856353185        4.6450702752
  O        15.4040776518        2.2514926689        5.0967402053
  O         5.7507613312        5.4080451710        4.6874040306
  O         8.5639577679        4.0717411176        5.7600674331
  O        13.7898111341        5.5539077274        4.6818131423
  O        17.3655228744        5.5937198477        4.7797634596
  O         7.5774434726        8.9278836835        4.6540856568
  O        11.6210427665        8.8991696490        4.6542136990
  O        15.4075904704        8.7527296963        4.9059770670
  O        19.0875904618        8.9810679228        4.7107060283
  O         9.6383317791       11.9641483330        4.6766734566
  O        13.3349815350       12.0608103903        4.4233201404
  O        17.1314269419       12.3635747662        4.8497406650
  O        20.8660815002       12.0774410630        4.4795905783
 Ce         1.9130000000        1.1040000000        0.7810000000
 Ce         5.7390000000        1.1040000000        0.7810000000
 Ce         9.5650000000        1.1040000000        0.7810000000
 Ce        13.3910000000        1.1040000000        0.7810000000
 Ce         3.8260000000        4.4170000000        0.7810000000
 Ce         7.6520000000        4.4170000000        0.7810000000
 Ce        11.4780000000        4.4170000000        0.7810000000
 Ce        15.3050000000        4.4170000000        0.7810000000
 Ce         5.7390000000        7.7310000000        0.7810000000
 Ce         9.5650000000        7.7310000000        0.7810000000
 Ce        13.3910000000        7.7310000000        0.7810000000
 Ce        17.2180000000        7.7310000000        0.7810000000
 Ce         7.6520000000       11.0440000000        0.7810000000
 Ce        11.4780000000       11.0440000000        0.7810000000
 Ce        15.3050000000       11.0440000000        0.7810000000
 Ce        19.1310000000       11.0440000000        0.7810000000
 Ce         1.8339642382        3.3352244914        3.9803345085
 Ce         5.6226256426        3.1849823205        4.0492303239
 Ce         9.5488224756        3.2040151198        4.0013710653
 Ce        13.5008774792        3.1278685571        4.0031067937
 Ce        19.0546477418        6.5523316376        3.8460345959
 Ce         7.4725422964        6.6039892715        3.9080530243
 Ce        11.6325121846        6.5604470348        3.8987853847
 Ce        15.4677030647        6.7291196684        4.0533592359
 Ce        20.9254751228       10.0118998681        3.8683382444
 Ce         9.5328348897        9.8479165950        3.8462906199
 Ce        13.6020749962        9.9888288648        3.8670298184
 Ce        17.2694760041        9.9149073047        3.9560848450
 Ce        15.2394904326       -0.0987624536        3.8539715689
 Ce         3.8025857347       -0.1663835684        3.8656880653
 Ce        15.2404302797       13.2978355245        4.0101482594
 Ce        19.0879038020       13.4350721598        4.0861626405
 Pt         9.6841033836        5.6670225141        6.3956798305
 Pt        13.9256477687        5.6422348621        6.7724806465
 Pt        11.7751169767        9.5836211894        6.6384014883
 Pt         9.4203362942        3.0319529459        7.6707355528
 Pt        11.3021903522        2.8440786105        9.5188130152
 Pt         7.2413054275        7.2166671800        7.0358983145
 Pt        11.6964475005        4.1139372712        7.2969005039
 Pt        13.7219402233        4.2913229006        9.1411163792
 Pt         7.4709563906        9.9377995791        6.4016738406
 Pt         9.4187339703        8.2976359033        6.9987008163
 Pt        11.8125322728        7.1918839483        7.5662898361
 Pt        14.0745840886        7.0331996105        9.0057935251
 Pt         9.7325607401       11.7925315789        6.7646471708
 Pt        12.1490179105       12.0074252742        7.8136089165
 Pt        13.4904720602        9.7507884483        8.8944504941
 Pt         8.8225727748        3.3318094489       10.2023797659
 Pt         5.9529029995        7.0352284033        9.4346780752
 Pt         7.7693467433        5.1492286783        8.6011423621
 Pt        11.1791450994        5.5900974873        9.5861538432
 Pt        13.1619621983        3.2629538207       11.5453694750
 Pt         7.4295152031        9.2008196071        9.1677381456
 Pt        10.8393067143        9.1599729067        9.0702981018
 Pt        13.4593580000        5.9428092556       11.3795304838
 Pt         7.3859188695       11.8761066413        7.9953183163
 Pt         9.5700462837       11.7690495353        9.3176546853
 Pt        11.1277455327        7.4848479738       11.5939122457
 Pt        13.5068383919        8.5803007715       11.2094368376
 Pt        12.0312242688       11.5237910340       10.5186575871
 Pt         5.8432297752        6.4650399587       12.1251623736
 Pt         8.2106682217        5.3560004813       11.7084664778
 Pt        10.5997392782        4.1614890166       11.8977205042
 Pt         6.1170729642        8.9477597290       11.4937497200
 Pt         9.0895966423        7.0337342691        9.9053282763
 Pt        10.0585471138        6.1481366617       13.4552922489
 Pt        12.4593984357        4.8674933460       13.6249882565
 Pt         7.3701302682       11.3216840920       10.7234819895
 Pt         9.2589120790        9.5176876454       11.2555683806
 Pt        12.5995455742        7.5812210199       13.7237441200
 Pt         9.8684217575       11.8144428722       12.1213230324
 Pt        11.8147305774       10.1202960780       12.6721302840
 Pt         7.8359513757        7.7661290591       13.0102221156
 Pt         7.8444172016       10.4995751152       13.4070122063
 Pt         9.9489378082        8.7718107805       14.0811209028
 Pt         3.2814895236        0.8593276825        6.4063019604
 Pt        15.8993836523        0.5707587420        6.5243862468
 Pt        16.9644408922       13.9597387223        6.4270671637
     142
 i =      196, time =      196.000, E =     -7795.1217109478
  O         3.8260000000        2.2080000000        0.0000000000
  O         7.6520000000        2.2080000000        0.0000000000
  O        11.4780000000        2.2080000000        0.0000000000
  O        15.3050000000        2.2080000000        0.0000000000
  O         5.7390000000        5.5220000000        0.0000000000
  O         9.5650000000        5.5220000000        0.0000000000
  O        13.3910000000        5.5220000000        0.0000000000
  O        17.2180000000        5.5220000000        0.0000000000
  O         7.6520000000        8.8350000000        0.0000000000
  O        11.4780000000        8.8350000000        0.0000000000
  O        15.3050000000        8.8350000000        0.0000000000
  O        19.1310000000        8.8350000000        0.0000000000
  O         9.5650000000       12.1490000000        0.0000000000
  O        13.3910000000       12.1490000000        0.0000000000
  O        17.2180000000       12.1490000000        0.0000000000
  O        21.0440000000       12.1490000000        0.0000000000
  O         1.9130000000        3.3130000000        1.5620000000
  O         5.7390000000        3.3130000000        1.5620000000
  O         9.5650000000        3.3130000000        1.5620000000
  O        13.3910000000        3.3130000000        1.5620000000
  O         3.8260000000        6.6260000000        1.5620000000
  O         7.6520000000        6.6260000000        1.5620000000
  O        11.4780000000        6.6260000000        1.5620000000
  O        15.3050000000        6.6260000000        1.5620000000
  O         5.7390000000        9.9400000000        1.5620000000
  O         9.5650000000        9.9400000000        1.5620000000
  O        13.3910000000        9.9400000000        1.5620000000
  O        17.2180000000        9.9400000000        1.5620000000
  O         7.6520000000       13.2530000000        1.5620000000
  O        11.4780000000       13.2530000000        1.5620000000
  O        15.3050000000       13.2530000000        1.5620000000
  O        19.1310000000       13.2530000000        1.5620000000
  O         1.8483305874        1.1979905871        3.1249891639
  O         5.5572516413        1.0939465161        3.0424317603
  O         9.7162114949        1.1055392443        3.0246667232
  O        13.5914763624        1.1477872055        3.0820392699
  O         3.7689636734        4.3152249914        3.1682628934
  O         7.9499759389        4.4359069458        3.1474621394
  O        11.5371123055        4.5247916487        3.3439925901
  O        15.3949494338        4.2932477413        3.0759805189
  O         5.7612402580        7.6707741368        3.2563996297
  O         9.4446535887        7.5486182762        3.2119631033
  O        13.4155335703        7.7390408774        3.1080349760
  O        17.2349799945        7.7862403842        3.1415174785
  O         7.6811813744       10.9797727082        3.0004226361
  O        11.5368407677       11.0007545896        3.0251559742
  O        15.4541405180       10.9323348735        3.1792688571
  O        19.0043105648       11.0897561528        3.0831477684
  O         3.6750770098        2.5116161094        5.2874211287
  O         7.4453694836        2.0904938665        4.6883652124
  O        11.6592656276        2.2854850666        4.6485935759
  O        15.4056606202        2.2409726981        5.0995938394
  O         5.7532943661        5.4076435867        4.6854342904
  O         8.5731428768        4.0741595446        5.7587396217
  O        13.7838839524        5.5482237154        4.6832322384
  O        17.3592397020        5.5985676243        4.7797839317
  O         7.5781098359        8.9347806671        4.6606293059
  O        11.6191380470        8.9041761444        4.6550016554
  O        15.4183701247        8.7480535197        4.9103997261
  O        19.0942971970        8.9817261394        4.7113757897
  O         9.6337089748       11.9620459668        4.6912428894
  O        13.3323846066       12.0633402148        4.4233176990
  O        17.1250783229       12.3593879959        4.8522317022
  O        20.8778729213       12.0754753600        4.4796918487
 Ce         1.9130000000        1.1040000000        0.7810000000
 Ce         5.7390000000        1.1040000000        0.7810000000
 Ce         9.5650000000        1.1040000000        0.7810000000
 Ce        13.3910000000        1.1040000000        0.7810000000
 Ce         3.8260000000        4.4170000000        0.7810000000
 Ce         7.6520000000        4.4170000000        0.7810000000
 Ce        11.4780000000        4.4170000000        0.7810000000
 Ce        15.3050000000        4.4170000000        0.7810000000
 Ce         5.7390000000        7.7310000000        0.7810000000
 Ce         9.5650000000        7.7310000000        0.7810000000
 Ce        13.3910000000        7.7310000000        0.7810000000
 Ce        17.2180000000        7.7310000000        0.7810000000
 Ce         7.6520000000       11.0440000000        0.7810000000
 Ce        11.4780000000       11.0440000000        0.7810000000
 Ce        15.3050000000       11.0440000000        0.7810000000
 Ce        19.1310000000       11.0440000000        0.7810000000
 Ce         1.8344078819        3.3355737960        3.9812902459
 Ce         5.6219863368        3.1840492935        4.0510332779
 Ce         9.5495508236        3.2043956268        3.9996506764
 Ce        13.5008673339        3.1329160361        4.0045855648
 Ce        19.0559336908        6.5545679997        3.8451959841
 Ce         7.4731994864        6.6017316549        3.9072895739
 Ce        11.6331870738        6.5580285721        3.8977775535
 Ce        15.4706747359        6.7329083324        4.0525454840
 Ce        20.9247793131       10.0127258798        3.8678318018
 Ce         9.5314219770        9.8457251723        3.8465315778
 Ce        13.6048170352        9.9899971443        3.8674581529
 Ce        17.2701020101        9.9139091504        3.9546876161
 Ce        15.2403721838       -0.1018155473        3.8539581360
 Ce         3.8020223310       -0.1679866605        3.8649063285
 Ce        15.2417336620       13.3001189544        4.0091034870
 Ce        19.0857169557       13.4351687202        4.0857198561
 Pt         9.6842569786        5.6665663496        6.3974307891
 Pt        13.9272370665        5.6421806452        6.7736156139
 Pt        11.7724989528        9.5852319550        6.6381880096
 Pt         9.4208747750        3.0325514269        7.6710396651
 Pt        11.3012242001        2.8437704958        9.5186539638
 Pt         7.2414030760        7.2176226791        7.0375301769
 Pt        11.6955468832        4.1144212492        7.2977754200
 Pt        13.7214721853        4.2908310214        9.1421851385
 Pt         7.4679494110        9.9392553093        6.4041302502
 Pt         9.4179877693        8.3004935670        7.0011974551
 Pt        11.8126089794        7.1911048564        7.5670238501
 Pt        14.0751286838        7.0337857604        9.0082718586
 Pt         9.7336266095       11.7921299734        6.7665792827
 Pt        12.1510520538       12.0063618569        7.8129014911
 Pt        13.4932925253        9.7503794752        8.8945522686
 Pt         8.8234062766        3.3331975611       10.2014648914
 Pt         5.9519174063        7.0337887249        9.4345909939
 Pt         7.7702020277        5.1488501771        8.6032976476
 Pt        11.1784312884        5.5898075797        9.5896370601
 Pt        13.1606498068        3.2620155072       11.5458869354
 Pt         7.4291140954        9.2027189054        9.1658902884
 Pt        10.8412901749        9.1602774254        9.0706733139
 Pt        13.4583677522        5.9434946029       11.3791879641
 Pt         7.3848509333       11.8736804773        7.9954960876
 Pt         9.5691940063       11.7689480361        9.3168353523
 Pt        11.1297198522        7.4838107270       11.5945046850
 Pt        13.5062595284        8.5828059000       11.2079329853
 Pt        12.0304774829       11.5245863421       10.5208674795
 Pt         5.8421213717        6.4648460185       12.1231660894
 Pt         8.2122183946        5.3567058328       11.7089646193
 Pt        10.5989170060        4.1613245996       11.9006902196
 Pt         6.1174460583        8.9481050452       11.4909998469
 Pt         9.0922385448        7.0322335562        9.9017640333
 Pt        10.0584797654        6.1469824535       13.4561538132
 Pt        12.4582403322        4.8623395633       13.6230641739
 Pt         7.3707075181       11.3220382433       10.7245429669
 Pt         9.2612019143        9.5157387301       11.2541144201
 Pt        12.5994133665        7.5829569749       13.7246326252
 Pt         9.8676398787       11.8162147909       12.1195062005
 Pt        11.8157100745       10.1200365820       12.6711355769
 Pt         7.8355136445        7.7691408356       13.0097732479
 Pt         7.8451826154       10.4985920800       13.4066135591
 Pt         9.9475916582        8.7735271443       14.0799715684
 Pt         3.2840744570        0.8613533283        6.4106427544
 Pt        15.8986668584        0.5706719597        6.5254190597
 Pt        16.9651420450       13.9585912968        6.4246009957
     142
 i =      197, time =      197.000, E =     -7795.1215246480
  O         3.8260000000        2.2080000000        0.0000000000
  O         7.6520000000        2.2080000000        0.0000000000
  O        11.4780000000        2.2080000000        0.0000000000
  O        15.3050000000        2.2080000000        0.0000000000
  O         5.7390000000        5.5220000000        0.0000000000
  O         9.5650000000        5.5220000000        0.0000000000
  O        13.3910000000        5.5220000000        0.0000000000
  O        17.2180000000        5.5220000000        0.0000000000
  O         7.6520000000        8.8350000000        0.0000000000
  O        11.4780000000        8.8350000000        0.0000000000
  O        15.3050000000        8.8350000000        0.0000000000
  O        19.1310000000        8.8350000000        0.0000000000
  O         9.5650000000       12.1490000000        0.0000000000
  O        13.3910000000       12.1490000000        0.0000000000
  O        17.2180000000       12.1490000000        0.0000000000
  O        21.0440000000       12.1490000000        0.0000000000
  O         1.9130000000        3.3130000000        1.5620000000
  O         5.7390000000        3.3130000000        1.5620000000
  O         9.5650000000        3.3130000000        1.5620000000
  O        13.3910000000        3.3130000000        1.5620000000
  O         3.8260000000        6.6260000000        1.5620000000
  O         7.6520000000        6.6260000000        1.5620000000
  O        11.4780000000        6.6260000000        1.5620000000
  O        15.3050000000        6.6260000000        1.5620000000
  O         5.7390000000        9.9400000000        1.5620000000
  O         9.5650000000        9.9400000000        1.5620000000
  O        13.3910000000        9.9400000000        1.5620000000
  O        17.2180000000        9.9400000000        1.5620000000
  O         7.6520000000       13.2530000000        1.5620000000
  O        11.4780000000       13.2530000000        1.5620000000
  O        15.3050000000       13.2530000000        1.5620000000
  O        19.1310000000       13.2530000000        1.5620000000
  O         1.8526268208        1.1882942843        3.1240351961
  O         5.5571186166        1.0940331369        3.0464178180
  O         9.7184792878        1.1119473499        3.0215872432
  O        13.6007813554        1.1434352030        3.0724753973
  O         3.7708121843        4.3146774318        3.1606777532
  O         7.9574617119        4.4246391622        3.1472476269
  O        11.5506666227        4.5341942253        3.3397853170
  O        15.3983257975        4.2944782028        3.0841734871
  O         5.7578023531        7.6742422118        3.2543673532
  O         9.4521153478        7.5434930560        3.2033453425
  O        13.4177621660        7.7367902684        3.1012348044
  O        17.2317226088        7.7953897121        3.1479198428
  O         7.6938119395       10.9768915357        3.0043046254
  O        11.5300983751       11.0015144551        3.0248247275
  O        15.4618042920       10.9252194313        3.1772976559
  O        19.0100742923       11.0908206186        3.0891358521
  O         3.6735341986        2.5112185515        5.2783224858
  O         7.4396661388        2.0870526252        4.6940481766
  O        11.6571616266        2.2849454410        4.6523895588
  O        15.4067378714        2.2303788718        5.1022329321
  O         5.7554142807        5.4071692929        4.6832089810
  O         8.5827566412        4.0765688573        5.7579595708
  O        13.7771878016        5.5423145781        4.6851147835
  O        17.3525682983        5.6034379385        4.7797504875
  O         7.5786421992        8.9415909115        4.6668110626
  O        11.6172159636        8.9091524921        4.6559588138
  O        15.4291191692        8.7436891915        4.9144493248
  O        19.1010661585        8.9819863067        4.7120776108
  O         9.6288520454       11.9597608227        4.7051791685
  O        13.3305885140       12.0663017352        4.4239386034
  O        17.1188470226       12.3552107662        4.8553392334
  O        20.8900315146       12.0742493522        4.4801665315
 Ce         1.9130000000        1.1040000000        0.7810000000
 Ce         5.7390000000        1.1040000000        0.7810000000
 Ce         9.5650000000        1.1040000000        0.7810000000
 Ce        13.3910000000        1.1040000000        0.7810000000
 Ce         3.8260000000        4.4170000000        0.7810000000
 Ce         7.6520000000        4.4170000000        0.7810000000
 Ce        11.4780000000        4.4170000000        0.7810000000
 Ce        15.3050000000        4.4170000000        0.7810000000
 Ce         5.7390000000        7.7310000000        0.7810000000
 Ce         9.5650000000        7.7310000000        0.7810000000
 Ce        13.3910000000        7.7310000000        0.7810000000
 Ce        17.2180000000        7.7310000000        0.7810000000
 Ce         7.6520000000       11.0440000000        0.7810000000
 Ce        11.4780000000       11.0440000000        0.7810000000
 Ce        15.3050000000       11.0440000000        0.7810000000
 Ce        19.1310000000       11.0440000000        0.7810000000
 Ce         1.8349121938        3.3358804287        3.9822592075
 Ce         5.6213746274        3.1831914926        4.0528287818
 Ce         9.5502742776        3.2047841741        3.9979459911
 Ce        13.5009001703        3.1381167993        4.0060408323
 Ce        19.0573213783        6.5568119829        3.8444270582
 Ce         7.4739195115        6.5994138435        3.9065916099
 Ce        11.6338660155        6.5557155341        3.8968168452
 Ce        15.4736151747        6.7366842064        4.0516718614
 Ce        20.9240633440       10.0135141311        3.8673243754
 Ce         9.5300628168        9.8435289921        3.8468041036
 Ce        13.6074317464        9.9910640422        3.8679084722
 Ce        17.2707630528        9.9129427246        3.9532990145
 Ce        15.2413330744       -0.1048818941        3.8539799615
 Ce         3.8014446959       -0.1695781325        3.8640950250
 Ce        15.2430608018       13.3023851220        4.0080071928
 Ce        19.0835066917       13.4351163184        4.0852070181
 Pt         9.6844087721        5.6661433315        6.3991746538
 Pt        13.9287867833        5.6421017110        6.7747785116
 Pt        11.7698672551        9.5868916110        6.6379458521
 Pt         9.4213782374        3.0331210257        7.6713190184
 Pt        11.3002711353        2.8434445062        9.5185392018
 Pt         7.2414430040        7.2185264707        7.0392024704
 Pt        11.6946895124        4.1149708970        7.2986152926
 Pt        13.7209653933        4.2903916798        9.1432496529
 Pt         7.4649491228        9.9407052985        6.4066183277
 Pt         9.4173346828        8.3033677848        7.0037005441
 Pt        11.8126689757        7.1902468960        7.5677955396
 Pt        14.0756429543        7.0343856601        9.0107654749
 Pt         9.7347262652       11.7916885712        6.7685062153
 Pt        12.1530849703       12.0052799236        7.8122337445
 Pt        13.4960607817        9.7499795893        8.8946413496
 Pt         8.8242168275        3.3345924686       10.2005447264
 Pt         5.9509954608        7.0323231782        9.4345274490
 Pt         7.7710581310        5.1485081716        8.6054695271
 Pt        11.1777572631        5.5895157121        9.5931334498
 Pt        13.1593084412        3.2611002997       11.5463842095
 Pt         7.4287122189        9.2046077882        9.1639998275
 Pt        10.8432762206        9.1606010188        9.0710863923
 Pt        13.4573675448        5.9441612335       11.3788552951
 Pt         7.3837289527       11.8712396852        7.9957388686
 Pt         9.5684184574       11.7688262115        9.3160478662
 Pt        11.1316832595        7.4827978033       11.5950290594
 Pt        13.5056549352        8.5853023426       11.2064320117
 Pt        12.0297077091       11.5253525946       10.5230148328
 Pt         5.8409992348        6.4646286579       12.1211301385
 Pt         8.2137605824        5.3574040919       11.7094705310
 Pt        10.5981126875        4.1611382708       11.9036217495
 Pt         6.1178392793        8.9484998388       11.4882245785
 Pt         9.0948676362        7.0307936824        9.8981951632
 Pt        10.0583820660        6.1458631676       13.4570497553
 Pt        12.4570810412        4.8572116825       13.6211072936
 Pt         7.3712725263       11.3223927196       10.7256406704
 Pt         9.2635161639        9.5137236984       11.2526435660
 Pt        12.5992557872        7.5847144796       13.7254829452
 Pt         9.8668531302       11.8179883110       12.1176764657
 Pt        11.8166736841       10.1197169474       12.6701511514
 Pt         7.8351394696        7.7721398250       13.0093169940
 Pt         7.8459635467       10.4975853415       13.4061719166
 Pt         9.9462787423        8.7752609284       14.0788056752
 Pt         3.2866767390        0.8633587017        6.4150025323
 Pt        15.8979257168        0.5706432610        6.5264256377
 Pt        16.9658766971       13.9574562064        6.4220950933
     142
 i =      198, time =      198.000, E =     -7795.1210092454
  O         3.8260000000        2.2080000000        0.0000000000
  O         7.6520000000        2.2080000000        0.0000000000
  O        11.4780000000        2.2080000000        0.0000000000
  O        15.3050000000        2.2080000000        0.0000000000
  O         5.7390000000        5.5220000000        0.0000000000
  O         9.5650000000        5.5220000000        0.0000000000
  O        13.3910000000        5.5220000000        0.0000000000
  O        17.2180000000        5.5220000000        0.0000000000
  O         7.6520000000        8.8350000000        0.0000000000
  O        11.4780000000        8.8350000000        0.0000000000
  O        15.3050000000        8.8350000000        0.0000000000
  O        19.1310000000        8.8350000000        0.0000000000
  O         9.5650000000       12.1490000000        0.0000000000
  O        13.3910000000       12.1490000000        0.0000000000
  O        17.2180000000       12.1490000000        0.0000000000
  O        21.0440000000       12.1490000000        0.0000000000
  O         1.9130000000        3.3130000000        1.5620000000
  O         5.7390000000        3.3130000000        1.5620000000
  O         9.5650000000        3.3130000000        1.5620000000
  O        13.3910000000        3.3130000000        1.5620000000
  O         3.8260000000        6.6260000000        1.5620000000
  O         7.6520000000        6.6260000000        1.5620000000
  O        11.4780000000        6.6260000000        1.5620000000
  O        15.3050000000        6.6260000000        1.5620000000
  O         5.7390000000        9.9400000000        1.5620000000
  O         9.5650000000        9.9400000000        1.5620000000
  O        13.3910000000        9.9400000000        1.5620000000
  O        17.2180000000        9.9400000000        1.5620000000
  O         7.6520000000       13.2530000000        1.5620000000
  O        11.4780000000       13.2530000000        1.5620000000
  O        15.3050000000       13.2530000000        1.5620000000
  O        19.1310000000       13.2530000000        1.5620000000
  O         1.8570835000        1.1781570404        3.1232359371
  O         5.5571570385        1.0943998053        3.0509980132
  O         9.7200696700        1.1185532811        3.0190883580
  O        13.6094736040        1.1391641055        3.0633810645
  O         3.7727144970        4.3142980971        3.1528901512
  O         7.9641558190        4.4138480467        3.1469268726
  O        11.5639594136        4.5432573095        3.3352359829
  O        15.4014175816        4.2957790497        3.0926877666
  O         5.7537468460        7.6779635434        3.2515332688
  O         9.4602392154        7.5386148624        3.1947520228
  O        13.4201105770        7.7344149147        3.0944853735
  O        17.2287586334        7.8042352097        3.1539999270
  O         7.7062803445       10.9744010505        3.0085556990
  O        11.5228436044       11.0021306214        3.0244464875
  O        15.4691315622       10.9186294060        3.1750408854
  O        19.0157686648       11.0918905150        3.0951042631
  O         3.6723526575        2.5109526352        5.2686778352
  O         7.4337574063        2.0836277666        4.6993133493
  O        11.6550300241        2.2840243333        4.6564146397
  O        15.4073016978        2.2197286715        5.1046435359
  O         5.7571239632        5.4066372255        4.6807174611
  O         8.5927509259        4.0789445768        5.7577232001
  O        13.7697737094        5.5362142894        4.6874475798
  O        17.3455579767        5.6083219482        4.7796456808
  O         7.5790391134        8.9482469873        4.6725537757
  O        11.6153055110        8.9140809417        4.6570715742
  O        15.4397934300        8.7396389555        4.9181404642
  O        19.1078816237        8.9818339932        4.7128099658
  O         9.6237854289       11.9572913106        4.7184426027
  O        13.3296281562       12.0696455485        4.4251654439
  O        17.1127563553       12.3510550421        4.8590366562
  O        20.9025050832       12.0737695151        4.4810119207
 Ce         1.9130000000        1.1040000000        0.7810000000
 Ce         5.7390000000        1.1040000000        0.7810000000
 Ce         9.5650000000        1.1040000000        0.7810000000
 Ce        13.3910000000        1.1040000000        0.7810000000
 Ce         3.8260000000        4.4170000000        0.7810000000
 Ce         7.6520000000        4.4170000000        0.7810000000
 Ce        11.4780000000        4.4170000000        0.7810000000
 Ce        15.3050000000        4.4170000000        0.7810000000
 Ce         5.7390000000        7.7310000000        0.7810000000
 Ce         9.5650000000        7.7310000000        0.7810000000
 Ce        13.3910000000        7.7310000000        0.7810000000
 Ce        17.2180000000        7.7310000000        0.7810000000
 Ce         7.6520000000       11.0440000000        0.7810000000
 Ce        11.4780000000       11.0440000000        0.7810000000
 Ce        15.3050000000       11.0440000000        0.7810000000
 Ce        19.1310000000       11.0440000000        0.7810000000
 Ce         1.8354776835        3.3361404714        3.9832408657
 Ce         5.6207891705        3.1824056318        4.0546151995
 Ce         9.5509958717        3.2051794520        3.9962597051
 Ce        13.5009770438        3.1434614705        4.0074714909
 Ce        19.0588085427        6.5590632087        3.8437283180
 Ce         7.4747013216        6.5970407249        3.9059585705
 Ce        11.6345505683        6.5535147421        3.8959045982
 Ce        15.4765158862        6.7404395897        4.0507425516
 Ce        20.9233302736       10.0142643456        3.8668179782
 Ce         9.5287603135        9.8413307096        3.8471089852
 Ce        13.6099160941        9.9920300247        3.8683805268
 Ce        17.2714638078        9.9120097712        3.9519248139
 Ce        15.2423747108       -0.1079599671        3.8540379322
 Ce         3.8008483186       -0.1711557645        3.8632572493
 Ce        15.2444088253       13.3046328925        4.0068611833
 Ce        19.0812773546       13.4349141205        4.0846251942
 Pt         9.6845605608        5.6657576357        6.4009110715
 Pt        13.9302961121        5.6419981929        6.7759690145
 Pt        11.7672228665        9.5885993434        6.6376752644
 Pt         9.4218464070        3.0336605807        7.6715735235
 Pt        11.2993316250        2.8431002622        9.5184693239
 Pt         7.2414256555        7.2193773635        7.0409145974
 Pt        11.6938769690        4.1155870792        7.2994197541
 Pt        13.7204199021        4.2900044851        9.1443097702
 Pt         7.4619562725        9.9421491575        6.4091397022
 Pt         9.4167745807        8.3062575070        7.0062098303
 Pt        11.8127118756        7.1893111937        7.5686048088
 Pt        14.0761270875        7.0349989504        9.0132725099
 Pt         9.7358590433       11.7912090230        6.7704306813
 Pt        12.1551164827       12.0041796848        7.8116070137
 Pt        13.4987759057        9.7495893449        8.8947170948
 Pt         8.8250038832        3.3359935206       10.1996203001
 Pt         5.9501379144        7.0308324949        9.4344873403
 Pt         7.7719138213        5.1482037363        8.6076566555
 Pt        11.1771248701        5.5892211328        9.5966427036
 Pt        13.1579384766        3.2602075206       11.5468605850
 Pt         7.4283085568        9.2064852275        9.1620677173
 Pt        10.8452662691        9.1609434277        9.0715376039
 Pt        13.4563581799        5.9448091273       11.3785333720
 Pt         7.3825533709       11.8687868046        7.9960479221
 Pt         9.5677201470       11.7686841366        9.3152939810
 Pt        11.1336340678        7.4818100544       11.5954850258
 Pt        13.5050247696        8.5877892461       11.2049349329
 Pt        12.0289151453       11.5260898820       10.5250978887
 Pt         5.8398645463        6.4643885001       12.1190549975
 Pt         8.2152938417        5.3580964453       11.7099843752
 Pt        10.5973259515        4.1609288217       11.9065129120
 Pt         6.1182526042        8.9489435690       11.4854240479
 Pt         9.0974830594        7.0294160359        9.8946227111
 Pt        10.0582543708        6.1447807163       13.4579805359
 Pt        12.4559213456        4.8521114757       13.6191198188
 Pt         7.3718262186       11.3227470099       10.7267749361
 Pt         9.2658537261        9.5116444612       11.2511556205
 Pt        12.5990731045        7.5864922526       13.7262952041
 Pt         9.8660616271       11.8197619394       12.1158342192
 Pt        11.8176205070       10.1193375674       12.6691778647
 Pt         7.8348278009        7.7751239890       13.0088525104
 Pt         7.8467597378       10.4965557315       13.4056867865
 Pt         9.9449997557        8.7770115511       14.0776233737
 Pt         3.2892956212        0.8653434783        6.4193790137
 Pt        15.8971614341        0.5706713243        6.5274076070
 Pt        16.9666447878       13.9563341031        6.4195498204
     142
 i =      199, time =      199.000, E =     -7795.1202376198
  O         3.8260000000        2.2080000000        0.0000000000
  O         7.6520000000        2.2080000000        0.0000000000
  O        11.4780000000        2.2080000000        0.0000000000
  O        15.3050000000        2.2080000000        0.0000000000
  O         5.7390000000        5.5220000000        0.0000000000
  O         9.5650000000        5.5220000000        0.0000000000
  O        13.3910000000        5.5220000000        0.0000000000
  O        17.2180000000        5.5220000000        0.0000000000
  O         7.6520000000        8.8350000000        0.0000000000
  O        11.4780000000        8.8350000000        0.0000000000
  O        15.3050000000        8.8350000000        0.0000000000
  O        19.1310000000        8.8350000000        0.0000000000
  O         9.5650000000       12.1490000000        0.0000000000
  O        13.3910000000       12.1490000000        0.0000000000
  O        17.2180000000       12.1490000000        0.0000000000
  O        21.0440000000       12.1490000000        0.0000000000
  O         1.9130000000        3.3130000000        1.5620000000
  O         5.7390000000        3.3130000000        1.5620000000
  O         9.5650000000        3.3130000000        1.5620000000
  O        13.3910000000        3.3130000000        1.5620000000
  O         3.8260000000        6.6260000000        1.5620000000
  O         7.6520000000        6.6260000000        1.5620000000
  O        11.4780000000        6.6260000000        1.5620000000
  O        15.3050000000        6.6260000000        1.5620000000
  O         5.7390000000        9.9400000000        1.5620000000
  O         9.5650000000        9.9400000000        1.5620000000
  O        13.3910000000        9.9400000000        1.5620000000
  O        17.2180000000        9.9400000000        1.5620000000
  O         7.6520000000       13.2530000000        1.5620000000
  O        11.4780000000       13.2530000000        1.5620000000
  O        15.3050000000       13.2530000000        1.5620000000
  O        19.1310000000       13.2530000000        1.5620000000
  O         1.8617105734        1.1676176534        3.1225917201
  O         5.5573656881        1.0950433097        3.0561523448
  O         9.7209889908        1.1253069588        3.0172033945
  O        13.6175059210        1.1350385447        3.0548158136
  O         3.7746505485        4.3141128402        3.1449799651
  O         7.9700124569        4.4036209286        3.1464991818
  O        11.5769205263        4.5518478719        3.3303328308
  O        15.4042155490        4.2971442119        3.1014499589
  O         5.7491298725        7.6818889826        3.2479101209
  O         9.4689405859        7.5340009884        3.1862065166
  O        13.4225824752        7.7319477979        3.0878515410
  O        17.2261202025        7.8127110401        3.1596791585
  O         7.7185158398       10.9723041665        3.0131154627
  O        11.5151210190       11.0025943693        3.0240312828
  O        15.4760518527       10.9126002760        3.1725015158
  O        19.0213617389       11.0929877734        3.1010052743
  O         3.6715264950        2.5108050337        5.2585506873
  O         7.4276833395        2.0802513248        4.7041916472
  O        11.6529088672        2.2827314628        4.6606211275
  O        15.4073510883        2.2090502082        5.1068141425
  O         5.7584284475        5.4060636720        4.6779527438
  O         8.6030806427        4.0812682562        5.7580207784
  O        13.7616886710        5.5299536490        4.6902186709
  O        17.3382688644        5.6132068030        4.7794537129
  O         7.5792956314        8.9546738432        4.6777888539
  O        11.6134378127        8.9189516128        4.6583249596
  O        15.4503498143        8.7359050696        4.9214842664
  O        19.1147253440        8.9812500174        4.7135711333
  O         9.6185367970       11.9546414406        4.7309657590
  O        13.3295294826       12.0733214844        4.4269809160
  O        17.1068370440       12.3469383867        4.8632923854
  O        20.9152627294       12.0740377687        4.4822263241
 Ce         1.9130000000        1.1040000000        0.7810000000
 Ce         5.7390000000        1.1040000000        0.7810000000
 Ce         9.5650000000        1.1040000000        0.7810000000
 Ce        13.3910000000        1.1040000000        0.7810000000
 Ce         3.8260000000        4.4170000000        0.7810000000
 Ce         7.6520000000        4.4170000000        0.7810000000
 Ce        11.4780000000        4.4170000000        0.7810000000
 Ce        15.3050000000        4.4170000000        0.7810000000
 Ce         5.7390000000        7.7310000000        0.7810000000
 Ce         9.5650000000        7.7310000000        0.7810000000
 Ce        13.3910000000        7.7310000000        0.7810000000
 Ce        17.2180000000        7.7310000000        0.7810000000
 Ce         7.6520000000       11.0440000000        0.7810000000
 Ce        11.4780000000       11.0440000000        0.7810000000
 Ce        15.3050000000       11.0440000000        0.7810000000
 Ce        19.1310000000       11.0440000000        0.7810000000
 Ce         1.8361046684        3.3363503642        3.9842345608
 Ce         5.6202287208        3.1816885047        4.0563905564
 Ce         9.5517191596        3.2055801157        3.9945945633
 Ce        13.5010982674        3.1489410599        4.0088767277
 Ce        19.0603929214        6.5613213906        3.8430999527
 Ce         7.4755436426        6.5946174352        3.9053892271
 Ce        11.6352418244        6.5514330800        3.8950423081
 Ce        15.4793683007        6.7441668062        4.0497614885
 Ce        20.9225832800       10.0149765053        3.8663145696
 Ce         9.5275175761        9.8391326628        3.8474469086
 Ce        13.6122671909        9.9928958333        3.8688740959
 Ce        17.2722086819        9.9111123707        3.9505706899
 Ce        15.2434984399       -0.1110479421        3.8541327165
 Ce         3.8002291400       -0.1727174541        3.8623960578
 Ce        15.2457750174       13.3068610841        4.0056672471
 Ce        19.0790332155       13.4345621183        4.0839755343
 Pt         9.6847137692        5.6654128671        6.4026399152
 Pt        13.9317642925        5.6418707587        6.7771871159
 Pt        11.7645668998        9.5903542184        6.6373762526
 Pt         9.4222787344        3.0341687949        7.6718030635
 Pt        11.2984066529        2.8427380042        9.5184448527
 Pt         7.2413509614        7.2201741760        7.0426658712
 Pt        11.6931104352        4.1162703779        7.3001883589
 Pt        13.7198355374        4.2896689054        9.1453659443
 Pt         7.4589713684        9.9435863307        6.4116956430
 Pt         9.4163072282        8.3091622768        7.0087250409
 Pt        11.8127380772        7.1882987879        7.5694515087
 Pt        14.0765811070        7.0356247212        9.0157915270
 Pt         9.7370240770       11.7906930436        6.7723553880
 Pt        12.1571468110       12.0030617164        7.8110227438
 Pt        13.5014372321        9.7492091215        8.8947788400
 Pt         8.8257674660        3.3374006809       10.1986927357
 Pt         5.9493451885        7.0293174288        9.4344709051
 Pt         7.7727685740        5.1479372283        8.6098580809
 Pt        11.1765358196        5.5889228026        9.6001641709
 Pt        13.1565398288        3.2593373182       11.5473152829
 Pt         7.4279024645        9.2083511353        9.1600941106
 Pt        10.8472615889        9.1613046440        9.0720270395
 Pt        13.4553401713        5.9454381075       11.3782231213
 Pt         7.3813243527       11.8663240865        7.9964241718
 Pt         9.5670998519       11.7685219683        9.3145750603
 Pt        11.1355713037        7.4808477566       11.5958723031
 Pt        13.5043697418        8.5902654887       11.2034431589
 Pt        12.0281001329       11.5267985351       10.5271150078
 Pt         5.8387190990        6.4641262425       12.1169409941
 Pt         8.2168173381        5.3587830699       11.7105055338
 Pt        10.5965562702        4.1606953648       11.9093620021
 Pt         6.1186858730        8.9494356177       11.4825985644
 Pt         9.1000829274        7.0281019737        9.8910481853
 Pt        10.0580970534        6.1437372094       13.4589464372
 Pt        12.4547617083        4.8470408204       13.6171030494
 Pt         7.3723685967       11.3231004632       10.7279459510
 Pt         9.2682139529        9.5095023138       11.2496509118
 Pt        12.5988653556        7.5882887611       13.7270693120
 Pt         9.8652650734       11.8215343688       12.1139797683
 Pt        11.8185500501       10.1188989039       12.6682171245
 Pt         7.8345772626        7.7780914268       13.0083790758
 Pt         7.8475710056       10.4955039301       13.4051582670
 Pt         9.9437555938        8.7787784529       14.0764248955
 Pt         3.2919297744        0.8673073880        6.4237694673
 Pt        15.8963756717        0.5707549088        6.5283665045
 Pt        16.9674462498       13.9552257289        6.4169657151
