85
CIF: W-Ti-CeO2-O-CO.cif | data_image0
Ce     1.93038582     1.11050507     0.88387043
Ce    -0.01674515     2.22330297     4.07015296
Ce    -5.62555502     9.91599905     7.19407921
Ce     5.81181033     1.12175166     0.90127712
Ce     3.82585025     2.21406235     4.01575149
Ce    -2.04736725     9.95033440     7.17302957
Ce     9.66901012     1.12377363     0.90450652
Ce     7.73189561     2.23388213     3.99947983
Ce     1.95215657     9.87976849     7.30662402
Ce    -0.00709724     4.47602159     0.89067279
Ce    -1.95721972     5.59383602     4.07775156
Ce    -1.66687957     3.54732077     7.30900453
Ce     3.86254305     4.47635356     0.87798423
Ce     1.93361991     5.59659765     4.09901253
Ce     1.90482422     3.31340149     7.30761912
Ce     7.74213807     4.46545905     0.90125422
Ce     5.82619911     5.60178688     4.05253862
Ce    -1.94645625     7.83004003     0.90010904
Ce    -3.87470376     8.90455840     3.99421658
Ce    -3.84257740     6.72819897     7.34619537
Ce     1.92815559     7.82745473     0.89060408
Ce     0.00356511     8.96874928     4.05830439
Ce     0.02898616     6.74991130     7.24961458
Ce     5.81127600     7.83258510     0.88371011
Ce     3.88191011     8.95614314     4.06926555
Ce     3.89681073     6.72768412     7.31453070
Ti     5.20842989     3.57329906     6.88340795
W      7.42265804     2.81527242     9.34247465
O     11.61334069     0.00154917     0.10141687
O      1.91847257     1.10802429     3.21785922
O     -0.08862798     2.05713707     6.60092274
O     -0.00785227     2.23805103     1.69392277
O     -5.75466058    10.01721954     4.86090896
O      2.01726953     0.91250616     8.09472604
O     -1.93899312    10.05733740     0.10496691
O      5.72885976     1.09428046     3.23361671
O      3.95168114     2.20142942     6.43896089
O      3.86763657     2.23577757     1.68132582
O     -1.97884980    10.04649697     4.85068735
O      6.78671886     2.60942702    10.94979693
O      7.73821774     0.00761509     0.10924988
O      9.74878740     1.08102656     3.24728912
O      6.24182502     2.30338923     8.00289124
O      7.74357843     2.23531483     1.71563532
O      7.75034713     0.02154461     4.95389146
O      8.80779355     1.70563518     8.93113681
O      9.67032270     3.35425987     0.10911246
O     -0.01442242     4.48294095     3.28155853
O     -1.90345805     5.64846902     6.45737372
O     -1.94403436     5.59119430     1.70564938
O      9.67046962     3.34046547     4.96070743
O      0.06346804     4.64271006     8.16746903
O      1.92738314     3.35244915     0.09928684
O      3.86103051     4.47571569     3.26446001
O      1.91281892     5.61323437     6.36850604
O      1.92862022     5.59252216     1.67404250
O      1.89309689     3.28639532     4.87494377
O      5.81155478     3.35101064     0.10766953
O      7.72402500     4.53354156     3.23692468
O      5.91919815     5.31649358     6.55081356
O      5.80528807     5.59217007     1.68114259
O      5.72160801     3.33811393     4.97855776
O      7.99384790     4.48040865     8.95299576
O     -3.87155109     6.71022987     0.10512724
O     -1.93638007     7.81877314     3.24319892
O     -3.82674431     8.89172005     6.36504226
O     -3.87509971     8.94378428     1.69355631
O      7.70441931     6.69714338     4.84992095
O     -1.85244149     7.93324059     8.11114835
O     -0.01209783     6.71325780     0.10434852
O      1.94950476     7.83742595     3.27160544
O     -0.04714395     9.10024475     6.50680634
O     -0.00628994     8.94736548     1.70514550
O     -0.01131093     6.78938723     4.88958828
O      1.84741726     7.79666349     8.12457797
O      3.86815347     6.71410280     0.09951587
O      5.80121251     7.82569817     3.21684811
O      3.93882303     9.12249395     6.55726542
O      3.86556896     8.94715423     1.69389986
O      3.95616782     6.75566591     4.90725834
O      5.86762748     7.92029139     8.11831125
O      3.98422486     4.34251145     7.98524195
O      9.10714427     2.55968490    12.88639629
O      7.11303974     2.62826218    14.13415491
C      8.10102023     2.59317113    13.49881859
