85
CIF: Ru-Ti-CeO2-O-CO.cif | data_image0
Ce     1.93038582     1.11050507     0.88387043
Ce    -0.01413425     2.23247815     4.04595740
Ce     0.00337154     0.00453878     7.21195314
Ce     5.81181033     1.12175166     0.90127712
Ce     3.86614415     2.20680313     4.00506224
Ce    -1.99794086    10.01541817     7.21646156
Ce     9.66901012     1.12377363     0.90450652
Ce     7.74366806     2.23575529     4.03654662
Ce     2.04324141     9.85933514     7.33319884
Ce    -0.00709724     4.47602159     0.89067279
Ce    -1.95568558     5.57923122     4.09613805
Ce    -1.72707965     3.30399892     7.32818116
Ce     3.86254305     4.47635356     0.87798423
Ce     1.95267980     5.58304117     4.06492626
Ce     1.97034730     3.33756999     7.19216058
Ce     7.74213807     4.46545905     0.90125422
Ce     5.81253303     5.62298832     4.00862756
Ce    -1.94645625     7.83004003     0.90010904
Ce    -3.87699835     8.96003173     4.00535748
Ce    -3.85413013     6.90245322     7.18644809
Ce     1.92815559     7.82745473     0.89060408
Ce    -0.00537755     8.95609736     4.09354724
Ce     0.01688677     6.68557133     7.26053481
Ce     5.81127600     7.83258510     0.88371011
Ce     3.86744953     8.94636287     4.07541896
Ce     3.90740870     6.67132164     7.29694099
Ti     5.40859469     3.60387237     6.80411616
Ru     6.42046188     2.33487583     9.08814431
O     11.61334069     0.00154917     0.10141687
O      1.92585399     1.12101700     3.21502428
O      0.10266339     2.22658035     6.40721882
O     -0.00785227     2.23805103     1.69392277
O      0.01484634     0.00630082     4.85693901
O      2.01360102     1.12516523     7.99478006
O     -1.93899312    10.05733740     0.10496691
O      5.74130499     1.08713694     3.24222609
O      4.10111566     2.17583449     6.44594285
O      3.86763657     2.23577757     1.68132582
O      3.83530262     0.00078130     4.85599399
O      5.70010344     0.75069065     8.87225787
O      7.73821774     0.00761509     0.10924988
O      9.73657472     1.08635695     3.23662372
O      7.10317297     2.74504621     7.32604319
O      7.74357843     2.23531483     1.71563532
O      7.74564334     0.00320583     4.95755864
O      9.81033257     1.03769165     8.03024643
O      9.67032270     3.35425987     0.10911246
O     -0.00042838     4.47373660     3.27740815
O     -2.07493796     5.59607273     6.59778402
O     -1.94403436     5.59119430     1.70564938
O     -1.93189822     3.35209246     4.95634797
O      0.15160764     4.49427066     8.08986901
O      1.92738314     3.35244915     0.09928684
O      3.86683902     4.46812508     3.20665501
O      1.90228026     5.54298196     6.36072014
O      1.92862022     5.59252216     1.67404250
O      2.00957396     3.30681651     4.87318458
O      5.81155478     3.35101064     0.10766953
O      7.73795594     4.55939388     3.24909807
O      6.00512067     5.39899746     6.57107661
O      5.80528807     5.59217007     1.68114259
O      5.71698399     3.42678414     4.90638718
O      6.82215856     3.49023205    10.24004220
O     -3.87155109     6.71022987     0.10512724
O     -1.93907413     7.81723910     3.25836251
O     -3.85148833     8.98525530     6.37320025
O     -3.87509971     8.94378428     1.69355631
O     -3.89805559     6.75960228     4.88047350
O     -2.00586674     7.89114356     8.07601315
O     -0.01209783     6.71325780     0.10434852
O      1.92485112     7.81699399     3.28585596
O     -0.08186458     9.00183363     6.49261841
O     -0.00628994     8.94736548     1.70514550
O     -0.06038940     6.71025969     4.93221719
O      1.82856134     7.69289274     8.10642486
O      3.86815347     6.71410280     0.09951587
O      5.80812307     7.83751070     3.22433009
O      3.95400528     8.89310754     6.41060433
O      3.86556896     8.94715423     1.69389986
O      3.94100987     6.64876038     4.85489749
O      5.97826442     7.88379956     8.06157076
O      3.96325468     4.30666745     7.84769221
O      5.13469007     1.82885835    12.18854763
O      5.63292145     3.86201167    13.26342204
C      5.38824643     2.84833252    12.72192219
