83
CIF: CH2→CH+H.cif | data_image0
O      0.00261135     0.00382715     0.19995339
O      1.91935947     1.06347286     3.34149392
O      0.03740441     2.08781689     6.52120048
O      0.00261135     2.21285656     1.76196664
O      5.71552955     9.89404898     4.92843221
O      3.82876252     0.00382715     0.19995339
O      5.74151638     1.11814197     3.33366452
O      3.71995059     2.33941361     6.76507795
O      3.82876252     2.21285656     1.76196664
O      3.85031812     0.03523499     4.98388248
O      5.89951608     1.18447230     8.22141675
O      7.65492518     0.00382715     0.19995339
O      9.56453206     1.10991246     3.32341521
O      7.70702615     2.22661913     6.51767965
O      7.65492518     2.21285656     1.76196664
O      7.64963151     0.02075645     4.95273340
O      9.57689717     1.10076953     8.17641146
O     -1.91046424     3.31737126     0.19995339
O     -0.03214401     4.44474432     3.33004688
O     -1.84615744     5.45779008     6.55059501
O     -1.91046998     5.52641062     1.76196664
O     -1.87700830     3.29818656     4.98445173
O      0.11412695     4.41818022     8.28702922
O      1.91568694     3.31737126     0.19995339
O      3.87980532     4.43909658     3.34771061
O      1.97186775     5.70046489     6.49841795
O      1.91568120     5.52641062     1.76196664
O      1.91347925     3.32588087     4.76452868
O      3.76376732     4.70230491     8.80234503
O      5.74184959     3.31737126     0.19995339
O      7.65078298     4.43205757     3.37314246
O      5.65134616     5.44624326     6.62946489
O      5.74184385     5.52641062     1.76196664
O      5.73388802     3.27023796     5.02273925
O      7.69770046     4.41123234     8.15570901
O     -3.82354556     6.63092532     0.19995339
O     -1.93114969     7.73664316     3.35879453
O     -3.87376710     8.97956857     6.66441941
O     -3.82354556     8.83995473     1.76196664
O     -3.83290592     6.65230436     5.08235759
O     -1.92012816     7.58971133     8.17492790
O      0.00260561     6.63092532     0.19995339
O      1.91015771     7.73761561     3.33703698
O      0.06296657     8.82694898     6.54116190
O      0.00260561     8.83995473     1.76196664
O     -0.01941556     6.63832897     4.96525819
O      1.94025132     7.79281958     8.22737762
O      3.82876826     6.63092532     0.19995339
O      5.77597689     7.71711015     3.33000496
O      3.78343781     8.86142482     6.48472988
O      3.82876826     8.83995473     1.76196664
O      3.88347619     6.66124720     4.94260162
O      5.68510415     7.74970798     8.13243644
Ce     1.91568694     1.10834185     0.98097142
Ce     0.02935784     2.22169205     4.14046359
Ce     5.61161333     9.88768075     7.23745551
Ce     5.74184959     1.10834185     0.98097142
Ce     3.79410725     2.23573640     4.18164178
Ce    -1.79546868     9.92578261     7.36906417
Ce     9.56800076     1.10834185     0.98097142
Ce     7.66157086     2.20212930     4.13802487
Ce     7.65835809     0.02142358     7.35912490
Ce     0.00261135     4.42188597     0.98097142
Ce    -1.89607795     5.52071222     4.16534465
Ce    -1.83964209     3.29529754     7.33302908
Ce     3.82877400     4.42188597     0.98097142
Ce     1.92105425     5.51101446     4.17341257
Ce     7.65492518     4.42188597     0.98097142
Ce     5.73923753     5.52389011     4.17204096
Ce     5.83774721     3.27097589     7.33688264
Ce    -1.91046998     7.73544003     0.98097142
Ce    -3.81471878     8.84883782     4.17149569
Ce    -3.80000095     6.61969949     7.38789049
Ce     1.91569268     7.73544003     0.98097142
Ce     0.00282332     8.85282420     4.14579220
Ce     0.05289448     6.62034523     7.33086038
Ce     5.74184385     7.73544003     0.98097142
Ce     3.81758790     8.83431311     4.09113675
Ce     3.77469079     6.71220171     7.31124027
Pd     1.83929718     3.07429849     7.44827715
C      2.73719892     3.93309380     9.00738126
H      1.47118569     4.34235855     8.81305992
H      2.80671889     3.27463639     9.89953769
