83
CIF: CH+OH+Olat→CO+H2O.cif | data_image0
O      0.00261135     0.00382715     0.19995339
O      1.91623216     1.06614383     3.34108747
O      0.05234754     2.19426756     6.67188757
O      0.00261135     2.21285656     1.76196664
O     11.43682113     0.02085547     4.95013515
O      3.82876252     0.00382715     0.19995339
O      5.73450337     1.11219882     3.33285302
O      3.83587343     2.28740143     6.65192873
O      3.82876252     2.21285656     1.76196664
O      3.83798547     0.00924480     4.96769894
O      5.88678243     1.16328378     8.25239982
O      7.65492518     0.00382715     0.19995339
O      9.56572803     1.10840150     3.30789876
O      7.67392778     2.19181222     6.49597604
O      7.65492518     2.21285656     1.76196664
O      7.64756748     0.00555682     4.93503486
O      9.54195613     1.09504127     8.17297503
O     -1.91046424     3.31737126     0.19995339
O     -0.03490027     4.43608121     3.34058564
O     -1.86799392     5.38937886     6.57638166
O     -1.91046998     5.52641062     1.76196664
O      9.59252450     3.25791628     4.98019887
O     -0.33869454     4.49827752     8.98409418
O      1.91568694     3.31737126     0.19995339
O      3.87284557     4.44028610     3.35452262
O      2.03452923     5.56432423     6.60304667
O      1.91568120     5.52641062     1.76196664
O      1.90958039     3.31112854     4.79169616
O      3.26205780     4.46926372     9.42947474
O      5.74184959     3.31737126     0.19995339
O      7.65758244     4.44004752     3.36825430
O      5.57968184     5.41820672     6.70195129
O      5.74184385     5.52641062     1.76196664
O      5.75908451     3.29664502     4.98779464
O      7.66467039     4.34778842     8.17099055
O     -3.82354556     6.63092532     0.19995339
O     -1.94438884     7.71983322     3.36825430
O     -3.91141321     9.00526761     6.63231204
O     -3.82354556     8.83995473     1.76196664
O      7.62123588     6.64014030     5.10469643
O     -2.09886028     7.62727590     8.23542910
O      0.00260561     6.63092532     0.19995339
O      1.91462518     7.72718929     3.33869241
O      0.04884661     8.84457713     6.55354874
O      0.00260561     8.83995473     1.76196664
O     -0.00014348     6.61860887     4.96370717
O      2.04214519     7.84610920     8.27719440
O      3.82876826     6.63092532     0.19995339
O      5.77152716     7.72961481     3.34400716
O      3.79173300     8.86513438     6.47070244
O      3.82876826     8.83995473     1.76196664
O      3.86749660     6.66796415     4.95485685
O      5.67550406     7.77749888     8.14729085
Ce     1.91568694     1.10834185     0.98097142
Ce     0.03100907     2.23359274     4.14619297
Ce     5.60494594     9.91245063     7.24982723
Ce     5.74184959     1.10834185     0.98097142
Ce     3.80784876     2.22412925     4.16831877
Ce    -1.81208805     9.90124752     7.36866788
Ce     9.56800076     1.10834185     0.98097142
Ce     7.65572867     2.19251800     4.11320955
Ce     1.89904316     9.93600995     7.36775548
Ce     0.00261135     4.42188597     0.98097142
Ce    -1.89364255     5.51786166     4.18770736
Ce     9.54145681     3.25825426     7.32343544
Ce     3.82877400     4.42188597     0.98097142
Ce     1.91588781     5.50545574     4.20739248
Ce     7.65492518     4.42188597     0.98097142
Ce     5.73650636     5.52136077     4.17196839
Ce     5.83939932     3.22175223     7.32108600
Ce    -1.91046998     7.73544003     0.98097142
Ce    -3.82168605     8.85263899     4.17963258
Ce     7.64550136     6.62298275     7.41460744
Ce     1.91569268     7.73544003     0.98097142
Ce     0.00043618     8.82760845     4.15716463
Ce     0.03755180     6.61777385     7.44419214
Ce     5.74184385     7.73544003     0.98097142
Ce     3.80920322     8.84521333     4.08636206
Ce     3.76518331     6.75020309     7.29677043
Pd     2.01666299     2.94306632     7.42181543
C      2.27981800     3.92580018     8.97562725
H     -0.75194750     4.67491047     9.85019316
H      1.00204746     4.12894917     9.13988201
