82
CIF: O-Ov+O-Ov.cif | data_image0
O      0.00261135     0.00382715     0.19995339
O      1.91521664     1.06408796     3.33980517
O      0.00208511     2.21444023     6.66344600
O      0.00261135     2.21285656     1.76196664
O     -0.01039375     0.03236137     4.99943241
O      3.82876252     0.00382715     0.19995339
O      5.73780119     1.10248404     3.34538291
O      3.99584109     2.20079203     6.54537262
O      3.82876252     2.21285656     1.76196664
O     -1.92522529     9.93642000     4.98519302
O      5.78893361     1.06900134     8.21405084
O      7.65492518     0.00382715     0.19995339
O      9.57865402     1.11514118     3.32467388
O      7.65716745     2.17932353     6.50447992
O      7.65492518     2.21285656     1.76196664
O      7.65586780     0.00180745     4.95409276
O      9.52398944     1.07930518     8.16761095
O     -1.91046424     3.31737126     0.19995339
O     -0.03636182     4.44204853     3.34051101
O     -1.94429015     5.52838219     6.52544078
O     -1.91046998     5.52641062     1.76196664
O     -1.89276054     3.29154933     5.00111135
O      1.91568694     3.31737126     0.19995339
O      3.86298844     4.43873097     3.35037339
O      1.98962143     5.67029007     6.54591953
O      1.91568120     5.52641062     1.76196664
O      1.90966747     3.31302752     4.78751542
O      3.53246622     4.21755542     9.42032781
O      5.74184959     3.31737126     0.19995339
O      7.67347050     4.42363646     3.33039087
O      5.52077695     5.39649506     6.71721716
O      5.74184385     5.52641062     1.76196664
O      5.80549292     3.33161580     4.94418532
O      7.65417483     4.38879361     8.14216529
O     -3.82354556     6.63092532     0.19995339
O     -1.93606882     7.72032876     3.36457054
O     -3.83707910     8.80672979     6.52486386
O     -3.82354556     8.83995473     1.76196664
O      7.56918843     6.57957808     5.03898108
O     -1.93231455     7.72031871     8.13880761
O      0.00260561     6.63092532     0.19995339
O      1.91042080     7.73282408     3.34553475
O      0.00632539     8.83832714     6.52141146
O      0.00260561     8.83995473     1.76196664
O     -0.00986097     6.61872968     4.98486577
O      1.90862327     7.78844128     8.21549864
O      3.82876826     6.63092532     0.19995339
O      5.75368005     7.74773106     3.33173100
O      3.80197593     8.85406850     6.50251149
O      3.82876826     8.83995473     1.76196664
O      3.87372995     6.67449521     4.94423614
O      5.71237139     7.74833271     8.14150366
O     -0.10656505     4.47423785     8.17979092
O      1.90853912     0.98672056     8.17231317
Ce     1.91568694     1.10834185     0.98097142
Ce     0.05112172     2.24049753     4.15840964
Ce     5.72280646     9.90434520     7.34156273
Ce     5.74184959     1.10834185     0.98097142
Ce     3.80511276     2.22859064     4.19655165
Ce     3.83830452     0.01096931     7.31689993
Ce     9.56800076     1.10834185     0.98097142
Ce     7.67006319     2.19677356     4.11196454
Ce     1.90743855     9.93613198     7.37056007
Ce     0.00261135     4.42188597     0.98097142
Ce    -1.91666963     5.51478712     4.15680719
Ce     9.52466858     3.31872041     7.34291570
Ce     3.82877400     4.42188597     0.98097142
Ce     1.91937050     5.49459598     4.19751446
Ce     7.65492518     4.42188597     0.98097142
Ce     5.72832059     5.51618815     4.14516977
Ce     5.82619425     3.18359446     7.26153672
Ce    -1.91046998     7.73544003     0.98097142
Ce    -3.83562299     8.83837021     4.15632371
Ce     7.64370057     6.62272716     7.35849695
Ce     1.91569268     7.73544003     0.98097142
Ce     0.00482648     8.83868540     4.14548204
Ce     0.01617178     6.62927814     7.31909279
Ce     5.74184385     7.73544003     0.98097142
Ce     3.82324224     8.85902710     4.11141500
Ce     3.75753252     6.76547612     7.26069478
Pd     1.22100171     2.91520739     8.07567290
C      2.55903780     3.67505711     9.06511473
