82
CIF: O2.cif | data_image0
O      0.00261135     0.00382715     0.19995339
O      1.91913199     1.05873728     3.33505824
O      0.33587474     2.11697630     6.59856298
O      0.00261135     2.21285656     1.76196664
O     11.42661711     0.00564185     4.93624817
O      3.82876252     0.00382715     0.19995339
O      5.74366269     1.11943881     3.33135313
O      3.64687070     2.37008700     6.76254337
O      3.82876252     2.21285656     1.76196664
O      3.83681116     0.04806932     4.97869812
O      5.87754088     1.19719623     8.21431399
O      7.65492518     0.00382715     0.19995339
O      9.56432265     1.12213660     3.30649287
O      7.69636923     2.21953368     6.49429206
O      7.65492518     2.21285656     1.76196664
O      7.65622368     0.02185325     4.93699708
O      9.58119943     1.08414752     8.09885023
O     -1.91046424     3.31737126     0.19995339
O     -0.04628185     4.44806995     3.33677875
O     -1.93792611     5.46319434     6.52848066
O     -1.91046998     5.52641062     1.76196664
O     -1.81710748     3.24656947     5.04028248
O      1.91568694     3.31737126     0.19995339
O      3.89216950     4.44767338     3.34524841
O      2.03799290     5.57701603     6.61080549
O      1.91568120     5.52641062     1.76196664
O      1.92623201     3.33866983     4.71371673
O      3.87568199     4.22641933     9.46499753
O      5.74184959     3.31737126     0.19995339
O      7.66652952     4.42396705     3.38970531
O      5.56202448     5.40190168     6.71305460
O      5.74184385     5.52641062     1.76196664
O      5.73459193     3.26901783     5.00896133
O      7.66755545     4.36061926     8.17861803
O     -3.82354556     6.63092532     0.19995339
O     -1.94537447     7.73013492     3.38174806
O     -3.90795484     8.99071587     6.61632436
O     -3.82354556     8.83995473     1.76196664
O      7.57797765     6.65211287     5.08718631
O     -2.09763557     7.67104431     8.22827466
O      0.00260561     6.63092532     0.19995339
O      1.91222995     7.73962613     3.33542615
O      0.04683903     8.88584289     6.53531780
O      0.00260561     8.83995473     1.76196664
O      0.00892761     6.63240179     4.96348749
O      2.03425242     7.88026519     8.25451307
O      3.82876826     6.63092532     0.19995339
O      5.76354362     7.72781172     3.33012708
O      3.78957323     8.85578624     6.44698896
O      3.82876826     8.83995473     1.76196664
O      3.86617507     6.66604449     4.94602996
O      5.66784295     7.77027549     8.13946254
O     -0.41985596     4.58921754     8.70177950
O      0.14556021     3.30430862     8.93281486
Ce     1.91568694     1.10834185     0.98097142
Ce     0.05566162     2.23749512     4.14196398
Ce     5.61661366     9.87857170     7.23768234
Ce     5.74184959     1.10834185     0.98097142
Ce     3.78934349     2.23784690     4.16781130
Ce    -1.82494988     9.92543685     7.36268920
Ce     9.56800076     1.10834185     0.98097142
Ce     7.67386286     2.19552054     4.12037023
Ce     7.65471127     0.01621971     7.34395552
Ce     0.00261135     4.42188597     0.98097142
Ce    -1.89290736     5.52228956     4.19630586
Ce    -1.90654298     3.30792060     7.37863650
Ce     3.82877400     4.42188597     0.98097142
Ce     1.91432911     5.51182586     4.20479304
Ce     7.65492518     4.42188597     0.98097142
Ce     5.73161461     5.52467249     4.16756194
Ce     5.87158167     3.22950549     7.29364729
Ce    -1.91046998     7.73544003     0.98097142
Ce    -3.82882040     8.85178988     4.17395300
Ce    -3.82435174     6.63171280     7.40969388
Ce     1.91569268     7.73544003     0.98097142
Ce    -0.00162589     8.84609543     4.15306513
Ce     0.02595809     6.66829866     7.41165500
Ce     5.74184385     7.73544003     0.98097142
Ce     3.81080444     8.84968327     4.07450840
Ce     3.74753091     6.76263968     7.27342838
Pd     1.78320064     2.93851804     7.75554171
C      3.00411549     3.68447709     8.90375865
