84
CIF: CO+O2→CO2+O.cif | data_image0
O     11.45839727     0.00740786     0.17864831
O      1.89320341     1.04602971     3.36429641
O     -0.02075672     2.20425170     6.62454456
O      0.00259586     2.21850309     1.81786847
O     11.43565057     0.00593465     5.01549153
O      3.80858620     0.00761981     0.17233702
O      5.71366129     1.09960817     3.34987187
O      3.94116531     2.16920532     6.58497602
O      3.78921966     2.21377320     1.82057749
O     -1.93372293     9.92242648     5.00949550
O      5.76859485     1.05437309     8.21693365
O      1.88744845     9.93589946     0.18588781
O      9.55422875     1.10773626     3.33390312
O      7.63134061     2.17448641     6.53353388
O      7.63053098     2.21318004     1.78822452
O      1.89102673     9.93568927     4.97253171
O      9.51350279     1.07402212     8.18001739
O      9.55634627     3.30711880     0.17805729
O     -0.07057853     4.44428361     3.35941808
O     -1.90803655     5.49967775     6.57867821
O     -1.94439874     5.53319798     1.78551855
O      9.54532956     3.29161023     5.01261410
O      1.89598873     3.31310295     0.16780709
O      3.85481974     4.44075972     3.36534022
O      1.93014046     5.65121897     6.57570378
O      1.89231436     5.50348009     1.81851654
O      1.89496366     3.31361622     4.79228440
O      1.67306855     3.51733078    11.02086545
O      5.70938157     3.31086795     0.18115010
O      7.64877339     4.42524618     3.35102596
O      5.60213893     5.45726858     6.62927523
O      5.73717102     5.53005692     1.80145428
O      5.76249424     3.31580709     4.98121413
O      7.63679278     4.39408476     8.14354450
O      7.62775645     6.62419372     0.15111451
O     -1.95545412     7.71842205     3.36553404
O     -3.85604447     8.87398103     6.58942057
O     -3.84065142     8.82087070     1.78788195
O      7.60435859     6.61264427     5.06533287
O     -1.93059905     7.73265932     8.14065410
O     -0.01082894     6.62353836     0.17242955
O      1.88698158     7.72737016     3.34718950
O     -0.01277302     8.83462662     6.54748785
O     -0.03558096     8.82677914     1.79933144
O     -0.03290684     6.63166356     5.00467997
O      1.88127982     7.77123370     8.22394411
O      3.80169573     6.61861421     0.18050500
O      5.73544168     7.73859880     3.35143667
O      3.77248331     8.83053700     6.53335364
O      3.80960710     8.83006011     1.78940933
O      3.83008501     6.65544732     4.97527529
O      5.69145333     7.73763782     8.15043537
O     -0.07867550     4.41220381     8.29260608
O      1.84745445     1.06643021     8.31446003
O      4.08614620     4.51506284     8.68730063
O      3.66366342     3.71753669     9.70003974
Ce     1.89785131     1.10765833     0.99234013
Ce     0.02463590     2.23339567     4.19147522
Ce     5.66255388     9.89822089     7.34329322
Ce     5.70780353     1.10534868     0.98679203
Ce     3.78417387     2.22667628     4.22278566
Ce     3.85151463     0.01711826     7.34216800
Ce     9.55362482     1.10709984     0.97759282
Ce     7.63770049     2.19482897     4.13532349
Ce     1.88855372     9.93035993     7.37602675
Ce    -0.01367681     4.41776049     0.98975031
Ce    -1.93354451     5.51716120     4.17848423
Ce     9.49271984     3.28477145     7.33852277
Ce     3.80331301     4.41405715     0.99746010
Ce     1.89793595     5.49078250     4.21609191
Ce     7.63252220     4.42380396     0.97768282
Ce     5.71527514     5.51680353     4.18143480
Ce     5.76914543     3.21755434     7.32115082
Ce    -1.94008020     7.72711938     0.97739475
Ce    -3.85189932     8.83709439     4.18100631
Ce     7.62353163     6.62204705     7.37147169
Ce     1.88952577     7.72006398     0.98442369
Ce    -0.02060379     8.83358308     4.15308623
Ce     0.01295298     6.64800694     7.34093905
Ce     5.72533507     7.72653579     0.97752642
Ce     3.79752589     8.84310515     4.13272202
Ce     3.74029806     6.70010970     7.31182113
Pd     1.14043872     2.88039304     8.21103281
C      1.99969651     3.46454963     9.89153852
