89
CIF: CH2CCH2+O2→CH2COCH2+O.cif | data_image0
O      0.00261135     0.00382715     0.19995339
O      1.92931988     1.05563221     3.33670837
O     -0.15381684     2.07602936     6.45233686
O      0.00261135     2.21285656     1.76196664
O      5.75016758     9.87793523     4.93885361
O      3.82876252     0.00382715     0.19995339
O      5.73851743     1.11150442     3.33811153
O      3.64279938     2.46500094     6.87777404
O      3.82876252     2.21285656     1.76196664
O      3.86302378     0.11229855     5.05848517
O      5.74843863     1.11657909     8.14286396
O      7.65492518     0.00382715     0.19995339
O      9.55352004     1.11121485     3.34654043
O      7.66735397     2.21831982     6.53588475
O      7.65492518     2.21285656     1.76196664
O      7.64687372     0.01324089     4.97406031
O      9.51664817     1.08862702     8.20738158
O     -1.91046424     3.31737126     0.19995339
O     -0.03881947     4.45645504     3.33321912
O     -1.88595864     5.53731917     6.54971324
O     -1.91046998     5.52641062     1.76196664
O     -1.93561435     3.35423718     4.96381783
O      0.08686305     4.45092770     8.10528089
O      1.91568694     3.31737126     0.19995339
O      3.87403850     4.44679202     3.34161457
O      2.10797941     5.37891580     6.60775759
O      1.91568120     5.52641062     1.76196664
O      1.89939839     3.30477313     4.74560669
O      4.34028983     4.81206710     8.78229028
O      5.74184959     3.31737126     0.19995339
O      7.63310188     4.43403544     3.36082579
O      5.70796191     5.50690338     6.54609254
O      5.74184385     5.52641062     1.76196664
O      5.69790983     3.27619423     5.03461738
O      7.67744240     4.43642783     8.13829261
O     -3.82354556     6.63092532     0.19995339
O     -1.89022813     7.75569873     3.38629943
O     -3.78528242     8.91619171     6.57027654
O     -3.82354556     8.83995473     1.76196664
O     -3.82620030     6.64911504     5.02253381
O     -1.88135441     7.74610477     8.16184405
O      0.00260561     6.63092532     0.19995339
O      1.90616452     7.74318523     3.33770930
O      0.01294201     8.84480066     6.53963380
O      0.00260561     8.83995473     1.76196664
O      0.07366741     6.61188647     5.02980002
O      1.93364414     7.72864240     8.14707784
O      3.82876826     6.63092532     0.19995339
O      5.75781145     7.71510669     3.33409572
O      3.80818894     8.87608229     6.51346675
O      3.82876826     8.83995473     1.76196664
O      3.82644129     6.66468497     4.97196291
O      5.74784581     7.77731789     8.11469598
O      1.91597208     0.78656779     8.58479645
O      1.44235303     2.10317950     8.86003567
Ce     1.91568694     1.10834185     0.98097142
Ce     0.00929478     2.21403119     4.16264874
Ce    11.40670799     0.01473951     7.30557624
Ce     5.74184959     1.10834185     0.98097142
Ce     3.78366464     2.25256551     4.17435632
Ce     3.88638578     0.01320155     7.36113787
Ce     9.56800076     1.10834185     0.98097142
Ce     7.64109777     2.21743288     4.15291650
Ce     7.65984602     0.02176916     7.34052333
Ce     0.00261135     4.42188597     0.98097142
Ce    -1.89992133     5.52932664     4.16545803
Ce    -1.87565997     3.29088017     7.31528803
Ce     3.82877400     4.42188597     0.98097142
Ce     1.92801512     5.48732771     4.16033709
Ce     7.65492518     4.42188597     0.98097142
Ce     5.73985604     5.53215920     4.16359357
Ce     5.76444497     3.32770172     7.37683612
Ce    -1.91046998     7.73544003     0.98097142
Ce    -3.81904432     8.85292351     4.16811160
Ce    -3.79362081     6.64834370     7.35151972
Ce     1.91569268     7.73544003     0.98097142
Ce     0.02108255     8.85787780     4.15725821
Ce     0.04692049     6.61198757     7.34371710
Ce     5.74184385     7.73544003     0.98097142
Ce     3.82634446     8.83967766     4.12077513
Ce     3.86120579     6.70228719     7.32655678
Pd     1.88794282     3.56791041     7.58016497
C      3.41069483     4.61590414     9.80735490
C      2.74002790     3.26474354     9.89553732
C      2.75250330     2.45636054    10.94133233
H      2.61623394     5.39403601     9.79811769
H      3.91947989     4.70449313    10.79437452
H      2.18936829     1.52704205    11.00736799
H      3.36625899     2.73850210    11.80595179
