81
CIF: Pd-CeO2.cif | data_image0
O      0.00261284     0.00382715     0.19994632
O      1.91673512     1.02129800     3.32432449
O      0.24483608     2.35196101     6.52674607
O      0.00261284     2.21285656     1.76195957
O     -0.01606885     0.03615517     5.01738259
O      1.91641726     1.26538932     8.17430809
O      3.82876402     0.00382715     0.19994632
O      5.75579580     1.10022200     3.34431030
O      3.58427512     2.35381458     6.52528678
O      3.82876402     2.21285656     1.76195957
O      3.84635251     0.03548423     5.01803900
O      5.66753238     1.15187000     8.09489547
O      7.65492667     0.00382715     0.19994632
O      9.55401907     1.10112074     3.34355440
O      7.65487092     2.20079704     6.55607269
O      7.65492667     2.21285656     1.76195957
O      7.65578487     0.00359703     4.99328977
O      9.64060419     1.14921480     8.09510614
O     -1.91046274     3.31737126     0.19994632
O     -0.07388523     4.46572727     3.32417497
O     -1.86456002     5.50068286     6.57086242
O     -1.91046848     5.52641062     1.76195957
O     -1.89135923     3.28521367     5.01864147
O      0.13986114     4.34384717     8.17494442
O      1.91568843     3.31737126     0.19994632
O      3.90429991     4.46413741     3.32415571
O      1.91648222     5.24617933     6.52651978
O      1.91568269     5.52641062     1.76195957
O      1.91480397     3.31721988     4.55710055
O      3.69371176     4.34375191     8.17471058
O      5.74185108     3.31737126     0.19994632
O      7.65521449     4.42563221     3.37408835
O      5.69771712     5.50211854     6.57098639
O      5.74184534     5.52641062     1.76195957
O      5.72294059     3.28654004     5.01805059
O      7.65538478     4.43341111     8.15069531
O     -3.82354407     6.63092532     0.19994632
O     -1.91363018     7.73329316     3.37413445
O     -3.82429691     8.89041754     6.57096455
O     -3.82354407     8.83995473     1.76195957
O     -3.82387550     6.63105690     5.03687894
O     -1.92008563     7.73016096     8.15083543
O      0.00260710     6.63092532     0.19994632
O      1.91520936     7.75081576     3.34361319
O      0.01352101     8.84626470     6.55578920
O      0.00260710     8.83995473     1.76195957
O      0.04033586     6.63045439     5.01795549
O      1.91724852     7.65259464     8.09569715
O      3.82876976     6.63092532     0.19994632
O      5.74540836     7.73329377     3.37385838
O      3.81822717     8.84623652     6.55538893
O      3.82876976     8.83995473     1.76195957
O      3.79119275     6.63095539     5.01715353
O      5.75193420     7.72978021     8.15161919
Ce     1.91568843     1.10834185     0.98096435
Ce     0.03011074     2.22862184     4.13157929
Ce     0.03606284     0.04901264     7.35086538
Ce     5.74185108     1.10834185     0.98096435
Ce     3.80095488     2.22881446     4.13194062
Ce     3.79447307     0.04968608     7.35092277
Ce     9.56800226     1.10834185     0.98096435
Ce     7.65490773     2.21136449     4.16828680
Ce     7.65508039     0.00380538     7.30137859
Ce     0.00261284     4.42188597     0.98096435
Ce    -1.90764320     5.52468559     4.17214341
Ce    -1.85382566     3.32368916     7.35077866
Ce     3.82877550     4.42188597     0.98096435
Ce     1.91569902     5.49426792     4.13163966
Ce     7.65492667     4.42188597     0.98096435
Ce     5.73891658     5.52479180     4.17198958
Ce     5.68548630     3.32440543     7.35100617
Ce    -1.91046848     7.73544003     0.98096435
Ce    -3.82360212     8.84316975     4.17208150
Ce    -3.82327737     6.63114619     7.39227983
Ce     1.91569417     7.73544003     0.98096435
Ce     0.00390561     8.84053345     4.16828789
Ce     0.02579045     6.57884620     7.35094339
Ce     5.74184534     7.73544003     0.98096435
Ce     3.82725112     8.84063145     4.16803608
Ce     3.80673338     6.57948384     7.35095910
Pd     1.91581229     3.31769400     7.40955355
