84
CIF: Mo-Fe-CeO2-Ov-CO2.cif | data_image0
Ce     1.93038582     1.11050507     0.88387043
Ce    -0.02337203     2.23107057     4.02208272
Ce    11.60564217     0.00515949     7.21850274
Ce     5.81181033     1.12175166     0.90127712
Ce     3.83338901     2.20372864     3.98875124
Ce    -1.98896317     9.99771898     7.30551183
Ce     9.66901012     1.12377363     0.90450652
Ce     7.72775117     2.24454196     4.05960970
Ce     2.03369762     9.94578119     7.29845995
Ce    -0.00709724     4.47602159     0.89067279
Ce    -1.95469333     5.58235617     4.10860801
Ce    -1.79140655     3.32372529     7.30771942
Ce     3.86254305     4.47635356     0.87798423
Ce     1.94188065     5.58415134     4.05900571
Ce     1.81632798     3.30301758     7.19436194
Ce     7.74213807     4.46545905     0.90125422
Ce     5.81575633     5.63786174     3.98876097
Ce    -1.94645625     7.83004003     0.90010904
Ce    -3.87121315     8.94153049     4.06521727
Ce    -3.84564867     6.78581562     7.30555312
Ce     1.92815559     7.82745473     0.89060408
Ce    -0.00492684     8.95894104     4.10727507
Ce    -0.00969165     6.70983183     7.25270202
Ce     5.81127600     7.83258510     0.88371011
Ce     3.86419385     8.96218581     4.02137782
Ce     3.85528283     6.83383539     7.19497079
Fe     4.98071560     3.83088679     6.49502208
Mo     6.57765416     2.89587338     8.20334222
O     11.61334069     0.00154917     0.10141687
O      1.92270704     1.11407353     3.20775071
O      0.03720940     2.23641049     6.33249922
O     -0.00785227     2.23805103     1.69392277
O      5.80751066    10.05894421     4.82469467
O      1.84195720     1.22942877     8.03332554
O     -1.93899312    10.05733740     0.10496691
O      5.79667865     1.14418423     3.24631935
O      4.00151713     2.33735543     6.49886324
O      3.86763657     2.23577757     1.68132582
O      3.84567784     0.04412268     4.84668221
O      6.21113246     1.27402113     8.82216756
O      7.73821774     0.00761509     0.10924988
O      9.66927969     1.12306297     3.21875908
O      7.49229903     2.37189545     6.64617451
O      7.74357843     2.23531483     1.71563532
O      7.75640317     0.08725688     4.85476354
O      9.83796843     1.02335199     8.03899948
O      9.67032270     3.35425987     0.10911246
O     -0.00876006     4.47440791     3.26403875
O     -1.95359489     5.56278277     6.44229788
O     -1.94403436     5.59119430     1.70564938
O      9.60541230     3.29719959     4.85642889
O      0.14120699     4.49450990     8.06073370
O      1.92738314     3.35244915     0.09928684
O      3.85648640     4.47952327     3.20627494
O      2.04858249     5.52093419     6.40853492
O      1.92862022     5.59252216     1.67404250
O      1.96011164     3.31501907     4.84089589
O      3.98464042     4.40462758     8.16796914
O      5.81155478     3.35101064     0.10766953
O      7.71429434     4.46749229     3.24576460
O      5.78318445     5.42636678     6.49794379
O      5.80528807     5.59217007     1.68114259
O      5.72697397     3.40037312     4.85748604
O      7.80382111     4.00901231     8.83853402
O     -3.87155109     6.71022987     0.10512724
O     -1.93150413     7.82180035     3.28108429
O     -3.88753862     8.95214709     6.44393151
O     -3.87509971     8.94378428     1.69355631
O      7.69278798     6.70811961     4.84554359
O     -1.80556018     7.74850269     8.13143915
O     -0.01209783     6.71325780     0.10434852
O      1.92777830     7.82823079     3.26317931
O      0.01288707     8.96623834     6.44087508
O     -0.00628994     8.94736548     1.70514550
O      0.01607116     6.69530117     4.90452404
O      1.98541112     7.68698385     8.05722145
O      3.86815347     6.71410280     0.09951587
O      5.80391291     7.83724101     3.20750175
O      3.89114409     8.90677065     6.33389779
O      3.86556896     8.94715423     1.69389986
O      3.91535185     6.70344390     4.84080519
O      5.66556502     7.85028724     8.03461417
O      4.66488558     3.98768523    10.30208919
C      4.83326588     3.90139050     9.10330773
