84
CIF: CO+Olatt—CO2.cif | data_image0
Ce     1.93038582     1.11050507     0.88387043
Ce    -0.00366934     2.23147486     4.02006376
Ce    -5.77924757    10.04358523     7.20742490
Ce     5.81181033     1.12175166     0.90127712
Ce     3.83585736     2.20519643     4.00235694
Ce    -1.88418720    10.04124995     7.31523204
Ce     9.66901012     1.12377363     0.90450652
Ce     7.74983792     2.23226495     4.07843923
Ce     2.01371834    10.02083085     7.21365663
Ce    -0.00709724     4.47602159     0.89067279
Ce    -1.94187854     5.58356848     4.07935081
Ce    -1.86362144     3.30457806     7.21296813
Ce     3.86254305     4.47635356     0.87798423
Ce     1.94183592     5.58498386     4.05871880
Ce     1.83596745     3.29824990     7.22288644
Ce     7.74213807     4.46545905     0.90125422
Ce     5.81600737     5.63555224     4.00249740
Ce    -1.94645625     7.83004003     0.90010904
Ce    -3.85634168     8.93286299     4.10127156
Ce    -3.83007562     6.67216063     7.31482635
Ce     1.92815559     7.82745473     0.89060408
Ce     0.00170678     8.94939291     4.07878979
Ce     0.00764237     6.70138802     7.23718320
Ce     5.81127600     7.83258510     0.88371011
Ce     3.87370543     8.94733733     4.02053180
Ce     3.87004715     6.82117927     7.22308522
Fe     5.03491624     3.80005145     6.56515316
Co     6.68166981     2.84849512     7.94393244
O     11.61334069     0.00154917     0.10141687
O      1.93286640     1.11384815     3.22271661
O      0.00050744     2.23042332     6.35517860
O     -0.00785227     2.23805103     1.69392277
O     -5.79990247    10.05502794     4.83808255
O      1.85087928     1.22552929     8.03027195
O     -1.93899312    10.05733740     0.10496691
O      5.80889498     1.15335503     3.25396833
O      3.91541113     2.36902686     6.40952739
O      3.86763657     2.23577757     1.68132582
O      3.87790199     0.03067021     4.85236514
O      6.06750539     1.13916271     8.17875987
O      7.73821774     0.00761509     0.10924988
O      9.67586282     1.12041321     3.22918750
O      7.79901698     2.20293822     6.48754603
O      7.74357843     2.23531483     1.71563532
O      7.76352007     0.03003669     4.83515793
O      9.77105265     1.06558341     8.00941992
O      9.67032270     3.35425987     0.10911246
O      0.00202026     4.47691927     3.24021112
O     -1.88777150     5.50579721     6.40748411
O     -1.94403436     5.59119430     1.70564938
O      9.66381806     3.32109150     4.83570592
O      0.03823841     4.41095939     8.03887014
O      1.92738314     3.35244915     0.09928684
O      3.86595388     4.47447218     3.22251825
O      2.02630481     5.53711466     6.47984825
O      1.92862022     5.59252216     1.67404250
O      1.92520070     3.34101054     4.84762299
O      4.12146314     4.32708246     8.10616332
O      5.81155478     3.35101064     0.10766953
O      7.71355248     4.45293644     3.25410942
O      5.71529598     5.48401861     6.41142519
O      5.80528807     5.59217007     1.68114259
O      5.74315503     3.39115398     4.91091638
O      7.85365514     4.23622900     8.17629609
O     -3.87155109     6.71022987     0.10512724
O     -1.92963400     7.82035863     3.27199712
O     -3.88519171     8.94951834     6.44825543
O     -3.87509971     8.94378428     1.69355631
O      7.71989138     6.68595093     4.85349322
O     -1.75473217     7.71910448     8.08202788
O     -0.01209783     6.71325780     0.10434852
O      1.93159532     7.81891838     3.24065864
O      0.09590842     8.94002689     6.40678402
O     -0.00628994     8.94736548     1.70514550
O      0.02696643     6.68979095     4.88360183
O      2.00795209     7.82112455     8.04021759
O      3.86815347     6.71410280     0.09951587
O      5.80990308     7.82884669     3.22236687
O      3.87605189     8.94466667     6.35555258
O      3.86556896     8.94715423     1.69389986
O      3.87820161     6.72183500     4.84798065
O      5.67377680     7.84376056     8.02855965
O      5.17834698     3.72591232    10.27598950
C      5.42201422     3.57960471     9.13733306
