81
CIF: O2 — 2Olat.cif | data_image0
O      0.56379216     0.39899056     0.54691638
O      2.47010999     1.56657125     3.69516547
O      0.60262726     2.79636273     6.87823420
O      0.51766946     2.59511248     2.15843275
O      0.58898227     0.46050378     5.35526445
O      4.35579921     0.39332171     0.53232022
O      6.30346087     1.52388967     3.67398516
O      2.81738578     1.99555373     8.10196273
O      4.39149072     2.60232994     2.10119732
O      4.40595324     0.61673723     5.47674234
O      6.24726940     1.56378704     8.38238886
O      8.21448213     0.41845198     0.52435627
O     10.10595963     1.52941183     3.74681555
O      8.23720087     2.68357300     6.91141401
O      8.20348419     2.63144664     2.16718767
O      8.19170683     0.42908799     5.37133831
O     10.06708730     1.63023280     8.58934391
O     -1.37091552     3.76857703     0.56359188
O      0.62911801     4.79613703     3.74921888
O     -1.35405716     5.87327175     7.02713484
O     -1.38473867     5.95998092     2.26141429
O     -1.36270155     3.73535233     5.34815022
O      0.89684065     4.59045837     8.66601921
O      2.44244383     3.71478798     0.54536294
O      4.36278507     4.83214806     3.67588050
O      2.37899332     5.81649881     6.87786175
O      2.46580005     5.95535580     2.08856466
O      2.62476467     3.63796856     5.55618710
O      6.30447680     3.75536695     0.53118038
O      8.13721056     4.80750959     3.79867452
O      6.37612856     5.86402670     6.96707881
O      6.30357940     5.96152058     2.19375888
O      6.13007897     3.61327432     5.50109096
O      8.20792443     4.78020870     8.69868461
O     -3.26040385     7.06415138     0.58265823
O     -1.35280343     8.21892074     3.80534056
O     -3.17792380     9.25482786     6.94092124
O     -3.27171001     9.26690178     2.25990896
O     -3.25147895     7.04279480     5.40368589
O     -1.43041659     8.23136408     8.71348459
O      0.50588622     7.04673277     0.56577745
O      2.46711806     8.15295411     3.72193748
O      0.53547878     9.24302846     6.91093322
O      0.54242689     9.26987434     2.15550791
O      0.54879011     7.04034551     5.32508297
O      2.50632012     8.32630066     8.64690796
O      4.40415607     7.06568272     0.54511262
O      6.30261170     8.13911457     3.79693358
O      4.39846325     9.30165206     6.89739286
O      4.39296527     9.26636788     2.19930048
O      4.37684587     7.02244238     5.36431359
O      6.44158989     8.09456421     8.63642876
O      4.17330899     4.44233081     8.05184596
O      4.03633824     3.17861015     9.76134233
Ce     2.44289992     1.51078433     1.33838200
Ce     0.55004496     2.62062992     4.54650941
Ce     0.58167586     0.45463077     7.79242875
Ce     6.30165689     1.51128886     1.30945553
Ce     4.39330209     2.62853709     4.39093562
Ce     4.43336803     0.30032172     7.79614859
Ce    10.11292619     1.51982761     1.37310293
Ce     8.19464766     2.62091993     4.56075854
Ce     8.24166737     0.40482006     7.73882379
Ce     0.52859550     4.83239745     1.35822504
Ce    -1.35129140     5.95105450     4.62577540
Ce    -1.36072936     3.70703951     7.77170158
Ce     4.39671618     4.85598922     1.30663330
Ce     2.47123387     5.96191257     4.55384293
Ce     8.19572745     4.85683397     1.40090048
Ce     6.28284092     5.93539151     4.61864595
Ce     6.40888223     3.75026432     7.84204112
Ce    -1.36600806     8.16075419     1.40001763
Ce    -3.26361332     9.27730645     4.61000568
Ce    -3.26543361     7.05909042     7.83063931
Ce     2.46282158     8.16658884     1.35400791
Ce     0.56040273     9.25625134     4.57559858
Ce     0.59856666     7.05403473     7.89148819
Ce     6.29915114     8.15311991     1.41568901
Ce     4.39479379     9.25759083     4.58187501
Ce     4.39200191     7.07687780     7.80053003
Ta     2.28697957     3.85901632     7.57164872
