82
CIF: Ni-Cu-CeO2.cif | data_image0
Ce     1.93038582     1.11050507     0.88387043
Ce     0.00269326     2.23341035     4.03450961
Ce    -5.77123733    10.03795117     7.21457502
Ce     5.81181033     1.12175166     0.90127712
Ce     3.86632229     2.23390474     4.02583977
Ce     3.87455980     0.01200970     7.21342902
Ce     9.66901012     1.12377363     0.90450652
Ce     7.73373485     2.24083995     4.08794309
Ce     2.01040529    10.00449319     7.21520186
Ce    -0.00709724     4.47602159     0.89067279
Ce    -1.94645667     5.58772261     4.05767694
Ce    -1.85186518     3.31516966     7.21536728
Ce     3.86254305     4.47635356     0.87798423
Ce     1.92676872     5.59353151     4.03353497
Ce     1.91446901     3.35964133     7.19049689
Ce     7.74213807     4.46545905     0.90125422
Ce     5.80614370     5.59383805     4.02578885
Ce    -1.94645625     7.83004003     0.90010904
Ce    -3.87158540     8.94138216     4.05189525
Ce     7.73426757     6.69766162     7.21336508
Ce     1.92815559     7.82745473     0.89060408
Ce    -0.00475509     8.95069696     4.05753723
Ce    -0.01421126     6.71392782     7.20144144
Ce     5.81127600     7.83258510     0.88371011
Ce     3.87479904     8.93995202     4.03450991
Ce     3.85518168     6.72093691     7.19050346
Cu     4.97724471     3.83235983     6.58267650
Ni     6.86166073     2.74377991     7.99881848
O     11.61334069     0.00154917     0.10141687
O      1.93497871     1.11329558     3.22713931
O      0.03287337     2.22046532     6.39097080
O     -0.00785227     2.23805103     1.69392277
O     -5.79135482    10.04960669     4.85671575
O      1.97169156     1.09166347     7.99010214
O     -1.93899312    10.05733740     0.10496691
O      5.80401351     1.11689956     3.25026276
O      3.87695304     2.23753160     6.41217140
O      3.86763657     2.23577757     1.68132582
O      3.86438113     0.00720079     4.87471330
O      6.02603092     1.12162957     8.15701087
O      7.73821774     0.00761509     0.10924988
O      9.67958237     1.11753475     3.25160810
O      7.87595405     2.15825954     6.41382907
O      7.74357843     2.23531483     1.71563532
O      1.93927908    10.03354435     4.85351378
O      9.79324689     1.05167999     8.02927949
O      9.67032270     3.35425987     0.10911246
O     -0.00115939     4.48134608     3.23428046
O     -1.97355329     5.57373384     6.44529226
O     -1.94403436     5.59119430     1.70564938
O     -1.91241061     3.36264436     4.85366347
O      0.02678098     4.46827394     7.99782096
O      1.92738314     3.35244915     0.09928684
O      3.85519717     4.48037147     3.21176215
O      1.88391284     5.61818956     6.35528348
O      1.92862022     5.59252216     1.67404250
O      1.93731691     3.35477906     4.84307624
O      3.74950372     4.54116238     7.93803040
O      5.81155478     3.35101064     0.10766953
O      7.74220696     4.47417741     3.25014381
O      5.80833707     5.58263748     6.41221117
O      5.80528807     5.59217007     1.68114259
O      5.78178473     3.36793173     4.81940258
O      7.84856382     4.27786497     8.15729410
O     -3.87155109     6.71022987     0.10512724
O     -1.94822952     7.83097928     3.24440018
O     -3.83746971     8.92144078     6.41769998
O     -3.87509971     8.94378428     1.69355631
O      7.73350108     6.70883344     4.87462162
O     -1.93461227     7.82283504     8.00291424
O     -0.01209783     6.71325780     0.10434852
O      1.92606843     7.81929152     3.23415202
O     -0.00621095     8.98070391     6.44500261
O     -0.00628994     8.94736548     1.70514550
O     -0.04021231     6.72902125     4.86879678
O      1.95123651     7.80134563     7.99782676
O      3.86815347     6.71410280     0.09951587
O      5.81104841     7.82683050     3.22694651
O      3.90101214     8.92001967     6.39096350
O      3.86556896     8.94715423     1.69389986
O      3.87091285     6.70379534     4.84306285
O      5.84795925     7.80549905     7.99023581
