85
CIF: Ni-Cu-CeO2-O-CO.cif | data_image0
Ce     1.93038582     1.11050507     0.88387043
Ce    -0.00229986     2.22965310     4.03744213
Ce    -5.75977252    10.03232652     7.21090376
Ce     5.81181033     1.12175166     0.90127712
Ce     3.86321548     2.23597448     4.02358506
Ce     3.90082839     0.01371840     7.20212240
Ce     9.66901012     1.12377363     0.90450652
Ce     7.71791984     2.25063992     4.08769381
Ce     2.00443321     9.99334498     7.23281987
Ce    -0.00709724     4.47602159     0.89067279
Ce    -1.94279236     5.58473748     4.05585212
Ce    -1.84387439     3.32790734     7.23279586
Ce     3.86254305     4.47635356     0.87798423
Ce     1.92749578     5.59377330     4.03371427
Ce     1.92120239     3.35690073     7.18688258
Ce     7.74213807     4.46545905     0.90125422
Ce     5.80329024     5.59630271     4.02358855
Ce    -1.94645625     7.83004003     0.90010904
Ce    -3.86887873     8.94033969     4.05210895
Ce     7.74692779     6.67524683     7.20209751
Ce     1.92815559     7.82745473     0.89060408
Ce     0.00018323     8.95006779     4.05576195
Ce    -0.00774332     6.71145965     7.19461453
Ce     5.81127600     7.83258510     0.88371011
Ce     3.87602958     8.94710715     4.03748351
Ce     3.86181692     6.71811345     7.18685368
Cu     4.99288188     3.82420105     6.58475333
Ni     6.87606169     2.73669891     8.03211286
O     11.61334069     0.00154917     0.10141687
O      1.93288001     1.11191137     3.22819747
O      0.04337645     2.22420828     6.38951240
O     -0.00785227     2.23805103     1.69392277
O     -5.79404384    10.05183429     4.85560656
O      1.98206594     1.09223809     7.99253631
O     -1.93899312    10.05733740     0.10496691
O      5.80868907     1.11835534     3.24661924
O      3.88112063     2.24237078     6.40872315
O      3.86763657     2.23577757     1.68132582
O      3.87432582     0.01164490     4.86856273
O      6.02842322     1.05458592     8.10281084
O      7.73821774     0.00761509     0.10924988
O      9.67648121     1.11975027     3.24606683
O      7.76356642     2.22473371     6.53393659
O      7.74357843     2.23531483     1.71563532
O      7.75881011     0.02278533     4.87692187
O      9.79722972     1.05065836     8.01281528
O      9.67032270     3.35425987     0.10911246
O     -0.01183454     4.47061009     3.23959742
O     -1.93480578     5.58254266     6.41802698
O     -1.94403436     5.59119430     1.70564938
O      9.66779547     3.32927491     4.87683837
O      0.03534371     4.46801778     8.01316780
O      1.92738314     3.35244915     0.09928684
O      3.85444358     4.48125290     3.20840362
O      1.89047455     5.61539788     6.35173440
O      1.92862022     5.59252216     1.67404250
O      1.93859507     3.35487423     4.83699216
O      5.81155478     3.35101064     0.10766953
O      7.74365783     4.47003747     3.24654331
O      5.80693078     5.57785787     6.40864994
O      5.80528807     5.59217007     1.68114259
O      5.78176517     3.36848684     4.80375990
O      7.90925183     4.31242558     8.10322315
O     -3.87155109     6.71022987     0.10512724
O     -1.94741568     7.83090025     3.24675149
O     -3.83276914     8.91965481     6.40611358
O     -3.87509971     8.94378428     1.69355631
O      7.73519511     6.69889701     4.86852016
O     -1.92542325     7.81849939     8.00134157
O     -0.01209783     6.71325780     0.10434852
O      1.93043756     7.83470601     3.23942797
O      0.00622773     8.94463190     6.41809712
O     -0.00628994     8.94736548     1.70514550
O     -0.02705645     6.72241338     4.84432319
O      1.95664341     7.79573723     8.01317754
O      3.86815347     6.71410280     0.09951587
O      5.81157294     7.82996785     3.22800015
O      3.90378607     8.91068891     6.38961160
O      3.86556896     8.94715423     1.69389986
O      3.87209350     6.70383793     4.83697703
O      5.85349872     7.79755258     7.99258563
O      3.75200409     4.54071871     7.94755986
O      5.97231959     3.25868981     9.77446903
O      5.98819364     3.27424524    12.12336138
C      5.99600081     3.25808434    10.95173631
