     8
 Tv_1:  11.598200   0.000000   0.000000 Tv_2:  -5.799100  10.044336   0.000000 Tv_3:   0.000000   0.000000  22.891600
O      -0.18618611      4.31378301     10.69916250
O       2.15210496      7.86656424     10.35421832
O       4.48599760      4.31532910     10.69806430
O       2.14977765      3.32103380      8.87737893
O       0.31113307      6.75480800      8.86670181
O       3.99059895      6.75346099      8.86727640
O       2.14958505      5.70957548      7.34663352
Cu      2.15104068      6.61253228      8.98738642
