     8
 Tv_1:  11.598200   0.000000   0.000000 Tv_2:  -5.799100  10.044336   0.000000 Tv_3:   0.000000   0.000000  22.891600
O      -0.34657878      4.24032858     10.80048068
O       2.14501644      7.56290873     10.14130039
O       4.63672086      4.24047248     10.79977749
O       2.14513666      4.16669058      9.05256750
O       0.29370625      6.52506008      8.82241257
O       3.99618755      6.52623027      8.82217828
O       2.14542609      5.81500895      7.19941554
Mn      2.14495048      6.04280459      9.03642349
