    40
 Tv_1:   9.088628   0.000000   0.000000 Tv_2:   0.000000   9.088628   0.000000 Tv_3:   0.000000   0.000000   9.088628
Ru      6.81647100      4.54431400      0.00000000
Ru      4.54431400      4.54431400      4.54431400
Ru      4.54431400      0.00000000      2.27215700
Ru      9.08862800      2.27215700      4.54431400
Ru      0.00000000      0.00000000      0.00000000
Ru      2.27215700      4.54431400      0.00000000
Ru      4.54431400      9.08862800      6.81647100
Ru      9.08862800      6.81647100      4.54431400
O       5.54874372      8.11292743      5.82805544
O       0.97570057      3.26057256      5.54874372
O       3.56861343      8.08419828      7.80488656
O       5.53405650      3.55457150      5.53405650
O       8.09888550      0.98974250      0.98974250
O       5.54874372      0.97570057      3.26057256
O       5.52001457      1.00442972      7.80488656
O       1.00442972      7.80488656      5.52001457
O       0.98974250      0.98974250      8.09888550
O       1.28374144      5.52001457      8.08419828
O       8.11292743      3.26057256      3.53988428
O       1.28374144      3.56861343      1.00442972
O       0.98974250      8.09888550      0.98974250
O       3.26057256      5.54874372      0.97570057
O       3.53988428      8.11292743      3.26057256
O       0.97570057      5.82805544      3.53988428
O       3.55457150      5.53405650      5.53405650
O       8.08419828      7.80488656      3.56861343
O       5.82805544      5.54874372      8.11292743
O       3.26057256      3.53988428      8.11292743
O       7.80488656      3.56861343      8.08419828
O       5.52001457      8.08419828      1.28374144
O       3.55457150      3.55457150      3.55457150
O       5.53405650      5.53405650      3.55457150
O       5.82805544      3.53988428      0.97570057
O       8.08419828      1.28374144      5.52001457
O       1.00442972      1.28374144      3.56861343
O       3.53988428      0.97570057      5.82805544
O       7.80488656      5.52001457      1.00442972
O       8.11292743      5.82805544      5.54874372
O       3.56861343      1.00442972      1.28374144
O       8.09888550      8.09888550      8.09888550
