     8
 Tv_1:  11.598200   0.000000   0.000000 Tv_2:  -5.799100  10.044336   0.000000 Tv_3:   0.000000   0.000000  22.891600
O       0.43209738      4.67993506     10.33693625
O       2.14714975      7.65056458     10.33682341
O       3.86400162      4.67933872     10.33565714
O       2.14763902      3.40563953      8.77189832
O       0.18758181      6.80137767      8.77136770
O       4.10839699      6.80226796      8.77180458
O       2.14731895      5.67028128      7.37505729
Zr      2.14792948      5.66979474      9.49099726
