86
CIF: 2-NH2+H+NO-NH2NO+H_ts.cif | data_image0
Ce    -4.63442543     9.29692795     8.17041587
Ce     3.09970671     0.35360164     4.98112248
Ce     1.19526581     1.50793071     1.85426733
Ce    -0.78014294     9.32238762     8.18053338
Ce     6.98090472     0.37704383     5.06470800
Ce     5.05821623     1.48076985     1.91060994
Ce     3.15248297     9.36873660     8.16679886
Ce    10.87268048     0.37390245     4.98251969
Ce     8.92964618     1.48459249     1.88930968
Ce    -0.74963099     2.51985890     8.19409659
Ce     1.17721226     3.73368744     5.13752712
Ce    -0.74567627     4.83654441     1.91198415
Ce     3.06165182     2.42608925     8.17876698
Ce     5.03698579     3.73673756     5.10263919
Ce     3.11036274     4.84449148     1.96603641
Ce     6.97170763     2.63227952     8.28147236
Ce     8.92458821     3.74008573     5.07018509
Ce     6.99671899     4.83915990     1.91083897
Ce    -2.71858355     5.97915250     8.20309547
Ce    -0.76112982     7.07477135     5.01556786
Ce    -2.70851414     8.20348510     1.80937647
Ce     3.12486696     7.08194271     5.04857884
Ce     1.18922559     8.18829514     1.91221318
Ce     5.16312206     6.05171244     8.18612489
Ce     6.99883029     7.09853531     4.98500568
Ce     5.04265105     8.17139505     1.85472540
Cr     1.21735728     6.66377788     7.85624732
O     -4.62972848     9.31105675     5.78023167
O      1.16143918     1.36161760     9.04966005
O      3.10112818     0.38055383     2.65566078
O      1.17277468     1.50176468     4.21443931
O     -4.60822014     9.30007968     1.06409659
O      3.06765111     0.32521583     7.34061182
O     -0.78430463     9.26579900     5.85897574
O      4.92349128     1.35743195     8.99146947
O      6.99393120     0.31577015     2.70352909
O      5.05687995     1.46498025     4.23509141
O     -0.75740823     9.32814590     1.11356815
O      6.99147154     0.36385467     7.35385542
O      3.13428881     9.29504715     5.84150264
O      9.04280326     1.40339729     8.99989047
O     10.87372453     0.36224540     2.61993132
O      8.91344524     1.49124433     4.22398143
O      3.11994578     9.27885397     1.11562947
O     10.89327454     0.36028262     7.32591235
O     -0.75576512     2.59860545     5.83066120
O     -1.29119072     4.51899937     9.52532341
O      1.18986446     3.73964805     2.71795830
O     -0.72250487     4.86857239     4.27546763
O     -0.72488399     2.61901108     1.11562947
O      1.18794479     3.57816970     7.49989666
O      3.12071659     2.56314356     5.83630632
O      5.00002107     3.75322848     2.77086538
O      3.08222775     4.85796334     4.32281860
O      3.13080655     2.60402231     1.12799736
O      4.83906711     3.83323503     7.53123915
O      6.94346927     2.66373376     5.86028192
O      7.00147295     5.01998009     8.99640436
O      8.97349582     3.74568379     2.70169681
O      7.00441646     4.85791110     4.23074844
O      7.00142339     2.59738299     1.15593962
O      9.01511872     3.78039031     7.38093131
O     -2.67799495     6.01127987     5.84711571
O     -2.68005723     8.16781617     8.96809209
O     -0.76617816     7.08274754     2.63733798
O     -2.68786328     8.19602429     4.17132944
O     -2.70653946     5.95275516     1.11333912
O     -0.64221123     6.97343398     7.49815051
O      1.18782890     6.02774837     5.96083269
O      1.19898761     8.26900037     8.88387791
O      3.10711032     7.06061647     2.71818733
O      1.17141708     8.17749869     4.25256469
O      1.19143260     5.95265457     1.11906499
O      3.06341669     7.02271312     7.46297305
O      5.07536995     5.99541563     5.84322091
O      5.07903129     8.23008617     8.96854539
O      6.97122231     7.08335111     2.65634788
O      5.04678177     8.20355425     4.19401496
O      5.06065554     5.94682001     1.12822639
O      7.00242756     7.12272383     7.34326028
O      3.42072109     3.85466134    10.43718088
N      1.45425490     5.75809537     9.43775930
N      3.60209402     4.98833246    10.00620713
H     -0.83476204     4.87573639    10.30605995
H      1.16060290     4.78035048     9.47310720
H      1.42747259     6.24130376    10.33770214
