86
CIF: 2-NH2+H+NO-NH2NO+H_is.cif | data_image0
Ce    -4.63040267     9.29567549     8.15918059
Ce     3.10249117     0.35058013     4.97362437
Ce     1.19526581     1.50793071     1.85426733
Ce    -0.77857068     9.32830806     8.17432945
Ce     6.98239210     0.37830845     5.06178835
Ce     5.05821623     1.48076985     1.91060994
Ce     3.16266032     9.39144868     8.16964653
Ce    10.87665588     0.37239226     4.98213064
Ce     8.92964618     1.48459249     1.88930968
Ce    -0.74054673     2.54418245     8.19194834
Ce     1.18178805     3.73783213     5.13855444
Ce    -0.74567627     4.83654441     1.91198415
Ce     3.06445091     2.41380623     8.16962046
Ce     5.03592593     3.73758255     5.10529748
Ce     3.11036274     4.84449148     1.96603641
Ce     6.97064014     2.62798725     8.27637049
Ce     8.92642187     3.73655257     5.06657057
Ce     6.99671899     4.83915990     1.91083897
Ce    -2.71454509     5.95739025     8.19838223
Ce    -0.75077183     7.07074533     5.00779922
Ce    -2.70851414     8.20348510     1.80937647
Ce     3.11834955     7.07478571     5.04573028
Ce     1.18922559     8.18829514     1.91221318
Ce     5.18011596     6.04194647     8.21268722
Ce     6.99572231     7.09604039     4.98823086
Ce     5.04265105     8.17139505     1.85472540
Cr     1.21362141     6.65652681     7.91162114
O     -4.63131622     9.30465979     5.78067090
O      1.17436511     1.35255794     9.03164383
O      3.10112818     0.38055383     2.65566078
O      1.17309273     1.49483583     4.20968099
O     -4.60822014     9.30007968     1.06409659
O      3.07298110     0.31823962     7.32673223
O     -0.77828123     9.26336043     5.85332949
O      4.92820737     1.34462032     8.98629683
O      6.99393120     0.31577015     2.70352909
O      5.05792919     1.46135767     4.23255053
O     -0.75740823     9.32814590     1.11356815
O      6.99863522     0.36459623     7.35214765
O      3.14047842     9.28329195     5.84994867
O      9.05043877     1.40940563     9.00402207
O     10.87372453     0.36224540     2.61993132
O      8.91933978     1.48744841     4.22614828
O      3.11994578     9.27885397     1.11562947
O     10.89631362     0.37064742     7.32086033
O     -0.73992855     2.60683344     5.83113267
O     -1.21106784     4.57613249     9.41621190
O      1.18986446     3.73964805     2.71795830
O     -0.72469309     4.86763480     4.26972963
O     -0.72488399     2.61901108     1.11562947
O      1.21268814     3.60211485     7.50931879
O      3.11812498     2.55993214     5.82504837
O      5.00002107     3.75322848     2.77086538
O      3.08586892     4.85658283     4.31699970
O      3.13080655     2.60402231     1.12799736
O      4.84299474     3.82321425     7.51867693
O      6.93904001     2.65685138     5.84444694
O      7.04455517     5.00446808     8.98326353
O      8.97349582     3.74568379     2.70169681
O      7.00620571     4.86401415     4.23689405
O      7.00142339     2.59738299     1.15593962
O      8.99049132     3.74923208     7.35815702
O     -2.66021154     6.01509978     5.85661483
O     -2.66063934     8.16155772     8.93321883
O     -0.76617816     7.08274754     2.63733798
O     -2.68748879     8.19170891     4.16951024
O     -2.70653946     5.95275516     1.11333912
O     -0.57809020     6.98498269     7.48837117
O      1.19117303     6.01386000     5.95132837
O      1.20603790     8.27234052     8.89371841
O      3.10711032     7.06061647     2.71818733
O      1.17486283     8.17781218     4.24966363
O      1.19143260     5.95265457     1.11906499
O      2.98913858     7.00948437     7.48342554
O      5.05908754     6.00443955     5.85494264
O      5.06768716     8.23611105     8.94645944
O      6.97122231     7.08335111     2.65634788
O      5.04692962     8.20125956     4.19201456
O      5.06065554     5.94682001     1.12822639
O      7.00117368     7.11463043     7.34557052
O      3.38419007     3.88146673    10.31586020
N      1.25453013     5.81115392     9.52062978
N      4.02735031     4.92081314    10.12785667
H     -0.39789656     5.09595771     9.65456068
H      1.57450042     4.84255781     9.57228088
H      1.46643643     6.34806540    10.36356408
