86
CIF: 5-NHNO+2H-N2O+3H_fs.cif | data_image0
Ce    -4.57669431     9.33769190     8.18613758
Ce     3.12614033     0.36734740     5.05711480
Ce     1.19526581     1.50793071     1.85426733
Ce    -0.74283056     9.35149689     8.35683083
Ce     7.00017871     0.34390298     5.08573301
Ce     5.05821623     1.48076985     1.91060994
Ce     3.16092514     9.37490313     8.27781296
Ce    10.87570762     0.37078229     5.03277005
Ce     8.92964618     1.48459249     1.88930968
Ce    -0.71163390     2.51567611     8.30011784
Ce     1.16938507     3.68448096     5.02035286
Ce    -0.74567627     4.83654441     1.91198415
Ce     3.23243118     2.58658452     8.27538349
Ce     5.04253158     3.73491918     5.07743437
Ce     3.11036274     4.84449148     1.96603641
Ce     7.02561876     2.59944681     8.23468879
Ce     8.95186007     3.73578007     5.11453525
Ce     6.99671899     4.83915990     1.91083897
Ce    -2.87543288     6.03086286     8.27040282
Ce    -0.82621803     7.11823586     4.94028630
Ce    -2.70851414     8.20348510     1.80937647
Ce     3.13962483     7.10380092     5.02558691
Ce     1.18922559     8.18829514     1.91221318
Ce     4.98774260     5.86051869     8.31581547
Ce     6.96790391     7.08690384     5.05533579
Ce     5.04265105     8.17139505     1.85472540
Cr     1.17697262     5.94914973     7.51892875
O     -4.61114300     9.31154603     5.82983335
O      1.34271732     1.45246369     8.99984474
O      3.10112818     0.38055383     2.65566078
O      1.18098988     1.47562817     4.20792878
O     -4.60822014     9.30007968     1.06409659
O      3.15289055     0.39934588     7.34466413
O     -0.75511044     9.18637418     5.87419987
O      5.11639742     1.59513939     9.05289829
O      6.99393120     0.31577015     2.70352909
O      5.05706835     1.46988420     4.28023883
O     -0.75740823     9.32814590     1.11356815
O      7.05397958     0.34996519     7.38642444
O      3.15920854     9.24891973     5.88576142
O      8.90351500     1.44389394     9.08273968
O     10.87372453     0.36224540     2.61993132
O      8.94860163     1.47224115     4.24463988
O      3.11994578     9.27885397     1.11562947
O     10.89433763     0.34364792     7.40788999
O     -0.69482848     2.60956676     5.85470074
O      0.43234053     4.19970480    10.32825910
O      1.18986446     3.73964805     2.71795830
O     -0.77419864     4.85118775     4.23714988
O     -0.72488399     2.61901108     1.11562947
O      1.14425429     4.16308471     7.53320801
O      3.03962182     2.64973429     5.89080918
O      5.00002107     3.75322848     2.77086538
O      3.09688089     4.85411318     4.27785902
O      3.13080655     2.60402231     1.12799736
O      5.09189564     3.70771261     7.33546766
O      7.04401300     2.60389279     5.86305489
O      6.85327169     4.79455192     9.08809426
O      8.97349582     3.74568379     2.70169681
O      6.99586663     4.86309555     4.27862510
O      7.00142339     2.59738299     1.15593962
O      8.97576132     3.76454181     7.48766878
O     -2.65402028     6.05279117     5.87003680
O     -2.81407692     8.28383789     9.05192395
O     -0.76617816     7.08274754     2.63733798
O     -2.71735268     8.20971022     4.17251111
O     -2.70653946     5.95275516     1.11333912
O     -0.35761961     6.73577620     7.82685386
O      1.11774922     5.99508142     5.70529706
O      1.33564075     8.76362805     9.63966538
O      3.10711032     7.06061647     2.71818733
O      1.18161288     8.19735841     4.22722972
O      1.19143260     5.95265457     1.11906499
O      2.69950489     6.89707654     7.53631609
O      4.96192517     6.00493900     5.90904769
O      4.88863217     8.13046252     8.98544360
O      6.97122231     7.08335111     2.65634788
O      5.05986367     8.20253531     4.21001450
O      5.06065554     5.94682001     1.12822639
O      6.88988686     7.08885400     7.39923994
O      3.42211725     4.57256913     9.26356740
N      2.13461838     6.89828070    12.61377515
N      2.76179970     6.29006617    13.31331708
H      0.55070569     3.89240385    11.24244784
H      1.35869957     4.36388880    10.00788126
H      1.41398831     8.20622333    10.43242876
