82
CIF: NO.cif | data_image0
Ce    -4.61618056     9.37857452     8.49865722
Ce     3.11524744     0.44441446     5.29027982
Ce     1.19933134     1.57190963     2.14101914
Ce    -0.82651548     9.47934946     8.48074056
Ce     6.99236008     0.42963738     5.36050867
Ce     5.06228176     1.54474877     2.19736175
Ce     3.22847464     9.34599794     8.43062585
Ce    10.87760968     0.41556769     5.24678941
Ce     8.93371171     1.54857141     2.17606150
Ce    -0.69073909     2.51736581     8.42786899
Ce     1.18197336     3.74449221     5.40874284
Ce    -0.74161074     4.90052333     2.19873596
Ce     3.08584680     2.58537389     8.54727254
Ce     5.05916639     3.78595832     5.40029093
Ce     3.11442827     4.90847039     2.25278822
Ce     7.02744118     2.65057631     8.59903332
Ce     8.93217881     3.79345440     5.36378172
Ce     7.00078452     4.90313882     2.19759079
Ce    -2.79904683     6.08419627     8.48231425
Ce    -0.79559328     7.16973675     5.23933770
Ce    -2.70444861     8.26746402     2.09612828
Ce     3.14709952     7.14226028     5.38676424
Ce     1.19329112     8.25227405     2.19896500
Ce     5.16742610     6.11319826     8.44773368
Ce     7.00081479     7.15669924     5.26052326
Ce     5.04671658     8.23537396     2.14147721
Cr     0.56347055     6.44388871     8.25045125
O     -4.60631693     9.36815539     6.05739172
O      1.05726182     1.39137129     9.38420674
O      3.10519371     0.44453274     2.94241259
O      1.17146857     1.56363079     4.49841488
O     -4.60415461     9.36405859     1.35084841
O      3.08970215     0.39238301     7.66356673
O     -0.77139277     9.40892663     6.10750353
O      5.06087658     1.37997544     9.37444159
O      6.99799673     0.37974906     2.99028091
O      5.09909633     1.54464966     4.51100300
O     -0.75334270     9.39212481     1.40031997
O      7.02259972     0.29607649     7.73247602
O      3.12898583     9.37620408     6.10581801
O      9.09410522     1.40727939     9.27670603
O     10.87779006     0.42622431     2.90668313
O      8.91190845     1.54571470     4.48471879
O      3.12401131     9.34283288     1.40238128
O     10.89944812     0.37472244     7.58483557
O     -0.81301543     2.61998509     6.08599642
O     -0.28238815     5.32894271     9.17947414
O      1.19392999     3.80362696     3.00471011
O     -0.70412973     4.94810138     4.57024395
O     -0.72081846     2.68299000     1.40238128
O      1.13626121     3.54998175     7.63789429
O      3.16776826     2.63255908     6.07117804
O      5.00408660     3.81720739     3.05761720
O      3.03094324     4.95956955     4.64901410
O      3.13487208     2.66800122     1.41474917
O      4.97136949     3.92375225     7.77265387
O      7.02107955     2.67771771     6.19305602
O      7.04888367     5.08972543     9.34373834
O      8.97756135     3.80966271     2.98844863
O      7.02298363     4.88536987     4.50581694
O      7.00548892     2.66136190     1.44269144
O      9.10299623     3.88556013     7.81985131
O     -2.72147135     6.03003559     6.11785423
O     -2.72488234     8.24804780     9.31616988
O     -0.76211263     7.14672645     2.92408979
O     -2.67697310     8.25536272     4.45195508
O     -2.70247393     6.01673408     1.40009093
O     -0.91053768     7.24387325     7.60746766
O      1.07325795     6.10869903     6.51167544
O      1.08367111     7.86908028     9.08338549
O      3.11117585     7.12459538     3.00493915
O      1.17268045     8.19109045     4.55944880
O      1.19549813     6.01663348     1.40581681
O      3.33273166     7.16087564     7.68481198
O      5.12631067     6.03138074     6.06979560
O      5.12219033     8.30552689     9.32846025
O      6.97528784     7.14733003     2.94309970
O      5.04140476     8.25833503     4.48547094
O      5.06472107     6.01079893     1.41497821
O      7.00521529     7.18131076     7.63276957
O      3.28811992     5.14131661    11.34574932
N      3.52486071     4.85279989    10.19801188
