86
CIF: 4-NHNO+2H-N2+H2O+H_fs.cif | data_image0
Ce     0.02650072     0.01964338     8.84617899
Ce     1.94879993     1.12071179     5.66347359
Ce     0.02625171     2.21350950     2.42135798
Ce     3.85123518     0.13259014     8.84987905
Ce     5.81906836     1.10117594     5.64444201
Ce     3.89198992     2.23906083     2.46968436
Ce     7.77077567     0.05803591     8.85172440
Ce     9.71303854     1.10578916     5.64800562
Ce     7.75372067     2.24197810     2.48251032
Ce     9.61957701     3.25491429     8.88760778
Ce     0.01882637     4.38361695     5.47541986
Ce    -1.93286910     5.57702993     2.43441297
Ce     1.97500128     3.37754483     8.92589616
Ce     3.86506253     4.48028132     5.64579172
Ce     1.97729954     5.57592338     2.41265465
Ce     5.82203923     3.35389850     8.80272940
Ce     7.77212791     4.48274058     5.66684246
Ce     5.82485902     5.58004781     2.47609734
Ce     7.74593701     6.67264148     8.92919528
Ce    -1.97694000     7.84701851     5.53811831
Ce    -3.85487744     8.94105335     2.44700990
Ce     2.02068719     7.86332885     5.46884410
Ce     0.01875952     8.95493556     2.42937420
Ce     4.00738780     6.67765464     8.84905674
Ce     5.84244135     7.82639281     5.66674654
Ce     3.90912322     8.94708909     2.42525157
V      0.03524122     6.70674150     8.01810943
O      0.00159819     0.00804297     6.42520044
O     -0.14865024     2.38813219     9.62173041
O      1.95633302     1.12868463     3.23924195
O      0.01052341     2.20113778     4.76424067
O     -5.79181207    10.05746529     1.63485180
O      1.98174555     1.17128180     7.98336682
O     -1.91607981    10.04502692     6.50673311
O      3.99975105     2.24139623     9.63104800
O      5.82816952     1.15353179     3.28619412
O      3.86175254     2.23165631     4.86478271
O      3.90958785     0.02364001     1.66256504
O      5.87094521     1.09566229     7.97106438
O      1.97067458     9.90610687     6.50038340
O      7.74063966     2.17627246     9.66441993
O      9.69297847     1.11751850     3.25046466
O      7.79905121     2.21124367     4.89670260
O      7.75122328     0.01649771     1.66256504
O      9.60321249     1.11712062     7.97934413
O     -1.76455340     3.38284785     6.51023487
O     -2.39606803     5.15672554    10.25111780
O      0.04750862     4.43325594     3.22275143
O     -1.90794155     5.49614683     4.74753685
O     -1.93443724     3.35557337     1.66691670
O     -0.00519723     5.02585628     8.37232745
O      1.83376526     3.43256297     6.43998594
O      3.89617160     4.45719773     3.28367474
O      1.96749219     5.60311694     4.74432846
O      1.97474406     3.35215311     1.63576794
O      3.90222387     4.52882179     7.95005800
O      5.81476633     3.34633016     6.43657698
O      5.76570518     5.50849165     9.64972493
O      7.72828207     4.45448165     3.28917158
O      5.79641894     5.60963206     4.86982583
O      5.82613676     3.35225371     1.66760381
O      7.79599790     4.37892027     7.99161514
O     -3.84844325     6.69354660     6.47239516
O     -3.62267237     9.00498938     9.60313074
O     -1.92903589     7.82373604     3.17282180
O     -3.92318297     8.98957212     4.77578338
O      7.74599617     6.67473106     1.66187793
O     -1.42684122     7.57204651     8.29728892
O      0.07348939     6.66813852     6.27478943
O      0.01373680     9.53652838    10.13642075
O      1.99181929     7.82725689     3.21175775
O      0.08806939     8.97334859     4.74220913
O      0.04007451     6.69022281     1.66920705
O      1.49685487     7.56046276     8.33788473
O      3.77982578     6.80254733     6.48663941
O      3.67502279     8.84117836     9.57374014
O      5.82445247     7.81739851     3.25138080
O      3.90791045     8.95537265     4.76805423
O      3.90285069     6.68811030     1.64676162
O      5.79638743     7.79110674     8.02741816
O      2.53171236     5.43845947    10.22059259
N      1.76627775     7.77913777    12.35858784
N      2.53936535     8.22551989    13.02964373
H     -1.83464312     5.37880981    11.01238219
H      0.00361684     8.77355687    10.73985759
H      1.89507345     5.91361565    10.78167332
