86
CIF: 5-NHNO+2H-N2O+3H_fs.cif | data_image0
Ce    11.59119519     0.01470291     8.82266974
Ce     1.96661081     1.08975858     5.65820348
Ce     0.02352199     2.22910185     2.43739043
Ce     3.91368387     0.03742379     8.98279162
Ce     5.81179029     1.08949486     5.71249886
Ce     3.90360572     2.23282389     2.47449410
Ce     7.78789396     0.14194756     8.96821868
Ce     9.69694747     1.11331574     5.66376701
Ce     7.74448611     2.23745129     2.46831015
Ce     9.67275223     3.24905416     8.97908138
Ce     0.00396721     4.38116301     5.48795761
Ce    -1.92833894     5.56978704     2.43235166
Ce     1.99080216     3.15141326     8.89033911
Ce     3.86161578     4.47910223     5.71560845
Ce     1.96475447     5.57049121     2.43876464
Ce     5.79656217     3.36029220     8.87259425
Ce     7.78522867     4.48425556     5.73148505
Ce     5.82689178     5.56465665     2.47311989
Ce     7.49772414     6.73305149     8.85693994
Ce    -1.95207019     7.84336464     5.55626998
Ce    -3.85139270     8.93944381     2.43464201
Ce     1.99942383     7.85659923     5.49251527
Ce     0.02183770     8.94658611     2.43441297
Ce     3.91572495     6.76113295     8.89798254
Ce     5.81088294     7.83504173     5.62174076
Ce     3.88461388     8.92938424     2.43120648
V      0.05807855     6.61715901     8.34813030
O     11.59487709     0.00676767     6.45234358
O      0.00366937     2.05132152     9.73469124
O      1.98037773     1.12808105     3.25985510
O      0.00790877     2.18676826     4.76010276
O      0.02723905     0.00050298     1.68042977
O      1.92470174     1.04554179     8.00425517
O     -1.88560936    10.01890282     6.53526122
O      4.00034631     2.27759701     9.73562280
O      5.82236162     1.14608770     3.28985868
O      3.86619144     2.22237050     4.89653130
O     -1.89523391    10.05776708     1.68340722
O      5.91864205     1.11028890     8.04334675
O      1.97879105     9.81295399     6.62224201
O      7.69899101     2.22646697     9.76851018
O      9.67764561     1.11751850     3.24267747
O      7.78547805     2.10961628     4.94121095
O      1.91997557    10.04810988     1.68363626
O      9.63959627     1.12637797     8.00500861
O     -1.69277265     3.38768272     6.57976543
O     -2.36767766     5.61497933    10.69609617
O      0.02189578     4.45045782     3.26351966
O     -1.82551089     5.54620275     4.77755424
O     -1.93949011     3.37478716     1.68432336
O      0.10502507     4.97460063     8.84578876
O      1.82359045     3.37645634     6.48612365
O      3.92288794     4.43587143     3.30222657
O      1.93243277     5.58583642     4.78236096
O      1.97131740     3.36352043     1.68180398
O      3.81600217     4.52030892     8.07997064
O      5.74545044     3.34329891     6.55057910
O      5.80411719     5.61176705     9.76559926
O      7.73031484     4.44150479     3.30520403
O      5.73522083     5.66034636     4.90021789
O      5.83206082     3.34682153     1.68523950
O      7.77952837     4.56839202     8.20942357
O     -3.85243675     6.84490659     6.60648768
O     -3.95111064     8.80777410     9.63434317
O     -1.91788472     7.81930983     3.26397773
O     -3.93441946     8.98479838     4.77194866
O     -3.84349395     6.67000306     1.69279766
O     -1.43198791     7.34990102     8.84157457
O      0.08893971     6.65141123     6.60606275
O      0.13515674     9.58564755    10.34635243
O      1.95999200     7.81820327     3.26214545
O      0.10062792     8.95996586     4.78511645
O      0.01829488     6.69354247     1.68752985
O      1.45216591     7.46063344     8.87054132
O      3.71835490     6.80259703     6.50005622
O      3.80792188     9.07429220     9.67320395
O      5.81939959     7.80381808     3.24450975
O      3.89342529     8.96209145     4.76141841
O      3.87758632     6.66829293     1.68730082
O      5.72640673     7.84386225     7.99946036
O      2.33801348     5.33013540    11.20172202
N      0.44337917     6.40546680    12.07107152
N      1.36459398     5.88102262    11.64659750
H     -2.46854383     5.74981919    11.65435001
H      0.21107894     8.72836104    10.79854047
H     -1.75158324     6.31791792    10.35450592
