85
CIF: Pt-Y-CeO2-O-CO.cif | data_image0
Ce     1.93596140     1.11772783     0.89035214
Ce     0.01252681     2.23472772     4.04614701
Ce     5.81154747    10.02981567     7.18748580
Ce     5.80789581     1.11772783     0.89035214
Ce     3.86213727     2.22803179     4.03623097
Ce    -2.08256216     9.98450715     7.15898482
Ce     9.67981860     1.11772783     0.89035214
Ce     7.74408027     2.23786735     4.06607914
Ce     2.04913776    10.03575162     7.21281123
Ce     0.00000000     4.47091133     0.89035214
Ce    -1.94497275     5.59197621     4.04409184
Ce    -1.85169222     3.31101082     7.18715096
Ce     3.87193441     4.47091133     0.89035214
Ce     1.94245933     5.58065009     4.05925997
Ce     1.95265508     3.36020091     7.28124133
Ce     7.74385721     4.47091133     0.89035214
Ce     5.81584043     5.58324776     4.01755778
Ce    -1.93596721     7.82410489     0.89035214
Ce    -3.88100816     8.93037416     3.98844327
Ce    -3.88675536     6.74471475     7.17250726
Ce     1.93596721     7.82410489     0.89035214
Ce    -0.00239325     8.96103884     4.05773311
Ce    -0.00498143     6.71209150     7.22263473
Ce     5.80789000     7.82410489     0.89035214
Ce     3.87478266     8.93689954     4.02816596
Ce     3.87884626     6.67843867     7.20163994
Y      5.65164494     3.43052385     7.00025806
O      0.00000000     0.00000000     0.09999685
O      1.93346067     1.11418327     3.21916476
O     -0.01788257     2.19866902     6.39063715
O      0.00000000     2.23545567     1.68070743
O      5.81206288    10.04520050     4.82727009
O      1.91361566     0.92913178     8.03660458
O      3.87192279     0.00000000     0.09999685
O      5.80800490     1.09773032     3.24780196
O      3.99938913     2.09008612     6.48622573
O      3.87192279     2.23545567     1.68070743
O     -1.97177838    10.02154714     4.82738804
O      6.38159582     1.38921710     8.68158234
O      7.74385721     0.00000000     0.09999685
O      9.67856145     1.11309783     3.23740809
O      7.70642044     2.28871672     6.39196561
O      7.74385721     2.23545567     1.68070743
O      1.95256625    10.04921986     4.86812688
O      9.73484349     1.05915003     7.97953269
O     -1.93596140     3.35318350     0.09999685
O      0.00746875     4.49389540     3.25806537
O     -2.04978916     5.54862305     6.41393174
O     -1.93596721     5.58864923     1.68070743
O     -1.91414764     3.34751806     4.84276348
O     -0.10801221     4.55263045     8.00968645
O      1.93596140     3.35318350     0.09999685
O      3.85494777     4.48171885     3.21494155
O      1.89067445     5.66140682     6.37495880
O      1.93595559     5.58864923     1.68070743
O      1.98004883     3.33352365     4.84232995
O      5.80789581     3.35318350     0.09999685
O      7.75636597     4.46658512     3.23875019
O      5.95726122     5.55038481     6.39671476
O      5.80789000     5.58864923     1.68070743
O      5.75491492     3.36504033     4.76436198
O      7.98825035     4.45689072     8.50543622
O     -3.87192860     6.70637706     0.09999685
O     -1.92242332     7.82309903     3.21268205
O     -3.88988403     8.89488980     6.34836515
O     -3.87192860     8.94183273     1.68070743
O     -3.86476048     6.72727631     4.80042126
O     -1.97537103     7.80969911     7.98044197
O     -0.00000581     6.70637706     0.09999685
O      1.92792173     7.81695595     3.25585776
O     -0.01501226     9.13406805     6.53531982
O     -0.00000581     8.94183273     1.68070743
O     -0.05778798     6.77545896     4.91735456
O      3.87192860     6.70637706     0.09999685
O      5.79656277     7.82156057     3.21081252
O      3.88988856     8.91779896     6.38513475
O      3.87192860     8.94183273     1.68070743
O      3.91004754     6.67744514     4.86156937
O      5.83686610     7.80494498     7.98488140
O      1.94069904     7.84732965     7.99983697
O      3.93058796     4.60027389     7.93537585
O      7.62307992     2.78644577    12.66835059
O      6.95843002     2.86394184    14.92442809
Pt     7.26297759     2.91286827     9.29648848
C      7.29002936     2.82620045    13.79652684
