84
CIF: Cr-Cu-CeO2-CO.cif | data_image0
Ce     1.93038582     1.11050507     0.88387043
Ce     0.00661130     2.21951954     4.01456462
Ce    -5.76240667    10.03162701     7.21852526
Ce     5.81181033     1.12175166     0.90127712
Ce     3.85749967     2.21691042     4.02498053
Ce    -1.96050882    10.03871024     7.27785404
Ce     9.66901012     1.12377363     0.90450652
Ce     7.71940673     2.24891343     4.05754768
Ce     2.07993820     9.92026974     7.19650955
Ce    -0.00709724     4.47602159     0.89067279
Ce    -1.95094759     5.58482233     4.07468969
Ce    -1.74441471     3.29644220     7.19597493
Ce     3.86254305     4.47635356     0.87798423
Ce     1.93430017     5.58868620     4.05467885
Ce     1.92338832     3.32393675     7.21434185
Ce     7.74213807     4.46545905     0.90125422
Ce     5.81558444     5.60870637     4.02461386
Ce    -1.94645625     7.83004003     0.90010904
Ce    -3.85502420     8.93064696     4.06142340
Ce    -3.86809703     6.73331885     7.27803816
Ce     1.92815559     7.82745473     0.89060408
Ce    -0.00486950     8.95596100     4.07500281
Ce     0.00002715     6.70582386     7.23723639
Ce     5.81127600     7.83258510     0.88371011
Ce     3.88800908     8.94266644     4.01485725
Ce     3.88915275     6.72904552     7.21437509
Cu     4.91167121     3.86859865     6.50734929
Cr     6.76353166     2.80111914     8.07452221
O     11.61334069     0.00154917     0.10141687
O      1.93199577     1.11323358     3.22326992
O      0.03452097     2.22831048     6.35246366
O     -0.00785227     2.23805103     1.69392277
O     -5.79479103    10.05033604     4.84099113
O      1.83241392     1.18499725     8.05894673
O     -1.93899312    10.05733740     0.10496691
O      5.81785015     1.11860868     3.24597249
O      3.90024073     2.25782126     6.43099422
O      3.86763657     2.23577757     1.68132582
O     -1.93048842    10.05158527     4.83078291
O      6.31568199     1.22482358     8.56038841
O      7.73821774     0.00761509     0.10924988
O      9.68160615     1.11602212     3.22073835
O      7.68058951     2.27196704     6.58889791
O      7.74357843     2.23531483     1.71563532
O      7.79026653     0.05711111     4.87158835
O      9.75946710     1.07063785     7.96465876
O      9.67032270     3.35425987     0.10911246
O     -0.01066978     4.47702215     3.25742845
O     -1.94757427     5.44460734     6.46111186
O     -1.94403436     5.59119430     1.70564938
O      9.65290743     3.28281776     4.87158834
O      0.04455545     4.40434241     8.04214708
O      1.92738314     3.35244915     0.09928684
O      3.84905267     4.48359485     3.21276314
O      1.91158506     5.60111401     6.39012879
O      1.92862022     5.59252216     1.67404250
O      1.94694824     3.34612866     4.84450407
O      3.79539319     4.51379498     8.00793611
O      5.81155478     3.35101064     0.10766953
O      7.74753975     4.46103554     3.24580509
O      5.80147686     5.55018285     6.43214761
O      5.80528807     5.59217007     1.68114259
O      5.77739324     3.37010101     4.79084156
O      7.90054976     3.98021132     8.55978661
O     -3.87155109     6.71022987     0.10512724
O     -1.92690472     7.81803544     3.24479691
O     -3.87072737     8.94014404     6.43967465
O     -3.87509971     8.94378428     1.69355631
O     -3.86367470     6.70372947     4.83029664
O     -1.75467565     7.71750043     8.06863300
O     -0.01209783     6.71325780     0.10434852
O      1.92541343     7.82894938     3.25679718
O      0.11822227     9.02240896     6.46212464
O     -0.00628994     8.94736548     1.70514550
O     -0.04693434     6.73356594     4.90158435
O      2.01484325     7.81619272     8.04253581
O      3.86815347     6.71410280     0.09951587
O      5.80870296     7.82842404     3.22273159
O      3.89358377     8.91329401     6.35294186
O      3.86556896     8.94715423     1.69389986
O      3.88287428     6.69830325     4.84495560
O      5.69656689     7.87798634     8.05753433
O      4.89664562     3.81539650    10.65355734
C      5.40449413     3.56062113     9.65872237
