81
CIF: Cr-Cu-CeO2-Ov.cif | data_image0
Ce     1.93038582     1.11050507     0.88387043
Ce     0.01074287     2.22656568     4.01623641
Ce    -5.77019506    10.04471192     7.23218328
Ce     5.81181033     1.12175166     0.90127712
Ce     3.87086752     2.22799487     4.04098523
Ce    -1.99066329    10.02672864     7.29122554
Ce     9.66901012     1.12377363     0.90450652
Ce     7.71061384     2.25605321     4.01706694
Ce     2.04050706     9.96286702     7.20590066
Ce    -0.00709724     4.47602159     0.89067279
Ce    -1.95327011     5.58181756     4.07828271
Ce    -1.78150002     3.33290777     7.19676172
Ce     3.86254305     4.47635356     0.87798423
Ce     1.94335911     5.57948679     4.07381263
Ce     1.85221141     3.25032876     7.24600220
Ce     7.74213807     4.46545905     0.90125422
Ce     5.81033570     5.58803654     4.01615559
Ce    -1.94645625     7.83004003     0.90010904
Ce    -3.86567255     8.93107871     4.06768054
Ce     7.72531809     6.72204093     7.29014435
Ce     1.92815559     7.82745473     0.89060408
Ce    -0.00372224     8.95585072     4.08561697
Ce    -0.01100667     6.70227446     7.27644734
Ce     5.81127600     7.83258510     0.88371011
Ce     3.88434994     8.96343100     3.99330325
Ce     3.89140336     6.87218104     7.14937163
Cu     4.97479186     3.81938481     6.58814420
Cr     6.76667124     2.80741194     7.94504934
O     11.61334069     0.00154917     0.10141687
O      1.93452304     1.11086415     3.22463961
O     -0.01461541     2.21794871     6.37476984
O     -0.00785227     2.23805103     1.69392277
O     -5.79901070    10.05708782     4.83311009
O      1.77491558     1.01096091     8.13047614
O     -1.93899312    10.05733740     0.10496691
O      5.80829694     1.07981630     3.23418782
O      3.94920944     2.29148282     6.52351985
O      3.86763657     2.23577757     1.68132582
O      3.86961413     0.00955855     4.84943627
O      6.24689446     1.33655557     8.58142540
O      7.73821774     0.00761509     0.10924988
O      9.68154602     1.12036602     3.21275815
O      7.64355605     2.29607931     6.50396895
O      7.74357843     2.23531483     1.71563532
O      7.77617026     0.05874191     4.87278161
O      9.67982358     1.10529967     7.96748872
O      9.67032270     3.35425987     0.10911246
O     -0.01072260     4.48857519     3.25745848
O     -1.98872769     5.47057943     6.44240487
O     -1.94403436     5.59119430     1.70564938
O      9.65111675     3.29735396     4.86944823
O     -0.09005211     4.49022892     8.07791696
O      1.92738314     3.35244915     0.09928684
O      3.82841689     4.50517033     3.22016515
O      2.08381418     5.58503324     6.54777672
O      1.92862022     5.59252216     1.67404250
O      1.93312796     3.34534527     4.82113516
O      5.81155478     3.35101064     0.10766953
O      7.77736920     4.48513982     3.22231985
O      5.66973785     5.52203871     6.54604337
O      5.80528807     5.59217007     1.68114259
O      5.80347796     3.36940106     4.62429124
O      7.74725761     4.04825900     8.53508787
O     -3.87155109     6.71022987     0.10512724
O     -1.92100383     7.80851398     3.27512127
O     -3.88687500     8.90973940     6.41688374
O     -3.87509971     8.94378428     1.69355631
O      7.70015588     6.67268262     4.85159370
O     -1.77170410     7.70436097     8.08527128
O     -0.01209783     6.71325780     0.10434852
O      1.91743546     7.82806094     3.25790273
O      0.10066089     9.03226409     6.48212741
O     -0.00628994     8.94736548     1.70514550
O      0.01265929     6.69768492     4.95726320
O      2.01495076     7.88119940     8.06986959
O      3.86815347     6.71410280     0.09951587
O      5.80785243     7.83126211     3.21420629
O      3.87818023     8.95483362     6.34774283
O      3.86556896     8.94715423     1.69389986
O      3.88776672     6.74258853     4.82975154
O      5.67705832     7.89795120     8.07289701
