84
CIF: Y-Rh-CeO2-CO.cif | data_image0
Ce     1.93038582     1.11050507     0.88387043
Ce    -0.00430656     2.23039474     4.04632929
Ce    -5.77884697    10.04268474     7.23033466
Ce     5.81181033     1.12175166     0.90127712
Ce     3.84831160     2.21333841     4.00419107
Ce    -1.91707248    10.02784775     7.22415000
Ce     9.66901012     1.12377363     0.90450652
Ce     7.73109053     2.24270248     4.09496442
Ce     1.97017737    10.01300202     7.23445394
Ce    -0.00709724     4.47602159     0.89067279
Ce    -1.93713295     5.58604678     4.04894111
Ce    -1.87838220     3.34691714     7.23424066
Ce     3.86254305     4.47635356     0.87798423
Ce     1.94607657     5.58269547     4.04645552
Ce     1.90611113     3.33072888     7.21059630
Ce     7.74213807     4.46545905     0.90125422
Ce     5.81514867     5.62003381     4.00411918
Ce    -1.94645625     7.83004003     0.90010904
Ce    -3.86412510     8.93725274     4.05663152
Ce    -3.83488549     6.70578250     7.22410492
Ce     1.92815559     7.82745473     0.89060408
Ce     0.00163938     8.94404524     4.04888846
Ce     0.01909844     6.69544338     7.19254651
Ce     5.81127600     7.83258510     0.88371011
Ce     3.87410156     8.94796533     4.04641038
Ce     3.87635065     6.74337882     7.21062921
Rh     4.75313645     3.96156234     6.32561150
Y      6.34201683     3.04549264     8.12585428
O     11.61334069     0.00154917     0.10141687
O      1.92618200     1.10700416     3.22847791
O      0.01960651     2.22040339     6.41944684
O     -0.00785227     2.23805103     1.69392277
O     -5.79607473    10.05262833     4.87080706
O      1.95285995     1.08238445     8.03006372
O     -1.93899312    10.05733740     0.10496691
O      5.81142951     1.09786763     3.24325986
O      3.84035796     2.17893987     6.40740339
O      3.86763657     2.23577757     1.68132582
O     -1.93695891    10.04105438     4.86241526
O      5.91418217     0.90404121     8.27706411
O      7.73821774     0.00761509     0.10924988
O      9.67556714     1.12006122     3.25276539
O      7.72120396     2.24852308     6.58961959
O      7.74357843     2.23531483     1.71563532
O      7.75728935     0.02819184     4.89074761
O      9.73059472     1.08837564     8.04405528
O      9.67032270     3.35425987     0.10911246
O     -0.01074462     4.46840913     3.24181923
O     -1.93281388     5.57999528     6.40860517
O     -1.94403436     5.59119430     1.70564938
O      9.66201423     3.32731826     4.89067794
O      0.02529154     4.46516388     8.01294197
O      1.92738314     3.35244915     0.09928684
O      3.83725823     4.49092029     3.19910145
O      1.93173484     5.59106338     6.40758943
O      1.92862022     5.59252216     1.67404250
O      1.91042180     3.34452723     4.84582953
O      3.86980695     4.47190171     8.08647012
O      5.81155478     3.35101064     0.10766953
O      7.76258535     4.47757858     3.24316199
O      5.84104205     5.64408831     6.40759228
O      5.80528807     5.59217007     1.68114259
O      5.79316756     3.36155936     4.71211202
O      7.98248999     4.48625957     8.27610883
O     -3.87155109     6.71022987     0.10512724
O     -1.93393146     7.82292606     3.24177363
O     -3.84412449     8.92578516     6.42574101
O     -3.87509971     8.94378428     1.69355631
O     -3.85655794     6.71635731     4.86244545
O     -1.91815170     7.81385851     8.00314192
O     -0.01209783     6.71325780     0.10434852
O      1.93271458     7.83448671     3.24168464
O      0.00904646     8.94378482     6.40892914
O     -0.00628994     8.94736548     1.70514550
O      0.00108991     6.70586490     4.86443932
O      1.95351124     7.80505746     8.01302944
O      3.86815347     6.71410280     0.09951587
O      5.81227557     7.83783763     3.22830826
O      3.89462399     8.93232865     6.41951579
O      3.86556896     8.94715423     1.69389986
O      3.86664071     6.73273087     4.84586229
O      5.84685874     7.82710676     8.02988872
O      6.13965307     3.11044942    11.97060899
C      6.14937357     3.12817282    10.83080803
