83
CIF: Y-Rh-CeO2-O.cif | data_image0
Ce     1.93038582     1.11050507     0.88387043
Ce    -0.01332857     2.23451171     4.04198197
Ce    -5.79563484    10.05113547     7.22861062
Ce     5.81181033     1.12175166     0.90127712
Ce     3.83103371     2.20559680     3.98886261
Ce    -1.88938840    10.02554842     7.25029842
Ce     9.66901012     1.12377363     0.90450652
Ce     7.74234899     2.23569411     4.11668237
Ce     7.75046660     0.01643750     7.21916625
Ce    -0.00709724     4.47602159     0.89067279
Ce    -1.94002396     5.58807902     4.05211994
Ce     9.66442611     3.33660674     7.22132800
Ce     3.86254305     4.47635356     0.87798423
Ce     1.94431095     5.58229015     4.05167251
Ce     1.84863212     3.31380655     7.20729430
Ce     7.74213807     4.46545905     0.90125422
Ce     5.81300949     5.63792469     3.98890862
Ce    -1.94645625     7.83004003     0.90010904
Ce    -3.86505549     8.93710501     4.07940619
Ce    -3.82084865     6.68062578     7.25231375
Ce     1.92815559     7.82745473     0.89060408
Ce    -0.00210314     8.94353476     4.05118468
Ce     0.02033499     6.69201417     7.20341301
Ce     5.81127600     7.83258510     0.88371011
Ce     3.86593623     8.95151714     4.04208476
Ce     3.86202250     6.79717044     7.20716682
Rh     4.87421760     3.89277735     6.41329066
Y      6.19169166     3.12291886     8.62669893
O     11.61334069     0.00154917     0.10141687
O      1.92690022     1.10920423     3.22452728
O     -0.01126565     2.21736759     6.40195219
O     -0.00785227     2.23805103     1.69392277
O     -5.79137047    10.04867480     4.86784038
O      1.93643627     1.12628948     7.98663564
O     -1.93899312    10.05733740     0.10496691
O      5.79360843     1.11329179     3.24808673
O      3.86334358     2.20296582     6.39671335
O      3.86763657     2.23577757     1.68132582
O     -1.94699917    10.05885147     4.87117407
O      5.87974333     0.90965105     8.21944582
O      7.73821774     0.00761509     0.10924988
O      9.67773408     1.11834567     3.25602071
O      7.79639769     2.20275655     6.47907025
O      7.74357843     2.23531483     1.71563532
O      7.73877426     0.00054515     4.85361691
O      9.71710876     1.09357955     8.05403282
O      9.67032270     3.35425987     0.10911246
O     -0.00086796     4.47333511     3.23468539
O     -1.93668821     5.59148506     6.39898977
O     -1.94403436     5.59119430     1.70564938
O      9.67395240     3.35653156     4.85517962
O      0.02084032     4.45622117     7.98428025
O      1.92738314     3.35244915     0.09928684
O      3.84197450     4.48778522     3.20573854
O      1.96461250     5.57018445     6.43698894
O      1.92862022     5.59252216     1.67404250
O      1.90576286     3.33908711     4.85261222
O      5.81155478     3.35101064     0.10766953
O      7.73983283     4.48521197     3.24809592
O      5.83246708     5.61249081     6.39595996
O      5.80528807     5.59217007     1.68114259
O      5.77716496     3.37017309     4.74291027
O      7.95413966     4.50786286     8.22514579
O     -3.87155109     6.71022987     0.10512724
O     -1.93755280     7.82431929     3.25233136
O     -3.84178643     8.92389936     6.44918280
O     -3.87509971     8.94378428     1.69355631
O     -3.87702347     6.71561507     4.87174100
O     -1.90529489     7.80576029     8.00778993
O     -0.01209783     6.71325780     0.10434852
O      1.93241080     7.82154844     3.23464796
O     -0.00393683     8.93669675     6.39644306
O     -0.00628994     8.94736548     1.70514550
O      0.01763249     6.69386064     4.87067353
O      1.95784624     7.80800368     7.98335206
O      3.86815347     6.71410280     0.09951587
O      5.81033831     7.83518257     3.22449198
O      3.88240517     8.95601174     6.40310868
O      3.86556896     8.94715423     1.69389986
O      3.86794837     6.73726797     4.85330976
O      5.80084890     7.81574782     7.98884456
O      3.99203046     4.40431264     8.06889822
O      5.31971367     3.58184251    10.42630406
