81
CIF: Sc-Rh-CeO2-Ov.cif | data_image0
Ce     1.93038582     1.11050507     0.88387043
Ce    -0.00904284     2.22538733     4.01426808
Ce    -5.76032559    10.02652378     7.24004581
Ce     5.81181033     1.12175166     0.90127712
Ce     3.84850106     2.21148220     4.00681829
Ce    -1.92262983    10.01831038     7.21842122
Ce     9.66901012     1.12377363     0.90450652
Ce     7.74709444     2.23588601     4.07418566
Ce     1.96984675     9.99939296     7.23848832
Ce    -0.00709724     4.47602159     0.89067279
Ce    -1.93283115     5.58077486     4.05738593
Ce    -1.87154571     3.34819107     7.25255757
Ce     3.86254305     4.47635356     0.87798423
Ce     1.95991805     5.58098850     4.06561379
Ce     1.79757078     3.24780465     7.15551692
Ce     7.74213807     4.46545905     0.90125422
Ce     5.81434191     5.62482807     4.02569441
Ce    -1.94645625     7.83004003     0.90010904
Ce    -3.86193102     8.93893543     4.04383304
Ce    -3.84295746     6.71767866     7.21727078
Ce     1.92815559     7.82745473     0.89060408
Ce     0.00720767     8.94446206     4.05094757
Ce     0.01984395     6.69481028     7.22190450
Ce     5.81127600     7.83258510     0.88371011
Ce     3.87731174     8.94440178     4.03172274
Ce     3.89767389     6.84934771     7.22427880
Rh     4.79299125     3.91221132     6.47074137
Sc     6.54680555     2.92838127     7.86956630
O     11.61334069     0.00154917     0.10141687
O      1.93610228     1.10659288     3.21090787
O      0.00819762     2.20561551     6.39752885
O     -0.00785227     2.23805103     1.69392277
O     -5.78561153    10.05708712     4.84522484
O      1.94013187     1.01298783     8.04295478
O     -1.93899312    10.05733740     0.10496691
O      5.81080028     1.12381119     3.24196022
O      3.81742193     2.17894591     6.45762953
O      3.86763657     2.23577757     1.68132582
O      3.87606178     0.00764230     4.84825242
O      6.02029124     1.01423281     8.24776982
O      7.73821774     0.00761509     0.10924988
O      9.67243016     1.12092462     3.24028380
O      7.77320673     2.21956627     6.49359443
O      7.74357843     2.23531483     1.71563532
O      7.75179523     0.00786590     4.86180684
O      9.74220615     1.09503251     8.04654667
O      9.67032270     3.35425987     0.10911246
O     -0.00364758     4.47985484     3.23494048
O     -1.95596805     5.58374135     6.41884586
O     -1.94403436     5.59119430     1.70564938
O      9.68225250     3.33804210     4.86569660
O     -0.03946491     4.46871405     8.04530778
O      1.92738314     3.35244915     0.09928684
O      3.85926278     4.47107648     3.21980656
O      1.98867616     5.51695040     6.49004506
O      1.92862022     5.59252216     1.67404250
O      1.90567067     3.32467692     4.80697512
O      5.81155478     3.35101064     0.10766953
O      7.74457621     4.46522993     3.24786355
O      5.87523015     5.61759473     6.44618927
O      5.80528807     5.59217007     1.68114259
O      5.79624182     3.35762848     4.81332777
O      7.95110544     4.32405518     8.26904682
O     -3.87155109     6.71022987     0.10512724
O     -1.91945881     7.81736303     3.24965248
O     -3.81224183     8.91908242     6.38229636
O     -3.87509971     8.94378428     1.69355631
O     -3.86389620     6.70971481     4.84722495
O     -1.91301780     7.81777441     8.01236897
O     -0.01209783     6.71325780     0.10434852
O      1.92357792     7.82346806     3.23504942
O     -0.01912143     8.96754483     6.40120893
O     -0.00628994     8.94736548     1.70514550
O      0.03283478     6.68831655     4.89864189
O      1.83992634     7.87137610     8.04589678
O      3.86815347     6.71410280     0.09951587
O      5.82000034     7.83498653     3.22063753
O      3.90970408     8.98283447     6.39886260
O      3.86556896     8.94715423     1.69389986
O      3.87422538     6.73500614     4.79650170
O      5.97343856     7.89874358     8.07238791
