89
CIF: CH2COCH2.cif | data_image0
O      0.00269170     0.00211736     0.19997620
O      1.91936353     1.08924270     3.32553852
O      0.28503294     2.37550820     6.64396930
O      0.00269170     2.21114677     1.76198945
O     -0.00591723     0.07027608     5.00339633
O      1.93194431     0.58351651     8.33396505
O      3.82884287     0.00211736     0.19997620
O      5.74985289     1.09435037     3.34086810
O      3.59754148     2.40960904     6.63449664
O      3.82884287     2.21114677     1.76198945
O      3.83511756     0.06669551     5.01503155
O      5.72838483     1.14877529     8.11683147
O      7.65500553     0.00211736     0.19997620
O      9.55884079     1.09916715     3.33420693
O      7.66029095     2.20625464     6.52237100
O      7.65500553     2.21114677     1.76198945
O      1.91161748     9.93586577     4.98808964
O      9.60641663     1.12551096     8.10129717
O     -1.91038389     3.31566147     0.19997620
O     -0.00897562     4.43057842     3.32742956
O     -1.98104143     5.55887017     6.41654377
O     -1.91038963     5.52470082     1.76198945
O     -1.85820677     3.27022051     4.99906700
O      1.91576729     3.31566147     0.19997620
O      3.84217206     4.42803346     3.33321829
O      1.97798080     5.19871039     6.65200506
O      1.91576155     5.52470082     1.76198945
O      1.91853057     3.31332100     4.85514183
O      4.46296140     4.74783814     8.70192396
O      5.74192994     3.31566147     0.19997620
O      7.65390713     4.39103364     3.35323530
O      5.68468624     5.49811025     6.49564979
O      5.74192420     5.52470082     1.76198945
O      5.71651358     3.26880191     4.99612363
O      7.64163948     4.41555748     8.12105966
O     -3.82346521     6.62921553     0.19997620
O     -1.89630527     7.74010546     3.37310428
O     -3.83074079     8.76255037     6.42782257
O     -3.82346521     8.83824494     1.76198945
O      7.60537429     6.60312176     4.91728776
O     -1.95472352     7.70686029     8.14925774
O      0.00268596     6.62921553     0.19997620
O      1.90978321     7.74290190     3.34060416
O     -0.00962182     8.82970040     6.55838987
O      0.00268596     8.83824494     1.76198945
O      0.06811977     6.59826868     5.02192756
O      1.95290162     7.69818942     8.09676266
O      3.82884861     6.62921553     0.19997620
O      5.71592534     7.74749870     3.35426125
O      3.83951912     8.84194790     6.52554265
O      3.82884861     8.83824494     1.76198945
O      3.76950870     6.62806079     5.00131318
O      5.73541597     7.72481540     8.13169759
O     -0.52329994     4.71789199     8.36885857
O      2.01142815     3.44925646     8.76877964
Ce     1.91576729     1.10663206     0.98099423
Ce     0.00561841     2.21173389     4.14014579
Ce    -5.67898897     9.93541651     7.39356812
Ce     5.74192994     1.10663206     0.98099423
Ce     3.83122825     2.20546411     4.14126095
Ce    -1.96848159     9.89833891     7.39693924
Ce     9.56808111     1.10663206     0.98099423
Ce     7.66117881     2.20388226     4.15810866
Ce     7.66713857     0.00463978     7.32509908
Ce     0.00269170     4.42017618     0.98099423
Ce    -1.91367590     5.51560103     4.14729737
Ce    -1.89756628     3.36470819     7.38921831
Ce     3.82885435     4.42017618     0.98099423
Ce     1.91260814     5.52438092     4.14794410
Ce     7.65500553     4.42017618     0.98099423
Ce     5.72634838     5.51574987     4.15288017
Ce     5.79608241     3.29368041     7.35581187
Ce    -1.91038963     7.73373024     0.98099423
Ce    -3.83207746     8.83871008     4.14892467
Ce     7.62816015     6.61243854     7.31113632
Ce     1.91577303     7.73373024     0.98099423
Ce     0.00026787     8.83267665     4.18577937
Ce    -0.06910370     6.59415652     7.40653565
Ce     5.74192420     7.73373024     0.98099423
Ce     3.82681110     8.84398003     4.16090448
Ce     3.83987752     6.68386462     7.36251167
Ti     1.92699323     3.29761685     6.93107825
C      1.58378101     4.68167621    10.74161463
C      2.42120077     4.13489687     9.83910248
C      3.92656238     4.23878633     9.91905834
H      0.50676732     4.57289076    10.63041663
H      1.98280789     5.23778989    11.58891632
H      4.33210915     3.22010456    10.11122692
H      4.22447697     4.87841988    10.76764356
