84
CIF: Zr-CeO2-O2+CO.cif | data_image0
O      0.55978923     0.45000431     0.59999690
O      2.47385723     1.55809972     3.73952605
O      0.55015938     2.65344579     6.88626832
O      0.55978923     2.65902057     2.16203261
O      0.55412554     0.44030554     5.35970071
O      2.41396197     1.62879388     8.41969650
O      4.38603242     0.45000431     0.59999690
O      6.29338331     1.55247194     3.74060394
O      4.33133768     2.78669213     6.96059216
O      4.38603242     2.65902057     2.16203261
O      4.38422759     0.49184348     5.39365877
O      6.29207952     1.54729956     8.51958781
O      8.21216082     0.45000431     0.59999690
O     10.12078201     1.55006337     3.72906076
O      8.22477667     2.64520652     6.90406879
O      8.21216082     2.65902057     2.16203261
O      8.21245177     0.44893655     5.36163164
O     10.11427899     1.54941981     8.54400653
O     -1.35327498     3.76352871     0.59999690
O      0.56602559     4.86965921     3.74019533
O     -1.34549335     5.98112237     6.91627714
O     -1.35333237     5.97264438     2.16203261
O     -1.35968950     3.76750030     5.35448926
O      0.59488885     4.77841143     8.42043141
O      2.47296821     3.76352871     0.59999690
O      4.37790306     4.86164026     3.75982610
O      2.56608724     5.86736554     6.96363469
O      2.47291082     5.97264438     2.16203261
O      2.43126088     3.74090771     5.41596223
O      6.29909662     3.76352871     0.59999690
O      8.21148794     4.87497930     3.73697830
O      6.28789976     5.96995378     6.94809200
O      6.29903923     5.97264438     2.16203261
O      6.31348939     3.75541098     5.36493465
O      8.24478692     4.86070117     8.54054486
O     -3.26639657     7.07715251     0.59999690
O     -1.34660270     8.18645065     3.75744164
O     -3.25285916     9.29051246     6.91402407
O     -3.26639657     9.28616878     2.16203261
O     -3.26930121     7.07580080     5.37603151
O     -1.34873335     8.18413478     8.54171605
O      0.55984662     7.07715251     0.59999690
O      2.47004692     8.17832729     3.74223536
O      0.54359411     9.28607618     6.90610279
O      0.55984662     9.28616878     2.16203261
O      0.59374431     7.05966993     5.39510652
O      2.42678239     8.19211017     8.52161693
O      4.38597502     7.07715251     0.59999690
O      6.30622829     8.17891982     3.73597005
O      4.37430731     9.28579624     6.92457524
O      4.38597502     9.28616878     2.16203261
O      4.39118257     7.09128824     5.36695033
O      6.32516580     8.21436660     8.54152644
O      3.43067650     4.36942630     9.25661470
O      4.64725618     4.96696221     8.76175571
O      3.65408361     7.11378027    11.72678945
Ce     2.47285343     1.55451244     1.38101475
Ce     0.54680005     2.65286755     4.52780791
Ce     0.55920249     0.45899621     7.73002758
Ce     6.29909662     1.55451244     1.38101475
Ce     4.38220189     2.66998056     4.57641294
Ce     4.36335848     0.49268505     7.73143777
Ce    10.12522502     1.55451244     1.38101475
Ce     8.21201780     2.65852847     4.53331830
Ce     8.20081388     0.44681855     7.72286604
Ce     0.55978923     4.86803684     1.38101475
Ce    -1.34974788     5.96912070     4.55191513
Ce    -1.34491303     3.75789607     7.73241834
Ce     4.38603242     4.86803684     1.38101475
Ce     2.48635227     5.96788859     4.58186586
Ce     8.21216082     4.86803684     1.38101475
Ce     6.29879277     5.97636692     4.56507565
Ce     6.35891197     3.73216342     7.72063341
Ce    -1.35333237     8.18166064     1.38101475
Ce    -3.26798524     9.29144288     4.55408237
Ce    -3.25164153     7.08473815     7.74457419
Ce     2.47291082     8.18166064     1.38101475
Ce     0.56435412     9.28972433     4.55719766
Ce     0.57828982     7.04492685     7.72839659
Ce     6.29903923     8.18166064     1.38101475
Ce     4.38492180     9.27858653     4.54263878
Ce     4.39094120     7.12866871     7.76960325
Zr     2.31399616     3.67578156     7.58266691
C      4.01509898     7.14282402    10.64380271
