81
CIF: Zr-CeO2.cif | data_image0
O      0.55978538     0.45000321     0.60000009
O      2.47273331     1.56953841     3.75427510
O      0.54650029     2.65149025     6.87984572
O      0.55978538     2.65901948     2.16203581
O      0.55981549     0.43493532     5.37381870
O      2.47275206     1.76543012     8.44928827
O      4.38602857     0.45000321     0.60000009
O      6.29971155     1.55403125     3.74546911
O      4.39898692     2.65189668     6.87950647
O      4.38602857     2.65901948     2.16203581
O      4.38633414     0.43477455     5.37447369
O      6.28163613     1.56468197     8.56353763
O      8.21215698     0.45000321     0.60000009
O     10.12463956     1.55421026     3.74513658
O      8.21241896     2.64956231     6.93684759
O      8.21215698     2.65901948     2.16203581
O      8.21248027     0.44997594     5.37592548
O     10.14151743     1.56325548     8.56338164
O     -1.35327882     3.76352761     0.60000009
O      0.57280208     4.86074273     3.75421154
O     -1.31906993     5.95277127     6.96247376
O     -1.35333621     5.97264328     2.16203581
O     -1.36713457     3.77124308     5.37442537
O      0.74332259     4.76200271     8.44928568
O      2.47296437     3.76352761     0.60000009
O      4.37277619     4.86078216     3.75453861
O      2.47297278     5.98760840     6.87962382
O      2.47290698     5.97264328     2.16203581
O      2.47253000     3.76333027     5.47703492
O      4.20329554     4.76279418     8.44909242
O      6.29909277     3.76352761     0.60000009
O      8.21210667     4.87819857     3.74445835
O      6.26591149     5.95434423     6.96199748
O      6.29903538     5.97264328     2.16203581
O      6.31288151     3.77102435     5.37468679
O      8.21214941     4.87105198     8.55487636
O     -3.26640042     7.07715142     0.60000009
O     -1.36176562     8.17664862     3.74439360
O     -3.26694353     9.32415324     6.96183332
O     -3.26640042     9.28616768     2.16203581
O     -3.26572029     7.07690132     5.41333069
O     -1.35526659     8.18053576     8.55483260
O      0.55984277     7.07715142     0.60000009
O      2.47258664     8.18182169     3.74514134
O      0.56818259     9.29101139     6.93651270
O      0.55984277     9.28616768     2.16203581
O      0.54579962     7.08521541     5.37460184
O      2.47342716     8.16307463     8.56362126
O      4.38597118     7.07715142     0.60000009
O      6.30864076     8.17618687     3.74456656
O      4.37778289     9.29056480     6.93565191
O      4.38597118     9.28616768     2.16203581
O      4.39934245     7.08480310     5.37380895
O      6.30099372     8.18096327     8.55542317
Ce     2.47284958     1.55451135     1.38101795
Ce     0.55227864     2.65487103     4.56039868
Ce     0.56495757     0.48269038     7.74042384
Ce     6.29909277     1.55451135     1.38101795
Ce     4.39323235     2.65492094     4.56041778
Ce     4.38057256     0.48321333     7.74042617
Ce    10.12522118     1.55451135     1.38101795
Ce     8.21218293     2.66025218     4.55875951
Ce     8.21216411     0.45008077     7.74128334
Ce     0.55978538     4.86803574     1.38101795
Ce    -1.35326612     5.97250754     4.56342394
Ce    -1.32184116     3.75152310     7.74061426
Ce     4.38602857     4.86803574     1.38101795
Ce     2.47273911     5.98106940     4.56040434
Ce     8.21215698     4.86803574     1.38101795
Ce     6.29912535     5.97244033     4.56334100
Ce     6.26756016     3.75190168     7.74056952
Ce    -1.35333621     8.18165955     1.38101795
Ce    -3.26618780     9.28630465     4.56325876
Ce    -3.26612488     7.07716444     7.77555551
Ce     2.47290698     8.18165955     1.38101795
Ce     0.55873348     9.28547266     4.55877418
Ce     0.58609240     7.05589509     7.74048223
Ce     6.29903538     8.18165955     1.38101795
Ce     4.38728067     9.28529880     4.55853236
Ce     4.36013762     7.05617928     7.74038631
Zr     2.47284614     3.76304749     7.60358429
