83
CIF: Zr-CeO2+CO.cif | data_image0
O      0.55978923     0.45000431     0.59999690
O      2.47554009     1.55198404     3.73956495
O      0.55848956     2.65779140     6.87757766
O      0.55978923     2.65902057     2.16203261
O      0.55409598     0.43984483     5.36802475
O      2.39432581     1.64157042     8.46002533
O      4.38603242     0.45000431     0.59999690
O      6.29522668     1.55232106     3.74827180
O      4.26765196     2.83163751     7.00883408
O      4.38603242     2.65902057     2.16203261
O      4.39553168     0.50841693     5.41617033
O      6.25610410     1.55378326     8.53529142
O      8.21216082     0.45000431     0.59999690
O     10.11150146     1.54621744     3.73683616
O      8.20598489     2.65796258     6.93764728
O      8.21216082     2.65902057     2.16203261
O      8.21374431     0.45023230     5.38278499
O     10.11925747     1.55050481     8.54769358
O     -1.35327498     3.76352871     0.59999690
O      0.55914949     4.87126929     3.73958412
O     -1.32588326     5.97771709     6.92878545
O     -1.35333237     5.97264438     2.16203261
O     -1.36457224     3.76307039     5.36778208
O      0.59774939     4.75499025     8.46060983
O      2.47296821     3.76352871     0.59999690
O      4.37338595     4.86054674     3.75815130
O      2.56337052     5.78308209     7.00830592
O      2.47291082     5.97264438     2.16203261
O      2.40842679     3.72591918     5.38873496
O      4.77918959     5.09480227     8.79098201
O      6.29909662     3.76352871     0.59999690
O      8.21288017     4.87199716     3.74676145
O      6.35463515     6.00419906     6.87129747
O      6.29903923     5.97264438     2.16203261
O      6.28665761     3.75456534     5.38255156
O      8.25435895     4.89197421     8.56137815
O     -3.26639657     7.07715251     0.59999690
O     -1.32890668     8.19572231     3.76233529
O     -3.24790724     9.30563041     6.92841967
O     -3.26639657     9.28616878     2.16203261
O     -3.23287044     7.09579966     5.36250958
O     -1.33080713     8.19408640     8.55146678
O      0.55984662     7.07715251     0.59999690
O      2.46942408     8.17907889     3.74810453
O      0.55879742     9.28506992     6.92382492
O      0.55984662     9.28616878     2.16203261
O      0.61534737     7.05595000     5.41573837
O      2.45114675     8.14360448     8.53524933
O      4.38597502     7.07715251     0.59999690
O      6.30326750     8.17984914     3.74692735
O      4.38268882     9.28024162     6.93805389
O      4.38597502     9.28616878     2.16203261
O      4.37219708     7.07024756     5.38249639
O      6.34199893     8.20498681     8.56198573
O      3.02106469     4.06369496    11.07271297
Ce     2.47285343     1.55451244     1.38101475
Ce     0.53312558     2.64339414     4.51156168
Ce     0.54585884     0.43053496     7.74261811
Ce     6.29909662     1.55451244     1.38101475
Ce     4.38353845     2.67619845     4.58349004
Ce     4.38075659     0.49936753     7.74846997
Ce    10.12522502     1.55451244     1.38101475
Ce     8.19830174     2.66364445     4.56204620
Ce     8.20233303     0.44382854     7.73779624
Ce     0.55978923     4.86803684     1.38101475
Ce    -1.34366978     5.97246190     4.55859466
Ce    -1.37636094     3.76003019     7.74231155
Ce     4.38603242     4.86803684     1.38101475
Ce     2.48656830     5.96147751     4.58317037
Ce     8.21216082     4.86803684     1.38101475
Ce     6.30724514     5.97678929     4.55615982
Ce     6.29286523     3.82403453     7.78762717
Ce    -1.35333237     8.18166064     1.38101475
Ce    -3.26136582     9.29403061     4.55868641
Ce    -3.22860178     7.09821930     7.74966858
Ce     2.47291082     8.18166064     1.38101475
Ce     0.57152683     9.29256780     4.56494920
Ce     0.60059721     7.04688648     7.74836911
Ce     6.29903923     8.18166064     1.38101475
Ce     4.38329139     9.27125516     4.56214240
Ce     4.43584418     7.04045666     7.78794483
Zr     2.25553481     3.63808131     7.53741331
C      2.87828563     3.98921278     9.93816507
