87
CIF: 2-NH2+H+NO-NH2NO+H_ts.cif | data_image0
Ce     0.00928689     0.00313148     8.74148148
Ce     1.92870839     1.10410246     5.61056141
Ce     0.00000000     2.23543938     2.47426506
Ce    -1.90260093    10.01398638     8.75621802
Ce     5.81986146     1.10730130     5.61852098
Ce     3.87189458     2.23543938     2.47426506
Ce     7.77891350     0.04152962     8.76061739
Ce     9.69448352     1.14346761     5.62032711
Ce     7.74390532     2.23543938     2.47426506
Ce     9.64083760     3.33463605     8.89391070
Ce    -0.02215286     4.49705906     5.63422159
Ce    -1.93600537     5.58869904     2.47426506
Ce     2.02390481     3.26657022     8.79176529
Ce     3.87299291     4.47816985     5.64084788
Ce     1.93588921     5.58869904     2.47426506
Ce     5.82428222     3.32937696     8.77155893
Ce     7.75972376     4.46399862     5.63290796
Ce     5.80789995     5.58869904     2.47426506
Ce     7.66662801     6.67146728     8.79936403
Ce    -1.91683325     7.79931871     5.62361948
Ce    -3.87195266     8.94185811     2.47426506
Ce     1.97066746     7.84019390     5.57914613
Ce    -0.00005808     8.94185811     2.47426506
Ce     3.89650138     6.70430800     8.81154711
Ce     5.82041515     7.81962899     5.62432668
Ce     3.87195266     8.94185811     2.47426506
Ir     0.17514057     6.81276483     8.53145528
O      0.01586836     0.00790504     6.41648267
O      0.16714318     2.23690533     9.52733488
O      1.93594729     1.11771969     3.26466483
O      0.02926687     2.23664350     4.80084069
O      0.00000000     0.00000000     1.68386529
O      2.01057268     1.07898937     7.92892937
O     -1.92602299     9.93845895     6.46495122
O      3.89031095     2.16305858     9.61878891
O      5.80795803     1.11771969     3.26466483
O      3.84007662     2.22531514     4.86195223
O      3.87189458     0.00000000     1.68386529
O      5.78702035     1.12194889     7.93264111
O      1.95232948    10.05219818     6.42315691
O      7.63368932     2.14192715     9.60542761
O      9.67985261     1.11771969     3.26466483
O      7.74424951     2.23046471     4.81312051
O      7.74390532     0.00000000     1.68386529
O      9.70012645     1.11543653     7.94343817
O     -1.88606329     3.35937389     6.37756383
O     -2.59150639     5.37310559    10.32435692
O      0.00000000     4.47087876     3.26466483
O     -1.91502472     5.60944503     4.82076726
O     -1.93594729     3.35315907     1.68386529
O     -0.39328742     5.00672322     8.10732765
O      1.82659481     3.39886737     6.51867711
O      1.82571421     5.54655870     9.14001790
O      3.87201074     4.47087876     3.26466483
O      1.94239164     5.57535103     4.80326523
O      1.93594729     3.35315907     1.68386529
O      3.93309126     4.36583139     7.96875997
O      5.83043919     3.34290588     6.39941259
O      5.84617351     5.55923233     9.59547554
O      7.74390532     4.47087876     3.26466483
O      5.80825360     5.58927946     4.83127598
O      5.80795803     3.35315907     1.68386529
O      7.73658916     4.49645558     7.94593521
O     -3.84244049     6.73889003     6.43562476
O     -3.77830482     8.89012279     9.51698085
O     -1.93600537     7.82413842     3.26466483
O     -3.87034478     8.94247931     4.81020335
O      7.74384724     6.70641873     1.68386529
O     -1.71045649     7.50057090     8.10947122
O      0.10016019     6.77588718     6.41236801
O      0.03901406     8.89422207     9.38299462
O      1.93600537     7.82413842     3.26466483
O      0.00281478     8.94454505     4.79443400
O     -0.00005808     6.70641873     1.68386529
O      1.84580904     7.82522631     7.99939645
O      3.86277064     6.71623917     6.42302609
O      3.92387676     9.05803416     9.53651443
O      5.80789995     7.82413842     3.26466483
O      3.89298844     8.95150096     4.80499039
O      3.87195266     6.70641873     1.68386529
O      5.84845817     7.84366462     7.96241370
O      2.14456264     7.39954896    11.28407463
N     -0.03770410     6.60841389    10.54060274
N      1.26420512     6.68018603    11.63285121
H     -2.70822119     5.50186947    11.29506807
H     -0.67179060     7.34808402    10.87399347
H     -0.44287004     5.68552602    10.74810178
