87
CIF: 5-NHNO+2H-N2O+3H_fs.cif | data_image0
Ce     0.01169316     0.01098827     8.74637186
Ce     1.93104881     1.10464092     5.59524475
Ce     0.00000000     2.23543938     2.47426506
Ce    -1.92437342     9.99834477     8.76519478
Ce     5.80749563     1.09592241     5.61117932
Ce     3.87189458     2.23543938     2.47426506
Ce     1.94001954    10.02847115     8.78445217
Ce     9.68787244     1.12288346     5.62526854
Ce     7.74390532     2.23543938     2.47426506
Ce     9.69119716     3.32357421     8.81136143
Ce    -0.00657933     4.52692475     5.62142864
Ce    -1.93600537     5.58869904     2.47426506
Ce     1.96558002     3.25403744     8.74369477
Ce     3.86770385     4.48089946     5.64359108
Ce     1.93588921     5.58869904     2.47426506
Ce     5.81628232     3.21401595     8.78793442
Ce     7.74759868     4.47789925     5.66120211
Ce     5.80789995     5.58869904     2.47426506
Ce    -3.81313906     6.78132988     8.79124943
Ce    -1.90893604     7.79840314     5.58974704
Ce    -3.87195266     8.94185811     2.47426506
Ce     1.91382522     7.80249634     5.58740081
Ce    -0.00005808     8.94185811     2.47426506
Ce     3.80523752     6.78159133     8.80349376
Ce     5.80623279     7.82043228     5.63403191
Ce     3.87195266     8.94185811     2.47426506
Ir     0.03095181     6.84652445     8.94822928
O     -5.80094137    10.05734199     6.44311630
O      0.14121381     2.24896083     9.54334861
O      1.93594729     1.11771969     3.26466483
O      0.00318130     2.22295958     4.81373798
O      0.00000000     0.00000000     1.68386529
O      1.96493718     1.11461475     7.93943958
O     -1.95668791    10.00878597     6.44876133
O      3.88885505     2.16298006     9.59488588
O      5.80795803     1.11771969     3.26466483
O      3.86539602     2.23649935     4.84037905
O      3.87189458     0.00000000     1.68386529
O      5.79602970     1.01136947     7.99768767
O      1.96166833    10.01820394     6.47047924
O      7.61755431     2.11677044     9.63417494
O      9.67985261     1.11771969     3.26466483
O      7.74352769     2.23553292     4.85224364
O      7.74390532     0.00000000     1.68386529
O      9.69282627     1.09991646     7.98381780
O     -1.88471005     3.38473068     6.46325889
O     -1.58523810     5.94527827    10.00017069
O      0.00000000     4.47087876     3.26466483
O     -2.01537139     5.53758509     4.79529767
O     -1.93594729     3.35315907     1.68386529
O      0.10038778     4.94743623     8.10112324
O      1.88530147     3.35904849     6.48574871
O      1.64705870     5.92076937    10.01410464
O      3.87201074     4.47087876     3.26466483
O      2.01492201     5.52940623     4.79736664
O      1.93594729     3.35315907     1.68386529
O      3.82883254     4.45059158     8.10013482
O      5.78695915     3.31498902     6.49212184
O      5.81580598     5.48912795    10.00991137
O      7.74390532     4.47087876     3.26466483
O      5.80595849     5.56831081     4.85303559
O      5.80795803     3.35315907     1.68386529
O      7.68124587     4.47616378     8.07972561
O     -3.85214331     6.74071241     6.42349569
O     -3.79078852     9.05771491     9.58453397
O     -1.93600537     7.82413842     3.26466483
O     -3.89221305     8.95572549     4.79975603
O     -3.87195266     6.70641873     1.68386529
O     -1.61744974     7.67029547     7.97023996
O      0.00305824     6.70961306     5.93687444
O     -0.00606670     8.73063791     9.69401738
O      1.93600537     7.82413842     3.26466483
O      0.00750371     9.03340739     4.78493725
O     -0.00005808     6.70641873     1.68386529
O      1.63017123     7.65641004     7.97146993
O      3.85664349     6.72675778     6.42552548
O      3.79062516     9.05149804     9.61350238
O      5.80789995     7.82413842     3.26466483
O      3.89016185     8.95901961     4.81063659
O      3.87195266     6.70641873     1.68386529
O      5.80728985     7.85597796     8.04308852
O      4.07554084     7.12602614    12.11323364
H     -1.38784446     6.02447665    10.95003754
H      5.70258061     5.47251910    10.97699128
H      1.53790254     6.11705206    10.96154151
N      5.20143730     9.14657190    12.50804691
N      4.64834429     8.16517776    12.31543428
