    86
 Tv_1:  11.598200   0.000000   0.000000 Tv_2:  -5.799100  10.044336   0.000000 Tv_3:   0.000000   0.000000  22.891600
Ce      2.14531905      1.20773094      3.19108904
Ce      0.15512013      2.34855656      9.69795767
Ce      0.21717050      0.09354290      6.41896488
Ce      6.01134706      1.20773094      3.19108904
Ce      4.08061790      0.13802926      6.42457332
Ce      9.87749105      1.20773094      3.19108904
Ce      7.95370921      2.30563711      9.66158291
Ce      7.94044087      0.07272099      6.42734321
Ce      0.21230505      4.55580941      3.19108904
Ce     -1.73079359      5.62045878      9.75800233
Ce     -1.72189197      3.43496197      6.41516488
Ce      4.07833306      4.55580941      3.19108904
Ce      2.16006617      3.40025879      6.47813967
Ce      7.94447705      4.55580941      3.19108904
Ce      6.13772105      5.58623773      9.64322385
Ce      6.01960498      3.43391736      6.42835044
Ce     -1.72076694      7.90398831      3.19108904
Ce     -3.67724410      9.00918668      9.70068177
Ce     -3.63331012      6.80047740      6.43157815
Ce      2.14526106      7.90398831      3.19108904
Ce      0.13790840      9.21560782      9.74417581
Ce      0.15183784      6.80514802      6.39259376
Ce      6.01140505      7.90398831      3.19108904
Ce      4.15210341      9.08187753      9.67630221
Ce      4.12484184      6.78936837      6.37611181
Ga      3.37547634      2.01984563      9.75122642
O       0.21230505      2.32375710      2.40201559
O       1.94794669      1.08164439     10.66116752
O       2.11968703      1.18764227      5.60857935
O       0.17462830      2.32834736      7.22097209
O       0.20725983      0.09182532      8.81967565
O       0.21230505      0.09170479      3.98039141
O       4.07833306      2.32375710      2.40201559
O       6.38967454      1.08124262     10.73453510
O       6.03801712      1.16089420      5.58557329
O       4.11244916      2.34538255      7.02410433
O       4.02320681      0.38831402      8.97007346
O       4.07833306      0.09170479      3.98039141
O       7.94436106      2.32375710      2.40201559
O       9.88360910      1.16927118     10.47787448
O       9.88588235      1.16603690      5.59880464
O       7.96315595      2.26534928      7.18152986
O       7.96864769      0.06155169      8.80092743
O       7.94436106      0.09170479      3.98039141
O      -1.72076694      5.67193600      2.40201559
O      -0.24730842      4.32187682     10.72494352
O       0.24458284      4.58947802      5.62139865
O      -1.68695819      5.71408204      7.25819383
O      -1.78937030      3.44108901      8.77892860
O      -1.72070895      3.43978325      3.98039141
O       2.14526106      5.67193600      2.40201559
O       4.43002528      3.09130506     10.82829909
O       4.04753404      4.62566776      5.61235646
O       2.12392617      5.67931859      7.39671090
O       2.18392946      3.14126559      8.83345639
O       2.14531905      3.43978325      3.98039141
O       6.01128907      5.67193600      2.40201559
O       7.93329638      4.56888713     10.58619753
O       7.95245661      4.57589808      5.62062033
O       6.00528120      5.75040236      7.25089141
O       6.23725680      3.55495161      8.73918878
O       6.01134706      3.43978325      3.98039141
O      -3.65378095      9.02001447      2.40201559
O      -1.73968361      8.00824852     10.45576119
O      -1.72375928      7.91915526      5.58600823
O      -3.61392373      9.01592642      7.29001315
O      -3.62929715      6.73745924      8.86696969
O      -3.65378095      6.78796216      3.98039141
O       0.21224706      9.02001447      2.40201559
O       2.15158208      7.99679798     10.57962764
O       2.12677933      7.86701511      5.63204324
O       0.13417378      9.01520323      7.32606742
O       0.20507357      6.79194976      8.97845179
O       0.21224706      6.78796216      3.98039141
O       4.07827507      9.02001447      2.40201559
O       6.02487636      7.87219799     10.45814192
O       6.03092482      7.91710622      5.58788534
O       4.10003909      8.93854486      7.28520592
O       4.11015272      6.64857691      9.00695183
O       4.07827507      6.78796216      3.98039141
Au      2.14251809      6.53077694      9.19312921
H       5.18418663      2.49037254     11.06515848
H       1.39318738      5.09733973     11.13113207
H       3.18458736      4.73925916     10.75870863
H       2.73967461      6.21777535     11.79473666
C       2.43163802      5.47559937     11.05730666
