    87
 Tv_1:  11.598200   0.000000   0.000000 Tv_2:  -5.799100  10.044336   0.000000 Tv_3:   0.000000   0.000000  22.891600
Ce      2.14531905      1.20773094      3.19108904
Ce      0.19352177      2.43455616      9.69248657
Ce      0.23132610      0.10484278      6.40877812
Ce      6.01134706      1.20773094      3.19108904
Ce      4.08547755      0.08121850      6.36542143
Ce      9.87749105      1.20773094      3.19108904
Ce      7.90391234      2.28642230      9.72590831
Ce      7.94401892      0.06995880      6.44748781
Ce      0.21230505      4.55580941      3.19108904
Ce     -1.70839166      5.63023192      9.75569028
Ce     -1.73773511      3.43584587      6.43888057
Ce      4.07833306      4.55580941      3.19108904
Ce      2.12216905      3.47742942      6.40685522
Ce      7.94447705      4.55580941      3.19108904
Ce      6.13204373      5.65083285      9.65272386
Ce      6.00041576      3.42717761      6.49073005
Ce     -1.72076694      7.90398831      3.19108904
Ce     -3.63508465      9.02493619      9.68335282
Ce     -3.63186615      6.78381385      6.42924321
Ce      2.14526106      7.90398831      3.19108904
Ce      0.10527686      9.15099261      9.68197933
Ce      0.20575207      6.78527028      6.40511546
Ce      6.01140505      7.90398831      3.19108904
Ce      4.24028452      9.10232780      9.63383829
Ce      4.09411241      6.77634086      6.39220460
Ga      3.39681123      2.00804353      9.10620981
O       0.21230505      2.32375710      2.40201559
O       2.19790529      1.24194195     10.41405270
O       2.14475074      1.20847422      5.59434077
O       0.19777251      2.35061565      7.23852994
O       0.27154866      0.12463012      8.82448288
O       0.21230505      0.09170479      3.98039141
O       4.07833306      2.32375710      2.40201559
O       6.36752778      0.98324004     10.69994589
O       6.00284558      1.20264851      5.60587814
O       4.05165140      2.30263386      7.25906371
O       4.08092525      0.24141561      8.83977447
O       4.07833306      0.09170479      3.98039141
O       7.94436106      2.32375710      2.40201559
O       9.92000425      1.18451848     10.46308650
O       9.86753979      1.19017344      5.62231431
O       7.88880568      2.25768546      7.29706377
O       2.19623515      9.96978678      8.89833119
O       7.94436106      0.09170479      3.98039141
O      -1.72076694      5.67193600      2.40201559
O      -0.21221806      4.34167421     10.72485195
O       0.16657335      4.55665313      5.58236847
O      -1.68588536      5.69790061      7.26810589
O      -1.79886342      3.43593627      8.79953104
O      -1.72070895      3.43978325      3.98039141
O       2.14526106      5.67193600      2.40201559
O       4.15122194      4.73047036     11.45639881
O       4.12752682      4.54135561      5.60619862
O       2.14770828      5.68650029      6.99782477
O       2.20232421      3.40623517      8.81651661
O       2.14531905      3.43978325      3.98039141
O       6.01128907      5.67193600      2.40201559
O       7.92755527      4.57597843     10.55215772
O       7.93518689      4.54755296      5.64287097
O       6.01453657      5.69791066      7.28300832
O       5.99092263      3.50059166      8.94381679
O       6.01134706      3.43978325      3.98039141
O      -3.65378095      9.02001447      2.40201559
O      -1.75371743      8.01610319     10.49936969
O      -1.71535058      7.89685684      5.58278052
O      -3.61503716      9.01761387      7.25086852
O      -3.62065069      6.77905283      8.85495160
O      -3.65378095      6.78796216      3.98039141
O       0.21224706      9.02001447      2.40201559
O       3.62090005      8.32492634     12.33035432
O       2.15216779      7.94980053      5.60178054
O       0.16782015      9.02396189      7.27479024
O       0.19254172      6.83539151      9.00775303
O       0.21224706      6.78796216      3.98039141
O       4.07827507      9.02001447      2.40201559
O       6.09374647      7.94706847     10.51690466
O       6.02692924      7.89949850      5.60031548
O       4.14033124      8.98412606      7.27293602
O       4.14339316      6.74725247      9.07800735
O       4.07827507      6.78796216      3.98039141
O       2.95226382      5.09597370     11.47130124
O       5.19185884      7.15149681     13.63025382
O       3.15613698      4.27153461     14.54857325
Au      2.15674908      6.61404448      9.26340642
H       2.30904504      3.97455374     14.17127390
H       3.82259275      3.72466070     14.09596053
C       4.42097288      7.73531378     12.97374563
