83
CIF: Cr-Mo-CeO2-Ov-O2.cif | data_image0
Ce     1.93596140     1.11772783     0.89035214
Ce     0.00600118     2.22502248     4.02433115
Ce     5.81193542    10.04156405     7.19344765
Ce     5.80789581     1.11772783     0.89035214
Ce     3.85404675     2.21350755     3.97782276
Ce    -2.07614920     9.91065390     7.20150996
Ce     9.67981860     1.11772783     0.89035214
Ce     7.74153760     2.23125313     4.02843174
Ce     2.02079907     9.93746961     7.31729807
Ce     0.00000000     4.47091133     0.89035214
Ce    -1.96171876     5.59542715     4.09415655
Ce    -1.63772068     3.37257695     7.23914078
Ce     3.87193441     4.47091133     0.89035214
Ce     1.95608396     5.58797357     4.08767388
Ce     1.91739988     3.31811759     7.26765446
Ce     7.74385721     4.47091133     0.89035214
Ce     5.83092956     5.62590901     3.99717397
Ce    -1.93596721     7.82410489     0.89035214
Ce    -3.88176125     8.92471772     4.01159874
Ce    -3.84384717     6.81816454     7.35640215
Ce     1.93596721     7.82410489     0.89035214
Ce     0.00046838     8.96963597     4.08219729
Ce     0.01876002     6.72664132     7.24962179
Ce     5.80789000     7.82410489     0.89035214
Ce     3.86246178     8.95652847     4.04856100
Ce     3.84752183     6.81442867     7.28199143
Mo     5.38614642     3.60897374     7.03041883
O      0.00000000     0.00000000     0.09999685
O      1.93333053     1.11251803     3.20257656
O      0.07087742     2.23081128     6.34874635
O      0.00000000     2.23545567     1.68070743
O     -5.77896330    10.04859043     4.83320723
O      1.98083334     0.97986371     8.00647677
O      3.87192279     0.00000000     0.09999685
O      5.72706356     1.10746703     3.22989506
O      4.24990493     2.16567595     6.66886374
O      3.87192279     2.23545567     1.68070743
O      3.81331775     0.04655174     4.87984455
O      7.27969878     1.11734576     9.55234587
O      7.74385721     0.00000000     0.09999685
O      9.74102627     1.09252159     3.22396452
O      7.21159486     2.56845858     7.17189733
O      7.74385721     2.23545567     1.68070743
O      1.91124494    10.05933599     4.89399522
O      9.79706056     1.22878606     7.89920327
O     -1.93596140     3.35318350     0.09999685
O      0.00542560     4.47353290     3.29239086
O     -1.95913273     5.53776078     6.52317104
O     -1.93596721     5.58864923     1.68070743
O      9.67382239     3.34259305     4.94755369
O      0.03248350     4.50291376     8.09728750
O      1.93596140     3.35318350     0.09999685
O      3.90818696     4.46100017     3.22115469
O      1.86346387     5.61897782     6.34983978
O      1.93595559     5.58864923     1.68070743
O      2.06046857     3.29060530     4.85538459
O      5.80789581     3.35318350     0.09999685
O      7.72477338     4.53423240     3.23558141
O      5.99174384     5.31474240     6.59515403
O      5.80789000     5.58864923     1.68070743
O      5.70173106     3.39718932     5.05438151
O      8.60850467     3.75705360     9.25516317
O     -3.87192860     6.70637706     0.09999685
O     -1.94399329     7.83201820     3.25291572
O     -3.85739915     8.91426230     6.36526727
O     -3.87192860     8.94183273     1.68070743
O      7.70888246     6.69836029     4.86630038
O     -1.88486988     7.89525149     8.12811151
O     -0.00000581     6.70637706     0.09999685
O      1.93565034     7.81329610     3.27526921
O     -0.08642854     9.07197373     6.50441896
O     -0.00000581     8.94183273     1.68070743
O     -0.06319149     6.76861970     4.90302418
O      3.87192860     6.70637706     0.09999685
O      5.81045313     7.82652641     3.21340140
O      3.90167224     8.97472401     6.37127597
O      3.87192860     8.94183273     1.68070743
O      3.96899696     6.66819999     4.86258684
O      5.81050573     7.98097397     8.07864601
O      1.82885165     7.74958824     8.10547390
O      3.94052789     4.44598196     7.80271070
O      5.82289057     3.43468561     8.94635502
Cr     7.38826399     2.65250882     8.99249298
