84
CIF: Ni-Rh-CeO2-CO.cif | data_image0
Ce     1.93038582     1.11050507     0.88387043
Ce    -0.00350643     2.22710177     4.02953924
Ce    -5.76581201    10.03492882     7.22374646
Ce     5.81181033     1.12175166     0.90127712
Ce     3.85042705     2.22737505     4.02713168
Ce    -1.91406640    10.04540770     7.21254090
Ce     9.66901012     1.12377363     0.90450652
Ce     7.73332115     2.24124701     4.08807720
Ce     2.00552735    10.00744987     7.22453969
Ce    -0.00709724     4.47602159     0.89067279
Ce    -1.93850673     5.58387640     4.05483956
Ce    -1.85678574     3.31853213     7.22487852
Ce     3.86254305     4.47635356     0.87798423
Ce     1.94321638     5.58410342     4.04768155
Ce     1.87908377     3.31509803     7.18396436
Ce     7.74213807     4.46545905     0.90125422
Ce     5.80410639     5.61092252     4.02667035
Ce    -1.94645625     7.83004003     0.90010904
Ce    -3.86484636     8.93765385     4.05217702
Ce    -3.84869096     6.69413877     7.21292100
Ce     1.92815559     7.82745473     0.89060408
Ce     0.00264300     8.94601486     4.05463324
Ce     0.01046739     6.69991784     7.19179314
Ce     5.81127600     7.83258510     0.88371011
Ce     3.87734805     8.94868990     4.02944918
Ce     3.87618482     6.77389016     7.18420101
Rh     4.90725883     3.87317877     6.54032818
Ni     6.84710964     2.75206364     8.04949850
O     11.61334069     0.00154917     0.10141687
O      1.93754649     1.11042812     3.22630903
O      0.02464247     2.21202582     6.38220907
O     -0.00785227     2.23805103     1.69392277
O     -5.78855338    10.04800559     4.84779021
O      1.94078720     1.08479356     8.01275733
O     -1.93899312    10.05733740     0.10496691
O      5.80970330     1.12519201     3.25194847
O      3.83163643     2.17194122     6.43125834
O      3.86763657     2.23577757     1.68132582
O     -1.93013149    10.05277802     4.86360289
O      6.01077094     1.02495143     8.09468017
O      7.73821774     0.00761509     0.10924988
O      9.67306833     1.12133629     3.24502034
O      7.77998256     2.21389787     6.51696418
O      7.74357843     2.23531483     1.71563532
O      7.75578189     0.01585430     4.86865208
O      9.78218229     1.05794560     8.01955582
O      9.67032270     3.35425987     0.10911246
O     -0.00700934     4.47147367     3.23735171
O     -1.92522721     5.58491639     6.42310916
O     -1.94403436     5.59119430     1.70564938
O      9.67148655     3.33462286     4.86859463
O      0.03497556     4.44679727     8.00505867
O      1.92738314     3.35244915     0.09928684
O      3.86061745     4.47730468     3.20973153
O      1.90488403     5.60626293     6.37689157
O      1.92862022     5.59252216     1.67404250
O      1.91742132     3.34274961     4.83637059
O      3.77440141     4.52685376     7.97543180
O      5.81155478     3.35101064     0.10766953
O      7.73802168     4.46521913     3.25189514
O      5.84239095     5.65460189     6.43111028
O      5.80528807     5.59217007     1.68114259
O      5.79138654     3.36249942     4.83495165
O      7.92477394     4.34004412     8.09496106
O     -3.87155109     6.71022987     0.10512724
O     -1.93874893     7.82558372     3.24246931
O     -3.83131222     8.91801491     6.41133355
O     -3.87509971     8.94378428     1.69355631
O     -3.86323355     6.70430560     4.86345051
O     -1.92534206     7.81775217     8.00495848
O     -0.01209783     6.71325780     0.10434852
O      1.93189580     7.82942903     3.23717880
O      0.00852992     8.93376053     6.42285663
O     -0.00628994     8.94736548     1.70514550
O     -0.01281417     6.71339112     4.85118947
O      1.97409283     7.80535765     8.00506223
O      3.86815347     6.71410280     0.09951587
O      5.81485848     7.82609754     3.22610137
O      3.90437949     8.93143606     6.38211407
O      3.86556896     8.94715423     1.69389986
O      3.87145813     6.72726658     4.83617906
O      5.83855481     7.83585415     8.01298902
O      5.66606395     3.42645500    10.60975509
C      6.11803207     3.16951858     9.58078356
