90
CIF: CH2CHCH3→CHCHCH3+H.cif | data_VESTA_phase_1
O     -0.00101584     0.09961518     0.10145935
O      1.91778750     1.19836431     3.24633429
O     -0.01567384     2.29293837     6.42115889
O     -0.00101584     2.30864459     1.66347260
O      0.00299588     0.09501266     4.87139467
O      1.87558118     1.19140586     8.09181667
O      3.82513533     0.09961518     0.10145935
O      5.73284473     1.19805615     3.24430419
O      3.76168238     2.34908312     6.48749068
O      3.82513533     2.30864459     1.66347260
O      3.83316452     0.11547050     4.89612082
O      5.74750847     1.04179919     8.09145171
O      7.65129798     0.09961518     0.10145935
O      9.56362173     1.20431875     3.23711900
O      7.70153922     2.27711287     6.43863143
O      7.65129798     2.30864459     1.66347260
O      7.64791183     0.09303447     4.86539561
O      9.58022533     1.19166432     8.08577200
O     -1.91409143     3.41315929     0.10145935
O     -0.00105028     4.51616302     3.23467832
O     -1.88366776     5.63774581     6.40651480
O     -1.91409717     5.62219864     1.66347260
O     -1.91070528     3.41651923     4.86769943
O      0.00397155     4.50537742     8.04881962
O      1.91205974     3.41315929     0.10145935
O      3.82203040     4.51762429     3.25707785
O      1.99694873     5.57344973     6.47446611
O      1.91205400     5.62219864     1.66347260
O      1.88427612     3.40336776     4.86845216
O      3.72157662     4.54608435     8.49899988
O      5.73822240     3.41315929     0.10145935
O      7.65266392     4.52391672     3.24478320
O      5.66150034     5.64882962     6.49358098
O      5.73821666     5.62219864     1.66347260
O      5.74628602     3.40738378     4.85912283
O      7.78464331     4.58900805     8.09453108
O     -3.82717276     6.72671335     0.10145935
O     -1.91442431     7.82853414     3.26088713
O     -3.81712336     8.93086190     6.43892796
O     -3.82717276     8.93574276     1.66347260
O     -3.84453394     6.70940669     4.90100219
O     -1.89679338     7.81938875     8.06173014
O     -0.00102158     6.72671335     0.10145935
O      1.91213435     7.82931945     3.23438179
O      0.00413799     8.89221269     6.40505495
O     -0.00102158     8.93574276     1.66347260
O      0.03900382     6.69969468     4.88026780
O      1.93104512     7.82169498     8.06157047
O      3.82514107     6.72671335     0.10145935
O      5.74524148     7.82731144     3.24519378
O      3.82572073     8.95283072     6.41812515
O      3.82514107     8.93574276     1.66347260
O      3.81982654     6.75263854     4.86660455
O      5.72664636     7.87421139     8.07270180
Ce     1.91205974     1.20412988     0.88247738
Ce    -0.00619263     2.30266032     4.03476560
Ce    -0.00438477     0.10059930     7.26422041
Ce     5.73822240     1.20412988     0.88247738
Ce     3.83056464     2.31246179     4.07789951
Ce     3.83883488     0.07884917     7.25019219
Ce     9.56437357     1.20412988     0.88247738
Ce     7.64411246     2.31077188     4.06015325
Ce     7.64830210     0.09516177     7.24921136
Ce    -0.00101584     4.51767400     0.88247738
Ce    -1.91235244     5.61474316     4.05353832
Ce    -1.91749480     3.41605202     7.24927979
Ce     3.82514681     4.51767400     0.88247738
Ce     1.91969292     5.61473322     4.05686859
Ce     1.82836452     3.34342569     7.22441677
Ce     7.65129798     4.51767400     0.88247738
Ce     5.73648915     5.61294390     4.07675900
Ce     5.80422931     3.37159747     7.32521463
Ce    -1.91409717     7.83122805     0.88247738
Ce    -3.82908392     8.93408267     4.06330104
Ce    -3.80979436     6.72106706     7.26171130
Ce     1.91206548     7.83122805     0.88247738
Ce     0.00647385     8.93381427     4.05130293
Ce     0.01307397     6.71404897     7.23052988
Ce     5.73821666     7.83122805     0.88247738
Ce     3.82639796     8.94245269     4.03319170
Ce     3.84401740     6.83022526     7.21595422
C      3.26662766     4.75203458     9.76728739
C      3.34185178     3.85820185    10.78450407
C      4.02728258     2.53155355    10.73710467
H      2.69876504     5.68204131     9.92182586
H      4.98650346     5.84818920    10.37218859
H      2.86999504     4.16834989    11.71798484
H      3.44607624     1.79042896    10.16051081
H      4.17208341     2.12090562    11.74549383
H      5.02240810     2.58280750    10.26468456
