84
CIF: 1-NH3-NH2+H_ts.cif | data_image0
Ce     5.79446931    10.04517241     8.79131124
Ce     1.92562267     1.09116466     5.59022789
Ce     0.00000000     2.23543938     2.47426506
Ce    -1.89716847     9.96016737     8.77952616
Ce     5.79538255     1.11794597     5.62187299
Ce     3.87189458     2.23543938     2.47426506
Ce     7.68155157     0.01554788     8.79060589
Ce     9.68950450     1.12518108     5.63597081
Ce     7.74390532     2.23543938     2.47426506
Ce     9.63427500     3.33635885     8.82083575
Ce     0.00173351     4.49297294     5.65070259
Ce    -1.93600537     5.58869904     2.47426506
Ce     1.94481591     3.14624373     8.70933239
Ce     3.85484877     4.48408918     5.63023812
Ce     1.93588921     5.58869904     2.47426506
Ce     5.79130753     3.36437466     8.79013637
Ce     7.74189337     4.48260779     5.62989268
Ce     5.80789995     5.58869904     2.47426506
Ce    -3.85279041     6.72243085     8.80043893
Ce    -1.94081721     7.81257282     5.67157448
Ce    -3.87195266     8.94185811     2.47426506
Ce     1.93757698     7.82807647     5.62057215
Ce    -0.00005808     8.94185811     2.47426506
Ce     4.01036536     6.79394511     8.77570451
Ce     5.81268357     7.82142519     5.59409149
Ce     3.87195266     8.94185811     2.47426506
Ni     0.54532636     6.48943932     8.38646152
O     11.59797109     0.00326970     6.41470129
O      0.00476140     2.23132514     9.54398757
O      1.93594729     1.11771969     3.26466483
O     -0.00578674     2.24246872     4.80823023
O      0.00000000     0.00000000     1.68386529
O      1.93127902     1.06492404     7.94069821
O     -1.92018362    10.04925714     6.41189703
O      3.83802763     2.19946945     9.56996990
O      5.80795803     1.11771969     3.26466483
O      3.86223055     2.24314226     4.81522694
O      3.87189458     0.00000000     1.68386529
O      5.80688551     1.18557947     7.92027001
O      1.93568441    10.03064175     6.44559797
O      7.72722580     2.25261301     9.57936958
O      9.67985261     1.11771969     3.26466483
O      7.74436549     2.25451486     4.84563916
O      7.74390532     0.00000000     1.68386529
O      9.65486266     1.14566979     7.97218035
O     -1.86034764     3.38645033     6.48545441
O     -2.19978635     5.39894800     9.95145894
O      0.00000000     4.47087876     3.26466483
O     -1.90810436     5.59298372     4.83414852
O      9.67985261     3.35315907     1.68386529
O      0.13218162     4.65527616     8.13613646
O      1.90182790     3.31632712     6.42923730
O      3.87201074     4.47087876     3.26466483
O      1.92728014     5.58755559     4.83316544
O      1.93594729     3.35315907     1.68386529
O      3.68069015     4.50085309     8.10923031
O      5.74246983     3.41087408     6.46097539
O      5.88413663     5.53191610     9.55922418
O      7.74390532     4.47087876     3.26466483
O      5.79773375     5.57017490     4.79330287
O      5.80795803     3.35315907     1.68386529
O      7.79257508     4.45842276     7.97167594
O      7.70677293     6.66750410     6.38272937
O     -3.90557976     8.93938516     9.62833113
O     -1.93600537     7.82413842     3.26466483
O     -3.87050129     8.93748511     4.81325628
O      7.74384724     6.70641873     1.68386529
O     -2.09504178     7.81344385     7.94729091
O      0.05202146     6.70366159     6.52086252
O      0.00949596     9.19266911     9.54108713
O      1.93600537     7.82413842     3.26466483
O      0.00591765     8.92253699     4.82671105
O     -0.00005808     6.70641873     1.68386529
O      1.85896972     7.68888193     8.04248583
O      3.90334204     6.71218835     6.39259196
O      3.90811035     9.04214664     9.59697472
O      5.80789995     7.82413842     3.26466483
O      3.86682895     8.95045467     4.81115712
O      3.87195266     6.70641873     1.68386529
O      5.86324416     7.85590891     7.95379093
N      0.38564826     6.36266280    10.25086400
H      0.92076891     5.69274896    10.84175463
H     -1.27504382     5.82081112    10.22190054
H      0.50958893     7.28128191    10.71143202
