86
CIF: 5-NHNO+2H-N2O+H_fs.cif | data_image0
Ce     5.78703623    10.05789869     8.80650666
Ce     1.93276400     1.10960544     5.60557471
Ce     0.00000000     2.23543938     2.47426506
Ce    -1.96001385    10.04009207     8.78156471
Ce     5.81291610     1.11203083     5.62802491
Ce     3.87189458     2.23543938     2.47426506
Ce     7.77210887     0.02465847     8.77975115
Ce     9.68228366     1.10139434     5.57812377
Ce     7.74390532     2.23543938     2.47426506
Ce     9.67378295     3.18789448     8.72846607
Ce    -0.00252172     4.45341054     5.61055942
Ce    -1.93600537     5.58869904     2.47426506
Ce     1.93253033     3.18682460     8.79523156
Ce     3.85459660     4.48578837     5.66659252
Ce     1.93588921     5.58869904     2.47426506
Ce     5.80839247     3.35546641     8.79930591
Ce     7.75824958     4.47820531     5.63274642
Ce     5.80789995     5.58869904     2.47426506
Ce    -3.92352434     6.81294017     8.73428389
Ce    -1.93279807     7.82680109     5.66430009
Ce    -3.87195266     8.94185811     2.47426506
Ce     1.94211417     7.83321619     5.61278558
Ce    -0.00005808     8.94185811     2.47426506
Ce     3.99028585     6.79139537     8.78782913
Ce     5.80360271     7.83238983     5.58380606
Ce     3.87195266     8.94185811     2.47426506
Ni     0.73374522     6.27153352     8.26599910
O     11.60438708     0.00802356     6.39016649
O     -0.12370393     2.10108214     9.64687342
O      1.93594729     1.11771969     3.26466483
O      0.00492746     2.23119695     4.78858986
O      0.00000000     0.00000000     1.68386529
O      1.92957136     1.04023050     7.96576436
O     -1.92695581    10.05825603     6.42301574
O      3.98110664     2.12788438     9.61169339
O      5.80795803     1.11771969     3.26466483
O      3.88540970     2.25231938     4.84074807
O      3.87189458     0.00000000     1.68386529
O      5.83641309     1.07045961     7.96386716
O      1.95335811    10.04205736     6.40352408
O      7.74877081     2.22630538     9.57527261
O      9.67985261     1.11771969     3.26466483
O      7.72831869     2.24283231     4.81795415
O      7.74390532     0.00000000     1.68386529
O      9.66112354     1.09932213     7.91624896
O      9.69944741     3.31401139     6.39550316
O     -1.89645880     5.63849744    10.15658874
O      0.00000000     4.47087876     3.26466483
O     -1.94356383     5.57982898     4.82747190
O     -1.93594729     3.35315907     1.68386529
O     -0.16228578     4.47188283     8.15185767
O      1.89633878     3.34245210     6.41957434
O      3.87201074     4.47087876     3.26466483
O      1.94919295     5.57415691     4.81557991
O      1.93594729     3.35315907     1.68386529
O      3.85368678     4.47797150     8.07885705
O      5.83912838     3.38631752     6.50353201
O      5.96540252     5.57305601     9.60279490
O      7.74390532     4.47087876     3.26466483
O      5.80328233     5.57456061     4.82180922
O      5.80795803     3.35315907     1.68386529
O      7.92719975     4.53453395     8.04065668
O      7.72220295     6.70723612     6.40577234
O     -3.91331151     8.94435864     9.65808445
O     -1.93600537     7.82413842     3.26466483
O     -3.86599872     8.94077059     4.81273107
O     -3.87195266     6.70641873     1.68386529
O     -2.03158269     7.85102854     8.03493352
O      0.01144327     6.69152058     6.33180158
O     -0.00470889     9.24174538     9.97186940
O      1.93600537     7.82413842     3.26466483
O     -0.00188888     8.94668584     4.81856674
O     -0.00005808     6.70641873     1.68386529
O      1.88419944     7.90925545     8.10675879
O      3.86818009     6.73666207     6.40237544
O      3.90286393     9.09231837     9.64122021
O      5.80789995     7.82413842     3.26466483
O      3.87013353     8.93815821     4.78918618
O      3.87195266     6.70641873     1.68386529
O      5.84935651     7.87327779     7.94667949
O      2.42025239     7.00013112    13.18826246
N      0.55934158     6.35938512    11.91974700
N      1.45938565     6.67441781    12.55330018
H     -1.10771685     5.92841997     9.60344275
H     -1.62474514     5.79721577    11.08098348
H      0.03173746     8.26657060     9.88034253
