86
CIF: 5-NHNO+2H-N2O+H_ts.cif | data_image0
Ce    11.59988162     0.01006993     8.81769031
Ce     1.93897522     1.11981558     5.61449877
Ce     0.01052539     2.24814125     2.48198626
Ce    -1.95921001    10.05834672     8.79502652
Ce     5.82007815     1.12342599     5.64050381
Ce     3.88406660     2.24675299     2.49013254
Ce     7.78172234     0.03853519     8.79108829
Ce     9.69241518     1.10986389     5.58527602
Ce     7.74928583     2.24716589     2.48767431
Ce     9.66968555     3.19787920     8.73471591
Ce     0.00085440     4.46590316     5.62456741
Ce    -1.92709873     5.59810154     2.48938331
Ce     1.93494757     3.20915020     8.79921686
Ce     3.86575896     4.49788325     5.67940409
Ce     1.94505449     5.59769955     2.48812647
Ce     5.81563743     3.37052146     8.81176808
Ce     7.76394817     4.48707669     5.64738890
Ce     5.81708120     5.59487388     2.48805775
Ce    -3.92438345     6.82528800     8.74004205
Ce    -1.92504528     7.83746935     5.67906302
Ce    -3.85780178     8.95067517     2.48289033
Ce     1.94912170     7.84223048     5.62944518
Ce     0.00823110     8.95069538     2.48841669
Ce     4.00117003     6.80682603     8.79542720
Ce     5.81258884     7.84685201     5.59343139
Ce     3.87638718     8.94947707     2.47835286
Ni     0.69888857     6.30005660     8.30487515
O     -0.00135099     0.01890191     6.40129252
O     -0.11831041     2.11858128     9.66031762
O      1.95459394     1.13277530     3.27493466
O      0.01162572     2.24164411     4.79609221
O      0.01267944     0.01252871     1.70087799
O      1.93525091     1.05934800     7.97775250
O      3.88387338     0.00844493     6.43459875
O      3.98743711     2.14594951     9.61570182
O      5.81567490     1.13371918     3.27799144
O      3.89446359     2.26520450     4.85625321
O      3.88382816     0.00512367     1.70051956
O      5.84134640     1.08109297     7.96772361
O      1.96100515    10.04651673     6.41176474
O      7.75339232     2.23980823     9.58466090
O      9.68336067     1.12918816     3.26877492
O      7.73491170     2.24946765     4.82865794
O      7.74929681     0.00566952     1.69871831
O      9.66743086     1.11440852     7.92026989
O     -1.90956046     3.32344278     6.39867035
O     -2.01165860     5.57403732    10.24474250
O      0.00934722     4.48290066     3.28508307
O     -1.93455648     5.58989549     4.84255263
O     -1.92724006     3.36867014     1.70130028
O     -0.17293854     4.48566812     8.17280237
O      1.89731189     3.35386486     6.42764452
O      3.88673740     4.47599346     3.28001190
O      1.96065576     5.58423206     4.82977067
O      1.94388843     3.36705540     1.70018784
O      3.85762533     4.50069946     8.09085969
O      5.84178800     3.39761138     6.51378024
O      5.97632198     5.58419985     9.61334386
O      7.74745734     4.47741930     3.28440946
O      5.80867118     5.58776748     4.83443005
O      5.81826070     3.36447949     1.69919702
O      7.92691250     4.54425952     8.03762493
O      7.73187732     6.72132261     6.41393594
O     -3.90516438     8.96321433     9.67018524
O     -1.92370991     7.83096472     3.28612654
O     -3.85890027     8.95261802     4.81841724
O     -3.85780768     6.71267161     1.70155058
O     -2.02208272     7.86222574     8.05567452
O      0.01783136     6.70432110     6.34138501
O     -0.00183915     9.31248868    10.01832441
O      1.94247261     7.83155070     3.28266712
O      0.00767708     8.95992874     4.83367882
O      0.00888230     6.71441500     1.70180287
O      1.88232252     7.91669225     8.13880980
O      3.87324524     6.75292736     6.41689916
O      3.91065939     9.10762251     9.65158295
O      5.81554392     7.82880792     3.26954309
O      3.88089777     8.94946510     4.79159864
O      3.87563110     6.71386677     1.69841829
O      5.85158264     7.88271718     7.95986910
O      2.62535437     6.49617655    12.29676400
N      0.45963866     6.32927912    11.40571029
N      1.49147307     6.41053247    11.90509550
H     -1.15852436     5.91212343     9.86048737
H     -1.90882922     5.65251162    11.20466353
H      0.01941985     8.33582675    10.05640681
