81
CIF: Cu-Mo-CeO2-Ov.cif | data_image0
Ce     1.93596140     1.11772783     0.89035214
Ce    -0.00355022     2.24225004     4.04461825
Ce     0.04205120     0.01725150     7.22719967
Ce     5.80789581     1.11772783     0.89035214
Ce     3.80929600     2.20872580     3.95875555
Ce    -2.02895139     9.98713322     7.29564320
Ce     9.67981860     1.11772783     0.89035214
Ce     7.79279257     2.22186231     3.97825420
Ce     2.03971683    10.04138065     7.29568652
Ce     0.00000000     4.47091133     0.89035214
Ce    -1.94530342     5.58124655     4.07703021
Ce    -1.82432179     3.42925983     7.31127659
Ce     3.87193441     4.47091133     0.89035214
Ce     1.95815498     5.59220995     4.09619676
Ce     1.77884473     3.30040160     7.25744178
Ce     7.74385721     4.47091133     0.89035214
Ce     5.79862547     5.61060871     4.00934584
Ce    -1.93596721     7.82410489     0.89035214
Ce    -3.87213079     8.92570979     4.06261466
Ce    -3.72106104     6.76137198     7.34731517
Ce     1.93596721     7.82410489     0.89035214
Ce     0.01241169     8.97188658     4.09667813
Ce     0.05997662     6.73870061     7.24912405
Ce     5.80789000     7.82410489     0.89035214
Ce     3.88787510     8.94371402     4.04826095
Ce     3.84089925     6.86353637     7.28215439
Mo     5.76103681     3.15332451     6.80706011
O      0.00000000     0.00000000     0.09999685
O      1.91595496     1.10296755     3.21021178
O     -0.02621863     2.24841239     6.38782706
O      0.00000000     2.23545567     1.68070743
O      0.02244891     0.01583522     4.87212923
O      1.80441962     1.04521636     8.09733514
O      3.87192279     0.00000000     0.09999685
O      5.81524161     1.11978046     3.21972028
O      4.08113731     2.39714980     6.54626195
O      3.87192279     2.23545567     1.68070743
O      3.85457527     0.08069437     4.84718640
O      5.74158873     2.25606262     8.49291806
O      7.74385721     0.00000000     0.09999685
O      9.70010959     1.12429455     3.21955981
O      7.47252234     2.43473611     6.48182106
O      7.74385721     2.23545567     1.68070743
O      7.78563202     0.07609041     4.85697425
O      9.73817546     1.28524857     8.05663882
O     -1.93596140     3.35318350     0.09999685
O     -0.00912341     4.47552121     3.28187211
O     -1.88042308     5.59913474     6.40118582
O     -1.93596721     5.58864923     1.68070743
O      9.63161477     3.31107492     4.91472830
O     -0.05338483     4.52145220     8.11427508
O      1.93596140     3.35318350     0.09999685
O      3.80547676     4.42709415     3.22636101
O      1.98237050     5.55483780     6.48829917
O      1.93595559     5.58864923     1.68070743
O      1.95814284     3.28968469     4.85277668
O      5.80789581     3.35318350     0.09999685
O      7.80468702     4.42430988     3.22720614
O      5.57408833     4.94239781     6.96386492
O      5.80789000     5.58864923     1.68070743
O      5.77742405     3.26401826     4.85887379
O      8.27751188     4.75379556     8.54487383
O     -3.87192860     6.70637706     0.09999685
O     -1.94672536     7.81321664     3.29044402
O     -3.84150760     8.92698917     6.40275606
O     -3.87192860     8.94183273     1.68070743
O      7.71132190     6.65595867     5.01258172
O     -1.90325796     7.75238100     8.12265120
O     -0.00000581     6.70637706     0.09999685
O      1.94321049     7.84118014     3.26479130
O      0.00850862     9.02626139     6.46136159
O     -0.00000581     8.94183273     1.68070743
O      0.04442375     6.73836496     4.89912970
O      3.87192860     6.70637706     0.09999685
O      5.82449495     7.89698198     3.22424045
O      3.92390163     9.01032365     6.46036329
O      3.87192860     8.94183273     1.68070743
O      3.87735578     6.74908125     4.90373513
O      5.98016931     7.77370048     8.00226752
O      1.86061337     7.80580635     8.15440126
Cu     7.04151788     3.51249666     8.98597149
