83
CIF: O2—Olatt+Osur.cif | data_image0
Ce     1.93596140     1.11772783     0.89035214
Ce     0.01438613     2.23732860     4.04876170
Ce    -5.79284479    10.05338875     7.27720870
Ce     5.80789581     1.11772783     0.89035214
Ce     3.79734940     2.16669844     3.97222582
Ce    -2.02231540     9.93093054     7.32668328
Ce     9.67981860     1.11772783     0.89035214
Ce     7.78633695     2.18978049     4.00915591
Ce     2.01740179    10.01571799     7.34543533
Ce     0.00000000     4.47091133     0.89035214
Ce    -1.94814380     5.56686252     4.08822890
Ce    -1.81276953     3.28591146     7.25733717
Ce     3.87193441     4.47091133     0.89035214
Ce     1.95377843     5.56901129     4.10032928
Ce     1.75370969     3.30709222     7.41966469
Ce     7.74385721     4.47091133     0.89035214
Ce     5.81229822     5.68995472     3.93617089
Ce    -1.93596721     7.82410489     0.89035214
Ce    -3.86420341     8.93153404     4.08168604
Ce    -3.85882020     6.72072036     7.33318296
Ce     1.93596721     7.82410489     0.89035214
Ce     0.00244031     8.94802726     4.11797583
Ce    -0.01955890     6.70262899     7.27998221
Ce     5.80789000     7.82410489     0.89035214
Ce     3.86114669     8.95479663     4.05931813
Ce     3.79088333     6.91001733     7.33315644
W      5.03486162     3.79037844     6.62730910
Re     6.55597564     3.01039588     8.30573494
O      0.00000000     0.00000000     0.09999685
O      1.87673996     1.07043995     3.21585094
O     -0.02371048     2.23227283     6.39241106
O      0.00000000     2.23545567     1.68070743
O      5.80579172    10.04443224     4.86525696
O      1.81841969     1.02659641     8.11921176
O      3.87192279     0.00000000     0.09999685
O      5.85934339     1.11217486     3.24629528
O      3.87348552     2.35093235     6.54549504
O      3.87192279     2.23545567     1.68070743
O     -1.95757878    10.03070660     4.89525521
O      6.06872360     1.30574179     8.66682303
O      7.74385721     0.00000000     0.09999685
O      9.68188959     1.11298662     3.21989095
O      7.79219946     2.30946394     6.79797252
O      7.74385721     2.23545567     1.68070743
O      7.76893470     0.08046613     4.87859193
O      9.89245916     1.14888910     8.14721512
O     -1.93596140     3.35318350     0.09999685
O     -0.02528651     4.47953527     3.25734653
O     -1.98851763     5.48490133     6.43217269
O     -1.93596721     5.58864923     1.68070743
O      9.62917430     3.28306866     4.86543225
O     -0.10447814     4.52967005     8.13034115
O      1.93596140     3.35318350     0.09999685
O      3.91310045     4.52518894     3.24956778
O      2.10513224     5.55414477     6.53129281
O      1.93595559     5.58864923     1.68070743
O      1.89760139     3.37079284     4.86005994
O      5.80789581     3.35318350     0.09999685
O      7.71169045     4.44873493     3.24174489
O      5.63836190     5.55247621     6.45097746
O      5.80789000     5.58864923     1.68070743
O      5.83185034     3.36225094     4.98307321
O      7.85218903     4.30230120     8.55556023
O     -3.87192860     6.70637706     0.09999685
O     -1.92337745     7.79666230     3.28449225
O     -3.89532590     8.87852784     6.44932290
O     -3.87192860     8.94183273     1.68070743
O      7.68064052     6.66652161     4.85553292
O     -1.86567178     7.71530791     8.12092748
O     -0.00000581     6.70637706     0.09999685
O      1.92050545     7.83267528     3.28072122
O      0.02201765     8.94295556     6.47573047
O     -0.00000581     8.94183273     1.68070743
O      0.02268639     6.66271728     4.94904967
O      3.87192860     6.70637706     0.09999685
O      5.80796490     7.84052022     3.21196134
O      3.87253702     8.94704631     6.42330786
O      3.87192860     8.94183273     1.68070743
O      3.90004951     6.74932465     4.86265224
O      5.67577729     7.83407356     8.10356262
O      1.91950910     7.72955591     8.17202950
O      4.02587126     4.47461745     8.37102683
O      5.22734862     3.94575761     9.39925340
