80
CIF: Mo-CeO2-Ov.cif | data_image0
O      0.55978923     0.45000431     0.59999690
O      2.55534848     1.57477350     3.81205368
O      0.55646743     2.74836853     7.08403719
O      0.55978923     2.65902057     2.16203261
O      0.57168513     0.35878385     5.42711852
O      2.50817382     2.21543786     8.72005966
O      4.38603242     0.45000431     0.59999690
O      6.30157896     1.54283367     3.75757440
O      4.32359499     2.54510734     6.92131955
O      4.38603242     2.65902057     2.16203261
O      4.42872502     0.39352023     5.38843621
O      6.29557551     1.42809834     8.67169671
O      8.21216082     0.45000431     0.59999690
O     10.06026109     1.52204160     3.76553511
O      8.19176073     2.61923025     6.95729377
O      8.21216082     2.65902057     2.16203261
O      8.19991949     0.43688369     5.43741407
O      9.96358939     1.63048170     8.68785456
O     -1.35327498     3.76352871     0.59999690
O      0.48568395     4.90557699     3.74312345
O     -1.29275165     5.95932554     7.06406851
O     -1.35333237     5.97264438     2.16203261
O     -1.46099991     3.80290028     5.45394944
O      1.18693420     4.92025633     8.32779677
O      2.47296821     3.76352871     0.59999690
O      4.43417995     4.81015182     3.76193370
O      3.81176183     4.84282787     8.20913071
O      2.47291082     5.97264438     2.16203261
O      2.48716447     3.94217780     5.82915092
O      6.29909662     3.76352871     0.59999690
O      8.20511793     4.89717629     3.75905634
O      6.29051817     6.00700551     7.01593329
O      6.29903923     5.97264438     2.16203261
O      6.30864881     3.76130776     5.38901083
O      8.29571884     4.91007887     8.64083057
O     -3.26639657     7.07715251     0.59999690
O     -1.33145071     8.15145663     3.77777162
O     -3.18230576     9.35955060     7.10351820
O     -3.26639657     9.28616878     2.16203261
O     -3.24770932     7.09550128     5.47549672
O     -1.30678621     8.17792587     8.69650596
O      0.55984662     7.07715251     0.59999690
O      2.47986579     8.26377954     3.72681435
O      0.54424219     9.30581692     6.97922021
O      0.55984662     9.28616878     2.16203261
O      0.61538866     7.07970164     5.54966413
O      2.46990953     7.96614185     8.45063306
O      4.38597502     7.07715251     0.59999690
O      6.29115613     8.14336966     3.77872480
O      4.37254793     9.32081665     7.03929060
O      4.38597502     9.28616878     2.16203261
O      4.34590604     7.08508277     5.53441310
O      6.31619394     8.08124407     8.72612675
Ce     2.47285343     1.55451244     1.38101475
Ce     0.53156833     2.65533083     4.60569925
Ce     0.53112600     0.51347313     7.87256737
Ce     6.29909662     1.55451244     1.38101475
Ce     4.43526155     2.63025291     4.56951271
Ce     4.46237749     0.45995832     7.74885449
Ce    10.12522502     1.55451244     1.38101475
Ce     8.20592420     2.65820679     4.55241744
Ce     8.20258856     0.47087513     7.78141632
Ce     0.55978923     4.86803684     1.38101475
Ce    -1.34129158     5.96374886     4.57538998
Ce    -1.45552178     3.70636386     7.74641830
Ce     4.38603242     4.86803684     1.38101475
Ce     2.47166783     5.99935431     4.47142547
Ce     8.21216082     4.86803684     1.38101475
Ce     6.29648578     5.95804176     4.58548109
Ce     6.27163913     3.71795214     7.80226347
Ce    -1.35333237     8.18166064     1.38101475
Ce    -3.26769848     9.29661817     4.60579603
Ce    -3.25170101     7.06388720     7.82751530
Ce     2.47291082     8.18166064     1.38101475
Ce     0.58114356     9.27259752     4.55121250
Ce     0.46181447     7.18959058     7.80176107
Ce     6.29903923     8.18166064     1.38101475
Ce     4.39369086     9.30188355     4.57803944
Ce     4.52979003     7.20906684     7.78331615
Mo     2.42921443     3.70929446     7.69530024
