82
CIF: Mo-Fe-CeO2.cif | data_image0
Ce     1.93038582     1.11050507     0.88387043
Ce    -0.00070813     2.23240655     4.03842175
Ce    -5.79033289    10.04892166     7.22289326
Ce     5.81181033     1.12175166     0.90127712
Ce     3.85033161     2.21373304     3.99714844
Ce    -1.98191796    10.00207727     7.28459030
Ce     9.66901012     1.12377363     0.90450652
Ce     7.76618837     2.22240757     4.01807495
Ce     2.06971585     9.89144575     7.32584656
Ce    -0.00709724     4.47602159     0.89067279
Ce    -1.95024534     5.57895053     4.10443077
Ce    -1.72313677     3.32111790     7.32498297
Ce     3.86254305     4.47635356     0.87798423
Ce     1.93604317     5.58853871     4.04479780
Ce     1.89919907     3.34220915     7.21554792
Ce     7.74213807     4.46545905     0.90125422
Ce     5.81572330     5.61777179     3.99718166
Ce    -1.94645625     7.83004003     0.90010904
Ce    -3.86540251     8.93774922     4.05577977
Ce    -3.84539568     6.77396027     7.28493265
Ce     1.92815559     7.82745473     0.89060408
Ce     0.00108843     8.95893291     4.10405762
Ce     0.00899365     6.70107211     7.22971110
Ce     5.81127600     7.83258510     0.88371011
Ce     3.87395633     8.94359289     4.03837244
Ce     3.86232406     6.74332450     7.21511797
Fe     4.97529940     3.83372494     6.57030241
Mo     6.52258191     2.94144011     7.87157357
O     11.61334069     0.00154917     0.10141687
O      1.93278398     1.11256418     3.21464051
O      0.07433315     2.24109258     6.35053299
O     -0.00785227     2.23805103     1.69392277
O     -5.80216743    10.05592098     4.83179154
O      1.89169966     1.19349100     8.02162371
O     -1.93899312    10.05733740     0.10496691
O      5.81392513     1.14601279     3.24321308
O      3.98081715     2.31433125     6.44993988
O      3.86763657     2.23577757     1.68132582
O      3.86569775     0.03335309     4.85273341
O      6.00346103     1.41305560     8.63560036
O      7.73821774     0.00761509     0.10924988
O      9.68098533     1.11707226     3.21861650
O      7.63870554     2.29568475     6.60372856
O      7.74357843     2.23531483     1.71563532
O      7.76941845     0.07444500     4.85887216
O      9.86426027     1.01122343     8.06480998
O      9.67032270     3.35425987     0.10911246
O     -0.00908318     4.47091288     3.26157710
O     -1.93566835     5.55100248     6.46549269
O     -1.94403436     5.59119430     1.70564938
O      9.62803397     3.29363210     4.85993107
O      0.17065093     4.50690586     8.09438271
O      1.92738314     3.35244915     0.09928684
O      3.87705375     4.46790414     3.20122160
O      1.93685670     5.58806387     6.33945685
O      1.92862022     5.59252216     1.67404250
O      1.98000770     3.33147486     4.83676375
O      3.87078139     4.47094848     7.92822728
O      5.81155478     3.35101064     0.10766953
O      7.72203593     4.45117499     3.24311367
O      5.79339753     5.45435227     6.44991236
O      5.80528807     5.59217007     1.68114259
O      5.75464997     3.38350774     4.90735990
O      7.58757541     4.15577539     8.63303932
O     -3.87155109     6.71022987     0.10512724
O     -1.94124872     7.82699627     3.26685868
O     -3.86655086     8.93792055     6.42738095
O     -3.87509971     8.94378428     1.69355631
O      7.71169443     6.69392167     4.85287418
O     -1.86607045     7.78368875     8.09684528
O     -0.01209783     6.71325780     0.10434852
O      1.93119326     7.83158141     3.26131821
O      0.03293798     8.96084833     6.46521016
O     -0.00628994     8.94736548     1.70514550
O     -0.02452034     6.72061686     4.87131726
O      1.98933607     7.65781233     8.09470031
O      3.86815347     6.71410280     0.09951587
O      5.81098348     7.82893795     3.21439109
O      3.90323889     8.87441183     6.35036059
O      3.86556896     8.94715423     1.69389986
O      3.91269423     6.67905350     4.83654798
O      5.71900277     7.82376577     8.02131004
