80
CIF: Nb-CeO2-Ov.cif | data_image0
O      0.00261135     0.00382715     0.19995339
O      1.92098112     1.19142424     3.38066136
O      0.08805383     2.13404305     6.46577007
O      0.00261135     2.21285656     1.76196664
O     -5.72732915     9.92016199     4.91330095
O      1.97186640     1.47374664     8.16333988
O      3.82876252     0.00382715     0.19995339
O      5.75112637     1.10938517     3.34533076
O      3.85412416     2.14169434     6.44963219
O      3.82876252     2.21285656     1.76196664
O     -1.90986370     9.92500284     4.91667382
O      5.73960666     1.15994687     8.19047141
O      7.65492518     0.00382715     0.19995339
O      9.57370867     1.10991406     3.34714150
O      7.63710268     2.20042791     6.51240804
O      7.65492518     2.21285656     1.76196664
O      1.92676586     9.92970765     4.96115487
O      9.59490032     1.00171356     8.20534785
O     -1.91046424     3.31737126     0.19995339
O      0.02889267     4.40898982     3.34373609
O     -1.95638374     5.56680809     6.58303177
O     -1.91046998     5.52641062     1.76196664
O     -1.89615030     3.32378287     4.95280175
O      1.91568694     3.31737126     0.19995339
O      3.81921967     4.40460770     3.32917116
O      0.63578445     4.35958687     7.84782279
O      1.91568120     5.52641062     1.76196664
O      1.96173633     3.51924746     5.25488434
O      3.42196655     4.28288636     7.86415312
O      5.74184959     3.31737126     0.19995339
O      7.65828347     4.44712742     3.36907215
O      5.76482880     5.50573090     6.53483497
O      5.74184385     5.52641062     1.76196664
O      5.75077432     3.32210477     4.96053452
O      7.51414241     4.44146780     8.23184472
O     -3.82354556     6.63092532     0.19995339
O     -1.86790605     7.69584679     3.37656230
O     -3.81518625     8.95102837     6.54129283
O     -3.82354556     8.83995473     1.76196664
O     -3.82753947     6.67415902     4.99330167
O     -2.00900651     7.85926790     8.25430663
O      0.00260561     6.63092532     0.19995339
O      1.91493186     7.74178380     3.30669918
O     -0.03453119     8.92945364     6.51866981
O      0.00260561     8.83995473     1.76196664
O      0.15529413     6.57479735     5.07317284
O      1.92683791     7.83744590     8.16146220
O      3.82876826     6.63092532     0.19995339
O      5.70764157     7.69811564     3.36500555
O      3.88868887     8.89012897     6.48914635
O      3.82876826     8.83995473     1.76196664
O      3.67864974     6.55997163     5.06043955
O      5.84850252     7.81227165     8.22810037
Ce     1.91568694     1.10834185     0.98097142
Ce    -0.01518587     2.20661439     4.17399839
Ce    11.46019210     0.02625660     7.32481883
Ce     5.74184959     1.10834185     0.98097142
Ce     3.86436209     2.20423784     4.15042864
Ce     3.86337374     0.04118025     7.34149030
Ce     9.56800076     1.10834185     0.98097142
Ce     7.67053892     2.21775624     4.15155719
Ce     7.68137377     0.00441905     7.35674312
Ce     0.00261135     4.42188597     0.98097142
Ce    -1.89696034     5.52668476     4.21975457
Ce     9.57659600     3.29220197     7.38263438
Ce     3.82877400     4.42188597     0.98097142
Ce     1.91973970     5.54787479     4.05068491
Ce     7.65492518     4.42188597     0.98097142
Ce     5.73316997     5.52824957     4.19446812
Ce     5.78255964     3.29952897     7.31590547
Ce    -1.91046998     7.73544003     0.98097142
Ce    -3.81807936     8.84611331     4.17235492
Ce    -3.83048227     6.64856080     7.38476777
Ce     1.91569268     7.73544003     0.98097142
Ce     0.01707208     8.83366850     4.17369022
Ce    -0.07250920     6.75151319     7.49600428
Ce     5.74184385     7.73544003     0.98097142
Ce     3.82360316     8.82879732     4.16712022
Ce     3.90870574     6.71841937     7.49654620
Nb     1.97850953     3.16664905     7.24624102
