81
CIF: Ni-CeO2.cif | data_image0
O      0.00261284     0.00382715     0.19994632
O      1.91419422     1.12624573     3.34716454
O      0.11880887     2.25313291     6.59431726
O      0.00261284     2.21285656     1.76195957
O     11.44870850     0.04153453     5.00294402
O      1.91165286     1.14394731     8.02664454
O      3.82876402     0.00382715     0.19994632
O      5.74907201     1.11291625     3.33488274
O      3.70449300     2.26116601     6.60074730
O      3.82876402     2.21285656     1.76195957
O      3.85657225     0.04665478     5.00696496
O      5.71788707     1.07034176     8.13487569
O      7.65492667     0.00382715     0.19994632
O      9.55816255     1.11281280     3.33447749
O      7.65186839     2.26286616     6.58525188
O      7.65492667     2.21285656     1.76195957
O      7.65257409     0.03103486     4.98897942
O      9.58723266     1.06894450     8.13520546
O     -1.91046274     3.31737126     0.19994632
O      0.02885313     4.39990296     3.35799371
O     -1.97240858     5.57400418     6.45221339
O     -1.91046848     5.52641062     1.76195957
O     -1.88257657     3.29265230     5.00256255
O     -0.44221543     4.63882754     8.35252156
O      1.91568843     3.31737126     0.19994632
O      3.79933292     4.40130448     3.35776082
O      1.91147923     5.63849706     6.50953951
O      1.91568269     5.52641062     1.76195957
O      1.91397561     3.24436012     5.08618761
O      4.26439404     4.63824810     8.35065494
O      5.74185108     3.31737126     0.19994632
O      7.65382625     4.41508386     3.36207941
O      5.79711686     5.57284900     6.45196476
O      5.74184534     5.52641062     1.76195957
O      5.70847448     3.29208508     5.00309340
O      7.65123946     4.49631705     8.19299546
O     -3.82354407     6.63092532     0.19994632
O     -1.91180756     7.76930608     3.34004303
O     -3.82611754     8.87046420     6.53757359
O     -3.82354407     8.83995473     1.76195957
O     -3.82563595     6.68737003     4.92957977
O     -1.91811968     7.77614038     8.16602567
O      0.00260710     6.63092532     0.19994632
O      1.91326339     7.74124072     3.35599321
O      0.02529420     8.80916237     6.51683163
O      0.00260710     8.83995473     1.76195957
O     -0.01806842     6.63049693     4.94544355
O      1.91323477     7.77517384     8.21199258
O      3.82876976     6.63092532     0.19994632
O      5.74067130     7.76606384     3.33874530
O      3.80094054     8.80959930     6.51489749
O      3.82876976     8.83995473     1.76195957
O      3.84436176     6.62915093     4.94443252
O      5.74155241     7.77372524     8.16338442
Ce     1.91568843     1.10834185     0.98096435
Ce    -0.03828577     2.21857129     4.12101661
Ce     5.63840395     9.87106369     7.35921959
Ce     5.74185108     1.10834185     0.98096435
Ce     3.86628264     2.22073628     4.12151893
Ce    -1.81360887     9.87164869     7.36197600
Ce     9.56800226     1.10834185     0.98096435
Ce     7.65354960     2.22435236     4.19630548
Ce     1.91316136     9.93055060     7.36456558
Ce     0.00261284     4.42188597     0.98096435
Ce    -1.91320321     5.54029593     4.15536245
Ce    -1.92249973     3.41236912     7.42185235
Ce     3.82877550     4.42188597     0.98096435
Ce     1.91248445     5.55151894     4.22578185
Ce     7.65492667     4.42188597     0.98096435
Ce     5.74048908     5.54056064     4.15460984
Ce     5.74982295     3.41159620     7.41975598
Ce    -1.91046848     7.73544003     0.98096435
Ce    -3.82482096     8.86051015     4.15904077
Ce    -3.82745106     6.66470747     7.33142166
Ce     1.91569417     7.73544003     0.98096435
Ce     0.00733903     8.83766188     4.15475368
Ce     0.02640547     6.56874125     7.38479971
Ce     5.74184534     7.73544003     0.98096435
Ce     3.82013585     8.83606176     4.15321941
Ce     3.79709125     6.56833835     7.38349290
Ni     1.91174922     2.34159443     6.68727795
