82
CIF: Ni-Rh-CeO2.cif | data_image0
Ce     1.93038582     1.11050507     0.88387043
Ce     0.00672626     2.23412212     4.03676364
Ce    -5.77894922    10.04227497     7.22812036
Ce     5.81181033     1.12175166     0.90127712
Ce     3.86756203     2.22677834     4.02505087
Ce    -1.92680955    10.04511590     7.23110053
Ce     9.66901012     1.12377363     0.90450652
Ce     7.75215082     2.23029074     4.07191859
Ce     1.98957193    10.02096374     7.21894035
Ce    -0.00709724     4.47602159     0.89067279
Ce    -1.93952993     5.58715815     4.05643676
Ce    -1.87634828     3.32537620     7.21901814
Ce     3.86254305     4.47635356     0.87798423
Ce     1.94113364     5.58535950     4.04663530
Ce     1.86961547     3.34246340     7.21180198
Ce     7.74213807     4.46545905     0.90125422
Ce     5.81297238     5.59640824     4.02518334
Ce    -1.94645625     7.83004003     0.90010904
Ce    -3.86795496     8.93922907     4.05903219
Ce    -3.85530950     6.70499790     7.23109170
Ce     1.92815559     7.82745473     0.89060408
Ce    -0.00070156     8.94508135     4.05620321
Ce    -0.00158878     6.70667217     7.19984512
Ce     5.81127600     7.83258510     0.88371011
Ce     3.87622218     8.93611620     4.03688086
Ce     3.84788981     6.76845368     7.21173261
Rh     4.94543535     3.85121197     6.57813995
Ni     6.71186661     2.83031891     7.80042422
O     11.61334069     0.00154917     0.10141687
O      1.94081336     1.11396627     3.23109887
O      0.01727840     2.22136139     6.39830781
O     -0.00785227     2.23805103     1.69392277
O     -5.78813828    10.04778249     4.86037765
O      1.94361006     1.08800762     8.00776443
O     -1.93899312    10.05733740     0.10496691
O      5.80280172     1.11169239     3.24450511
O      3.84846295     2.20401445     6.44588948
O      3.86763657     2.23577757     1.68132582
O      3.87101912     0.00484778     4.88147755
O      6.00167777     1.10230993     8.09698211
O      7.73821774     0.00761509     0.10924988
O      9.68633662     1.11367857     3.25134371
O      7.88780508     2.15168040     6.39047114
O      7.74357843     2.23531483     1.71563532
O      1.93711128    10.02497932     4.85016312
O      9.76687411     1.06692745     8.03867632
O      9.67032270     3.35425987     0.10911246
O      0.01034889     4.47774635     3.23456342
O     -1.94822815     5.59082470     6.44228190
O     -1.94403436     5.59119430     1.70564938
O     -1.90593497     3.36886742     4.85020967
O      0.02199096     4.46333362     8.01355164
O      1.92738314     3.35244915     0.09928684
O      3.86475579     4.47486402     3.21923326
O      1.88938574     5.61511174     6.37576105
O      1.92862022     5.59252216     1.67404250
O      1.93536543     3.34444585     4.85999542
O      3.73357943     4.55024875     7.99590703
O      5.81155478     3.35101064     0.10766953
O      7.74615701     4.47788904     3.24432978
O      5.82282637     5.62354649     6.44586417
O      5.80528807     5.59217007     1.68114259
O      5.82976799     3.34021799     4.81690835
O      7.85367328     4.30967937     8.09715015
O     -3.87155109     6.71022987     0.10512724
O     -1.94636972     7.82994428     3.24886313
O     -3.83357951     8.91934870     6.42430250
O     -3.87509971     8.94378428     1.69355631
O      7.73891363     6.70430973     4.88130555
O     -1.93776873     7.82476335     8.02552026
O     -0.01209783     6.71325780     0.10434852
O      1.93498699     7.81121368     3.23442469
O     -0.00843226     8.95058347     6.44224140
O     -0.00628994     8.94736548     1.70514550
O     -0.02380874     6.71973974     4.86263034
O      1.95306476     7.80808361     8.01360384
O      3.86815347     6.71410280     0.09951587
O      5.81343826     7.82148348     3.23085826
O      3.89238775     8.93323774     6.39837571
O      3.86556896     8.94715423     1.69389986
O      3.87893298     6.71072580     4.85995410
O      5.83707717     7.83170562     8.00781473
