82
CIF: Ni-Sc-CeO2.cif | data_image0
Ce     1.93038582     1.11050507     0.88387043
Ce    -0.00695868     2.23463523     4.03780669
Ce    -5.78768267    10.04762720     7.20338627
Ce     5.81181033     1.12175166     0.90127712
Ce     3.85334463     2.22952549     4.01670274
Ce     3.88455391     0.00388253     7.22569746
Ce     9.66901012     1.12377363     0.90450652
Ce     7.72521738     2.24589674     4.09467474
Ce     1.96641932    10.01148615     7.21579223
Ce    -0.00709724     4.47602159     0.89067279
Ce    -1.94917753     5.59181243     4.05457038
Ce    -1.87963902     3.35029891     7.21582991
Ce     3.86254305     4.47635356     0.87798423
Ce     1.92594048     5.59407351     4.03193135
Ce     1.91852252     3.35454328     7.18015213
Ce     7.74213807     4.46545905     0.90125422
Ce     5.80353473     5.60738892     4.01655610
Ce    -1.94645625     7.83004003     0.90010904
Ce    -3.87198980     8.94179675     4.05679237
Ce     7.74654831     6.69318994     7.22566697
Ce     1.92815559     7.82745473     0.89060408
Ce    -0.00959760     8.95126295     4.05439076
Ce    -0.00738690     6.71015364     7.20019370
Ce     5.81127600     7.83258510     0.88371011
Ce     3.86893201     8.94796446     4.03788054
Ce     3.86167913     6.72041301     7.18018728
Sc     5.37995356     3.60030340     6.84587414
Ni     7.07563125     2.62034666     8.29893206
O     11.61334069     0.00154917     0.10141687
O      1.92691908     1.11305098     3.22629028
O      0.02887608     2.22745312     6.38974759
O     -0.00785227     2.23805103     1.69392277
O     -5.80027678    10.05484970     4.85846165
O      1.96469726     1.11151253     7.98633269
O     -1.93899312    10.05733740     0.10496691
O      5.79847469     1.11942433     3.25199676
O      3.90210939     2.23198801     6.40293800
O      3.86763657     2.23577757     1.68132582
O      3.85909504     0.00316828     4.86908660
O      6.01053081     1.04895224     8.21026386
O      7.73821774     0.00761509     0.10924988
O      9.67744520     1.11882879     3.25043995
O      7.69290454     2.26426062     6.44191175
O      7.74357843     2.23531483     1.71563532
O      1.93851208    10.05906533     4.86182368
O      9.73198106     1.08727798     7.98073031
O      9.67032270     3.35425987     0.10911246
O     -0.00519933     4.47664623     3.23791703
O     -1.96649919     5.59093469     6.42349925
O     -1.94403436     5.59119430     1.70564938
O      9.68105544     3.35071929     4.86186652
O      0.03437177     4.48180615     7.98619687
O      1.92738314     3.35244915     0.09928684
O      3.84350112     4.48724289     3.20405028
O      1.90235429     5.60770623     6.35426917
O      1.92862022     5.59252216     1.67404250
O      1.94141762     3.34941513     4.84456468
O      3.81896818     4.50129470     7.86480732
O      5.81155478     3.35101064     0.10766953
O      7.73728986     4.47787276     3.25185256
O      5.82560712     5.56407729     6.40273066
O      5.80528807     5.59217007     1.68114259
O      5.73056178     3.39772427     4.79864889
O      7.90390982     4.32889559     8.20987914
O     -3.87155109     6.71022987     0.10512724
O     -1.94819052     7.83105393     3.24395745
O     -3.85268162     8.93052255     6.42473050
O     -3.87509971     8.94378428     1.69355631
O      7.73443977     6.71559862     4.86890715
O     -1.93877807     7.82538704     8.00432264
O     -0.01209783     6.71325780     0.10434852
O      1.92813997     7.82529896     3.23773535
O     -0.01758654     8.96650177     6.42345107
O     -0.00628994     8.94736548     1.70514550
O     -0.03029768     6.72351533     4.85937796
O      1.94340958     7.78830916     7.98624281
O      3.86815347     6.71410280     0.09951587
O      5.80731648     7.83404996     3.22609676
O      3.89302826     8.92043127     6.38979419
O      3.86556896     8.94715423     1.69389986
O      3.87768972     6.70323479     4.84446753
O      5.82738160     7.80203960     7.98639893
