82
CIF: Os-Cr-CeO2.cif | data_image0
Ce     1.93038582     1.11050507     0.88387043
Ce     0.00572907     2.22007534     4.00742244
Ce    -5.76801832    10.04206495     7.23358158
Ce     5.81181033     1.12175166     0.90127712
Ce     3.84212577     2.19622965     4.00588852
Ce    -1.96464179    10.00512457     7.33159558
Ce     9.66901012     1.12377363     0.90450652
Ce     7.75145410     2.22300585     4.04378623
Ce     2.04604571     9.89172394     7.29115500
Ce    -0.00709724     4.47602159     0.89067279
Ce    -1.95647476     5.58340540     4.09191060
Ce    -1.66135049     3.31138017     7.21949505
Ce     3.86254305     4.47635356     0.87798423
Ce     1.93696238     5.58481483     4.05577314
Ce     1.91340150     3.31105159     7.20711213
Ce     7.74213807     4.46545905     0.90125422
Ce     5.82174861     5.64257458     4.01036399
Ce    -1.94645625     7.83004003     0.90010904
Ce    -3.85833286     8.93144852     4.08728641
Ce    -3.86209397     6.75025990     7.35480240
Ce     1.92815559     7.82745473     0.89060408
Ce    -0.00322394     8.95527491     4.10515823
Ce    -0.00415526     6.71319934     7.25503683
Ce     5.81127600     7.83258510     0.88371011
Ce     3.86732314     8.95180889     4.03806731
Ce     3.87152726     6.78346991     7.22321604
Cr     5.11354362     3.76977330     6.75197723
Os     6.66790844     2.89893786     7.96338807
O     11.61334069     0.00154917     0.10141687
O      1.93648760     1.10903949     3.22100117
O      0.07480738     2.23793788     6.35707819
O     -0.00785227     2.23805103     1.69392277
O     -5.78331204    10.05178495     4.86750709
O      1.85216297     1.22232621     8.06122560
O     -1.93899312    10.05733740     0.10496691
O      5.73822254     1.11868225     3.25846656
O      3.96784824     2.32561019     6.49465629
O      3.86763657     2.23577757     1.68132582
O      3.84707553     0.02215827     4.88279717
O      5.91418913     1.37805159     8.62054611
O      7.73821774     0.00761509     0.10924988
O      9.73996932     1.08738488     3.22570437
O      7.71756903     2.31838715     6.57854821
O      7.74357843     2.23531483     1.71563532
O      1.95898795    10.02083728     4.88877873
O      9.84608248     1.19617587     8.02103962
O      9.67032270     3.35425987     0.10911246
O      0.00357514     4.47710809     3.25228184
O     -1.95066024     5.45438605     6.52801333
O     -1.94403436     5.59119430     1.70564938
O     -1.87869276     3.32970787     4.92082432
O      0.08706414     4.39484625     8.08263644
O      1.92738314     3.35244915     0.09928684
O      3.88260345     4.47132088     3.22449442
O      1.93617456     5.56023892     6.39975090
O      1.92862022     5.59252216     1.67404250
O      1.97566206     3.32524639     4.85413258
O      3.92359557     4.44761296     7.91557689
O      5.81155478     3.35101064     0.10766953
O      7.71675410     4.52757851     3.25995292
O      5.76179304     5.49016392     6.48558070
O      5.80528807     5.59217007     1.68114259
O      5.68498312     3.43381142     5.03667096
O      7.56377671     4.32043310     8.65290763
O     -3.87155109     6.71022987     0.10512724
O     -1.94057882     7.82038158     3.27393263
O     -3.88702367     8.94581297     6.48355486
O     -3.87509971     8.94378428     1.69355631
O      7.72993881     6.70500413     4.89350391
O     -1.78442170     7.71584025     8.14484943
O     -0.01209783     6.71325780     0.10434852
O      1.92314631     7.80348010     3.25735305
O      0.03146016     8.94630102     6.48397339
O     -0.00628994     8.94736548     1.70514550
O     -0.04103909     6.69921435     4.91100840
O      2.00038505     7.67840905     8.10232976
O      3.86815347     6.71410280     0.09951587
O      5.81360323     7.82562930     3.23306974
O      3.93022109     8.91270656     6.39902652
O      3.86556896     8.94715423     1.69389986
O      3.89354715     6.69950759     4.86550452
O      5.68291523     7.86528727     8.09315641
