82
CIF: Rh-W-CeO2.cif | data_image0
Ce     1.93596140     1.11772783     0.89035214
Ce     0.00682583     2.22988981     3.98810006
Ce     0.00248824     0.00902176     7.20215807
Ce     5.80789581     1.11772783     0.89035214
Ce     3.87151507     2.22151604     4.04219162
Ce    -1.97282490    10.04804131     7.25069252
Ce     9.67981860     1.11772783     0.89035214
Ce     7.78554784     2.21134258     4.05932082
Ce     2.00679709    10.05653359     7.22849805
Ce     0.00000000     4.47091133     0.89035214
Ce    -1.94107660     5.58095000     4.04867635
Ce     9.71464744     3.26584484     7.13270464
Ce     3.87193441     4.47091133     0.89035214
Ce     1.93392241     5.58184831     4.03885712
Ce     1.83817033     3.30642721     7.14853235
Ce     7.74385721     4.47091133     0.89035214
Ce     5.80427981     5.60549704     4.03212280
Ce    -1.93596721     7.82410489     0.89035214
Ce    -3.87298505     8.95185003     4.04012300
Ce    -3.89441466     6.74563538     7.18060416
Ce     1.93596721     7.82410489     0.89035214
Ce     0.00217018     8.94600348     4.08480276
Ce    -0.02273164     6.68741780     7.22686089
Ce     5.80789000     7.82410489     0.89035214
Ce     3.86257624     8.94181655     4.01957111
Ce     3.85681502     6.78402234     7.16927893
W      5.56193268     3.51527731     7.13006709
Rh     7.01869940     2.79991506     9.01362392
O      0.00000000     0.00000000     0.09999685
O      1.95400036     1.11183299     3.21389060
O     -0.01305054     2.23805559     6.32033815
O      0.00000000     2.23545567     1.68070743
O     -5.79707129    10.05793542     4.81808387
O      1.84026007     1.21751592     7.98835793
O      3.87192279     0.00000000     0.09999685
O      5.79906089     1.17190162     3.25971608
O      3.88798819     2.47869899     6.38096806
O      3.87192279     2.23545567     1.68070743
O      3.86161767     0.04298213     4.85018159
O      5.72474709     1.67004806     7.90681095
O      7.74385721     0.00000000     0.09999685
O      9.68799964     1.11110506     3.21859814
O      8.03371138     2.14614786     6.26240757
O      7.74385721     2.23545567     1.68070743
O      1.92759386    10.00107655     4.76972860
O      9.89372252     1.13033774     8.09172617
O     -1.93596140     3.35318350     0.09999685
O      0.01840995     4.50082068     3.20370068
O     -2.01604944     5.52047914     6.43377955
O     -1.93596721     5.58864923     1.68070743
O     -1.86913554     3.39560401     4.75562170
O      0.00438316     4.44065779     7.97374965
O      1.93596140     3.35318350     0.09999685
O      3.92362958     4.44181304     3.27076441
O      2.03430669     5.49145254     6.42915253
O      1.93595559     5.58864923     1.68070743
O      1.90771320     3.32906142     4.80092238
O      5.80789581     3.35318350     0.09999685
O      7.69579914     4.46189401     3.25278666
O      5.63873236     5.52954707     6.34772981
O      5.80789000     5.58864923     1.68070743
O      5.90176075     3.32576927     5.16640445
O      7.32406193     4.40929644     7.82640802
O     -3.87192860     6.70637706     0.09999685
O     -1.93497294     7.82012079     3.26290397
O     -3.89989894     8.91692987     6.40152877
O     -3.87192860     8.94183273     1.68070743
O      7.71067200     6.69954522     4.86814558
O     -1.97555160     7.67689779     8.04680733
O     -0.00000581     6.70637706     0.09999685
O      1.90536146     7.79164979     3.22279005
O     -0.00108288     8.91039874     6.45610688
O     -0.00000581     8.94183273     1.68070743
O      0.00261858     6.66424755     4.90786206
O      3.87192860     6.70637706     0.09999685
O      5.81525634     7.81192718     3.22592814
O      3.91307442     8.92551859     6.38479970
O      3.87192860     8.94183273     1.68070743
O      3.84163025     6.73875560     4.81152825
O      5.81061684     7.78081049     7.99300598
O      4.24556334     4.31840548     8.10795873
O      1.97064617     7.65123329     8.03882204
