81
CIF: Mo-Mo-CeO2-Ov.cif | data_image0
Ce     1.93596140     1.11772783     0.89035214
Ce    -0.00819085     2.24122212     4.07834921
Ce    -5.80313695    10.05852433     7.24813756
Ce     5.80789581     1.11772783     0.89035214
Ce     3.80679158     2.20908043     3.92555516
Ce    -2.04239887     9.95164326     7.29843535
Ce     9.67981860     1.11772783     0.89035214
Ce     7.80959809     2.20534613     4.00497424
Ce     2.02510825     9.93695385     7.39976622
Ce     0.00000000     4.47091133     0.89035214
Ce    -1.96035657     5.56376424     4.10993007
Ce    -1.77015536     3.34493363     7.41058267
Ce     3.87193441     4.47091133     0.89035214
Ce     1.95200805     5.58123539     4.10299331
Ce     1.79391258     3.32220387     7.32341839
Ce     7.74385721     4.47091133     0.89035214
Ce     5.80932264     5.63319038     3.98392104
Ce    -1.93596721     7.82410489     0.89035214
Ce    -3.88881533     8.94332075     4.03679915
Ce    -3.80215469     6.86173286     7.28940624
Ce     1.93596721     7.82410489     0.89035214
Ce     0.00941813     8.97381017     4.10581469
Ce     0.01811447     6.69309742     7.30748227
Ce     5.80789000     7.82410489     0.89035214
Ce     3.86346661     8.94076662     4.06283705
Ce     3.81693372     6.84976488     7.27321608
Mo     5.59433061     3.46896373     6.77866337
Mo     6.91917403     2.76038725     8.81494100
O      0.00000000     0.00000000     0.09999685
O      1.92424150     1.09967254     3.21068751
O      0.05272438     2.19417258     6.45832432
O      0.00000000     2.23545567     1.68070743
O     -5.76890921    10.05945188     4.90030760
O      2.02023589     0.97156568     8.09240300
O      3.87192279     0.00000000     0.09999685
O      5.72393920     1.06384866     3.22400996
O      4.10669853     2.45848886     6.88187498
O      3.87192279     2.23545567     1.68070743
O      3.81941985     0.14834982     4.98218922
O      6.44478528     1.08930607     9.25203973
O      7.74385721     0.00000000     0.09999685
O      9.77009768     1.07059866     3.23734249
O      7.30596509     2.51237766     6.88617966
O      7.74385721     2.23545567     1.68070743
O      1.92282475    10.02954436     4.94484132
O      9.85195707     1.02463269     8.11351850
O     -1.93596140     3.35318350     0.09999685
O      0.00806228     4.48177805     3.30023978
O     -2.05783998     5.62690657     6.58404595
O     -1.93596721     5.58864923     1.68070743
O     -1.89971001     3.35908385     4.96555365
O      0.02728359     4.61722330     8.19167849
O      1.93596140     3.35318350     0.09999685
O      3.81247209     4.42440969     3.22638817
O      1.99075545     5.53339812     6.48336719
O      1.93595559     5.58864923     1.68070743
O      2.00644272     3.26810086     4.89994571
O      5.80789581     3.35318350     0.09999685
O      7.82284676     4.52482232     3.23357931
O      5.73824911     5.26091104     6.80711611
O      5.80789000     5.58864923     1.68070743
O      5.77880265     3.26965771     4.89051970
O      8.05024629     4.08330856     9.22795860
O     -3.87192860     6.70637706     0.09999685
O     -1.94254435     7.84884509     3.31629869
O     -3.81541229     8.93223545     6.42201114
O     -3.87192860     8.94183273     1.68070743
O      7.70175990     6.72845829     4.99864356
O     -2.00570377     7.87339463     8.17300079
O     -0.00000581     6.70637706     0.09999685
O      1.90448726     7.82091046     3.27686410
O     -0.12209824     9.05643393     6.56874575
O     -0.00000581     8.94183273     1.68070743
O     -0.01009746     6.72204980     4.98509835
O      3.87192860     6.70637706     0.09999685
O      5.82105055     7.90562217     3.22356258
O      3.93825240     8.94085462     6.44732976
O      3.87192860     8.94183273     1.68070743
O      3.86025705     6.72438078     4.88656112
O      5.97509373     7.81361422     8.04633489
O      1.82212588     7.74007338     8.15731223
