84
CIF: Cr-W-CeO2-Ov-CO2.cif | data_image0
Ce     1.93596140     1.11772783     0.89035214
Ce     0.00182348     2.25940450     4.06952475
Ce    -0.01651472     0.04961923     7.22405470
Ce     5.80789581     1.11772783     0.89035214
Ce     3.80459533     2.20325349     3.96678572
Ce    -2.07852363     9.96206177     7.31883779
Ce     9.67981860     1.11772783     0.89035214
Ce     7.80776372     2.21424853     3.95697053
Ce     2.03199666    10.04620830     7.29098704
Ce     0.00000000     4.47091133     0.89035214
Ce    -1.94442272     5.58615600     4.10068269
Ce    -1.84954362     3.40411246     7.34706242
Ce     3.87193441     4.47091133     0.89035214
Ce     1.95398204     5.58904229     4.09482695
Ce     1.81101700     3.36953663     7.35700056
Ce     7.74385721     4.47091133     0.89035214
Ce     5.81229604     5.62944075     3.96597563
Ce    -1.93596721     7.82410489     0.89035214
Ce    -3.88580220     8.93271693     4.08111040
Ce    -3.82982784     6.72709944     7.37634957
Ce     1.93596721     7.82410489     0.89035214
Ce    -0.00191143     8.96922374     4.11544535
Ce    -0.01398790     6.74659754     7.26861400
Ce     5.80789000     7.82410489     0.89035214
Ce     3.87662691     8.95274932     4.03737971
Ce     3.78994944     6.86831498     7.27600054
W      5.83258377     3.21593940     6.74405808
Cr     6.45670932     3.76367270     9.43850211
O      0.00000000     0.00000000     0.09999685
O      1.92163965     1.11268346     3.21363410
O      0.00656898     2.25946899     6.36267899
O      0.00000000     2.23545567     1.68070743
O     11.60851531     0.00514514     4.82995968
O      1.79849594     1.07342347     8.08842967
O      3.87192279     0.00000000     0.09999685
O      5.79636070     1.12113943     3.21731933
O      4.16101410     2.43773087     6.56676145
O      3.87192279     2.23545567     1.68070743
O      3.83026128     0.09017212     4.86220949
O      5.96842100     2.25583510     8.44078630
O      7.74385721     0.00000000     0.09999685
O      9.69612921     1.11007485     3.20190735
O      7.51352892     2.45725021     6.41132589
O      7.74385721     2.23545567     1.68070743
O      7.76192316     0.08760280     4.82880892
O      9.78262912     1.08370928     8.06714201
O     -1.93596140     3.35318350     0.09999685
O      0.01609462     4.49004372     3.27747140
O     -1.94650136     5.62024249     6.37181196
O     -1.93596721     5.58864923     1.68070743
O      9.63424504     3.32028700     4.80917473
O      0.00822819     4.65298699     8.11365595
O      1.93596140     3.35318350     0.09999685
O      3.88595841     4.47513945     3.22223930
O      2.04715882     5.63403227     6.43839287
O      1.93595559     5.58864923     1.68070743
O      2.00936356     3.32661023     4.85482581
O      5.80789581     3.35318350     0.09999685
O      7.72254708     4.46577987     3.21555892
O      5.70988657     5.04987417     6.73414735
O      5.80789000     5.58864923     1.68070743
O      5.79343960     3.30795406     4.79629016
O      7.87941711     4.51557648     8.70148232
O     -3.87192860     6.70637706     0.09999685
O     -1.95500731     7.82559685     3.30275711
O     -3.91260704     8.92287599     6.40521639
O     -3.87192860     8.94183273     1.68070743
O      7.59889132     6.64009321     4.88820211
O     -1.84791199     7.77156774     8.15437551
O     -0.00000581     6.70637706     0.09999685
O      1.96126706     7.82195223     3.28076590
O     -0.00321576     9.04227857     6.45509494
O     -0.00000581     8.94183273     1.68070743
O      0.03380720     6.73597644     4.89276772
O      3.87192860     6.70637706     0.09999685
O      5.80422515     7.82862089     3.20458035
O      3.84448464     8.94980919     6.35486319
O      3.87192860     8.94183273     1.68070743
O      4.00124476     6.67979298     4.90679973
O      5.64154009     7.78887576     8.00385927
O      3.59482557     4.88190710     8.94128732
O      1.95831314     7.81151998     8.10934511
O      4.68342228     3.71049687    10.60819485
C      4.59905472     4.37302947     9.53211271
