84
CIF: Rh-Y-CeO2-CO.cif | data_image0
Ce     1.93596140     1.11772783     0.89035214
Ce    -0.00059855     2.22616753     4.04047430
Ce    -5.76971606    10.03739620     7.21522012
Ce     5.80789581     1.11772783     0.89035214
Ce     3.85958173     2.21905345     4.01680070
Ce    -1.91900571    10.03433874     7.23262753
Ce     9.67981860     1.11772783     0.89035214
Ce     7.73261489     2.24193665     4.07148463
Ce     1.98227596     9.97709358     7.23290982
Ce     0.00000000     4.47091133     0.89035214
Ce    -1.93928720     5.58714286     4.04599777
Ce    -1.84130318     3.35435261     7.23273275
Ce     3.87193441     4.47091133     0.89035214
Ce     1.93510020     5.58907459     4.03276028
Ce     1.92921966     3.35040452     7.18921421
Ce     7.74385721     4.47091133     0.89035214
Ce     5.81578748     5.60742019     4.01680017
Ce    -1.93596721     7.82410489     0.89035214
Ce    -3.85830317     8.93383774     4.04684266
Ce    -3.84178192     6.70398576     7.23260778
Ce     1.93596721     7.82410489     0.89035214
Ce    -0.00035979     8.94543053     4.04608154
Ce     0.00969989     6.70075087     7.18850213
Ce     5.80789000     7.82410489     0.89035214
Ce     3.87955809     8.94690661     4.04047231
Ce     3.87075197     6.71331904     7.18912780
Y      5.50776914     3.52622744     6.94830366
O      0.00000000     0.00000000     0.09999685
O      1.93365913     1.11071762     3.22937799
O      0.04897449     2.22927708     6.38853048
O      0.00000000     2.23545567     1.68070743
O     -5.79368490    10.05124471     4.85533370
O      1.96936713     1.08324525     8.00228636
O      3.87192279     0.00000000     0.09999685
O      5.81674098     1.10518902     3.23812910
O      3.87065604     2.18272560     6.39733520
O      3.87192279     2.23545567     1.68070743
O     -1.93147716    10.04645365     4.85225433
O      5.98612217     0.89427820     8.24633017
O      7.74385721     0.00000000     0.09999685
O      9.67809945     1.11866570     3.23691570
O      7.62922196     2.30191878     6.61241360
O      7.74385721     2.23545567     1.68070743
O      7.76315600     0.04488990     4.88379184
O      9.76398658     1.06909343     7.96761923
O     -1.93596140     3.35318350     0.09999685
O     -0.01343699     4.45853623     3.24478923
O     -1.93205643     5.59017028     6.40060712
O     -1.93596721     5.58864923     1.68070743
O      9.65067567     3.31397950     4.88362370
O      0.05050367     4.47445857     7.99131682
O      1.93596140     3.35318350     0.09999685
O      3.85740710     4.47922076     3.21518404
O      1.90253974     5.60768514     6.34195446
O      1.93595559     5.58864923     1.68070743
O      1.95103436     3.34750610     4.83779970
O      5.80789581     3.35318350     0.09999685
O      7.75908706     4.46946729     3.23813286
O      5.85266042     5.61581088     6.39723869
O      5.80789000     5.58864923     1.68070743
O      5.78041407     3.36890405     4.74658946
O      8.02647475     4.42899059     8.24621233
O     -3.87192860     6.70637706     0.09999685
O     -1.93507167     7.82354619     3.22830991
O     -3.83438100     8.92009122     6.41314338
O     -3.87192860     8.94183273     1.68070743
O     -3.85846857     6.70890938     4.85228381
O     -1.92353076     7.81679002     8.00349551
O     -0.00000581     6.70637706     0.09999685
O      1.93992165     7.84195465     3.24476631
O      0.00054499     8.93772447     6.40082649
O     -0.00000581     8.94183273     1.68070743
O     -0.01711465     6.71629782     4.83615916
O      3.87192860     6.70637706     0.09999685
O      5.81269284     7.82949179     3.22939050
O      3.90163794     8.90236990     6.38859900
O      3.87192860     8.94183273     1.68070743
O      3.88414496     6.69606218     4.83781137
O      5.85433107     7.81211810     8.00210699
O      3.75884325     4.53599595     7.92162284
O      1.95802750     7.77830825     7.99124129
O      6.42132958     2.99685437    11.51940927
Rh     7.20353080     2.54764601     8.66929200
C      6.73316328     2.81831223    10.41120137
