84
CIF: Nb-Cr-CeO2-CO.cif | data_image0
Ce     1.93038582     1.11050507     0.88387043
Ce    -0.00107268     2.23885149     4.06876707
Ce     5.81491605    10.03995765     7.22600098
Ce     5.81181033     1.12175166     0.90127712
Ce     3.81837471     2.20653064     3.95407983
Ce    -2.03856629     9.89059359     7.22956935
Ce     9.66901012     1.12377363     0.90450652
Ce     7.74925146     2.23668791     4.07596898
Ce     2.00824185    10.04712555     7.39558890
Ce    -0.00709724     4.47602159     0.89067279
Ce    -1.94478166     5.57367443     4.11517440
Ce    -1.79798948     3.34068000     7.35287338
Ce     3.86254305     4.47635356     0.87798423
Ce     1.95549472     5.58009010     4.07446667
Ce     1.88956560     3.29367151     7.30273413
Ce     7.74213807     4.46545905     0.90125422
Ce     5.81226961     5.63229158     3.95481444
Ce    -1.94645625     7.83004003     0.90010904
Ce    -3.88284250     8.91220215     4.05495607
Ce    -3.84259026     6.66865278     7.34638277
Ce     1.92815559     7.82745473     0.89060408
Ce     0.00871437     8.96212979     4.10509411
Ce     0.03413291     6.68451261     7.27909892
Ce     5.81127600     7.83258510     0.88371011
Ce     3.85632667     8.97529626     4.02822267
Ce     3.83342181     6.88905528     7.17031204
Cr     5.12586648     3.68469492     6.48828252
Nb     6.55546174     3.00213240     8.42173255
O     11.61334069     0.00154917     0.10141687
O      1.92629949     1.09839455     3.21115500
O      0.08139442     2.19360296     6.39602107
O     -0.00785227     2.23805103     1.69392277
O     -5.79680560    10.04164653     4.83722782
O      2.04205523     0.95824912     8.04768469
O     -1.93899312    10.05733740     0.10496691
O      5.78536969     1.11384533     3.24353079
O      4.05840364     2.29773963     6.38818737
O      3.86763657     2.23577757     1.68132582
O      3.82810825     0.02231165     4.88223718
O      6.35302740     1.23027576     8.95102917
O      7.73821774     0.00761509     0.10924988
O      9.67772282     1.12507041     3.23491218
O      7.54539434     2.38285616     6.80857097
O      7.74357843     2.23531483     1.71563532
O      7.73670818     0.09198502     4.87002386
O      9.91740787     0.99719762     8.12538643
O      9.67032270     3.35425987     0.10911246
O     -0.00994672     4.48431885     3.27801598
O     -1.91295387     5.59485423     6.43036187
O     -1.94403436     5.59119430     1.70564938
O      9.62411784     3.29299618     4.87980619
O      0.10261068     4.62841782     8.13089947
O      1.92738314     3.35244915     0.09928684
O      3.85554717     4.48843245     3.19299154
O      2.12783665     5.55622351     6.45357831
O      1.92862022     5.59252216     1.67404250
O      1.97215566     3.33050906     4.81593135
O      4.75512162     3.86449442     8.31946772
O      5.81155478     3.35101064     0.10766953
O      7.74310439     4.46441066     3.23649463
O      5.63308534     5.36338558     6.39558595
O      5.80528807     5.59217007     1.68114259
O      5.76121362     3.37578108     4.74531319
O      7.89198748     4.30717118     8.71190069
O     -3.87155109     6.71022987     0.10512724
O     -1.93149045     7.81430351     3.29535261
O     -3.85917318     8.88153397     6.40890500
O     -3.87509971     8.94378428     1.69355631
O      7.66527335     6.65415409     4.86318632
O     -1.89000785     7.85334705     8.11674603
O     -0.01209783     6.71325780     0.10434852
O      1.92282889     7.84156821     3.25795953
O     -0.05574947     9.03348941     6.49644402
O     -0.00628994     8.94736548     1.70514550
O      0.06172496     6.72038485     4.93442446
O      1.96479335     7.70875590     8.08703189
O      3.86815347     6.71410280     0.09951587
O      5.81077018     7.83723098     3.19731421
O      3.87911798     8.93701269     6.35514545
O      3.86556896     8.94715423     1.69389986
O      3.91076568     6.74442971     4.81448964
O      5.68374203     7.79041898     8.01206084
O      5.55604008     3.54279342    11.82581027
C      5.94400398     3.40237973    10.76186900
