84
CIF: CO+Olatt—CO2.cif | data_image0
Ce     1.93596140     1.11772783     0.89035214
Ce    -0.01914923     2.24924044     4.08930840
Ce    -5.60926261     9.98764784     7.14834016
Ce     5.80789581     1.11772783     0.89035214
Ce     3.76646965     2.19896371     3.94818222
Ce    -1.97739765    10.03862538     7.29852677
Ce     9.67981860     1.11772783     0.89035214
Ce     7.81308645     2.22365854     3.95154046
Ce     7.80958838     0.03161902     7.34431997
Ce    -0.00000000     4.47091133     0.89035214
Ce    -1.93667546     5.58858307     4.09040226
Ce    -1.88742598     3.44570191     7.35831700
Ce     3.87193441     4.47091133     0.89035214
Ce     1.92329956     5.60408613     4.09784317
Ce     1.85493092     3.40752076     7.35296839
Ce     7.74385721     4.47091133     0.89035214
Ce     5.79858918     5.63785984     4.02586837
Ce    -1.93596721     7.82410489     0.89035214
Ce    -3.84993648     8.90750984     4.02579568
Ce    -3.73611090     6.72886005     7.33972760
Ce     1.93596721     7.82410489     0.89035214
Ce     0.02285377     8.97325081     4.10525697
Ce     0.03568401     6.75180804     7.33201684
Ce     5.80789000     7.82410489     0.89035214
Ce     3.88854771     8.95849988     4.08038982
Ce     3.80093319     6.74741476     7.35993981
W      5.72886669     3.20028235     6.64824194
Y      7.13874433     3.15721636     9.63144027
O      0.00000000     0.00000000     0.09999685
O      1.90778444     1.11475616     3.20877275
O     -0.11404479     2.07801661     6.53662081
O      0.00000000     2.23545567     1.68070743
O     -5.74315135    10.04251099     4.85560038
O      1.91367860     1.20143860     8.06560882
O      3.87192279     0.00000000     0.09999685
O      5.81281173     1.10053489     3.21423434
O      4.03097713     2.44182464     6.38436049
O      3.87192279     2.23545567     1.68070743
O      3.85095108     0.05757100     4.83816024
O      5.78198501     2.16095414     8.24545773
O      7.74385721     0.00000000     0.09999685
O      9.71310667     1.10885877     3.22695653
O      7.45925004     2.51606899     6.35611149
O      7.74385721     2.23545567     1.68070743
O      7.80439039     0.07429093     4.86244597
O      8.59205606     1.83104552     8.87820326
O     -1.93596140     3.35318350     0.09999685
O      0.01411101     4.48166371     3.27967857
O     -1.97213571     5.61458996     6.44321128
O     -1.93596721     5.58864923     1.68070743
O      9.68205972     3.31691142     4.85263771
O      0.12266571     4.41490456     8.15119624
O      1.93596140     3.35318350     0.09999685
O      3.76165155     4.44560064     3.25841035
O      2.02723419     5.54968883     6.43555465
O      1.93595559     5.58864923     1.68070743
O      1.87442041     3.27290210     4.95302870
O      5.80789581     3.35318350     0.09999685
O      7.80004592     4.43589409     3.23494347
O      5.81381262     5.01500922     6.72687950
O      5.80789000     5.58864923     1.68070743
O      5.74315706     3.25021422     4.73107179
O      7.96850620     4.72357878     8.62351487
O     -3.87192860     6.70637706     0.09999685
O     -1.93456499     7.82083877     3.26687901
O     -3.82952052     8.93851828     6.42265138
O     -3.87192860     8.94183273     1.68070743
O      7.72737431     6.71364612     4.95993162
O     -2.04883496     7.82180167     8.19229993
O     -0.00000581     6.70637706     0.09999685
O      1.97007003     7.83241753     3.28396219
O      0.03941801     9.11539563     6.51894401
O     -0.00000581     8.94183273     1.68070743
O      0.02147625     6.75428700     4.87895444
O      3.87192860     6.70637706     0.09999685
O      5.80281829     7.89616085     3.21675454
O      3.97902029     9.18479140     6.59058422
O      3.87192860     8.94183273     1.68070743
O      3.91505883     6.81802775     5.04675274
O      5.86532385     7.68482395     7.94351720
O      3.64193889     4.59809096     8.43538460
O      2.10757020     7.82932137     8.16161251
O      3.99520301     4.58428587    10.84916816
C      4.61508441     4.32745794     9.86712690
