83
CIF: O2—Olatt+Osur.cif | data_image0
Ce     1.93596140     1.11772783     0.89035214
Ce    -0.01631692     2.23008381     4.05669331
Ce    -5.58354604     9.93394129     7.18513893
Ce     5.80789581     1.11772783     0.89035214
Ce     3.80425720     2.20228105     3.96653018
Ce    -1.90376899    10.05940315     7.28440474
Ce     9.67981860     1.11772783     0.89035214
Ce     7.76415007     2.24945873     3.97926530
Ce     1.95735166     9.99334617     7.31403291
Ce     0.00000000     4.47091133     0.89035214
Ce    -1.94195765     5.59192045     4.04559935
Ce    -1.80224035     3.51364621     7.27717622
Ce     3.87193441     4.47091133     0.89035214
Ce     1.94045250     5.60122477     4.09622750
Ce     1.83013202     3.29938887     7.27672028
Ce     7.74385721     4.47091133     0.89035214
Ce     5.79480427     5.62246808     4.03384397
Ce    -1.93596721     7.82410489     0.89035214
Ce    -3.84391731     8.91126789     4.03123258
Ce    -3.70523125     6.71197771     7.33106493
Ce     1.93596721     7.82410489     0.89035214
Ce     0.01167628     8.97071250     4.06971233
Ce     0.07413763     6.74084577     7.23600228
Ce     5.80789000     7.82410489     0.89035214
Ce     3.89209070     8.95900561     4.07920159
Ce     3.89555292     6.75109974     7.31688998
W      5.49943501     3.37969126     6.86485872
Y      7.32189602     2.91301057     9.22290348
O      0.00000000     0.00000000     0.09999685
O      1.91256785     1.10512332     3.20654811
O     -0.11947311     2.13946938     6.55102660
O      0.00000000     2.23545567     1.68070743
O     -5.74722637    10.05655773     4.86495875
O      1.87837848     1.02188327     8.08799170
O      3.87192279     0.00000000     0.09999685
O      5.82675263     1.12456557     3.20311870
O      3.94614543     2.36672972     6.34470321
O      3.87192279     2.23545567     1.68070743
O      3.88115696     0.04236075     4.80329122
O      5.75318933     1.70637517     8.12729095
O      7.74385721     0.00000000     0.09999685
O      9.69151310     1.12024007     3.22860718
O      7.38543541     3.03667982     6.81768478
O      7.74385721     2.23545567     1.68070743
O      7.78688426     0.16497511     4.92518002
O      8.97819237     1.72076262     8.58763095
O     -1.93596140     3.35318350     0.09999685
O     -0.02468599     4.46712770     3.26155084
O     -1.89307269     5.60823084     6.38144612
O     -1.93596721     5.58864923     1.68070743
O      9.63308751     3.29583779     4.91029306
O     -0.01007115     4.55199609     8.08956750
O      1.93596140     3.35318350     0.09999685
O      3.81300957     4.44110178     3.26149343
O      1.97177197     5.56131687     6.43693803
O      1.93595559     5.58864923     1.68070743
O      1.85595418     3.28170205     4.86410385
O      5.80789581     3.35318350     0.09999685
O      7.77125504     4.43150678     3.23224213
O      5.67844381     5.23079062     6.40904539
O      5.80789000     5.58864923     1.68070743
O      5.76706199     3.19684683     4.90611037
O      8.38921160     4.69039467     8.67112190
O     -3.87192860     6.70637706     0.09999685
O     -1.92375471     7.81199076     3.24858964
O     -3.78307201     8.89617577     6.37969221
O     -3.87192860     8.94183273     1.68070743
O      7.75625248     6.68254746     4.93106407
O     -1.89253198     7.73927715     8.09811922
O     -0.00000581     6.70637706     0.09999685
O      1.94003377     7.87830051     3.27244539
O      0.03073809     8.95811091     6.41488216
O     -0.00000581     8.94183273     1.68070743
O      0.02676801     6.71970676     4.85937368
O      3.87192860     6.70637706     0.09999685
O      5.81670968     7.88001968     3.23005914
O      3.98476949     9.09167381     6.58163145
O      3.87192860     8.94183273     1.68070743
O      3.85975024     6.81806202     4.89721113
O      6.05845881     7.76538691     8.02816496
O      1.85828615     7.79279166     8.15380899
O      4.05307767     4.10890143     8.13397437
O      5.72876790     4.37723811     8.74510980
