81
CIF: Y-W-CeO2-Ov.cif | data_image0
Ce     1.93596140     1.11772783     0.89035214
Ce    -0.01811259     2.22185347     4.05906124
Ce    -5.57221312     9.92438409     7.15915521
Ce     5.80789581     1.11772783     0.89035214
Ce     3.78850195     2.20054549     3.95833622
Ce    -1.99053629     9.95363749     7.29878685
Ce     9.67981860     1.11772783     0.89035214
Ce     7.79157546     2.22310458     3.96810730
Ce     2.00289841    10.01702656     7.33980849
Ce     0.00000000     4.47091133     0.89035214
Ce    -1.93808213     5.57621539     4.08758400
Ce    -1.86262912     3.44969142     7.32454299
Ce     3.87193441     4.47091133     0.89035214
Ce     1.93742893     5.59215091     4.13862633
Ce     1.71977422     3.24857054     7.29818150
Ce     7.74385721     4.47091133     0.89035214
Ce     5.78875865     5.62982087     4.00444253
Ce    -1.93596721     7.82410489     0.89035214
Ce    -3.84777501     8.89996248     4.00816415
Ce    -3.70270582     6.72445678     7.34775114
Ce     1.93596721     7.82410489     0.89035214
Ce     0.02974888     8.96105429     4.11251232
Ce     0.08392989     6.69744793     7.36694256
Ce     5.80789000     7.82410489     0.89035214
Ce     3.88771164     8.95482856     4.04233718
Ce     3.84380077     6.90258111     7.29438729
W      5.73702128     3.20593395     6.79252993
Y      7.45221284     3.08207328     9.76424373
O      0.00000000     0.00000000     0.09999685
O      1.92299847     1.10078818     3.19565253
O     -0.13091351     2.03685951     6.51658428
O      0.00000000     2.23545567     1.68070743
O     -5.73438854    10.01981800     4.83309820
O      1.86913092     0.97506328     8.15309124
O      3.87192279     0.00000000     0.09999685
O      5.81810907     1.12891780     3.23069976
O      4.08519450     2.39255509     6.57862069
O      3.87192279     2.23545567     1.68070743
O      3.86310368     0.07905577     4.83989954
O      5.72505109     2.58612672     8.60802844
O      7.74385721     0.00000000     0.09999685
O      9.70134045     1.11264604     3.21710583
O      7.40756374     2.43062454     6.52206622
O      7.74385721     2.23545567     1.68070743
O      7.80535760     0.07636581     4.86152491
O      8.71538532     1.75611145     8.92307748
O     -1.93596140     3.35318350     0.09999685
O      0.00189555     4.46612758     3.28866778
O     -1.97209045     5.60579986     6.42472960
O     -1.93596721     5.58864923     1.68070743
O      9.64840847     3.29347684     4.86068092
O      0.01451898     4.43772193     8.22378634
O      1.93596140     3.35318350     0.09999685
O      3.77332059     4.42398144     3.25927612
O      2.10121437     5.48726907     6.49754561
O      1.93595559     5.58864923     1.68070743
O      1.89089685     3.22107685     4.89670046
O      5.80789581     3.35318350     0.09999685
O      7.79220564     4.41842374     3.22665113
O      5.64812340     5.01003588     6.95321678
O      5.80789000     5.58864923     1.68070743
O      5.75058642     3.29735296     4.85681363
O      8.04960352     4.70075546     8.71202724
O     -3.87192860     6.70637706     0.09999685
O     -1.92810676     7.81144607     3.27948286
O     -3.78155431     8.88174272     6.36325774
O     -3.87192860     8.94183273     1.68070743
O      7.70489691     6.66446615     4.96540749
O     -2.02394186     7.78380769     8.22442752
O     -0.00000581     6.70637706     0.09999685
O      1.94520154     7.84220921     3.27133069
O      0.04136299     9.10658344     6.50183416
O     -0.00000581     8.94183273     1.68070743
O      0.04714941     6.73052865     4.89440660
O      3.87192860     6.70637706     0.09999685
O      5.82009073     7.89147205     3.19428001
O      3.97922679     9.16404407     6.57491184
O      3.87192860     8.94183273     1.68070743
O      3.89375638     6.83236968     4.92736267
O      6.02176208     7.76895584     8.02978814
O      2.01210350     7.89195858     8.25048591
