83
CIF: Os-Cr-CeO2-Ov-O2.cif | data_image0
Ce     1.93038582     1.11050507     0.88387043
Ce    -0.01964746     2.23857295     4.01910426
Ce    11.60918925     0.01120773     7.24385015
Ce     5.81181033     1.12175166     0.90127712
Ce     3.79918985     2.18085422     3.97821205
Ce    -1.97494031    10.01059433     7.33923519
Ce     9.66901012     1.12377363     0.90450652
Ce     7.76544047     2.21319806     4.06815640
Ce     1.97569803     9.99065089     7.29212512
Ce    -0.00709724     4.47602159     0.89067279
Ce    -1.95621980     5.58431046     4.09796017
Ce    -1.82221191     3.33429713     7.24279121
Ce     3.86254305     4.47635356     0.87798423
Ce     1.94427470     5.58149178     4.06980252
Ce     1.78997972     3.29676792     7.24361061
Ce     7.74213807     4.46545905     0.90125422
Ce     5.81851898     5.68381893     3.98339829
Ce    -1.94645625     7.83004003     0.90010904
Ce    -3.87792511     8.94267419     4.11036183
Ce    -3.87024342     6.74125432     7.35803340
Ce     1.92815559     7.82745473     0.89060408
Ce    -0.00513508     8.95358925     4.10621763
Ce    -0.03736371     6.72480946     7.27160140
Ce     5.81127600     7.83258510     0.88371011
Ce     3.84618904     8.95988565     4.04219071
Ce     3.84074987     6.87225354     7.26381278
Cr     5.14580339     3.74502074     6.55632811
Os     6.46980102     2.99987889     8.03267380
O     11.61334069     0.00154917     0.10141687
O      1.92442349     1.10591152     3.21531554
O      0.00664962     2.25816138     6.37396551
O     -0.00785227     2.23805103     1.69392277
O      0.00141159     0.00630072     4.86611253
O      1.82829173     1.23592858     8.06681261
O     -1.93899312    10.05733740     0.10496691
O      5.72514290     1.11784263     3.25337766
O      3.87077157     2.47638314     6.46301715
O      3.86763657     2.23577757     1.68132582
O      3.82554453     0.06638657     4.89879081
O      5.87165297     1.24984944     8.32261790
O      7.73821774     0.00761509     0.10924988
O      9.72540384     1.09311259     3.22505239
O      7.75138620     2.29176458     6.70330775
O      7.74357843     2.23531483     1.71563532
O      1.93260943    10.02893708     4.87704654
O      9.85414706     1.17756791     8.07101230
O      9.67032270     3.35425987     0.10911246
O     -0.00810835     4.49031850     3.24156363
O     -1.93950290     5.52943688     6.46702351
O     -1.94403436     5.59119430     1.70564938
O     -1.91144677     3.35573601     4.90498779
O      0.00640849     4.43939512     8.07369135
O      1.92738314     3.35244915     0.09928684
O      3.89228669     4.46363713     3.25675632
O      2.10759551     5.45971828     6.51131421
O      1.92862022     5.59252216     1.67404250
O      1.91020855     3.32594479     4.83097408
O      5.81155478     3.35101064     0.10766953
O      7.70556008     4.54056885     3.25505264
O      5.60817813     5.49355192     6.45391634
O      5.80528807     5.59217007     1.68114259
O      5.79085505     3.36920314     4.98875616
O      7.78427676     4.33671772     8.32620144
O     -3.87155109     6.71022987     0.10512724
O     -1.93908943     7.82228152     3.30815397
O     -3.92038760     8.96043341     6.47374858
O     -3.87509971     8.94378428     1.69355631
O      7.68048339     6.70666799     4.90149965
O     -1.82308151     7.73888555     8.15045171
O     -0.01209783     6.71325780     0.10434852
O      1.90982525     7.80698159     3.24427134
O     -0.01155466     8.92442911     6.44970626
O     -0.00628994     8.94736548     1.70514550
O      0.04069922     6.66283174     4.93831961
O      1.93555421     7.71194180     8.09162757
O      3.86815347     6.71410280     0.09951587
O      5.80910619     7.83845443     3.22579211
O      3.88781460     8.94784047     6.41366459
O      3.86556896     8.94715423     1.69389986
O      3.86201832     6.74782657     4.84676916
O      5.65978287     7.87157168     8.10101475
O      4.08745877     4.38194597     8.29274748
O      5.13004638     3.87868149     9.19109478
