84
CIF: CO+Olatt—CO2.cif | data_image0
Ce     1.93038582     1.11050507     0.88387043
Ce    -0.00124296     2.22087723     4.02517195
Ce    -5.78634678    10.05642332     7.21271585
Ce     5.81181033     1.12175166     0.90127712
Ce     3.84558578     2.19046554     3.98831995
Ce    -2.00619055     9.97107647     7.28019124
Ce     9.66901012     1.12377363     0.90450652
Ce     7.72861937     2.23191037     4.05627962
Ce     2.03707886     9.90957297     7.32919663
Ce    -0.00709724     4.47602159     0.89067279
Ce    -1.95051865     5.58505653     4.09074437
Ce    -1.64344331     3.36184510     7.25259161
Ce     3.86254305     4.47635356     0.87798423
Ce     1.95432372     5.58135306     4.05736712
Ce     1.98159267     3.31340170     7.21245619
Ce     7.74213807     4.46545905     0.90125422
Ce     5.83156977     5.63731469     3.99969711
Ce    -1.94645625     7.83004003     0.90010904
Ce    -3.85896084     8.92566293     4.06378869
Ce    -3.84586153     6.75705012     7.32790620
Ce     1.92815559     7.82745473     0.89060408
Ce     0.00669554     8.95484551     4.10624674
Ce     0.02396466     6.72333559     7.26683247
Ce     5.81127600     7.83258510     0.88371011
Ce     3.86518321     8.96229718     4.05536792
Ce     3.90852742     6.73576387     7.22863420
Ti     5.40723739     3.57924417     6.69491910
Cr     6.93070994     2.88811381     8.77644795
O     11.61334069     0.00154917     0.10141687
O      1.92032115     1.10647996     3.22026890
O      0.10793240     2.25547392     6.37124526
O     -0.00785227     2.23805103     1.69392277
O     -5.78714598    10.05880902     4.88336448
O      1.86491736     1.21461148     8.05718909
O     -1.93899312    10.05733740     0.10496691
O      5.73515834     1.07767701     3.24400531
O      4.04695174     2.27085478     6.47974086
O      3.86763657     2.23577757     1.68132582
O     -1.97416973    10.05329493     4.86154675
O      6.71253936     1.35755139     9.31791190
O      7.73821774     0.00761509     0.10924988
O      9.74736361     1.08765408     3.22987925
O      7.04997421     2.61364444     6.95357734
O      7.74357843     2.23531483     1.71563532
O      1.96349725    10.05682617     4.92557031
O      9.77353664     1.24123717     7.91488045
O      9.67032270     3.35425987     0.10911246
O     -0.00208180     4.46682443     3.27692202
O     -1.93483089     5.47787891     6.52186826
O     -1.94403436     5.59119430     1.70564938
O      9.68694309     3.30383727     4.98087437
O      0.12502332     4.42128510     8.07140493
O      1.92738314     3.35244915     0.09928684
O      3.84753214     4.49608628     3.19781756
O      2.00675374     5.53138838     6.42112876
O      1.92862022     5.59252216     1.67404250
O      2.00478328     3.31797568     4.86542085
O      4.02682115     4.39409225     7.99109793
O      5.81155478     3.35101064     0.10766953
O      7.74945603     4.54852612     3.24744237
O      5.85425035     5.41460542     6.46984093
O      5.80528807     5.59217007     1.68114259
O      5.67945223     3.42493465     4.80802902
O      8.14741906     4.00284290     8.99343465
O     -3.87155109     6.71022987     0.10512724
O     -1.92586993     7.81013393     3.27044591
O     -3.90510793     8.93863516     6.47760769
O     -3.87509971     8.94378428     1.69355631
O     -3.86717934     6.71857051     4.88083128
O     -1.78923711     7.71837882     8.13102460
O     -0.01209783     6.71325780     0.10434852
O      1.93591573     7.81141850     3.27265079
O      0.02460884     8.97358638     6.50197899
O     -0.00628994     8.94736548     1.70514550
O     -0.00792322     6.70069499     4.93271230
O      2.00702176     7.67262795     8.08498989
O      3.86815347     6.71410280     0.09951587
O      5.81197242     7.83882343     3.23337838
O      3.93694305     8.90678881     6.42171989
O      3.86556896     8.94715423     1.69389986
O      3.92300518     6.69323034     4.88563316
O      5.69660823     7.83282515     8.08606332
O      4.72232026     4.04200079    10.42168983
C      5.28372805     3.76351329     9.43688488
