83
CIF: Y-Mo-CeO2-O.cif | data_image0
Ce     1.93596140     1.11772783     0.89035214
Ce    -0.01675763     2.21206551     4.03736643
Ce    -5.63064215     9.93793410     7.17366879
Ce     5.80789581     1.11772783     0.89035214
Ce     3.83536101     2.19424944     3.96352617
Ce    -1.96467725     9.94605807     7.26307208
Ce     9.67981860     1.11772783     0.89035214
Ce     7.71959414     2.26018427     4.04883486
Ce     7.82071777     0.00319455     7.22285498
Ce     0.00000000     4.47091133     0.89035214
Ce    -1.93712332     5.59465321     4.05600277
Ce    -1.82463615     3.45373157     7.20383952
Ce     3.87193441     4.47091133     0.89035214
Ce     1.95191512     5.59906225     4.07268238
Ce     1.88168482     3.32596487     7.20063301
Ce     7.74385721     4.47091133     0.89035214
Ce     5.82332383     5.62230396     4.01083033
Ce    -1.93596721     7.82410489     0.89035214
Ce    -3.84301858     8.90131095     4.02873144
Ce    -3.72638181     6.65861955     7.43686911
Ce     1.93596721     7.82410489     0.89035214
Ce     0.01687749     8.96464709     4.07136090
Ce     0.07526901     6.75394596     7.22996378
Ce     5.80789000     7.82410489     0.89035214
Ce     3.89541541     8.95773712     4.05783396
Ce     3.88537667     6.74694611     7.32492641
Mo     5.54383918     3.34998236     6.89721555
O      0.00000000     0.00000000     0.09999685
O      1.91569254     1.11903307     3.19692810
O     -0.09572487     2.13687558     6.44605534
O      0.00000000     2.23545567     1.68070743
O     -5.74246114    10.02670755     4.82767171
O      1.91666649     1.20151840     7.98261687
O      3.87192279     0.00000000     0.09999685
O      5.81055128     1.14330476     3.23013756
O      4.18054079     2.16132800     6.36771135
O      3.87192279     2.23545567     1.68070743
O      3.85263249     0.00231295     4.77120371
O      5.91844588     2.45137726     8.48017418
O      7.74385721     0.00000000     0.09999685
O      9.70372603     1.11634894     3.23116151
O      7.35718604     2.52230299     6.39289111
O      7.74385721     2.23545567     1.68070743
O      7.79254372     0.07150044     4.82055101
O      9.08786384     1.69269605     8.52738583
O     -1.93596140     3.35318350     0.09999685
O      0.01900993     4.46122853     3.27431137
O     -1.85225870     5.56608568     6.35682217
O     -1.93596721     5.58864923     1.68070743
O      9.64812439     3.31473173     4.84516034
O      0.10041926     4.41747999     8.01189226
O      1.93596140     3.35318350     0.09999685
O      3.83489696     4.48610108     3.21686429
O      1.92742309     5.53839487     6.37388629
O      1.93595559     5.58864923     1.68070743
O      1.95446196     3.25428894     4.91145964
O      5.80789581     3.35318350     0.09999685
O      7.72602442     4.45999735     3.23290317
O      6.06412667     5.12112460     6.64368253
O      5.80789000     5.58864923     1.68070743
O      5.65710207     3.41958927     4.81743616
O      8.40273710     4.53549731     8.65179282
O     -3.87192860     6.70637706     0.09999685
O     -1.92679168     7.80026172     3.23766889
O     -3.81594963     8.90831550     6.39982006
O     -3.87192860     8.94183273     1.68070743
O      7.69561909     6.66712560     4.84146025
O     -1.72196738     7.75106900     8.13269797
O     -0.00000581     6.70637706     0.09999685
O      1.98018823     7.82266358     3.26880061
O      0.03889227     9.04010106     6.40333853
O     -0.00000581     8.94183273     1.68070743
O      0.02909433     6.75552555     4.84503249
O      3.87192860     6.70637706     0.09999685
O      5.80599600     7.82542852     3.20859963
O      3.95636213     9.11677390     6.47237509
O      3.87192860     8.94183273     1.68070743
O      3.99013022     6.71434719     4.92063909
O      5.88016479     7.91647539     8.07682460
O      1.89419885     7.79178730     8.06756967
O      3.99315480     4.24315981     7.75546910
O      7.77138443     2.76336725    11.86391556
Y      7.71535100     2.87876042     9.73858496
