81
CIF: Y-Mo-CeO2-Ov.cif | data_image0
Ce     1.93596140     1.11772783     0.89035214
Ce    -0.00959115     2.21552124     4.03815383
Ce    -5.62451046     9.92479421     7.24129436
Ce     5.80789581     1.11772783     0.89035214
Ce     3.81639792     2.21081571     4.01692254
Ce    -2.00171784     9.92248379     7.32069193
Ce     9.67981860     1.11772783     0.89035214
Ce     7.76314862     2.23129292     4.01923115
Ce     1.95749022    10.02634791     7.29160849
Ce     0.00000000     4.47091133     0.89035214
Ce    -1.95094706     5.58700253     4.06438493
Ce    -1.83326125     3.50682061     7.22232515
Ce     3.87193441     4.47091133     0.89035214
Ce     1.94061244     5.58980787     4.11557839
Ce     1.72713470     3.26857619     7.27593900
Ce     7.74385721     4.47091133     0.89035214
Ce     5.80672800     5.67752030     3.92468726
Ce    -1.93596721     7.82410489     0.89035214
Ce    -3.85189375     8.93186093     4.06491526
Ce    -3.77351057     6.69370717     7.48573039
Ce     1.93596721     7.82410489     0.89035214
Ce     0.00955203     8.97985940     4.09327341
Ce     0.04294807     6.75481252     7.27737694
Ce     5.80789000     7.82410489     0.89035214
Ce     3.87718929     8.96714370     4.07091328
Ce     3.82440323     6.91211538     7.34816973
Mo     5.75071896     3.19626796     6.91473444
O      0.00000000     0.00000000     0.09999685
O      1.86498989     1.07153534     3.22333083
O     -0.18718307     2.10549649     6.58406821
O      0.00000000     2.23545567     1.68070743
O     -5.75612051    10.01967151     4.90069665
O      1.85877666     1.02391501     8.14533996
O      3.87192279     0.00000000     0.09999685
O      5.80216077     1.06912037     3.24735032
O      4.12344062     2.37234813     6.71807425
O      3.87192279     2.23545567     1.68070743
O     -1.96743964    10.02901393     4.90850732
O      5.94461152     2.20025762     8.60921649
O      7.74385721     0.00000000     0.09999685
O      9.75065152     1.07970749     3.24402837
O      7.46697866     2.51098937     6.55966375
O      7.74385721     2.23545567     1.68070743
O      1.98137431    10.02808690     4.90798388
O      9.02716224     1.69430488     8.74476560
O     -1.93596140     3.35318350     0.09999685
O      0.00276338     4.49182487     3.26465933
O     -1.91655219     5.59516885     6.42028634
O     -1.93596721     5.58864923     1.68070743
O     -1.89246695     3.37855713     4.91441921
O     -0.08353614     4.51205434     8.12970412
O      1.93596140     3.35318350     0.09999685
O      3.85556138     4.56481397     3.25342175
O      2.00210321     5.56635951     6.53648693
O      1.93595559     5.58864923     1.68070743
O      1.82982888     3.30424894     4.94084470
O      5.80789581     3.35318350     0.09999685
O      7.72959487     4.54360600     3.21980909
O      5.54284151     4.88718356     7.44709875
O      5.80789000     5.58864923     1.68070743
O      5.73311562     3.53860919     5.05010690
O      8.23291303     4.48800515     8.73284524
O     -3.87192860     6.70637706     0.09999685
O     -1.95894264     7.78902615     3.29220521
O     -3.83969109     8.86688846     6.45161638
O     -3.87192860     8.94183273     1.68070743
O      7.56770419     6.60545899     4.98665296
O     -1.79310517     7.73317115     8.22296290
O     -0.00000581     6.70637706     0.09999685
O      1.97394891     7.80116959     3.29045547
O      0.01874558     9.00679341     6.49768231
O     -0.00000581     8.94183273     1.68070743
O      0.03632334     6.72440642     4.92305058
O      3.87192860     6.70637706     0.09999685
O      5.81406824     7.85118727     3.20783527
O      3.93177198     9.12763136     6.57966628
O      3.87192860     8.94183273     1.68070743
O      4.01988778     6.75543306     4.98247105
O      5.86079507     7.88792702     8.18144320
O      1.85409204     7.83795213     8.21500610
Y      7.65066793     2.82079514     9.71459048
