85
CIF: 1-NH3-NH2+H_ts.cif | data_image0
Ce     5.79674730    10.05115564     8.75058605
Ce     1.94197367     1.11888323     5.65885984
Ce     0.00292553     2.22610527     2.47647111
Ce     3.92992806     0.06089051     8.84183458
Ce     5.81525778     1.11751965     5.60918789
Ce     3.87465934     2.23763680     2.46733862
Ce     7.68555179     0.04217600     8.83967206
Ce     9.67722877     1.11370995     5.64205396
Ce     7.74349778     2.23892658     2.46077776
Ce     9.63571353     3.31420855     8.82417046
Ce     0.00390394     4.47049065     5.58324076
Ce    -1.94466885     5.58269861     2.45350590
Ce     2.01760836     3.37354988     8.84066603
Ce     3.87632487     4.47840033     5.60993756
Ce     1.94418811     5.58452617     2.45365877
Ce     5.82301499     3.36305798     8.73885118
Ce     7.75578117     4.47713985     5.61861705
Ce     5.81109069     5.58747774     2.46216975
Ce     7.69426271     6.68309237     8.82575248
Ce    -1.93293731     7.82395122     5.58384848
Ce    -3.87807873     8.94906112     2.47654279
Ce     1.93454390     7.82451803     5.57650879
Ce    -0.00068474     8.95166354     2.45221161
Ce     3.88458006     6.63813430     8.83850972
Ce     5.80408014     7.82404481     5.64136099
Ce     3.88036467     8.94767687     2.46847529
Ru     0.02498824     6.71133119     8.34381455
O      0.00081526     0.00032904     6.45753679
O     -0.02297048     2.30171534     9.49600261
O      1.94020580     1.12009600     3.27924416
O      0.00311762     2.21481010     4.81741126
O      0.00504937     0.00370047     1.67462954
O      1.94169979     1.11609795     8.01040568
O     -1.94080242     9.98170412     6.48903655
O      3.90013269     2.25570441     9.57118271
O      5.80776434     1.15571989     3.25702083
O      3.85001234     2.22139291     4.85122148
O      3.87334360     0.00155180     1.67983984
O      5.81131413     1.20061139     7.88584095
O      1.94115690     9.99189357     6.47548072
O      7.74494513     2.24287372     9.56682739
O      9.68430509     1.11699282     3.26580590
O      7.77951812     2.21804999     4.83385736
O      7.74102282     0.00384135     1.67876548
O      9.67177995     1.11190218     7.99062973
O     -1.86923149     3.36880639     6.48279450
O     -2.37554809     5.33256792     9.95623582
O     -0.00135165     4.46443754     3.26786767
O     -1.97999568     5.55990034     4.77751365
O      9.67574608     3.35698145     1.67812594
O     -0.03275574     4.83210013     8.09498870
O      1.87250612     3.38360302     6.48852174
O      2.39898218     5.31357694     9.78828174
O      3.90525425     4.45288891     3.25934218
O      1.98364847     5.55663901     4.76613011
O      1.94025137     3.35430724     1.68168118
O      3.95042225     4.43683950     7.88619024
O      5.84009023     3.37090885     6.36332146
O      5.81599618     5.58589663     9.57208912
O      7.71621153     4.45460692     3.26533612
O      5.81165684     5.62906071     4.83593474
O      5.81031365     3.35658394     1.64844191
O      7.73844896     4.46440315     7.93761585
O     -3.82086202     6.75504082     6.47986515
O     -3.81748695     8.87827679     9.49411505
O     -1.94176256     7.82437771     3.26788531
O     -3.88768889     8.95425001     4.81695590
O      7.74458038     6.70045006     1.67882423
O     -1.62787172     7.60425057     8.09283728
O      0.00772259     6.70692541     6.15785548
O     -0.01411921     9.49563912     9.80293864
O      1.94019287     7.82796590     3.26083250
O     -0.00327089     8.99876138     4.76577476
O     -0.00121519     6.70513741     1.68305912
O      1.63107288     7.66023729     8.07384703
O      3.81269004     6.74793868     6.47641373
O      3.80747758     8.90230519     9.49415364
O      5.80947688     7.82969443     3.26675666
O      3.89021755     8.95352482     4.80837211
O      3.87304994     6.70318418     1.67983440
O      5.80006328     7.81827047     7.98675881
N     -0.17120536     6.61271471    10.32440744
H     -0.21825196     7.57208870    10.69362513
H      0.65843613     6.14099599    10.71143558
H     -1.48159839     5.84542354    10.28282061
