87
CIF: 4-NHNO+2H-N2+OH+2H_ts.cif | data_image0
Ce     5.79920190    10.05611114     8.76186569
Ce     1.93153352     1.13337256     5.63728949
Ce     0.00000000     2.23543938     2.47426506
Ce     3.80518674     0.17524315     8.86035220
Ce     5.81755593     1.10835913     5.65363491
Ce     3.87189458     2.23543938     2.47426506
Ce     7.74010642     0.03678188     8.93679485
Ce     9.67625072     1.11222782     5.64649933
Ce     7.74390532     2.23543938     2.47426506
Ce     9.62478707     3.27636926     8.84481038
Ce     0.00357674     4.46392517     5.57799440
Ce    -1.93600537     5.58869904     2.47426506
Ce     2.01380969     3.41257277     8.85821259
Ce     3.86922673     4.48764953     5.62214840
Ce     1.93588921     5.58869904     2.47426506
Ce     5.83772466     3.37073528     8.76088091
Ce     7.76520036     4.48563276     5.64261916
Ce     5.80789995     5.58869904     2.47426506
Ce     7.70065232     6.68748084     8.92338888
Ce    -1.96177937     7.83719054     5.56485685
Ce    -3.87195266     8.94185811     2.47426506
Ce     1.95093955     7.84571349     5.58349902
Ce    -0.00005808     8.94185811     2.47426506
Ce     3.94909880     6.64678301     8.87306376
Ce     5.81532763     7.82366155     5.65490296
Ce     3.87195266     8.94185811     2.47426506
Ru    -0.00464004     6.75518537     8.37292463
O      0.01481856     0.00690142     6.43417096
O     -0.01702539     2.33668238     9.51062641
O      1.93594729     1.11771969     3.26466483
O      0.00381511     2.22696598     4.80721489
O      0.00000000     0.00000000     1.68386529
O      1.93298189     1.21042839     7.96367048
O     -1.97357565     9.96493967     6.49785954
O      3.84790877     2.29716140     9.61303578
O      5.80795803     1.11771969     3.26466483
O      3.85028384     2.22255684     4.85871225
O      3.87189458     0.00000000     1.68386529
O      5.74175891     1.16796193     7.95035212
O      1.93521939     9.98771909     6.44971238
O      7.74023483     2.32221927     9.61035103
O      9.67985261     1.11771969     3.26466483
O      7.77670150     2.22729157     4.85065307
O      7.74390532     0.00000000     1.68386529
O      9.70376051     1.11816246     7.98386400
O     -1.83377320     3.38636395     6.48336386
O     -2.40044062     5.17215019    10.12178146
O      0.00000000     4.47087876     3.26466483
O     -1.93826253     5.58058371     4.78875508
O      9.67985261     3.35315907     1.68386529
O      0.02061998     4.89287637     8.20558850
O      1.84771168     3.42858100     6.47281101
O      2.51977359     5.28215102     9.91049821
O      3.87201074     4.47087876     3.26466483
O      1.94332540     5.59801059     4.79007750
O      1.93594729     3.35315907     1.68386529
O      3.92442992     4.44131287     7.87605846
O      5.83927848     3.35523654     6.38171664
O      5.74590933     5.51693562     9.61143333
O      7.74390532     4.47087876     3.26466483
O      5.81139277     5.61868100     4.85083716
O      5.80795803     3.35315907     1.68386529
O      7.76619617     4.44153026     7.93077781
O     -3.77777162     6.76796958     6.44606741
O     -3.82940879     9.08761732     9.53767754
O     -1.93600537     7.82413842     3.26466483
O     -3.87905937     8.95960690     4.79973959
O      7.74384724     6.70641873     1.68386529
O     -1.56053243     7.66450896     8.21962189
O     -0.01939820     6.70291171     6.32347299
O     -0.19263202     9.59733416    10.14422380
O      1.93600537     7.82413842     3.26466483
O     -0.01303501     8.95618217     4.80130342
O     -0.00005808     6.70641873     1.68386529
O      1.62210299     7.61984388     8.11877927
O      3.79913969     6.76129523     6.47809094
O      3.95398840     8.85484560     9.57991839
O      5.80789995     7.82413842     3.26466483
O      3.88584585     8.94942230     4.81251385
O      3.87195266     6.70641873     1.68386529
O      5.80201848     7.82976116     7.96061348
O      0.23532948     6.96075176    10.29960200
H     -1.77082063     5.46590329    10.82403576
H     -0.16054582     8.68652601    10.52836087
H      1.68594293     5.57206164    11.32743121
N      0.78502218     5.44586945    11.91557449
N     -0.16042256     6.01576631    11.41515914
