87
CIF: 6-OH+2H-H2O+H_is.cif | data_image0
Ce     5.79212503    10.05637735     8.76632289
Ce     1.92867396     1.13434858     5.64396803
Ce     0.00000000     2.23543938     2.47426506
Ce     3.79679665     0.18240219     8.86855994
Ce     5.81568532     1.10649358     5.65581218
Ce     3.87189458     2.23543938     2.47426506
Ce     7.73872856     0.03331338     8.93871309
Ce     9.67480364     1.11110096     5.64475501
Ce     7.74390532     2.23543938     2.47426506
Ce     9.61421776     3.26854430     8.84298310
Ce     0.00218934     4.45779510     5.57634173
Ce    -1.93600537     5.58869904     2.47426506
Ce     2.01279931     3.42658858     8.87826957
Ce     3.86877070     4.48358920     5.62386983
Ce     1.93588921     5.58869904     2.47426506
Ce     5.83432854     3.36518780     8.76050475
Ce     7.76244938     4.48218423     5.64325815
Ce     5.80789995     5.58869904     2.47426506
Ce     7.68955537     6.67715606     8.93231028
Ce    -1.97020583     7.83960813     5.55927235
Ce    -3.87195266     8.94185811     2.47426506
Ce     1.95258187     7.84683373     5.58324022
Ce    -0.00005808     8.94185811     2.47426506
Ce     3.93822058     6.63436343     8.87624839
Ce     5.81382363     7.82333618     5.66033440
Ce     3.87195266     8.94185811     2.47426506
Ru    -0.00082716     6.74622456     8.36784954
O      0.01400806     0.00588033     6.43549800
O     -0.03352091     2.32559210     9.51030948
O      1.93594729     1.11771969     3.26466483
O      0.00325251     2.22671332     4.80652109
O      0.00000000     0.00000000     1.68386529
O      1.93318306     1.21272620     7.96753594
O     -1.97700981     9.95189756     6.50512328
O      3.84935703     2.29627887     9.62438168
O      5.80795803     1.11771969     3.26466483
O      3.84571256     2.21783820     4.85921722
O      3.87189458     0.00000000     1.68386529
O      5.73353674     1.15850550     7.95273438
O      1.93042517     9.98449424     6.44552807
O      7.73331158     2.31394621     9.60791120
O      9.67985261     1.11771969     3.26466483
O      7.77815236     2.22399002     4.84587185
O      7.74390532     0.00000000     1.68386529
O      9.69452123     1.11166802     7.97486777
O     -1.83568923     3.38641380     6.47861137
O     -2.40660658     5.15567736    10.09621116
O      0.00000000     4.47087876     3.26466483
O     -1.93641974     5.58177858     4.78646594
O     -1.93594729     3.35315907     1.68386529
O      0.01635184     4.89226163     8.20540115
O      1.84193592     3.43276906     6.47319874
O      2.49437785     5.28793863     9.84499743
O      3.87201074     4.47087876     3.26466483
O      1.93447316     5.60067030     4.79134316
O      1.93594729     3.35315907     1.68386529
O      3.94127118     4.42755475     7.86318442
O      5.83992339     3.34354630     6.36951142
O      5.74072977     5.51058078     9.62026995
O      7.74390532     4.47087876     3.26466483
O      5.81225377     5.61948330     4.85311544
O      5.80795803     3.35315907     1.68386529
O      7.75081865     4.43648570     7.92170540
O     -3.76818766     6.77229471     6.45452680
O     -3.82980462     9.08357724     9.53832907
O     -1.93600537     7.82413842     3.26466483
O     -3.88044644     8.95874900     4.79840885
O     -3.87195266     6.70641873     1.68386529
O     -1.53973625     7.66453121     8.28577429
O     -0.03183747     6.70580244     6.34321966
O     -0.19058014     9.60088538    10.16087456
O      1.93600537     7.82413842     3.26466483
O     -0.01528934     8.94955619     4.79937048
O     -0.00005808     6.70641873     1.68386529
O      1.61755043     7.62662761     8.12244971
O      3.79079085     6.75823866     6.47586270
O      3.95297336     8.86165108     9.58350292
O      5.80789995     7.82413842     3.26466483
O      3.88511346     8.94765059     4.81213147
O      3.87195266     6.70641873     1.68386529
O      5.79621086     7.82397674     7.95936170
O      0.30986315     6.93075927    10.34504520
H     -1.67012129     5.41466339    10.71755116
H     -0.16804064     8.71592788    10.58961629
H      1.51190221     6.34819679    12.09386863
N      0.62716018     5.80345042    12.23285491
N     -0.13681060     5.99524082    11.28064601
