85
CIF: NH3.cif | data_image0
Ce    11.61491607     0.00018788     8.76432051
Ce     1.93809824     1.11938538     5.65840501
Ce     0.00000000     2.23543938     2.47426506
Ce     3.92234422     0.05704769     8.86026642
Ce     5.80744769     1.11066058     5.61733589
Ce     3.87189458     2.23543938     2.47426506
Ce     7.69357919     0.05820182     8.86034007
Ce     9.67637804     1.11935500     5.65832909
Ce     7.74390532     2.23543938     2.47426506
Ce     9.60423127     3.36966362     8.85976667
Ce    -0.00112354     4.45705574     5.58699928
Ce    -1.93600537     5.58869904     2.47426506
Ce     2.00879133     3.36720947     8.85995232
Ce     3.86477240     4.47454343     5.61731257
Ce     1.93588921     5.58869904     2.47426506
Ce     5.80660880     3.35366971     8.74026538
Ce     7.74955550     4.47491700     5.61737885
Ce     5.80789995     5.58869904     2.47426506
Ce     7.71728120     6.63510971     8.86021246
Ce    -1.94810716     7.83147560     5.58718439
Ce    -3.87195266     8.94185811     2.47426506
Ce     1.94743374     7.83095008     5.58710511
Ce    -0.00005808     8.94185811     2.47426506
Ce     3.89350576     6.63372941     8.85976307
Ce     5.80760108     7.82118522     5.65846014
Ce     3.87195266     8.94185811     2.47426506
Ru    -0.00129531     6.70601078     8.26339335
O      5.80737140    10.05955728     6.46850941
O     -0.00098116     2.32281789     9.51568502
O      1.93594729     1.11771969     3.26466483
O     -0.00051396     2.21496310     4.82091457
O      0.00000000     0.00000000     1.68386529
O      1.94087878     1.12070662     8.01424980
O     -1.94846859     9.98928303     6.49048089
O      3.89147596     2.24722037     9.58825654
O      5.80795803     1.11771969     3.26466483
O      3.84097983     2.21761638     4.84145098
O      3.87189458     0.00000000     1.68386529
O      5.80781928     1.18413323     7.89823838
O      1.94721855     9.98901600     6.49046165
O      7.72357926     2.24823636     9.58844155
O      9.67985261     1.11771969     3.26466483
O      7.77368024     2.21809708     4.84153145
O      7.74390532     0.00000000     1.68386529
O      9.67379593     1.12192272     8.01373183
O     -1.87052997     3.37861088     6.48979195
O     -2.41794131     5.31366986     9.84606082
O      0.00000000     4.47087876     3.26466483
O     -1.97079921     5.56873583     4.79204530
O     -1.93594729     3.35315907     1.68386529
O     -0.00378414     4.83517014     8.09650559
O      1.86794169     3.37795316     6.49015757
O      2.41192475     5.31085193     9.84505378
O      3.87201074     4.47087876     3.26466483
O      1.96969972     5.56885220     4.79220017
O      1.93594729     3.35315907     1.68386529
O      3.92718372     4.43801443     7.89819554
O      5.80679812     3.35351490     6.35372900
O      5.80519285     5.56506613     9.58841795
O      7.74390532     4.47087876     3.26466483
O      5.80761810     5.62418979     4.84174256
O      5.80795803     3.35315907     1.68386529
O      7.68530030     4.43858672     7.89827866
O     -3.81686737     6.75284670     6.49053714
O     -3.79682254     8.89799408     9.51548028
O     -1.93600537     7.82413842     3.26466483
O     -3.88985927     8.95200413     4.82085777
O     -3.87195266     6.70641873     1.68386529
O     -1.61945512     7.64352845     8.09631275
O     -0.00048454     6.70616480     6.17572436
O      0.00051013     9.49785275     9.84759541
O      1.93600537     7.82413842     3.26466483
O     -0.00019247     8.98172970     4.79231662
O     -0.00005808     6.70641873     1.68386529
O      1.61916697     7.64099915     8.09656579
O      3.81632786     6.75196842     6.49011547
O      3.79448344     8.89809250     9.51478984
O      5.80789995     7.82413842     3.26466483
O      3.88908480     8.95244810     4.82102198
O      3.87195266     6.70641873     1.68386529
O      5.80645590     7.81742745     8.01416760
N     -0.00305184     6.70725534    10.33281196
H      0.00363046     7.70209170    10.62071828
H      0.85425243     6.20400723    10.62230032
H     -0.86832040     6.21619512    10.62020291
