83
CIF: O2—Olatt+Osur.cif | data_image0
Ce     1.93038582     1.11050507     0.88387043
Ce    -0.00730948     2.23333451     4.03725824
Ce    -5.77140535    10.04282501     7.21745960
Ce     5.81181033     1.12175166     0.90127712
Ce     3.85182496     2.22130506     4.00948368
Ce     3.92470854     0.01159426     7.21549144
Ce     9.66901012     1.12377363     0.90450652
Ce     7.72526632     2.24926955     4.09985626
Ce     1.97874092    10.03561045     7.23861354
Ce    -0.00709724     4.47602159     0.89067279
Ce    -1.93044074     5.58123143     4.06348418
Ce    -1.88778214     3.33407879     7.24018980
Ce     3.86254305     4.47635356     0.87798423
Ce     1.94748474     5.58273115     4.05565394
Ce     1.89872767     3.28506499     7.20063326
Ce     7.74213807     4.46545905     0.90125422
Ce     5.81074358     5.61403896     4.01084443
Ce    -1.94645625     7.83004003     0.90010904
Ce    -3.86297949     8.93606943     4.06995548
Ce     7.76511367     6.65892138     7.21967779
Ce     1.92815559     7.82745473     0.89060408
Ce     0.01034825     8.94281657     4.06244568
Ce     0.02419648     6.69550610     7.22583384
Ce     5.81127600     7.83258510     0.88371011
Ce     3.87165785     8.95152886     4.03944353
Ce     3.91354482     6.77403489     7.20330049
Cu     4.95617839     3.84587107     6.46076062
Ni     6.62369615     2.88493456     7.94520599
O     11.61334069     0.00154917     0.10141687
O      1.93174409     1.10608570     3.23069211
O      0.02901898     2.22254771     6.39441705
O     -0.00785227     2.23805103     1.69392277
O     -5.79546639    10.05190324     4.86169389
O      1.96204740     1.11138429     7.99707124
O     -1.93899312    10.05733740     0.10496691
O      5.80915237     1.11158888     3.24814163
O      3.82158805     2.24635639     6.35193798
O      3.86763657     2.23577757     1.68132582
O     -1.92590003    10.05642346     4.86957995
O      5.91540776     1.07955214     8.00352892
O      7.73821774     0.00761509     0.10924988
O      9.67322599     1.12197893     3.25131062
O      7.79057126     2.21429784     6.56691473
O      7.74357843     2.23531483     1.71563532
O      7.75497434     0.02721848     4.88484904
O      9.78644805     1.06216557     8.02080780
O      9.67032270     3.35425987     0.10911246
O     -0.01165235     4.47523191     3.23873967
O     -1.90744635     5.58301964     6.42110331
O     -1.94403436     5.59119430     1.70564938
O      9.66424840     3.33523114     4.88206111
O      0.04248348     4.44941840     8.00780246
O      1.92738314     3.35244915     0.09928684
O      3.85298608     4.48406597     3.21599165
O      2.03993089     5.53139227     6.47352440
O      1.92862022     5.59252216     1.67404250
O      1.90939721     3.35746761     4.83226264
O      5.81155478     3.35101064     0.10766953
O      7.74901605     4.47533315     3.24941113
O      5.77037014     5.62738459     6.35700331
O      5.80528807     5.59217007     1.68114259
O      5.78238948     3.36793560     4.78009536
O      7.83909419     4.40388258     8.01010217
O     -3.87155109     6.71022987     0.10512724
O     -1.92602001     7.81821737     3.26362881
O     -3.83513373     8.92654083     6.42630362
O     -3.87509971     8.94378428     1.69355631
O     -3.86463029     6.70105555     4.87594995
O     -1.89593774     7.80530201     7.99953357
O     -0.01209783     6.71325780     0.10434852
O      1.92878259     7.83478933     3.23970819
O      0.01955149     8.92856789     6.41740918
O     -0.00628994     8.94736548     1.70514550
O      0.04170512     6.68611768     4.89264274
O      1.96666881     7.80265766     8.00652271
O      3.86815347     6.71410280     0.09951587
O      5.81441081     7.83280290     3.23273779
O      3.89862265     8.92485358     6.40319938
O      3.86556896     8.94715423     1.69389986
O      3.85541448     6.73052034     4.83777245
O      5.83514214     7.80796663     7.99633039
O      4.04675850     4.36907844     8.07382195
O      5.42333102     3.58599392     9.01490831
