80
CIF: Ir-CeO2-Ov.cif | data_image0
O      0.00261135     0.00382715     0.19995339
O      1.91800316     1.03428790     3.30160079
O      0.14509351     2.47730878     6.62916769
O      0.00261135     2.21285656     1.76196664
O      0.00480378     0.07338646     4.99384829
O      3.82876252     0.00382715     0.19995339
O      5.75703206     1.10467890     3.31570219
O      2.25963054     1.71934458     7.91591180
O      3.82876252     2.21285656     1.76196664
O      3.84381718     0.15398921     5.07216378
O      5.78858744     1.24589994     8.08738459
O      7.65492518     0.00382715     0.19995339
O      9.55097264     1.10601239     3.34373075
O      7.69280424     2.28398022     6.49746377
O      7.65492518     2.21285656     1.76196664
O      7.64878028     0.03278195     4.98940908
O      9.48237141     1.18961147     8.15941917
O     -1.91046424     3.31737126     0.19995339
O     -0.02870484     4.45351528     3.33847957
O     -1.86760891     5.49197999     6.54836997
O     -1.91046998     5.52641062     1.76196664
O     -1.88284640     3.29818318     4.97244964
O      0.15196529     4.44527758     8.29239031
O      1.91568694     3.31737126     0.19995339
O      3.89508952     4.46507754     3.30092832
O      1.83829900     5.32235962     6.56996566
O      1.91568120     5.52641062     1.76196664
O      1.98862915     3.28222624     4.68359441
O      3.65336800     4.11891910     7.95207997
O      5.74184959     3.31737126     0.19995339
O      7.61480184     4.40246372     3.39181353
O      5.75029818     5.49670468     6.55698732
O      5.74184385     5.52641062     1.76196664
O      5.57892100     3.21709010     5.11538492
O      7.66924734     4.43313738     8.22422653
O     -3.82354556     6.63092532     0.19995339
O     -1.91072246     7.77115497     3.39623932
O     -3.82076343     8.79744706     6.59246842
O     -3.82354556     8.83995473     1.76196664
O     -3.81668827     6.61602157     5.00443328
O     -1.88163793     7.60448748     8.25777604
O      0.00260561     6.63092532     0.19995339
O      1.92005743     7.75339264     3.35584261
O      0.06570384     8.80710516     6.55986262
O      0.00260561     8.83995473     1.76196664
O      0.02591555     6.63702792     4.98696471
O      1.97101228     7.68111792     8.14709982
O      3.82876826     6.63092532     0.19995339
O      5.73938478     7.73404464     3.38996948
O      3.80980764     8.83559114     6.52368045
O      3.82876826     8.83995473     1.76196664
O      3.79582688     6.60685561     5.02448474
O      5.69318272     7.59203070     8.21668434
Ce     1.91568694     1.10834185     0.98097142
Ce     0.04366117     2.24092008     4.16746866
Ce    -0.01289731     0.03391709     7.38709850
Ce     5.74184959     1.10834185     0.98097142
Ce     3.80589494     2.21362373     4.03154716
Ce    -1.86482456     9.85228091     7.47777446
Ce     9.56800076     1.10834185     0.98097142
Ce     7.65741005     2.21240714     4.15939232
Ce     7.68390104     0.03648500     7.32447883
Ce     0.00261135     4.42188597     0.98097142
Ce    -1.90384671     5.53131301     4.17867688
Ce    -1.87036854     3.32529298     7.34005549
Ce     3.82877400     4.42188597     0.98097142
Ce     1.91563284     5.49336599     4.14788412
Ce     7.65492518     4.42188597     0.98097142
Ce     5.73035562     5.52652710     4.18252689
Ce     5.85138772     3.36746552     7.42007786
Ce    -1.91046998     7.73544003     0.98097142
Ce    -3.82177547     8.85702379     4.21863373
Ce    -3.81822331     6.63818587     7.39149263
Ce     1.91569268     7.73544003     0.98097142
Ce     0.00603336     8.85199946     4.18200251
Ce     0.03144339     6.62964593     7.36061337
Ce     5.74184385     7.73544003     0.98097142
Ce     3.83306270     8.85590715     4.16174471
Ce     3.82742813     6.62759723     7.34566479
Ir     1.76887094     3.51610375     7.58302369
