82
CIF: Mo-Y-CeO2.cif | data_image0
Ce     1.93596140     1.11772783     0.89035214
Ce     0.00009605     2.23179718     4.03312077
Ce    11.60656374     0.00493446     7.20998810
Ce     5.80789581     1.11772783     0.89035214
Ce     3.87299134     2.21781984     4.01002962
Ce    -2.05308016    10.00070076     7.16457179
Ce     9.67981860     1.11772783     0.89035214
Ce     7.74899131     2.23223586     4.08844169
Ce     2.04655115     9.99181485     7.23048522
Ce     0.00000000     4.47091133     0.89035214
Ce    -1.94407961     5.58449843     4.06264976
Ce    -1.82291677     3.29030857     7.23105312
Ce     3.87193441     4.47091133     0.89035214
Ce     1.94924642     5.58066293     4.02423335
Ce     1.97478672     3.36771120     7.18172714
Ce     7.74385721     4.47091133     0.89035214
Ce     5.82347799     5.59622609     4.01000999
Ce    -1.93596721     7.82410489     0.89035214
Ce    -3.88253111     8.94784479     3.98461553
Ce    -3.87984112     6.83745100     7.16416541
Ce     1.93596721     7.82410489     0.89035214
Ce    -0.00074744     8.95045306     4.06257258
Ce     0.02867465     6.68920136     7.22337484
Ce     5.80789000     7.82410489     0.89035214
Ce     3.87500216     8.94309823     4.03301520
Ce     3.87837736     6.66472847     7.18173497
Y      5.68443100     3.42426142     6.93719534
O      0.00000000     0.00000000     0.09999685
O      1.93304621     1.11912601     3.20793694
O      0.08525220     2.21565730     6.37347951
O      0.00000000     2.23545567     1.68070743
O     -5.80684608    10.05866919     4.82085878
O      1.96687887     1.08518890     8.00308107
O      3.87192279     0.00000000     0.09999685
O      5.80586400     1.10099468     3.24600436
O      3.98739543     2.12314866     6.44723023
O      3.87192279     2.23545567     1.68070743
O     -1.97268495    10.03626414     4.81809979
O      6.05186779     1.35203336     8.88897146
O      7.74385721     0.00000000     0.09999685
O      9.68231812     1.11613291     3.23305530
O      7.61497098     2.30910659     6.46765628
O      7.74385721     2.23545567     1.68070743
O      1.95126863    10.05046614     4.81876559
O      9.84761311     1.02014406     8.10692254
O     -1.93596140     3.35318350     0.09999685
O      0.01299933     4.48525941     3.25027296
O     -2.06690659     5.59777181     6.50045979
O     -1.93596721     5.58864923     1.68070743
O     -1.92084289     3.34409747     4.81900965
O      0.15614234     4.54695643     8.00287175
O      1.93596140     3.35318350     0.09999685
O      3.85800819     4.47874404     3.20193246
O      1.94735866     5.58155471     6.31207726
O      1.93595559     5.58864923     1.68070743
O      1.99897341     3.32338077     4.85000680
O      5.80789581     3.35318350     0.09999685
O      7.75719039     4.48081073     3.24599799
O      5.96281182     5.54433435     6.44744112
O      5.80789000     5.58864923     1.68070743
O      5.75722202     3.38226374     4.74301290
O      7.66001252     4.13549183     8.89083710
O     -3.87192860     6.70637706     0.09999685
O     -1.92443503     7.81729295     3.22337773
O     -3.88601749     8.94991295     6.36312744
O     -3.87192860     8.94183273     1.68070743
O     -3.87032236     6.74964508     4.81803992
O     -2.01178153     7.86763317     8.03618805
O     -0.00000581     6.70637706     0.09999685
O      1.92983588     7.80523804     3.25027590
O     -0.07362843     9.04948769     6.49998168
O     -0.00000581     8.94183273     1.68070743
O     -0.04389611     6.73117771     4.91123689
O      3.87192860     6.70637706     0.09999685
O      5.80508958     7.82568658     3.20790915
O      3.93143283     8.87705091     6.37332396
O      3.87192860     8.94183273     1.68070743
O      3.92897885     6.66606794     4.85000211
O      5.85126602     7.81329531     8.00311411
O      3.84131707     4.48817093     7.91046663
O      1.94780458     7.64990677     8.00281208
Mo     7.06530602     2.62231011     9.64402769
