80
CIF: Os-CeO2-Ov.cif | data_image0
O      0.00000000     0.00000000     0.00000000
O      1.89878316     1.12790341     3.13254982
O      0.05622709     2.33075696     6.27582611
O      0.00000000     2.20902941     1.56201325
O     11.45903027     0.01862524     4.77898633
O      2.07901052     1.60638276     7.64176688
O      3.82615117     0.00000000     0.00000000
O      5.75017482     1.09863967     3.10339136
O      3.44750138     3.89221189     7.56385050
O      3.82615117     2.20902941     1.56201325
O      3.83322904     0.15850612     4.85174786
O      5.82308692     1.04338959     7.98132931
O      7.65231383     0.00000000     0.00000000
O      9.56583742     1.09525479     3.14280028
O      7.71039059     2.17230092     6.32297294
O      7.65231383     2.20902941     1.56201325
O      1.89825038     9.93045254     4.75221899
O      9.62461456     0.94705595     7.99859518
O     -1.91307559     3.31354412     0.00000000
O      0.08134613     4.37005287     3.19019124
O     -1.80113094     5.52105600     6.35655119
O     -1.91308133     5.52258347     1.56201325
O      9.55289705     3.32003237     4.70591556
O      0.47089002     4.08899570     8.14180290
O      1.91307559     3.31354412     0.00000000
O      3.79714503     4.40118225     3.13360628
O      1.70085996     5.35782001     6.29429929
O      1.91306985     5.52258347     1.56201325
O      2.14592314     3.15498857     5.09188920
O      5.73923824     3.31354412     0.00000000
O      7.60063210     4.41438177     3.17945555
O      5.75994340     5.55192838     6.33538827
O      5.73923250     5.52258347     1.56201325
O      5.62215228     3.21578077     4.84999682
O      7.66660042     4.56357956     8.09881915
O     -3.82615691     6.62709817     0.00000000
O     -1.93259796     7.78088403     3.16932746
O     -3.87391855     8.84819345     6.35295084
O     -3.82615691     8.83612758     1.56201325
O     -3.78616777     6.62246915     4.79699602
O     -1.90051785     7.64128266     8.05490083
O     -0.00000574     6.62709817     0.00000000
O      1.90942730     7.72539619     3.12911345
O     -0.00155792     8.78440666     6.28270433
O     -0.00000574     8.83612758     1.56201325
O      0.00060486     6.65158750     4.70972653
O      1.79694683     7.73693959     7.96779499
O      3.82615691     6.62709817     0.00000000
O      5.74775820     7.72094940     3.18272040
O      3.81913048     8.82152180     6.28633938
O      3.82615691     8.83612758     1.56201325
O      3.76802102     6.59334376     4.75966744
O      5.78627828     7.81599289     8.03389310
Ce     1.91307559     1.10451471     0.78101803
Ce    -0.03299639     2.18938176     3.95812108
Ce     5.66965577     9.87972461     7.12039368
Ce     5.73923824     1.10451471     0.78101803
Ce     3.86142102     2.18613572     3.84310895
Ce    -1.87292921     9.85188359     7.29372770
Ce     9.56538941     1.10451471     0.78101803
Ce     7.65100587     2.20863374     3.98706183
Ce     1.90196783     9.92625221     7.14622784
Ce     0.00000000     4.41805882     0.78101803
Ce    -1.91483869     5.51619094     3.99164916
Ce     9.56179908     3.27788829     7.23443823
Ce     3.82616265     4.41805882     0.78101803
Ce     1.91248853     5.53967483     3.95447927
Ce     7.65231383     4.41805882     0.78101803
Ce     5.72762521     5.51034296     4.01692287
Ce     5.87519019     3.32147761     7.27855330
Ce    -1.91308133     7.73161288     0.78101803
Ce    -3.82527230     8.84822848     4.00274943
Ce     7.64370294     6.62559245     7.20275471
Ce     1.91308133     7.73161288     0.78101803
Ce    -0.00815730     8.84941798     3.95158880
Ce    -0.01280845     6.70003768     7.11531960
Ce     5.73923250     7.73161288     0.78101803
Ce     3.81156013     8.82170259     3.94562425
Ce     3.78710997     6.61552784     7.17145771
Os     1.72429212     3.36149849     7.00803979
