82
CIF: Pd-Sc-CeO2.cif | data_image0
Ce     1.93038582     1.11050507     0.88387043
Ce    -0.01147343     2.23163390     4.04392702
Ce    -5.78487137    10.04601726     7.20079643
Ce     5.81181033     1.12175166     0.90127712
Ce     3.84748743     2.22062193     4.01210377
Ce    -1.90498755    10.05057196     7.24294326
Ce     9.66901012     1.12377363     0.90450652
Ce     7.71480705     2.25198205     4.09585072
Ce     1.95031845    10.00355869     7.23020456
Ce    -0.00709724     4.47602159     0.89067279
Ce    -1.94572235     5.59212486     4.05271791
Ce    -1.88051576     3.36832794     7.23021575
Ce     3.86254305     4.47635356     0.87798423
Ce     1.92915220     5.59234210     4.03232219
Ce     1.93701091     3.34507825     7.17842055
Ce     7.74213807     4.46545905     0.90125422
Ce     5.80834035     5.61699539     4.01207289
Ce    -1.94645625     7.83004003     0.90010904
Ce    -3.86541446     8.93792188     4.06446135
Ce    -3.84891103     6.68371075     7.24294365
Ce     1.92815559     7.82745473     0.89060408
Ce    -0.00806416     8.94820065     4.05260480
Ce     0.00648131     6.70237690     7.19453291
Ce     5.81127600     7.83258510     0.88371011
Ce     3.86934899     8.95335240     4.04396520
Ce     3.87924478     6.70912658     7.17843871
Sc     5.42690268     3.57294674     6.79067247
Pd     7.01040769     2.65853475     8.55862591
O     11.61334069     0.00154917     0.10141687
O      1.92241636     1.11145187     3.22786095
O      0.02865902     2.22859223     6.39700150
O     -0.00785227     2.23805103     1.69392277
O     -5.79904147    10.05419785     4.86706861
O      1.96780902     1.11762047     7.98669730
O     -1.93899312    10.05733740     0.10496691
O      5.80123646     1.11535354     3.24995827
O      3.93460458     2.21167615     6.39342135
O      3.86763657     2.23577757     1.68132582
O     -1.94576517    10.05315967     4.86441744
O      5.92669490     0.86439428     8.27287252
O      7.73821774     0.00761509     0.10924988
O      9.67699725     1.11914686     3.25079223
O      7.57256855     2.33399849     6.47286410
O      7.74357843     2.23531483     1.71563532
O      7.75193245     0.02737991     4.88363525
O      9.69980727     1.10594119     7.95678429
O      9.67032270     3.35425987     0.10911246
O     -0.00855352     4.46699314     3.24276124
O     -1.93983975     5.59100602     6.39945368
O     -1.94403436     5.59119430     1.70564938
O      9.65980984     3.33215206     4.88365258
O      0.03609356     4.47209090     7.98563588
O      1.92738314     3.35244915     0.09928684
O      3.83478512     4.49227878     3.20065044
O      1.90712644     5.60506393     6.35552039
O      1.92862022     5.59252216     1.67404250
O      1.94542140     3.34271490     4.84952508
O      3.84383996     4.48689002     7.82714825
O      5.81155478     3.35101064     0.10766953
O      7.74226939     4.47757281     3.24984770
O      5.85960513     5.54593840     6.39337790
O      5.80528807     5.59217007     1.68114259
O      5.71968456     3.40392231     4.75130657
O      8.02232738     4.49421930     8.27277936
O     -3.87155109     6.71022987     0.10512724
O     -1.94254032     7.82781523     3.24060011
O     -3.85261048     8.93041113     6.43462440
O     -3.87509971     8.94378428     1.69355631
O     -3.87147798     6.71780079     4.86438432
O     -1.92125617     7.81535940     8.00468712
O     -0.01209783     6.71325780     0.10434852
O      1.93494727     7.83312804     3.24259519
O     -0.00417254     8.94364017     6.39941503
O     -0.00628994     8.94736548     1.70514550
O     -0.01781857     6.71644830     4.84684342
O      1.95276442     7.79184359     7.98565330
O      3.86815347     6.71410280     0.09951587
O      5.80645817     7.83878044     3.22765821
O      3.89200042     8.92007092     6.39702913
O      3.86556896     8.94715423     1.69389986
O      3.88557334     6.70314839     4.84950636
O      5.82367210     7.79615462     7.98673505
