82
CIF: Pd-W-CeO2.cif | data_image0
Ce     1.93596140     1.11772783     0.89035214
Ce    -0.00590334     2.23410431     3.98280909
Ce    -0.00018461     0.01449970     7.21815575
Ce     5.80789581     1.11772783     0.89035214
Ce     3.82282361     2.20391524     4.05688599
Ce     3.81587364     0.00949071     7.24513975
Ce     9.67981860     1.11772783     0.89035214
Ce     7.76054351     2.22062157     4.05207719
Ce     7.79036326     0.00896471     7.22964970
Ce     0.00000000     4.47091133     0.89035214
Ce    -1.92584111     5.58580364     4.03854183
Ce    -1.85990928     3.31365814     7.13912918
Ce     3.87193441     4.47091133     0.89035214
Ce     1.94931458     5.58319832     4.04676124
Ce     1.85793003     3.24636366     7.13145903
Ce     7.74385721     4.47091133     0.89035214
Ce     5.81464194     5.61884619     4.03241912
Ce    -1.93596721     7.82410489     0.89035214
Ce    -3.85975966     8.94374272     4.03032749
Ce    -3.84885723     6.77747993     7.17497371
Ce     1.93596721     7.82410489     0.89035214
Ce     0.00566488     8.94686430     4.08347025
Ce     0.02414657     6.69591405     7.22871525
Ce     5.80789000     7.82410489     0.89035214
Ce     3.87803998     8.95561974     4.03142802
Ce     3.90949856     6.77492853     7.17034558
W      5.99819394     3.53390503     7.13324266
Pd     7.09175118     2.49246274     9.24033413
O      0.00000000     0.00000000     0.09999685
O      1.93586086     1.11263631     3.21985704
O      0.00240388     2.23137928     6.31618096
O      0.00000000     2.23545567     1.68070743
O      5.80582251    10.05776323     4.81422786
O      1.73032851     1.15492682     8.11247492
O      3.87192279     0.00000000     0.09999685
O      5.81184098     1.17941137     3.26482001
O      3.50294044     2.13449775     6.25459477
O      3.87192279     2.23545567     1.68070743
O     -1.91884629    10.00193540     4.77573100
O      5.69910209     1.71448451     7.76453279
O      7.74385721     0.00000000     0.09999685
O      9.67006713     1.11549265     3.21417169
O      7.81513628     2.41026108     6.35780833
O      7.74385721     2.23545567     1.68070743
O      7.75775004     0.02171291     4.82520063
O      9.81289730     1.20330984     8.02668309
O     -1.93596140     3.35318350     0.09999685
O     -0.01349651     4.50888878     3.19405039
O     -2.00221208     5.51901096     6.41185089
O     -1.93596721     5.58864923     1.68070743
O     -1.89101397     3.35248108     4.78349622
O      0.00176638     4.44268629     7.95988951
O      1.93596140     3.35318350     0.09999685
O      3.93034341     4.45388785     3.26637471
O      2.09583142     5.48347579     6.47219901
O      1.93595559     5.58864923     1.68070743
O      1.85154600     3.40563588     4.74575741
O      5.80789581     3.35318350     0.09999685
O      7.68628536     4.44540994     3.27498411
O      5.90264482     5.57852672     6.34525832
O      5.80789000     5.58864923     1.68070743
O      5.74535006     3.31170755     5.20321467
O      7.44071112     4.44498178     8.03676930
O     -3.87192860     6.70637706     0.09999685
O     -1.90309149     7.79191817     3.22872560
O     -3.90790368     8.93240730     6.40058718
O     -3.87192860     8.94183273     1.68070743
O     -3.84563656     6.73604907     4.82307088
O     -1.94835034     7.65466045     8.04526595
O     -0.00000581     6.70637706     0.09999685
O      1.93519559     7.81694550     3.24744068
O      0.00957385     8.90857992     6.45963538
O     -0.00000581     8.94183273     1.68070743
O      0.03113713     6.66180310     4.91524007
O      3.87192860     6.70637706     0.09999685
O      5.80756565     7.81017211     3.22453420
O      3.90940690     8.92308499     6.39568735
O      3.87192860     8.94183273     1.68070743
O      3.89176778     6.72135018     4.85450711
O      5.79465554     7.79207850     8.00984608
O      4.47196643     4.15908778     7.91042104
O      2.00506629     7.67211758     8.03359068
