82
CIF: Pt-Rh-CeO2.cif | data_image0
Ce     1.93038582     1.11050507     0.88387043
Ce     0.00375037     2.22873052     4.03697737
Ce    -5.77577695    10.04053856     7.23315351
Ce     5.81181033     1.12175166     0.90127712
Ce     3.86582558     2.22767755     4.03370357
Ce    -1.92736473    10.04297289     7.21849180
Ce     9.66901012     1.12377363     0.90450652
Ce     7.73538414     2.23996430     4.05091042
Ce     1.99775700     9.96001969     7.23355730
Ce    -0.00709724     4.47602159     0.89067279
Ce    -1.93467965     5.58399694     4.05226057
Ce    -1.81933569     3.34869784     7.23354530
Ce     3.86254305     4.47635356     0.87798423
Ce     1.94429531     5.58351264     4.04936604
Ce     1.89601754     3.32715361     7.21685563
Ce     7.74213807     4.46545905     0.90125422
Ce     5.81128193     5.59737853     4.03369450
Ce    -1.94645625     7.83004003     0.90010904
Ce    -3.86605398     8.93813550     4.05419832
Ce    -3.85369516     6.70643882     7.21851450
Ce     1.92815559     7.82745473     0.89060408
Ce     0.00440131     8.94252938     4.05212486
Ce     0.00404983     6.70360212     7.18435571
Ce     5.81127600     7.83258510     0.88371011
Ce     3.87935962     8.94144408     4.03701719
Ce     3.87413819     6.75323477     7.21687173
Rh     4.88902391     3.88327619     6.55282592
Pt     6.74276286     2.81283362     7.99785152
O     11.61334069     0.00154917     0.10141687
O      1.93814625     1.11332135     3.23331711
O      0.02247042     2.23198287     6.39605252
O     -0.00785227     2.23805103     1.69392277
O     -5.79817119    10.05354580     4.85626682
O      1.92443273     1.08874649     8.02148567
O     -1.93899312    10.05733740     0.10496691
O      5.81152496     1.11523162     3.24060422
O      3.82911964     2.18348719     6.43684041
O      3.86763657     2.23577757     1.68132582
O     -1.92555263    10.05204906     4.86634562
O      5.87345509     0.99182271     8.09353412
O      7.73821774     0.00761509     0.10924988
O      9.67789925     1.11853150     3.24057818
O      7.84008533     2.17936632     6.49289454
O      7.74357843     2.23531483     1.71563532
O      7.75943490     0.01672705     4.87825244
O      9.76867190     1.06593809     8.02964757
O      9.67032270     3.35425987     0.10911246
O     -0.00303710     4.46353416     3.23987852
O     -1.89843077     5.57785910     6.41209088
O     -1.94403436     5.59119430     1.70564938
O      9.67267166     3.33070221     4.87826325
O      0.02218241     4.45007061     8.03325859
O      1.92738314     3.35244915     0.09928684
O      3.86693086     4.47363131     3.22011191
O      1.89077664     5.61432581     6.37625224
O      1.92862022     5.59252216     1.67404250
O      1.93525460     3.34869144     4.85320664
O      3.71754095     4.55951567     8.02627774
O      5.81155478     3.35101064     0.10766953
O      7.74744479     4.46853861     3.24048504
O      5.83106408     5.65084293     6.43682537
O      5.80528807     5.59217007     1.68114259
O      5.83150682     3.33920163     4.82388619
O      7.88520014     4.47623453     8.09338669
O     -3.87155109     6.71022987     0.10512724
O     -1.94172866     7.82721943     3.24149717
O     -3.84615123     8.92646686     6.40860995
O     -3.87509971     8.94378428     1.69355631
O     -3.86056478     6.70054899     4.86629875
O     -1.92365588     7.81649839     7.99908516
O     -0.01209783     6.71325780     0.10434852
O      1.94060189     7.82992556     3.23973422
O      0.02769586     8.91409954     6.41214323
O     -0.00628994     8.94736548     1.70514550
O     -0.01143997     6.71266498     4.83362952
O      1.96465850     7.81455399     8.03330189
O      3.86815347     6.71410280     0.09951587
O      5.81262171     7.82408692     3.23311358
O      3.88577481     8.92338472     6.39610663
O      3.86556896     8.94715423     1.69389986
O      3.87522611     6.70876806     4.85321357
O      5.82682214     7.84777045     8.02150544
