82
CIF: Pt-Ti-CeO2.cif | data_image0
Ce     1.93038582     1.11050507     0.88387043
Ce     0.00457646     2.23835980     4.04985419
Ce    -5.78471047    10.03948470     7.19944741
Ce     5.81181033     1.12175166     0.90127712
Ce     3.84786417     2.23485770     4.02641336
Ce    -1.92677804    10.01555249     7.24364113
Ce     9.66901012     1.12377363     0.90450652
Ce     7.73728874     2.23841394     4.07540829
Ce     1.98721854     9.99864634     7.23113345
Ce    -0.00709724     4.47602159     0.89067279
Ce    -1.94668727     5.58895067     4.04492088
Ce    -1.86794730     3.35469629     7.21516103
Ce     3.86254305     4.47635356     0.87798423
Ce     1.92556679     5.58527338     4.05079665
Ce     1.88330827     3.33596518     7.27947764
Ce     7.74213807     4.46545905     0.90125422
Ce     5.80469747     5.60976599     4.00043448
Ce    -1.94645625     7.83004003     0.90010904
Ce    -3.87159512     8.94134441     4.05243463
Ce    -3.85145485     6.68669735     7.21168943
Ce     1.92815559     7.82745473     0.89060408
Ce    -0.00436156     8.95082538     4.05906203
Ce    -0.01114724     6.69941758     7.19573370
Ce     5.81127600     7.83258510     0.88371011
Ce     3.86794117     8.95077103     4.02385243
Ce     3.85706013     6.77819704     7.17195099
Ti     5.21328673     3.71163463     6.81143933
Pt     6.84004663     2.74900698     8.29296451
O     11.61334069     0.00154917     0.10141687
O      1.93640507     1.11046720     3.22367323
O     -0.03853046     2.19693404     6.40132655
O     -0.00785227     2.23805103     1.69392277
O     -5.79173222    10.04975046     4.84669178
O      1.98039178     0.96179538     7.99058787
O     -1.93899312    10.05733740     0.10496691
O      5.80063327     1.13998761     3.25714182
O      4.01002099     2.29332538     6.45596669
O      3.86763657     2.23577757     1.68132582
O      3.86232185     0.03087773     4.89198576
O      5.94100626     0.91213313     8.25633744
O      7.73821774     0.00761509     0.10924988
O      9.67231053     1.12150914     3.24851854
O      7.80064450     2.20396895     6.40464056
O      7.74357843     2.23531483     1.71563532
O      1.93214408    10.05332128     4.85273063
O      9.71909194     1.05848463     8.03061372
O      9.67032270     3.35425987     0.10911246
O      0.00005400     4.47506237     3.23521749
O     -1.96939723     5.60327053     6.37719937
O     -1.94403436     5.59119430     1.70564938
O     -1.93357393     3.36193409     4.84487815
O     -0.10145444     4.55049386     8.02688921
O      1.92738314     3.35244915     0.09928684
O      3.85809087     4.48173266     3.20858193
O      1.91799184     5.66119903     6.38386795
O      1.92862022     5.59252216     1.67404250
O      1.94853435     3.33765455     4.83462574
O      3.95595653     4.53955312     7.88009020
O      5.81155478     3.35101064     0.10766953
O      7.72176026     4.45697489     3.24389748
O      5.80368268     5.51423284     6.38295504
O      5.80528807     5.59217007     1.68114259
O      5.72109142     3.41636049     4.88425407
O      7.93905244     4.48643072     8.21498781
O     -3.87155109     6.71022987     0.10512724
O     -1.94575869     7.84092192     3.24905913
O     -3.84817161     8.88335851     6.38655348
O     -3.87509971     8.94378428     1.69355631
O      7.71469309     6.69401926     4.84725034
O     -1.94675549     7.81430064     8.00640554
O     -0.01209783     6.71325780     0.10434852
O      1.93063361     7.82342834     3.23653141
O     -0.00356320     8.93629620     6.41730514
O     -0.00628994     8.94736548     1.70514550
O     -0.02269110     6.71348555     4.84264614
O      1.98138169     7.82494294     8.01730082
O      3.86815347     6.71410280     0.09951587
O      5.80418204     7.83433377     3.21557825
O      3.88940701     8.93993237     6.37251943
O      3.86556896     8.94715423     1.69389986
O      3.88726026     6.71195034     4.84259337
O      5.81485228     7.78866199     7.95499917
