82
CIF: Re-Cr-CeO2.cif | data_image0
Ce     1.93038582     1.11050507     0.88387043
Ce    -0.00272709     2.23218642     4.04099947
Ce     5.82028574    10.02627375     7.22362060
Ce     5.81181033     1.12175166     0.90127712
Ce     3.84349047     2.22197269     4.00254602
Ce    -1.98522503     9.99700554     7.23016328
Ce     9.66901012     1.12377363     0.90450652
Ce     7.76489412     2.22635252     4.02894828
Ce     2.05505801     9.90887178     7.32779896
Ce    -0.00709724     4.47602159     0.89067279
Ce    -1.94791231     5.58329061     4.10774229
Ce    -1.72323187     3.32577838     7.33842742
Ce     3.86254305     4.47635356     0.87798423
Ce     1.93523383     5.59203636     4.03908034
Ce     1.91166601     3.32964255     7.19048382
Ce     7.74213807     4.46545905     0.90125422
Ce     5.81224187     5.61963040     4.00913029
Ce    -1.94645625     7.83004003     0.90010904
Ce    -3.87240322     8.92747102     4.05458940
Ce    -3.87043234     6.73165663     7.31644073
Ce     1.92815559     7.82745473     0.89060408
Ce     0.00378260     8.96225293     4.08499127
Ce     0.01932056     6.70635147     7.22642702
Ce     5.81127600     7.83258510     0.88371011
Ce     3.86840085     8.94789864     4.03134676
Ce     3.86756274     6.75257298     7.18289584
Cr     5.08596503     3.76155462     6.69091410
Re     6.59841163     2.87469433     7.88367395
O     11.61334069     0.00154917     0.10141687
O      1.93646205     1.11150692     3.21819686
O      0.09769837     2.21937322     6.37645434
O     -0.00785227     2.23805103     1.69392277
O     -5.80241771    10.05393310     4.83092077
O      2.00158196     1.10712684     8.00642479
O     -1.93899312    10.05733740     0.10496691
O      5.80571027     1.15280331     3.24938084
O      3.94262552     2.27352664     6.43198949
O      3.86763657     2.23577757     1.68132582
O      3.86042102     0.02325672     4.87205287
O      5.86247915     1.29517475     8.50244814
O      7.73821774     0.00761509     0.10924988
O      9.67860748     1.12219366     3.22452955
O      7.70134303     2.26739868     6.53268237
O      7.74357843     2.23531483     1.71563532
O      7.75744774     0.05344194     4.84568131
O      9.87796354     0.99859860     8.07999151
O      9.67032270     3.35425987     0.10911246
O     -0.00869677     4.47885815     3.25815960
O     -1.89906601     5.57570642     6.48596459
O     -1.94403436     5.59119430     1.70564938
O      9.65421980     3.30836099     4.86149948
O      0.20001345     4.49970712     8.09032086
O      1.92738314     3.35244915     0.09928684
O      3.87498145     4.46661777     3.20537388
O      1.94329333     5.58038765     6.33720867
O      1.92862022     5.59252216     1.67404250
O      1.96566191     3.33781772     4.82897948
O      3.88679942     4.44488171     7.88674191
O      5.81155478     3.35101064     0.10766953
O      7.71872423     4.44394570     3.25354690
O      5.76256130     5.49496370     6.42479420
O      5.80528807     5.59217007     1.68114259
O      5.73377518     3.38954867     4.93867637
O      7.59784526     4.26670694     8.56748610
O     -3.87155109     6.71022987     0.10512724
O     -1.93709967     7.83116963     3.26241091
O     -3.84915069     8.94827678     6.41773857
O     -3.87509971     8.94378428     1.69355631
O      7.72404859     6.68923831     4.84249884
O     -1.84355597     7.91933608     8.08971707
O     -0.01209783     6.71325780     0.10434852
O      1.92416601     7.83186125     3.24508260
O     -0.01555056     9.00365896     6.46043190
O     -0.00628994     8.94736548     1.70514550
O     -0.01286925     6.73791050     4.87847264
O      1.96982214     7.66004043     8.06199121
O      3.86815347     6.71410280     0.09951587
O      5.81087635     7.82698622     3.21619626
O      3.90165673     8.88177776     6.33968239
O      3.86556896     8.94715423     1.69389986
O      3.89153176     6.69377557     4.81608201
O      5.69060282     7.84809157     8.03123175
