80
CIF: Ru-CeO2-Ov.cif | data_image0
O      0.00261135     0.00382715     0.19995339
O      1.90295186     1.06099079     3.33550406
O      0.21854278     2.47210579     6.69633958
O      0.00261135     2.21285656     1.76196664
O     -0.01544610     0.09591379     5.05847062
O      2.06243777     1.44196658     8.19153186
O      3.82876252     0.00382715     0.19995339
O      5.75849552     1.10113000     3.33252114
O      3.84007191     2.14261644     6.40923450
O      3.82876252     2.21285656     1.76196664
O     -1.91453217     9.88861943     4.94927760
O      5.75910321     0.95187070     8.21553793
O      7.65492518     0.00382715     0.19995339
O      9.57625530     1.09590546     3.34026346
O      7.65227580     2.14884637     6.53986179
O      7.65492518     2.21285656     1.76196664
O      1.93035226     9.93032766     4.96185699
O      9.62254744     0.98616369     8.18464387
O     -1.91046424     3.31737126     0.19995339
O     -0.03095532     4.44080953     3.33621313
O     -1.77205724     5.54691932     6.60571097
O     -1.91046998     5.52641062     1.76196664
O      9.57145917     3.30153310     4.96220474
O      1.91568694     3.31737126     0.19995339
O      3.85990980     4.45909969     3.32458230
O      1.53202231     5.15187831     6.73907183
O      1.91568120     5.52641062     1.76196664
O      1.94488747     3.31191331     4.78698570
O      3.49946377     4.22496248     8.12051284
O      5.74184959     3.31737126     0.19995339
O      7.66366958     4.45333239     3.35237437
O      5.65344231     5.59367086     6.58006354
O      5.74184385     5.52641062     1.76196664
O      5.77218826     3.34691563     4.93735986
O      7.66353963     4.61196550     8.23548592
O     -3.82354556     6.63092532     0.19995339
O     -1.93073416     7.71732777     3.34134072
O     -3.85496375     8.92609667     6.62367808
O     -3.82354556     8.83995473     1.76196664
O     -3.80304776     6.63172138     5.05778816
O     -1.88190536     7.79233188     8.16478134
O      0.00260561     6.63092532     0.19995339
O      1.93265397     7.73484387     3.32063539
O      0.01820347     8.85960003     6.47714702
O      0.00260561     8.83995473     1.76196664
O      0.03794611     6.66722372     4.94769543
O      1.92539036     7.68890941     8.10058145
O      3.82876826     6.63092532     0.19995339
O      5.71890363     7.73728860     3.41344598
O      3.85222267     8.81021456     6.52153062
O      3.82876826     8.83995473     1.76196664
O      3.68183904     6.57254307     5.07962472
O      5.68768370     7.76334225     8.21817158
Ce     1.91568694     1.10834185     0.98097142
Ce     0.02762705     2.24121402     4.16353983
Ce    -0.01220908     0.02156372     7.37791208
Ce     5.74184959     1.10834185     0.98097142
Ce     3.84139293     2.21130596     4.13213456
Ce     3.86405773     0.05441651     7.33765152
Ce     9.56800076     1.10834185     0.98097142
Ce     7.66043449     2.22159559     4.15315222
Ce     1.92421546     9.93863501     7.33134053
Ce     0.00261135     4.42188597     0.98097142
Ce    -1.91469383     5.52524793     4.17286588
Ce     9.47813490     3.26721774     7.36167312
Ce     3.82877400     4.42188597     0.98097142
Ce     1.89528277     5.47854429     4.13642720
Ce     7.65492518     4.42188597     0.98097142
Ce     5.73131418     5.51189565     4.19126952
Ce     5.70843275     3.29620402     7.41708795
Ce    -1.91046998     7.73544003     0.98097142
Ce    -3.82383382     8.84964936     4.18138752
Ce     7.64346031     6.64237139     7.41304869
Ce     1.91569268     7.73544003     0.98097142
Ce     0.00692053     8.84634997     4.10545989
Ce    -0.02179591     6.76931554     7.24932268
Ce     5.74184385     7.73544003     0.98097142
Ce     3.81060103     8.84790734     4.16110744
Ce     3.81579633     6.62931812     7.36744654
Ru     2.01139805     3.22279486     7.32840001
