82
CIF: Ru-Mo-CeO2.cif | data_image0
Ce     1.93596140     1.11772783     0.89035214
Ce     0.00129260     2.24210219     4.02807769
Ce    11.61033244     0.00748449     7.17432238
Ce     5.80789581     1.11772783     0.89035214
Ce     3.84104217     2.21347093     3.99117753
Ce    -2.07219285     9.94933986     7.14167706
Ce     9.67981860     1.11772783     0.89035214
Ce     7.75625147     2.24595735     4.06352443
Ce     7.80579256     0.06750445     7.25242896
Ce     0.00000000     4.47091133     0.89035214
Ce    -1.93894474     5.60137829     4.05292422
Ce    -1.86726547     3.35417378     7.20292134
Ce     3.87193441     4.47091133     0.89035214
Ce     1.96018899     5.59162756     4.08051736
Ce     1.87785716     3.33259502     7.23501781
Ce     7.74385721     4.47091133     0.89035214
Ce     5.81899019     5.61790870     4.01550902
Ce    -1.93596721     7.82410489     0.89035214
Ce    -3.88798044     8.92997066     3.98816482
Ce    -3.82963609     6.77153503     7.23217350
Ce     1.93596721     7.82410489     0.89035214
Ce     0.00461307     8.96924848     4.06797150
Ce     0.03077027     6.72302971     7.22897438
Ce     5.80789000     7.82410489     0.89035214
Ce     3.86940075     8.95297999     4.05189741
Ce     3.85036511     6.78234283     7.28177799
Mo     5.56467695     3.42821873     6.90815600
O      0.00000000     0.00000000     0.09999685
O      1.92408870     1.11618687     3.19624268
O     -0.01544783     2.22316945     6.34546583
O      0.00000000     2.23545567     1.68070743
O     -5.79750161    10.05276142     4.81864312
O      1.95218403     0.98616749     7.97239603
O      3.87192279     0.00000000     0.09999685
O      5.79900931     1.14611946     3.24845344
O      4.20053019     2.07982297     6.44100069
O      3.87192279     2.23545567     1.68070743
O     -1.99340536    10.05505931     4.79806835
O      5.99281339     2.11324743     8.39220375
O      7.74385721     0.00000000     0.09999685
O      9.68151695     1.12216944     3.23346046
O      7.57478652     2.47471518     6.34815335
O      7.74385721     2.23545567     1.68070743
O      7.74512020     0.03272634     4.83628091
O      9.79388366     1.22085544     8.01358405
O     -1.93596140     3.35318350     0.09999685
O      0.02096224     4.49476506     3.26370926
O     -2.00107550     5.59697500     6.37668740
O     -1.93596721     5.58864923     1.68070743
O     -1.92249102     3.35621132     4.82945127
O     -0.08155159     4.51728351     8.00921992
O      1.93596140     3.35318350     0.09999685
O      3.87810175     4.47772040     3.21441744
O      1.90900276     5.60299424     6.38269082
O      1.93595559     5.58864923     1.68070743
O      2.00761556     3.30374983     4.84000217
O      5.80789581     3.35318350     0.09999685
O      7.72016415     4.46710880     3.24928817
O      6.13794694     5.26722045     6.50203833
O      5.80789000     5.58864923     1.68070743
O      5.67939314     3.40646639     4.90874843
O      8.26673147     4.75628171     8.66837071
O     -3.87192860     6.70637706     0.09999685
O     -1.92883190     7.81929486     3.22690382
O     -3.86363395     8.91607504     6.32963670
O     -3.87192860     8.94183273     1.68070743
O      7.70565764     6.72732326     4.82576715
O     -1.97378116     7.84453037     8.02740653
O     -0.00000581     6.70637706     0.09999685
O      1.94880403     7.81929338     3.26789622
O     -0.08970831     9.10448447     6.47508752
O     -0.00000581     8.94183273     1.68070743
O     -0.01369067     6.77478996     4.88983122
O      3.87192860     6.70637706     0.09999685
O      5.79782255     7.82881807     3.20327169
O      3.89348596     8.99855508     6.40737198
O      3.87192860     8.94183273     1.68070743
O      3.97140091     6.68351086     4.87929891
O      5.94230070     7.85397291     7.98094932
O      4.15596387     4.27826661     7.74006738
O      1.80594010     7.79056673     8.07096969
Ru     6.97066397     3.56069275     9.04112748
