82
CIF: W-Y-CeO2.cif | data_image0
Ce     1.93596140     1.11772783     0.89035214
Ce    -0.00295951     2.23166249     4.03384620
Ce    11.60464510     0.00597005     7.21100723
Ce     5.80789581     1.11772783     0.89035214
Ce     3.87003606     2.21748143     4.00845515
Ce    -2.05540013     9.99910435     7.16319354
Ce     9.67981860     1.11772783     0.89035214
Ce     7.74726125     2.23322075     4.08747559
Ce     2.04014496     9.99047821     7.23628135
Ce     0.00000000     4.47091133     0.89035214
Ce    -1.94536975     5.58518549     4.06182314
Ce    -1.82501789     3.29641385     7.23687614
Ce     3.87193441     4.47091133     0.89035214
Ce     1.94670434     5.58209430     4.02265129
Ce     1.97047810     3.36817551     7.17958535
Ce     7.74385721     4.47091133     0.89035214
Ce     5.82220867     5.59889041     4.00840097
Ce    -1.93596721     7.82410489     0.89035214
Ce    -3.88317794     8.94815883     3.98317098
Ce    -3.87977893     6.84001472     7.16279920
Ce     1.93596721     7.82410489     0.89035214
Ce    -0.00202587     8.95114263     4.06176108
Ce     0.02763312     6.68970991     7.21957850
Ce     5.80789000     7.82410489     0.89035214
Ce     3.87356658     8.94574991     4.03374745
Ce     3.87565645     6.66809761     7.17959702
Y      5.67127572     3.43178800     6.93452972
O      0.00000000     0.00000000     0.09999685
O      1.93154932     1.11948382     3.20740819
O      0.08323508     2.21426873     6.37355374
O      0.00000000     2.23545567     1.68070743
O     11.61413273     0.00058636     4.81966031
O      1.96413163     1.08193803     8.00025159
O      3.87192279     0.00000000     0.09999685
O      5.80549156     1.10275260     3.24530440
O      3.98314072     2.12466579     6.44513531
O      3.87192279     2.23545567     1.68070743
O     -1.97324803    10.03766897     4.81611703
O      6.07433828     1.29162176     8.89960547
O      7.74385721     0.00000000     0.09999685
O      9.67964813     1.11762643     3.23220472
O      7.60277854     2.31604176     6.48688376
O      7.74385721     2.23545567     1.68070743
O      1.94976341    10.05756632     4.82154216
O      9.84150313     1.02371245     8.11390351
O     -1.93596140     3.35318350     0.09999685
O      0.00993850     4.48422900     3.24997616
O     -2.06364143     5.60239186     6.49497590
O     -1.93596721     5.58864923     1.68070743
O     -1.92782683     3.34179889     4.82176113
O      0.15670617     4.54854419     7.99924732
O      1.93596140     3.35318350     0.09999685
O      3.85717778     4.47918707     3.20169369
O      1.94498427     5.58280128     6.30727057
O      1.93595559     5.58864923     1.68070743
O      1.99568374     3.32424363     4.84687953
O      5.80789581     3.35318350     0.09999685
O      7.75542161     4.48018971     3.24527776
O      5.95908778     5.54721097     6.44522663
O      5.80789000     5.58864923     1.68070743
O      5.75622894     3.38276520     4.74276159
O      7.72374699     4.14724032     8.90092842
O     -3.87192860     6.70637706     0.09999685
O     -1.92551737     7.81787972     3.22268048
O     -3.88850170     8.95118660     6.35881941
O     -3.87192860     8.94183273     1.68070743
O     -3.87193345     6.74930545     4.81605810
O     -2.01597291     7.86992184     8.03302697
O     -0.00000581     6.70637706     0.09999685
O      1.92916862     7.80841332     3.24996655
O     -0.07600801     9.04433886     6.49462273
O     -0.00000581     8.94183273     1.68070743
O     -0.04355490     6.73097677     4.90635835
O      3.87192860     6.70637706     0.09999685
O      5.80396499     7.82675379     3.20738512
O      3.93151099     8.87939072     6.37356337
O      3.87192860     8.94183273     1.68070743
O      3.92643125     6.66849421     4.84685051
O      5.85264695     7.81707089     8.00025145
O      3.83560015     4.49130604     7.90589792
O      1.94659238     7.64835285     7.99922138
W      7.13385826     2.58347567     9.59490721
