82
CIF: Y-Rh-CeO2.cif | data_image0
Ce     1.93038582     1.11050507     0.88387043
Ce    -0.00026306     2.22846336     4.04675437
Ce    -5.77176202    10.03831486     7.22893400
Ce     5.81181033     1.12175166     0.90127712
Ce     3.85209377     2.21271966     4.00527093
Ce    -1.91204097    10.02321005     7.22544971
Ce     9.66901012     1.12377363     0.90450652
Ce     7.73559073     2.23980238     4.09146224
Ce     1.97630519    10.00462477     7.23735951
Ce    -0.00709724     4.47602159     0.89067279
Ce    -1.93518076     5.58393885     4.04955355
Ce    -1.86823541     3.34495076     7.23718134
Ce     3.86254305     4.47635356     0.87798423
Ce     1.94783841     5.58142808     4.04620606
Ce     1.91261798     3.32910393     7.21107270
Ce     7.74213807     4.46545905     0.90125422
Ce     5.81750795     5.61692183     4.00535025
Ce    -1.94645625     7.83004003     0.90010904
Ce    -3.86023438     8.93496484     4.05526458
Ce    -3.82878366     6.70352406     7.22533109
Ce     1.92815559     7.82745473     0.89060408
Ce     0.00422773     8.94318706     4.04941848
Ce     0.02387567     6.69204937     7.19316728
Ce     5.81127600     7.83258510     0.88371011
Ce     3.87764263     8.94533089     4.04703791
Ce     3.88101307     6.73834767     7.21147893
Rh     4.76806720     3.95291623     6.33577562
Y      6.36829720     3.02918315     8.11219441
O     11.61334069     0.00154917     0.10141687
O      1.92886195     1.10624596     3.22849846
O      0.02678678     2.21686660     6.42101280
O     -0.00785227     2.23805103     1.69392277
O     -5.79302596    10.05047407     4.87067209
O      1.95928668     1.07447344     8.02569740
O     -1.93899312    10.05733740     0.10496691
O      5.81523767     1.09738825     3.24298766
O      3.84874693     2.17383950     6.41041555
O      3.86763657     2.23577757     1.68132582
O     -1.93208269    10.03944806     4.86097190
O      5.93569281     0.90229051     8.28622608
O      7.73821774     0.00761509     0.10924988
O      9.67929292     1.11760571     3.25081139
O      7.71439132     2.25173934     6.58556591
O      7.74357843     2.23531483     1.71563532
O      7.76350225     0.02541867     4.89183361
O      9.73039953     1.08835621     8.03439175
O      9.67032270     3.35425987     0.10911246
O     -0.00890193     4.46810017     3.24275721
O     -1.93095818     5.57616680     6.41132068
O     -1.94403436     5.59119430     1.70564938
O      9.66718840     3.32289630     4.89196680
O      0.03320763     4.46307358     8.01074796
O      1.92738314     3.35244915     0.09928684
O      3.84020114     4.48934324     3.19975717
O      1.93421878     5.58938573     6.40244248
O      1.92862022     5.59252216     1.67404250
O      1.91545740     3.34174072     4.84652189
O      3.86059807     4.47737728     8.08043395
O      5.81155478     3.35101064     0.10766953
O      7.76463556     4.47429907     3.24280819
O      5.84981127     5.63908298     6.41052444
O      5.80528807     5.59217007     1.68114259
O      5.79842908     3.35834818     4.71422632
O      7.99410533     4.46711994     8.28627782
O     -3.87155109     6.71022987     0.10512724
O     -1.93234560     7.82193835     3.24113273
O     -3.83635814     8.92109492     6.42268264
O     -3.87509971     8.94378428     1.69355631
O     -3.85304615     6.71276466     4.86096442
O     -1.91333971     7.81047070     8.00277092
O     -0.01209783     6.71325780     0.10434852
O      1.93371083     7.83277663     3.24270470
O      0.01311836     8.94325193     6.41140288
O     -0.00628994     8.94736548     1.70514550
O      0.00023799     6.70611446     4.86537136
O      1.95898262     7.79866931     8.01104561
O      3.86815347     6.71410280     0.09951587
O      5.81428675     7.83585649     3.22853517
O      3.90097524     8.92751958     6.42130831
O      3.86556896     8.94715423     1.69389986
O      3.87160004     6.72993711     4.84691061
O      5.85675304     7.82500274     8.02559957
