83
CIF: O2—Olatt+Osur.cif | data_image0
Ce     1.93038582     1.11050507     0.88387043
Ce     0.00288572     2.24424023     4.06822605
Ce    -5.78021333    10.04672834     7.23216114
Ce     5.81181033     1.12175166     0.90127712
Ce     3.82603029     2.20633851     4.00314909
Ce    -1.93246030    10.03424278     7.23861383
Ce     9.66901012     1.12377363     0.90450652
Ce     7.73753841     2.24109187     4.06692431
Ce     1.98392479    10.00460204     7.27511325
Ce    -0.00709724     4.47602159     0.89067279
Ce    -1.93781844     5.58481709     4.05750015
Ce    -1.85858454     3.36883658     7.25776628
Ce     3.86254305     4.47635356     0.87798423
Ce     1.94480888     5.57900125     4.06877074
Ce     1.89756862     3.29778385     7.33658442
Ce     7.74213807     4.46545905     0.90125422
Ce     5.80948570     5.63949164     3.98211917
Ce    -1.94645625     7.83004003     0.90010904
Ce    -3.86598980     8.93566788     4.05716666
Ce    -3.85898961     6.69866567     7.21607028
Ce     1.92815559     7.82745473     0.89060408
Ce     0.00509213     8.94619419     4.06780231
Ce     0.00332440     6.70452304     7.22688792
Ce     5.81127600     7.83258510     0.88371011
Ce     3.86562447     8.96001062     4.04048195
Ce     3.89097818     6.80085807     7.21646984
Sc     5.23172333     3.68142346     6.65754970
Pt     6.73974798     2.83840933     8.33276429
O     11.61334069     0.00154917     0.10141687
O      1.92498940     1.10279064     3.22652537
O     -0.01696747     2.21713011     6.44673429
O     -0.00785227     2.23805103     1.69392277
O      0.00430489     0.00251233     4.86558934
O      1.96877495     0.94691907     8.04438561
O     -1.93899312    10.05733740     0.10496691
O      5.81137050     1.10835735     3.24647286
O      3.87285556     2.23148852     6.35502182
O      3.86763657     2.23577757     1.68132582
O     -1.93641104    10.04662086     4.85972825
O      5.87720233     0.97219026     8.21996071
O      7.73821774     0.00761509     0.10924988
O      9.67019960     1.12784755     3.24572962
O      7.78071337     2.22913724     6.63794638
O      7.74357843     2.23531483     1.71563532
O      7.75370345     0.05289470     4.89776549
O      9.74651314     1.05079430     8.05987733
O      9.67032270     3.35425987     0.10911246
O     -0.01812248     4.47550438     3.24711302
O     -1.95679226     5.59159800     6.39139416
O     -1.94403436     5.59119430     1.70564938
O      9.64791834     3.32553571     4.89300041
O     -0.08285082     4.56567875     8.05082754
O      1.92738314     3.35244915     0.09928684
O      3.84922279     4.48941212     3.21803627
O      2.05463571     5.59435446     6.46898862
O      1.92862022     5.59252216     1.67404250
O      1.91467988     3.35165240     4.81944817
O      5.81155478     3.35101064     0.10766953
O      7.75550868     4.46930170     3.23635385
O      5.74714045     5.62149693     6.33511929
O      5.80528807     5.59217007     1.68114259
O      5.77901253     3.38216654     4.73201166
O      7.88354799     4.53911000     8.19179844
O     -3.87155109     6.71022987     0.10512724
O     -1.92672297     7.81834427     3.25423894
O     -3.85308665     8.89559598     6.38929253
O     -3.87509971     8.94378428     1.69355631
O      7.73206499     6.69820517     4.84394628
O     -1.93010941     7.80940719     7.99491069
O     -0.01209783     6.71325780     0.10434852
O      1.92370127     7.84390637     3.24607902
O      0.01623652     8.94468069     6.43168562
O     -0.00628994     8.94736548     1.70514550
O      0.02601249     6.69201690     4.89471725
O      1.96624247     7.83002588     8.04281386
O      3.86815347     6.71410280     0.09951587
O      5.81064077     7.84849217     3.21492239
O      3.88004120     8.93338480     6.40847973
O      3.86556896     8.94715423     1.69389986
O      3.86865675     6.74741799     4.82003959
O      5.82220730     7.81316323     7.99480230
O      4.03372758     4.44519835     8.17786329
O      5.29792392     3.68527284     9.34186434
