85
CIF: Pt-Sc-CeO2-O-CO.cif | data_image0
Ce     1.93038582     1.11050507     0.88387043
Ce    -0.01196798     2.22816839     4.05371944
Ce    -5.77003567    10.03751606     7.22144577
Ce     5.81181033     1.12175166     0.90127712
Ce     3.84912690     2.21190754     4.00894996
Ce    -1.93223303    10.03125490     7.25526382
Ce     9.66901012     1.12377363     0.90450652
Ce     7.71497993     2.25190165     4.10355118
Ce     1.98417934     9.93139228     7.27115744
Ce    -0.00709724     4.47602159     0.89067279
Ce    -1.94773290     5.58874145     4.06532260
Ce    -1.80081016     3.37526226     7.27099095
Ce     3.86254305     4.47635356     0.87798423
Ce     1.93527015     5.58889196     4.03494251
Ce     1.96632114     3.33712219     7.19283753
Ce     7.74213807     4.46545905     0.90125422
Ce     5.81674629     5.62002497     4.00891197
Ce    -1.94645625     7.83004003     0.90010904
Ce    -3.86380645     8.93704996     4.06166617
Ce    -3.84565433     6.71694196     7.25523225
Ce     1.92815559     7.82745473     0.89060408
Ce    -0.00605204     8.95173860     4.06522470
Ce     0.01113591     6.69982761     7.21142011
Ce     5.81127600     7.83258510     0.88371011
Ce     3.87213077     8.95561661     4.05379265
Ce     3.90089238     6.68794993     7.19285162
Sc     5.42209502     3.57579069     6.78757141
Pt     7.07734758     2.62044304     8.60339394
O     11.61334069     0.00154917     0.10141687
O      1.92121993     1.10569645     3.23877725
O      0.07688024     2.21956489     6.44294393
O     -0.00785227     2.23805103     1.69392277
O     -5.78662668    10.04707027     4.90422693
O      1.99017776     1.09475910     8.03871842
O     -1.93899312    10.05733740     0.10496691
O      5.73663448     1.06798401     3.25056976
O      3.94700826     2.18485100     6.44707118
O      3.86763657     2.23577757     1.68132582
O     -1.95867924    10.03754706     4.90307630
O      6.05158675     0.85042988     8.42639352
O      7.73821774     0.00761509     0.10924988
O      9.73967858     1.08303130     3.25641084
O      7.41987258     2.42137337     6.69148435
O      7.74357843     2.23531483     1.71563532
O      1.95352899    10.02343391     4.96568908
O      9.71773298     1.09574623     7.94107575
O      9.67032270     3.35425987     0.10911246
O     -0.00376668     4.46815919     3.25705853
O     -1.94742537     5.60166543     6.46969095
O     -1.94403436     5.59119430     1.70564938
O     -1.89623100     3.35573483     4.96576103
O      0.06322502     4.47246477     8.03058973
O      1.92738314     3.35244915     0.09928684
O      3.82418062     4.49845477     3.19137500
O      1.91575249     5.60018907     6.37864660
O      1.92862022     5.59252216     1.67404250
O      1.96401805     3.33877673     4.87199562
O      5.81155478     3.35101064     0.10766953
O      7.75102831     4.55723409     3.25046371
O      5.88901496     5.54879673     6.44697580
O      5.80528807     5.59217007     1.68114259
O      5.65614493     3.44070916     4.77464883
O      8.09692883     4.39382222     8.42467600
O     -3.87155109     6.71022987     0.10512724
O     -1.94125300     7.82709237     3.25396658
O     -3.84642918     8.92699589     6.46440342
O     -3.87509971     8.94378428     1.69355631
O     -3.86436948     6.73681937     4.90306645
O     -1.93784552     7.82504295     8.05476855
O     -0.01209783     6.71325780     0.10434852
O      1.93634575     7.82844451     3.25689968
O     -0.01715211     8.94532330     6.46986753
O     -0.00628994     8.94736548     1.70514550
O     -0.02104658     6.71848438     4.88156925
O      1.96602822     7.76831059     8.03066471
O      3.86815347     6.71410280     0.09951587
O      5.81088068     7.84272702     3.23860140
O      3.92393404     8.88301122     6.44306147
O      3.86556896     8.94715423     1.69389986
O      3.89833708     6.68919136     4.87197149
O      5.85477626     7.78845899     8.03865168
O      3.84935055     4.48377245     7.87109305
O      6.66732135     2.86110629    10.68581689
O      6.07378962     3.17047749    12.93590645
C      6.36454390     3.01732228    11.81080294
