84
CIF: Y-Fe-CeO2-Ov-CO2.cif | data_image0
Ce     1.93038582     1.11050507     0.88387043
Ce    -0.08558942     2.20502271     4.04175486
Ce     0.00761505     0.02217578     7.25019785
Ce     5.81181033     1.12175166     0.90127712
Ce     3.87710096     2.20241348     3.91817858
Ce    -1.93174786     9.94324301     7.34408828
Ce     9.66901012     1.12377363     0.90450652
Ce     7.76982419     2.21904428     4.12722799
Ce     7.70400376     0.04366566     7.29164658
Ce    -0.00709724     4.47602159     0.89067279
Ce    -1.93885691     5.59415843     4.13028208
Ce    -1.94799226     3.40205351     7.32204004
Ce     3.86254305     4.47635356     0.87798423
Ce     1.90804557     5.60976091     4.00338485
Ce     1.70859366     3.34886380     7.45034310
Ce     7.74213807     4.46545905     0.90125422
Ce     5.85344791     5.62729063     4.01056042
Ce    -1.94645625     7.83004003     0.90010904
Ce    -3.88145923     8.95985317     4.11097773
Ce    -3.88824603     6.74015956     7.32258377
Ce     1.92815559     7.82745473     0.89060408
Ce     0.00923334     8.94894122     4.10248589
Ce     0.00491364     6.76092053     7.30945839
Ce     5.81127600     7.83258510     0.88371011
Ce     3.85695706     8.93324107     4.10096039
Ce     3.86982069     6.98634259     7.69907571
Fe     3.87861270     4.70764982     5.96602316
Y      6.07075879     3.39347339     7.41015969
O     11.61334069     0.00154917     0.10141687
O      1.90731621     1.17416675     3.26082422
O      0.09884104     2.30371678     6.34317753
O     -0.00785227     2.23805103     1.69392277
O     -5.79924108    10.05527187     4.87735786
O      2.03689546     1.18059357     7.98912673
O     -1.93899312    10.05733740     0.10496691
O      5.75191426     1.11789445     3.25543314
O      3.88041825     3.94318649     7.69332122
O      3.86763657     2.23577757     1.68132582
O      3.83274216     0.18759530     4.99682734
O      5.50183236     1.21705550     7.93981004
O      7.73821774     0.00761509     0.10924988
O      9.72382682     1.07047085     3.27359699
O      7.72225114     2.31149631     6.51232776
O      7.74357843     2.23531483     1.71563532
O      1.92495257     9.96072144     4.86771291
O      9.89412174     1.04264163     8.10303892
O      9.67032270     3.35425987     0.10911246
O      0.08187042     4.41806231     3.27198219
O     -1.92791646     5.70838607     6.44031456
O     -1.94403436     5.59119430     1.70564938
O     -1.86564139     3.42261035     4.84533915
O      0.07442773     4.60058783     8.20167276
O      1.92738314     3.35244915     0.09928684
O      3.86776570     4.43669054     3.12432261
O      2.17932992     5.57879026     6.57358817
O      1.92862022     5.59252216     1.67404250
O      2.44882215     3.49539825     5.22350094
O      3.96452057     6.15032345    10.39777846
O      5.81155478     3.35101064     0.10766953
O      7.69413486     4.51767386     3.28329937
O      5.55667683     5.60309172     6.59138977
O      5.80528807     5.59217007     1.68114259
O      5.31359170     3.51424012     5.22504403
O      7.70931123     4.68023712     8.18585863
O     -3.87155109     6.71022987     0.10512724
O     -1.94883504     7.87041094     3.32757488
O     -3.83893589     8.92294946     6.41881505
O     -3.87509971     8.94378428     1.69355631
O      7.68507397     6.69892579     4.92294933
O     -1.95077694     7.83332767     8.16719428
O     -0.01209783     6.71325780     0.10434852
O      1.96189905     7.79856888     3.25129004
O     -0.10209284     8.88778686     6.40088403
O     -0.00628994     8.94736548     1.70514550
O      0.06653768     6.66335762     4.88881944
O      1.69480874     7.83780625     8.24591602
O      3.86815347     6.71410280     0.09951587
O      5.78694929     7.83044253     3.27149525
O      3.91771741     8.88736097     6.41420250
O      3.86556896     8.94715423     1.69389986
O      3.86895096     6.41052436     4.87776437
O      5.98704407     7.99994720     8.21806976
O      3.56096850     4.33113820    11.83031139
C      3.76079288     5.23563533    11.11413715
