82
CIF: 2-CO2.cif | data_VESTA_phase_1
O     -0.00101584     0.09961518     0.10145935
O      1.90989605     1.20567068     3.21964646
O     -0.10169346     2.28138735     6.43035136
O     -0.00101584     2.30864459     1.66347260
O      0.00378215     0.09826325     4.83535470
O      3.82513533     0.09961518     0.10145935
O      5.74303187     1.19263850     3.24225128
O      3.92133061     2.37350728     6.94547199
O      3.82513533     2.30864459     1.66347260
O      3.79961870     0.16484567     4.87835175
O      7.65129798     0.09961518     0.10145935
O      9.56315111     1.21012409     3.22502965
O      7.60440845     2.19416815     6.53242659
O      7.65129798     2.30864459     1.66347260
O      7.69245402     0.07869012     4.84409097
O      9.53266431     1.13785562     8.14713118
O     -1.91409143     3.41315929     0.10145935
O      0.00343780     4.52532829     3.29019812
O     -1.90199313     5.60968337     6.38831234
O     -1.91409717     5.62219864     1.66347260
O      9.50302691     3.39350664     4.88923217
O      1.91205974     3.41315929     0.10145935
O      3.81379461     4.51041733     3.24772570
O      1.93602104     5.58253548     6.52633629
O      1.91205400     5.62219864     1.66347260
O      1.94916388     3.34199423     4.88934622
O      3.54879702     4.85491029    11.81472250
O      5.73822240     3.41315929     0.10145935
O      7.65029362     4.51114299     3.23353782
O      5.72721455     5.62010117     6.47172889
O      5.73821666     5.62219864     1.66347260
O      5.73346457     3.39167756     4.83722513
O      7.78935522     4.57307320     8.16861830
O     -3.82717276     6.72671335     0.10145935
O     -1.89894560     7.83733161     3.26747925
O     -3.86807627     8.88338539     6.39691175
O     -3.82717276     8.93574276     1.66347260
O     -3.84105022     6.70114602     4.86140384
O     -1.90506936     7.69020016     8.12981831
O     -0.00102158     6.72671335     0.10145935
O      1.89388933     7.82368311     3.24270748
O      0.04687231     9.10981334     6.54850771
O     -0.00102158     8.93574276     1.66347260
O      0.02819685     6.78382234     4.94570999
O      1.85915550     7.90664771     8.16448967
O      3.82514107     6.72671335     0.10145935
O      5.74939094     7.82227153     3.22304517
O      3.85864671     8.94522613     6.39734514
O      3.82514107     8.93574276     1.66347260
O      3.82527881     6.73466586     4.82137211
O      5.84667093     7.85829642     8.17085369
O      1.68300123     1.06876816     8.24040170
O     -0.15182566     4.56955421     8.17290660
O      3.80573672     4.68801684     9.48186453
Ce     1.91205974     1.20412988     0.88247738
Ce    -0.00906799     2.29443941     4.06209211
Ce     0.00104454     0.06507144     7.32067542
Ce     5.73822240     1.20412988     0.88247738
Ce     3.81779485     2.30620913     4.03367071
Ce     3.65526553     0.02734671     7.29471752
Ce     9.56437357     1.20412988     0.88247738
Ce     7.65525231     2.30030439     4.03994349
Ce     2.06742651     9.93713324     7.18593612
Ce    -0.00101584     4.51767400     0.88247738
Ce    -1.92006023     5.62214894     4.06968787
Ce    -1.91746610     3.43141031     7.29674762
Ce     3.82514681     4.51767400     0.88247738
Ce     1.91813185     5.61713886     4.11022143
Ce     1.74488164     3.30956786     7.30064815
Ce     7.65129798     4.51767400     0.88247738
Ce     5.73778621     5.62254656     4.04617065
Ce     5.88272479     3.49922537     7.18751002
Ce    -1.91409717     7.83122805     0.88247738
Ce    -3.83191910     8.93758178     4.04749364
Ce    -3.80212675     6.72229970     7.28016467
Ce     1.91206548     7.83122805     0.88247738
Ce    -0.00096993     8.95197583     4.08789034
Ce    -0.00974522     6.72088813     7.29982698
Ce     5.73821666     7.83122805     0.88247738
Ce     3.84332296     8.92496710     3.99909059
Ce     3.83693519     6.83553356     7.24912012
C      3.67606450     4.77847669    10.65736054
