84
CIF: Fe-Rh-CeO2-Ov-CO2.cif | data_image0
Ce     1.93038582     1.11050507     0.88387043
Ce    -0.00631522     2.22601929     4.02035353
Ce    -5.78707064    10.04353277     7.22030081
Ce     5.81181033     1.12175166     0.90127712
Ce     3.84774358     2.21368175     4.01568168
Ce    -1.92175043    10.02193259     7.22130845
Ce     9.66901012     1.12377363     0.90450652
Ce     7.72877734     2.24695439     4.07340349
Ce     1.98092704    10.04801215     7.19768906
Ce    -0.00709724     4.47602159     0.89067279
Ce    -1.94020559     5.58441346     4.07986176
Ce    -1.88391764     3.31962068     7.21914622
Ce     3.86254305     4.47635356     0.87798423
Ce     1.95559683     5.57703962     4.06046451
Ce     1.84085274     3.25370735     7.18882402
Ce     7.74213807     4.46545905     0.90125422
Ce     5.81704631     5.62268005     4.02653770
Ce    -1.94645625     7.83004003     0.90010904
Ce    -3.86148974     8.92432316     4.07264546
Ce    -3.85342109     6.69211200     7.31070074
Ce     1.92815559     7.82745473     0.89060408
Ce     0.00781473     8.94714056     4.05389823
Ce     0.03115114     6.69971261     7.22920696
Ce     5.81127600     7.83258510     0.88371011
Ce     3.87352723     8.95640214     4.01198215
Ce     3.89041052     6.85601241     7.17205170
Rh     4.90627286     3.84954383     6.49418573
Fe     6.60916353     2.86335023     7.98851469
O     11.61334069     0.00154917     0.10141687
O      1.93393097     1.11147381     3.22799390
O      0.00924696     2.20974513     6.38188412
O     -0.00785227     2.23805103     1.69392277
O     -5.79343480    10.04795595     4.84415856
O      1.90582706     1.11396555     8.03814615
O     -1.93899312    10.05733740     0.10496691
O      5.79988328     1.11331035     3.24316543
O      3.82152932     2.16011981     6.43810727
O      3.86763657     2.23577757     1.68132582
O     -1.93269742    10.04222337     4.85961294
O      5.99964245     1.13506832     8.19800140
O      7.73821774     0.00761509     0.10924988
O      9.67943438     1.12504213     3.23328739
O      7.73186330     2.23130337     6.46896557
O      7.74357843     2.23531483     1.71563532
O      7.75590522     0.02388677     4.84349647
O      9.71672094     1.09676246     7.99198341
O      9.67032270     3.35425987     0.10911246
O     -0.00078001     4.47902150     3.24782115
O     -1.89586404     5.53099414     6.45600729
O     -1.94403436     5.59119430     1.70564938
O      9.67046702     3.32818109     4.86476319
O      0.04193329     4.41077777     8.01584788
O      1.92738314     3.35244915     0.09928684
O      3.83888120     4.48638091     3.21536445
O      2.04618816     5.52357125     6.51065338
O      1.92862022     5.59252216     1.67404250
O      1.91130806     3.34006775     4.85340110
O      4.15366703     4.28145677     8.38262129
O      5.81155478     3.35101064     0.10766953
O      7.74897390     4.47260023     3.24918238
O      5.76462748     5.65094748     6.43412016
O      5.80528807     5.59217007     1.68114259
O      5.76755593     3.37178987     4.76106876
O      7.84143001     4.19240741     8.25183920
O     -3.87155109     6.71022987     0.10512724
O     -1.91297780     7.81241758     3.25942658
O     -3.83596792     8.96920682     6.44451058
O     -3.87509971     8.94378428     1.69355631
O     -3.86070116     6.70761076     4.84573546
O     -1.76846498     7.87854619     8.03205559
O     -0.01209783     6.71325780     0.10434852
O      1.92555179     7.82119169     3.23347166
O      0.03196415     9.00424550     6.41329308
O     -0.00628994     8.94736548     1.70514550
O      0.04438791     6.69695752     4.92107182
O      1.96642430     7.84449194     7.98386076
O      3.86815347     6.71410280     0.09951587
O      5.80978141     7.83013936     3.22525981
O      3.87157293     8.96658448     6.35551636
O      3.86556896     8.94715423     1.69389986
O      3.85536257     6.74442655     4.83519111
O      5.68953991     7.92887653     8.04708999
O      5.22612162     3.68881593    10.31439333
C      5.13827024     3.72268147     9.10879170
