80
CIF: Rh-CeO2-Ov.cif | data_image0
O      0.00261135     0.00382715     0.19995339
O      1.91234526     1.08042964     3.34938277
O      0.34246300     2.12093292     6.69300883
O      0.00261135     2.21285656     1.76196664
O      5.69479082     9.94028475     4.96279346
O      3.82876252     0.00382715     0.19995339
O      5.74772582     1.11799366     3.34076575
O      3.51212676     2.21598735     6.67733348
O      3.82876252     2.21285656     1.76196664
O     -1.88886878     9.93872331     4.96052634
O      5.83063419     1.18898277     8.16071275
O      7.65492518     0.00382715     0.19995339
O      9.55987343     1.11702523     3.33175431
O      7.68185233     2.24390253     6.51613805
O      7.65492518     2.21285656     1.76196664
O      7.65553686     0.01530730     4.96515584
O      9.58749498     1.10944812     8.12314746
O     -1.91046424     3.31737126     0.19995339
O     -0.02803715     4.42842685     3.32542835
O     -1.90786259     5.47378971     6.52473160
O     -1.91046998     5.52641062     1.76196664
O     -1.81238590     3.25346607     5.04246996
O      0.14666004     4.38750419     8.01857110
O      1.91568694     3.31737126     0.19995339
O      3.85981193     4.42535572     3.33411046
O      1.90701393     5.62632630     6.42430018
O      1.91568120     5.52641062     1.76196664
O      1.90462585     3.34644542     4.85418621
O      3.65150929     4.40871863     8.04137141
O      5.74184959     3.31737126     0.19995339
O      7.65456662     4.40766059     3.39928620
O      5.73648074     5.49677199     6.55580672
O      5.74184385     5.52641062     1.76196664
O      5.66614698     3.26043170     5.04890841
O      7.66201359     4.41928636     8.17749673
O     -3.82354556     6.63092532     0.19995339
O     -1.93313217     7.73213027     3.34013671
O     -3.89495414     8.95561202     6.64739354
O     -3.82354556     8.83995473     1.76196664
O     -3.82373484     6.67179384     5.03041054
O     -1.92195477     7.59275933     8.17795263
O      0.00260561     6.63092532     0.19995339
O      1.91230064     7.74704707     3.33038564
O      0.06192236     8.81431505     6.52198404
O      0.00260561     8.83995473     1.76196664
O     -0.03631887     6.64134769     4.94384501
O      1.92712949     7.74547047     8.18044595
O      3.82876826     6.63092532     0.19995339
O      5.76177972     7.73155823     3.34106097
O      3.79299161     8.83094662     6.49918105
O      3.82876826     8.83995473     1.76196664
O      3.86141178     6.64108313     4.94672120
O      5.68617909     7.71780753     8.16939675
Ce     1.91568694     1.10834185     0.98097142
Ce     0.03679785     2.21759453     4.16109725
Ce     5.61935273     9.85817877     7.26985026
Ce     5.74184959     1.10834185     0.98097142
Ce     3.79353097     2.21376511     4.17316073
Ce    -1.79820563     9.87660677     7.35013403
Ce     9.56800076     1.10834185     0.98097142
Ce     7.65634877     2.19734025     4.17338071
Ce     7.65243766     0.02062664     7.33531769
Ce     0.00261135     4.42188597     0.98097142
Ce    -1.90157755     5.52453931     4.16645466
Ce    -1.83907579     3.32318638     7.35325165
Ce     3.82877400     4.42188597     0.98097142
Ce     1.91291748     5.53290690     4.12825731
Ce     7.65492518     4.42188597     0.98097142
Ce     5.73239114     5.52464027     4.17285550
Ce     5.70569376     3.32188809     7.36256110
Ce    -1.91046998     7.73544003     0.98097142
Ce    -3.82079597     8.84021343     4.17406387
Ce     7.65932285     6.60091545     7.38657299
Ce     1.91569268     7.73544003     0.98097142
Ce    -0.00219981     8.84387942     4.13546672
Ce     0.03394079     6.59146659     7.33213060
Ce     5.74184385     7.73544003     0.98097142
Ce     3.81914117     8.83765064     4.11528382
Ce     3.77875468     6.60160369     7.33700092
Rh     1.95044847     3.42954852     7.20218514
