84
CIF: CO+Olatt—CO2.cif | data_image0
Ce     1.93596140     1.11772783     0.89035214
Ce    -0.01390903     2.22734104     4.05327905
Ce    11.58613648     0.00950960     7.24503995
Ce     5.80789581     1.11772783     0.89035214
Ce     3.83164249     2.19586233     3.96111753
Ce    -2.00511244     9.96960551     7.30938353
Ce     9.67981860     1.11772783     0.89035214
Ce     7.79424979     2.22179378     3.93566435
Ce     2.02814873     9.88370894     7.33805260
Ce    -0.00000000     4.47091133     0.89035214
Ce    -1.95451290     5.58859120     4.12429699
Ce    -1.74864194     3.35137148     7.38887922
Ce     3.87193441     4.47091133     0.89035214
Ce     1.95536631     5.58445121     4.09404112
Ce     1.82711996     3.33150939     7.24571654
Ce     7.74385721     4.47091133     0.89035214
Ce     5.82519551     5.64218844     3.99889680
Ce    -1.93596721     7.82410489     0.89035214
Ce    -3.86875283     8.94200544     4.04552584
Ce    -3.80340299     6.89009078     7.31330553
Ce     1.93596721     7.82410489     0.89035214
Ce    -0.00399573     8.96297018     4.10098330
Ce     0.00165201     6.70889802     7.27062021
Ce     5.80789000     7.82410489     0.89035214
Ce     3.87441562     8.93783755     4.06144276
Ce     3.85039975     6.78528590     7.31742804
W      5.42948324     3.55352552     6.87139264
Mo     6.77882191     2.72942960     9.08373331
O      0.00000000     0.00000000     0.09999685
O      1.92321234     1.12411793     3.20912031
O      0.03092083     2.26995487     6.37861727
O      0.00000000     2.23545567     1.68070743
O     -0.00237958     0.02875223     4.85022449
O      1.87584405     1.26157299     8.06140536
O      3.87192279     0.00000000     0.09999685
O      5.80548000     1.15036328     3.21896608
O      4.10136541     2.28814239     6.54295937
O      3.87192279     2.23545567     1.68070743
O      3.85855840     0.06520770     4.82832648
O      6.49029370     1.01620944     9.39465814
O      7.74385721     0.00000000     0.09999685
O      9.69272264     1.11710125     3.20150595
O      7.09776400     2.57567014     7.14703148
O      7.74385721     2.23545567     1.68070743
O      7.75295593     0.16504810     4.90220393
O      9.74990471     1.07467977     8.05589939
O     -1.93596140     3.35318350     0.09999685
O     -0.01351794     4.44591510     3.31118842
O     -1.93528939     5.55661924     6.49152711
O     -1.93596721     5.58864923     1.68070743
O      9.54492741     3.24694772     4.94262960
O      0.13784556     4.47821948     8.16374643
O      1.93596140     3.35318350     0.09999685
O      3.84345693     4.41000701     3.23088537
O      1.92641515     5.48889050     6.42053542
O      1.93595559     5.58864923     1.68070743
O      2.01072814     3.27055406     4.90044394
O      5.80789581     3.35318350     0.09999685
O      7.78416479     4.43535842     3.22274836
O      5.93269794     5.31764999     6.65457476
O      5.80789000     5.58864923     1.68070743
O      5.83319069     3.31355992     4.98230581
O      8.14696239     3.77027527     9.46629606
O     -3.87192860     6.70637706     0.09999685
O     -1.92283392     7.82756328     3.26661164
O     -3.87123455     9.00880957     6.41321272
O     -3.87192860     8.94183273     1.68070743
O     -3.85460751     6.74107985     4.88257243
O     -1.82197124     7.79142990     8.17019008
O     -0.00000581     6.70637706     0.09999685
O      1.93139030     7.85103471     3.28514976
O     -0.00380990     8.98728861     6.43468769
O     -0.00000581     8.94183273     1.68070743
O     -0.00010245     6.71478318     4.89603141
O      3.87192860     6.70637706     0.09999685
O      5.80460553     7.89263057     3.22337720
O      3.89071183     8.93915858     6.36701319
O      3.87192860     8.94183273     1.68070743
O      3.87359190     6.68217534     4.88322914
O      5.80645882     7.97921627     8.09667445
O      4.03490919     4.28969349     8.07680554
O      1.84907926     7.71308593     8.13087740
O      4.42081925     4.18830653    10.60551844
C      5.05281212     3.76181289     9.72315230
