83
CIF: Nb-Mo-CeO2-O.cif | data_image0
Ce     1.93596140     1.11772783     0.89035214
Ce    -0.00106616     2.23854475     4.04589376
Ce     0.01224765     0.00848937     7.21012149
Ce     5.80789581     1.11772783     0.89035214
Ce     3.80766424     2.17010043     3.95818224
Ce    -2.06338455     9.90241414     7.32701311
Ce     9.67981860     1.11772783     0.89035214
Ce     7.76887573     2.20125360     3.98308210
Ce     2.01454327     9.90406389     7.47902273
Ce     0.00000000     4.47091133     0.89035214
Ce    -1.94801020     5.58870799     4.09115756
Ce    -1.64051922     3.41878205     7.28221631
Ce     3.87193441     4.47091133     0.89035214
Ce     1.96438003     5.57671735     4.08403558
Ce     1.90787488     3.30906288     7.32509305
Ce     7.74385721     4.47091133     0.89035214
Ce     5.85375675     5.65904567     3.96544544
Ce    -1.93596721     7.82410489     0.89035214
Ce    -3.86086849     8.91406749     4.06843828
Ce    -3.80047068     6.73271162     7.40103665
Ce     1.93596721     7.82410489     0.89035214
Ce     0.01551129     8.96439312     4.13082203
Ce     0.02789963     6.72852247     7.26469342
Ce     5.80789000     7.82410489     0.89035214
Ce     3.85423800     8.97017580     4.06902820
Ce     3.87011653     6.81217498     7.23921981
Mo     5.32090301     3.57081319     6.82979628
O      0.00000000     0.00000000     0.09999685
O      1.91854852     1.09822920     3.21835829
O      0.08267265     2.25586504     6.35082127
O      0.00000000     2.23545567     1.68070743
O     -5.79519843    10.04840914     4.87108186
O      1.78950375     1.02313192     8.10252989
O      3.87192279     0.00000000     0.09999685
O      5.72432772     1.10027974     3.23212974
O      4.04455005     2.25756162     6.49214611
O      3.87192279     2.23545567     1.68070743
O      3.82854795     0.01275024     4.87686827
O      7.35044738     0.90135073     9.63875406
O      7.74385721     0.00000000     0.09999685
O      9.74829363     1.08586106     3.21666595
O      6.63193990     2.56216634     7.59390104
O      7.74385721     2.23545567     1.68070743
O      7.74613117     0.02240564     4.92541140
O      9.75203026     1.27436795     7.85566455
O     -1.93596140     3.35318350     0.09999685
O     -0.00637540     4.46929390     3.28336364
O     -1.92443886     5.54864974     6.46416159
O     -1.93596721     5.58864923     1.68070743
O      9.64075040     3.32586035     4.96632254
O      0.05788955     4.54701228     8.10411283
O      1.93596140     3.35318350     0.09999685
O      3.91235602     4.47186144     3.22672297
O      2.02352603     5.62199942     6.40292375
O      1.93595559     5.58864923     1.68070743
O      2.02043642     3.32611020     4.82464721
O      5.80789581     3.35318350     0.09999685
O      7.72251652     4.53189948     3.22732932
O      5.93393793     5.31153868     6.50789957
O      5.80789000     5.58864923     1.68070743
O      5.71193153     3.37152594     4.97927904
O      8.51450051     4.03650690     8.97176940
O     -3.87192860     6.70637706     0.09999685
O     -1.92939985     7.81597496     3.27448229
O     -3.90841753     8.87379877     6.44470349
O     -3.87192860     8.94183273     1.68070743
O      7.71547980     6.69003767     4.86796883
O     -1.82200455     7.72584237     8.17038477
O     -0.00000581     6.70637706     0.09999685
O      1.95625712     7.81743139     3.28879745
O      0.01677038     8.97428804     6.53054426
O     -0.00000581     8.94183273     1.68070743
O      0.00386912     6.71865183     4.90989438
O      3.87192860     6.70637706     0.09999685
O      5.81137044     7.83489402     3.22180103
O      3.88842931     8.91479646     6.43100631
O      3.87192860     8.94183273     1.68070743
O      3.98816051     6.68486374     4.90311062
O      5.67875914     7.79033269     8.05292319
O      2.01523779     7.66361255     8.14979151
O      4.12288145     4.36103352     7.95838511
O      5.88409713     3.38751543    10.44044325
Nb     7.23484647     2.73371417     9.55118454
