81
CIF: Re-Rh-CeO2-Ov.cif | data_image0
Ce     1.93038582     1.11050507     0.88387043
Ce    -0.02727793     2.22687915     4.02355927
Ce     0.02683077     0.00622823     7.26998484
Ce     5.81181033     1.12175166     0.90127712
Ce     3.83983699     2.19435383     3.99545305
Ce    -1.98889539    10.01957128     7.33495377
Ce     9.66901012     1.12377363     0.90450652
Ce     7.72214015     2.24397200     4.07595066
Ce     2.08155094     9.86628725     7.32854244
Ce    -0.00709724     4.47602159     0.89067279
Ce    -1.94298546     5.56806365     4.09784006
Ce    -1.74098583     3.31092101     7.32149642
Ce     3.86254305     4.47635356     0.87798423
Ce     1.96588492     5.56617631     4.05785014
Ce     1.86679923     3.24475070     7.17074127
Ce     7.74213807     4.46545905     0.90125422
Ce     5.82657504     5.64132419     3.98479422
Ce    -1.94645625     7.83004003     0.90010904
Ce    -3.85577393     8.95531658     4.05077595
Ce    -3.82860356     6.84668942     7.23156091
Ce     1.92815559     7.82745473     0.89060408
Ce     0.00720012     8.95456408     4.11860015
Ce     0.00730070     6.69580805     7.29295113
Ce     5.81127600     7.83258510     0.88371011
Ce     3.87355724     8.96478484     4.03121988
Ce     3.95775633     6.79374366     7.18125496
Rh     5.07700958     3.80247039     6.72069897
Re     6.50465541     2.94115893     8.22869771
O     11.61334069     0.00154917     0.10141687
O      1.92397326     1.10333910     3.21703232
O      0.06769419     2.21348648     6.38836241
O     -0.00785227     2.23805103     1.69392277
O     -5.79035262    10.05017875     4.87248100
O      1.82505488     1.17502926     8.12118403
O     -1.93899312    10.05733740     0.10496691
O      5.74145043     1.07587266     3.25521195
O      3.86319859     2.24350109     6.49186746
O      3.86763657     2.23577757     1.68132582
O     -1.95633602    10.05599458     4.87256796
O      5.82960157     1.48852861     9.00529794
O      7.73821774     0.00761509     0.10924988
O      9.72705400     1.08507163     3.23111459
O      7.55293100     2.31952132     6.84881842
O      7.74357843     2.23531483     1.71563532
O      1.96427435    10.02694905     4.93838410
O      9.85182771     1.01563429     8.09324846
O      9.67032270     3.35425987     0.10911246
O     -0.00138692     4.49075339     3.25296490
O     -2.06330669     5.57632336     6.54344357
O     -1.94403436     5.59119430     1.70564938
O     -1.90697885     3.35498123     4.92474655
O      0.15226875     4.52863278     8.05029497
O      1.92738314     3.35244915     0.09928684
O      3.83005670     4.49981831     3.19639776
O      2.23029139     5.42380685     6.48516640
O      1.92862022     5.59252216     1.67404250
O      1.92947799     3.31366667     4.82880625
O      5.81155478     3.35101064     0.10766953
O      7.74245489     4.55999300     3.25295265
O      5.90026980     5.61180301     6.50770971
O      5.80528807     5.59217007     1.68114259
O      5.64321355     3.46111525     4.79476715
O      7.46004299     4.20923761     9.02301940
O     -3.87155109     6.71022987     0.10512724
O     -1.89992634     7.80248567     3.28969396
O     -3.86751726     8.93644631     6.46440633
O     -3.87509971     8.94378428     1.69355631
O     -3.87570602     6.75968214     4.88976934
O     -1.94377894     7.70271440     8.14879000
O     -0.01209783     6.71325780     0.10434852
O      1.91996364     7.80738901     3.27105478
O      0.00497676     8.93394702     6.55911815
O     -0.00628994     8.94736548     1.70514550
O      0.04376028     6.64288220     5.00630555
O      2.01692333     7.62174895     8.08639892
O      3.86815347     6.71410280     0.09951587
O      5.81866481     7.84389034     3.21783760
O      3.95537217     8.86414442     6.42228851
O      3.86556896     8.94715423     1.69389986
O      3.92421647     6.71663992     4.85122558
O      5.85374350     7.83306453     8.09053993
