89
CIF: CH2COCH2→CH2+CH2CO.cif | data_image0
O      0.00261135     0.00382715     0.19995339
O      1.91049407     1.11810810     3.32348852
O      0.09896864     2.45057500     6.51547254
O      0.00261135     2.21285656     1.76196664
O     -0.00983338     0.07831230     4.99828853
O      1.79936396     1.29289482     7.99441496
O      3.82876252     0.00382715     0.19995339
O      5.75132160     1.09280870     3.33068633
O      3.70758334     2.52959045     6.69324762
O      3.82876252     2.21285656     1.76196664
O      3.82650975     0.10569436     4.99505323
O      5.86854309     1.16985170     8.18377442
O      7.65492518     0.00382715     0.19995339
O      9.56277158     1.09474777     3.32851846
O      7.71746336     2.23142164     6.50790107
O      7.65492518     2.21285656     1.76196664
O      7.65209465     0.00514655     4.97190245
O      9.62966981     1.12240629     8.14486242
O     -1.91046424     3.31737126     0.19995339
O      0.02708273     4.42069781     3.32752653
O     -1.96479273     5.58151811     6.45153868
O     -1.91046998     5.52641062     1.76196664
O     -1.89096748     3.31701689     4.93570423
O      1.91568694     3.31737126     0.19995339
O      3.82245513     4.40991933     3.34230420
O      2.01864341     4.98303020     7.06962027
O      1.91568120     5.52641062     1.76196664
O      1.92885529     3.25904954     5.00289562
O      4.69428769     4.69882021     9.07817143
O      5.74184959     3.31737126     0.19995339
O      7.64458838     4.42807725     3.35551490
O      5.74506361     5.49746528     6.54516695
O      5.74184385     5.52641062     1.76196664
O      5.73647402     3.27208747     4.97544760
O      7.69966735     4.45384467     8.20663332
O     -3.82354556     6.63092532     0.19995339
O     -1.87772166     7.73849900     3.40269405
O     -3.85518924     8.82795813     6.50640060
O     -3.82354556     8.83995473     1.76196664
O      7.61980538     6.64397224     4.94752690
O     -1.93845432     7.65074448     8.25230839
O      0.00260561     6.63092532     0.19995339
O      1.90516776     7.72915813     3.33684446
O     -0.00823842     8.81489249     6.50713075
O      0.00260561     8.83995473     1.76196664
O      0.14412236     6.53161342     5.08087698
O      1.80707992     7.79394575     8.17626986
O      3.82876826     6.63092532     0.19995339
O      5.70879305     7.74651422     3.38193515
O      3.83563718     8.87026733     6.52160057
O      3.82876826     8.83995473     1.76196664
O      3.72463633     6.58571538     5.01386692
O      5.82937871     7.85258293     8.24714091
O     -0.45550309     4.62872355     8.40858124
O      2.08744064     3.42607350     9.44021448
Ce     1.91568694     1.10834185     0.98097142
Ce    -0.03189157     2.21248122     4.10654689
Ce    11.45695971     0.01242349     7.35958491
Ce     5.74184959     1.10834185     0.98097142
Ce     3.86574782     2.19674633     4.11692987
Ce     3.84351337     0.00926500     7.45000794
Ce     9.56800076     1.10834185     0.98097142
Ce     7.66517583     2.21916489     4.15011772
Ce     1.91290913     9.93506448     7.34641299
Ce     0.00261135     4.42188597     0.98097142
Ce    -1.91135025     5.52448847     4.17107352
Ce    -1.91611609     3.40291041     7.40945061
Ce     3.82877400     4.42188597     0.98097142
Ce     1.92584704     5.52758020     4.11652468
Ce     7.65492518     4.42188597     0.98097142
Ce     5.73080040     5.52779293     4.20030330
Ce     5.90729653     3.30712626     7.37418988
Ce    -1.91046998     7.73544003     0.98097142
Ce    -3.82626015     8.85975031     4.19111364
Ce    -3.83959524     6.67135651     7.36506059
Ce     1.91569268     7.73544003     0.98097142
Ce     0.00877363     8.83335223     4.20649056
Ce    -0.08045746     6.61763236     7.47853795
Ce     5.74184385     7.73544003     0.98097142
Ce     3.81503444     8.82957688     4.17533033
Ce     3.83786829     6.69895352     7.47336635
Nb     1.88877331     3.07176644     7.02692467
C      1.47684034     5.38693951    10.85579363
C      1.95860867     4.39419298    10.13981777
C      4.46438139     4.74787863    10.33804442
H      0.38521974     5.47615306    10.87325495
H      2.09506334     6.09244343    11.39901271
H      4.56909809     3.84396885    10.95759834
H      4.36456053     5.72335296    10.84044989
