83
CIF: V-CeO2+O2.cif | data_image0
O      0.55978923     0.45000431     0.59999690
O      2.47418957     1.59917616     3.76015643
O      0.30938937     2.52951873     6.86175742
O      0.55978923     2.65902057     2.16203261
O      0.57997165     0.41770116     5.31958074
O      2.45857589     0.96725155     8.79305000
O      4.38603242     0.45000431     0.59999690
O      6.28294364     1.56134353     3.73354263
O      4.21703670     2.77731206     7.03939086
O      4.38603242     2.65902057     2.16203261
O      4.38054029     0.51282371     5.40811810
O      6.27752045     1.61289437     8.52480555
O      8.21216082     0.45000431     0.59999690
O     10.11773437     1.55443259     3.74583112
O      8.21140581     2.64514207     6.90255008
O      8.21216082     2.65902057     2.16203261
O      8.19826509     0.44325623     5.36761899
O     10.01593035     1.52019130     8.64151719
O     -1.35327498     3.76352871     0.59999690
O      0.58606806     4.86245283     3.76113119
O     -1.22661283     5.88951760     7.02524250
O     -1.35333237     5.97264438     2.16203261
O     -1.40670766     3.79181464     5.32276103
O      1.94571402     3.74115825     8.53514127
O      2.47296821     3.76352871     0.59999690
O      4.37086873     4.86777064     3.74893306
O      2.47644478     5.93046590     6.99126323
O      2.47291082     5.97264438     2.16203261
O      2.49462776     3.83620253     5.52987197
O      4.39281419     4.94072448     8.42981378
O      6.29909662     3.76352871     0.59999690
O      8.18289706     4.86295532     3.72984524
O      6.31221517     5.99665878     6.89258165
O      6.29903923     5.97264438     2.16203261
O      6.26009964     3.73394209     5.40330531
O      8.14266051     4.83877973     8.51713811
O     -3.26639657     7.07715251     0.59999690
O     -1.34149458     8.19240017     3.75263056
O     -3.28536700     9.20625030     6.83958847
O     -3.26639657     9.28616878     2.16203261
O     -3.20916453     7.01436288     5.38183433
O     -1.38435970     8.18230148     8.54020629
O      0.55984662     7.07715251     0.59999690
O      2.46827887     8.18568909     3.73320920
O      0.53197758     9.30934818     6.94790790
O      0.55984662     9.28616878     2.16203261
O      0.58008272     7.09874900     5.39210998
O      2.49196370     8.22788056     8.53532399
O      4.38597502     7.07715251     0.59999690
O      6.30775508     8.15189388     3.74695744
O      4.40391476     9.32238944     6.91685909
O      4.38597502     9.28616878     2.16203261
O      4.36039522     7.08768437     5.38835400
O      6.29200303     8.14034529     8.55925278
O     -0.56601867     4.68972532     9.86214352
O      0.19861549     5.74504811     9.67859702
Ce     2.47285343     1.55451244     1.38101475
Ce     0.53684903     2.64915302     4.61401053
Ce     0.59431513     0.45719139     7.78954972
Ce     6.29909662     1.55451244     1.38101475
Ce     4.35993737     2.66251369     4.55947156
Ce     4.28116369     0.44071305     7.81997368
Ce    10.12522502     1.55451244     1.38101475
Ce     8.20163654     2.65563163     4.52778702
Ce     8.19795932     0.46814379     7.75938641
Ce     0.55978923     4.86803684     1.38101475
Ce    -1.33534686     5.95942722     4.57165786
Ce    -1.40966072     3.64070637     7.75597909
Ce     4.38603242     4.86803684     1.38101475
Ce     2.46163709     5.99209666     4.53916509
Ce     8.21216082     4.86803684     1.38101475
Ce     6.30340579     5.96796436     4.55179881
Ce     6.33136709     3.74506207     7.73883508
Ce    -1.35333237     8.18166064     1.38101475
Ce    -3.26094705     9.28530447     4.55289644
Ce    -3.25057596     7.04561952     7.73570203
Ce     2.47291082     8.18166064     1.38101475
Ce     0.55104068     9.30615570     4.55891563
Ce     0.54107046     7.21402020     7.76949260
Ce     6.29903923     8.18166064     1.38101475
Ce     4.39347001     9.29594047     4.54698573
Ce     4.43210283     7.19183975     7.73095445
V      3.03177823     4.19473652     7.45363628
