83
CIF: Rh-Rh-CeO2-O.cif | data_image0
Ce     1.93596140     1.11772783     0.89035214
Ce     0.00268207     2.22773568     4.02628777
Ce    -5.78382184    10.04558490     7.20963594
Ce     5.80789581     1.11772783     0.89035214
Ce     3.86298168     2.21288857     4.02109441
Ce    -1.91817085    10.04038875     7.21334763
Ce     9.67981860     1.11772783     0.89035214
Ce     7.74126064     2.23663753     4.05893495
Ce     1.97559077    10.01053672     7.19637067
Ce     0.00000000     4.47091133     0.89035214
Ce    -1.93285327     5.58588612     4.03678364
Ce    -1.87385797     3.34412441     7.19640568
Ce     3.87193441     4.47091133     0.89035214
Ce     1.94491219     5.58315841     4.04653745
Ce     1.86835604     3.31752044     7.20995889
Ce     7.74385721     4.47091133     0.89035214
Ce     5.82283920     5.60761981     4.02091503
Ce    -1.93596721     7.82410489     0.89035214
Ce    -3.86221001     8.93598002     4.04548898
Ce    -3.84667759     6.70140571     7.21240940
Ce     1.93596721     7.82410489     0.89035214
Ce     0.00478039     8.94058924     4.03750783
Ce     0.00684655     6.70276175     7.17261811
Ce     5.80789000     7.82410489     0.89035214
Ce     3.87969516     8.94388250     4.02670617
Ce     3.86872015     6.78202308     7.21026508
Rh     4.94450196     3.85161935     6.56686656
Rh     6.62163099     2.88409265     8.07210663
O      0.00000000     0.00000000     0.09999685
O      1.93969967     1.11370676     3.22807091
O      0.00866800     2.22813888     6.37164362
O      0.00000000     2.23545567     1.68070743
O     -5.79378061    10.05243297     4.84019297
O      1.90590165     1.09757234     7.99294995
O      3.87192279     0.00000000     0.09999685
O      5.81129223     1.11642237     3.23145571
O      3.83679648     2.18528824     6.43189752
O      3.87192279     2.23545567     1.68070743
O     -1.92856677    10.05500559     4.85116176
O      5.86980409     0.97770267     8.02132767
O      7.74385721     0.00000000     0.09999685
O      9.68150932     1.11715199     3.23065961
O      7.74655656     2.23434086     6.49134905
O      7.74385721     2.23545567     1.68070743
O      7.75488641     0.02048741     4.85514528
O      9.72665083     1.08994854     7.98291158
O     -1.93596140     3.35318350     0.09999685
O     -0.00153984     4.45894032     3.23527137
O     -1.89884574     5.59245066     6.37968783
O     -1.93596721     5.58864923     1.68070743
O      9.66823303     3.33338848     4.85464969
O      0.01138443     4.44542412     7.99764262
O      1.93596140     3.35318350     0.09999685
O      3.87541591     4.46833910     3.23198212
O      1.90190202     5.60853490     6.37607851
O      1.93595559     5.58864923     1.68070743
O      1.94199264     3.34497031     4.85265071
O      5.80789581     3.35318350     0.09999685
O      7.74667277     4.46827386     3.23104325
O      5.83392909     5.64385744     6.43174090
O      5.80789000     5.58864923     1.68070743
O      5.81930086     3.34655179     4.82325813
O      7.89636412     4.48871828     8.02073605
O     -3.87192860     6.70637706     0.09999685
O     -1.93656529     7.82457987     3.22998614
O     -3.84519611     8.92521393     6.39686050
O     -3.87192860     8.94183273     1.68070743
O     -3.86534294     6.70234832     4.85015089
O     -1.91832378     7.81461218     7.98636013
O     -0.00000581     6.70637706     0.09999685
O      1.94546092     7.83135427     3.23493629
O      0.01695805     8.90743261     6.38054879
O     -0.00000581     8.94183273     1.68070743
O     -0.00169048     6.70737665     4.81776159
O      3.87192860     6.70637706     0.09999685
O      5.81245421     7.82330607     3.22763123
O      3.88289960     8.93837727     6.37033381
O      3.87192860     8.94183273     1.68070743
O      3.88189321     6.70491078     4.85171295
O      5.80963530     7.86042223     7.99330805
O      1.96505575     7.82710259     7.99789557
O      3.75169725     4.54008161     7.97125746
O      6.00221055     3.24252523     9.65799319
