84
CIF: Fe-Fe-CeO2-Ov-CO2.cif | data_image0
Ce     1.93353370     1.11563544     0.87109026
Ce     0.01322168     2.22867329     4.02623763
Ce    -5.72772175    10.03558090     7.21085975
Ce     5.81235627     1.12048415     0.89218442
Ce     3.83120559     2.19437517     3.98636372
Ce    -1.89346106    10.02915482     7.31388570
Ce     9.66774981     1.12478964     0.89850580
Ce     7.77699330     2.21368209     4.06815249
Ce     2.03397816     9.98284146     7.23580380
Ce    -0.00465793     4.47576004     0.88352688
Ce    -1.93454187     5.57574533     4.05477530
Ce    -1.84917591     3.30622893     7.22098640
Ce     3.86676539     4.47340610     0.87963328
Ce     1.95478918     5.57664070     4.08145974
Ce     1.82167719     3.28959366     7.26962072
Ce     7.74387463     4.46530816     0.89232184
Ce     5.81427880     5.64303287     3.98019047
Ce    -1.93819163     7.82528186     0.87970199
Ce    -3.84342224     8.93958864     4.04849623
Ce    -3.79501088     6.74012696     7.22206502
Ce     1.92909066     7.82521144     0.88325204
Ce     0.01100716     8.94472039     4.07641286
Ce     0.02692719     6.69222645     7.23145657
Ce     5.80867407     7.82747485     0.87102155
Ce     3.89186147     8.93244167     4.03519877
Ce     3.88981194     6.80864676     7.27682825
Fe     5.14283297     3.74825303     6.49273426
Fe     6.78248743     2.80207813     8.10900962
O     11.61181902     0.00223322     0.09674454
O      1.93626113     1.10406821     3.19678625
O     -0.02135749     2.20791896     6.35715421
O     -0.00737602     2.24265831     1.68670815
O     -5.76665005    10.04218903     4.82856384
O      1.85438071     1.02682080     8.03385440
O     -1.93499729    10.05852443     0.09479774
O      5.82895125     1.14026860     3.24599976
O      4.01718184     2.36332334     6.43523846
O      3.87217834     2.23390649     1.67871482
O      3.88597449     0.04570594     4.83218971
O      6.14453534     1.13516007     8.32972891
O      7.74048282     0.01097498     0.10059234
O      9.68286844     1.11459362     3.23117126
O      7.76699387     2.21950641     6.51381031
O      7.73910054     2.23794038     1.71361981
O      7.78231006     0.01976486     4.85090711
O      9.75732594     1.07791293     8.02280282
O      9.66841191     3.35052778     0.10059234
O      0.00318274     4.47643677     3.24219708
O     -1.99278840     5.53869323     6.39413489
O     -1.93497986     5.58591303     1.69119725
O      9.66891992     3.32515203     4.83833276
O     -0.09266905     4.50253844     8.04512583
O      1.93135574     3.35110117     0.09452290
O      3.87785955     4.46910095     3.21062980
O      1.98677898     5.56862804     6.45083920
O      1.92632611     5.59379972     1.66462914
O      1.95401759     3.31239629     4.80904419
O      4.30817800     4.24034197     8.27073179
O      5.81266989     3.35046742     0.10466917
O      7.72780509     4.45330893     3.24300524
O      5.82136915     5.40918047     6.42354000
O      5.80918516     5.58916226     1.67805062
O      5.76286968     3.37892372     4.85002546
O      7.87681414     4.22586747     8.28415811
O     -3.87069152     6.70604509     0.09498097
O     -1.92731936     7.81465694     3.25183236
O     -3.80259787     8.88053512     6.36613984
O     -3.87555853     8.94391506     1.67486702
O      7.71008182     6.68528016     4.85778266
O     -1.90197445     7.68583310     8.04082317
O     -0.00903127     6.71144708     0.08950703
O      1.93408323     7.81490824     3.25298914
O      0.07472401     8.94632581     6.40619524
O      0.00269486     8.94208422     1.69078498
O      0.00083313     6.68361771     4.88531463
O      1.89277162     7.87024227     8.08352837
O      3.87118519     6.71122577     0.09477484
O      5.82566428     7.83064037     3.19882008
O      3.92328727     8.95277081     6.39281626
O      3.86179383     8.94423696     1.68659363
O      3.92430368     6.70845470     4.81660598
O      5.99744903     7.80307717     7.99996943
O      5.23816088     3.70800464    10.27805377
C      5.23993059     3.70049806     9.06768778
