83
CIF: Ge-CeO2-Ov+CO2.cif | data_image0
O      0.55978923     0.45000431     0.59999690
O      2.47474148     1.61321062     3.77610973
O      0.38606706     2.49317666     6.84844459
O      0.55978923     2.65902057     2.16203261
O      0.55665076     0.39224370     5.34101177
O      2.46680551     1.91501537     8.37463310
O      4.38603242     0.45000431     0.59999690
O      6.28788650     1.56111716     3.74144886
O      4.61958106     2.67371370     6.93140482
O      4.38603242     2.65902057     2.16203261
O      4.38330787     0.46088104     5.38422492
O      6.33727321     1.52457617     8.65094769
O      8.21216082     0.45000431     0.59999690
O     10.13670714     1.55031595     3.71848323
O      8.23345470     2.61224764     6.94806826
O      8.21216082     2.65902057     2.16203261
O      8.22489376     0.45176911     5.34216967
O     10.13125745     1.35456074     8.69224924
O     -1.35327498     3.76352871     0.59999690
O      0.61739217     4.83629227     3.77820639
O     -1.28317283     6.00254112     7.04659140
O     -1.35333237     5.97264438     2.16203261
O     -1.37234253     3.78992621     5.33296694
O      1.04582065     4.58035229     8.43704792
O      2.47296821     3.76352871     0.59999690
O      4.32682447     4.81510022     3.81091137
O      2.45374207     6.21933735     6.83337370
O      2.47291082     5.97264438     2.16203261
O      2.41737351     3.69660409     5.75063153
O      4.19492274     4.78241406     9.56075942
O      6.29909662     3.76352871     0.59999690
O      8.22055238     4.89882811     3.72726929
O      6.21698696     5.85492671     7.02314558
O      6.29903923     5.97264438     2.16203261
O      6.38583877     3.76789438     5.32981897
O      8.13069757     4.91552834     8.65933683
O     -3.26639657     7.07715251     0.59999690
O     -1.38321840     8.18799995     3.74425197
O     -3.24941767     9.35632998     6.97736835
O     -3.26639657     9.28616878     2.16203261
O     -3.27872645     7.06685089     5.46010167
O     -1.33386889     8.26670231     8.57544306
O      0.55984662     7.07715251     0.59999690
O      2.46303557     8.17084203     3.74313009
O      0.57147240     9.31866898     6.89905875
O      0.55984662     9.28616878     2.16203261
O      0.50052712     7.11034419     5.33944867
O      2.34823344     8.27069977     8.69054776
O      4.38597502     7.07715251     0.59999690
O      6.34268566     8.16866454     3.72185497
O      4.37397142     9.29154998     6.90811984
O      4.38597502     9.28616878     2.16203261
O      4.45064557     7.09549148     5.29749438
O      6.41820133     8.22912745     8.63073022
O      2.73415580     4.03039178    11.24456710
Ce     2.47285343     1.55451244     1.38101475
Ce     0.51376756     2.63488700     4.50686112
Ce     0.49713521     0.35555896     7.75920819
Ce     6.29909662     1.55451244     1.38101475
Ce     4.42071493     2.65846899     4.61039037
Ce     4.44895736     0.50320502     7.72392645
Ce    10.12522502     1.55451244     1.38101475
Ce     8.23957768     2.65571618     4.53598540
Ce     8.22722646     0.42499982     7.80568804
Ce     0.55978923     4.86803684     1.38101475
Ce    -1.35611943     5.96442389     4.58320051
Ce    -1.38396224     3.75222708     7.90180930
Ce     4.38603242     4.86803684     1.38101475
Ce     2.47469625     6.00786412     4.61421484
Ce     8.21216082     4.86803684     1.38101475
Ce     6.30185490     5.97046060     4.57800500
Ce     6.44816507     3.68150504     7.68939400
Ce    -1.35333237     8.18166064     1.38101475
Ce    -3.26943821     9.28954259     4.56767921
Ce    -3.24060290     7.09579825     7.80033793
Ce     2.47291082     8.18166064     1.38101475
Ce     0.56611142     9.30060921     4.53380394
Ce     0.61393353     7.14868667     7.70150759
Ce     6.29903923     8.18166064     1.38101475
Ce     4.38885892     9.26739494     4.53263978
Ce     4.35235740     7.15805512     7.76788513
Ge     1.87920786     3.35128879     7.46670889
C      3.43621416     4.39627340    10.38906271
