83
CIF: O2—Olatt+Osur.cif | data_image0
Ce     1.93038582     1.11050507     0.88387043
Ce    -0.01502721     2.23413658     4.03477164
Ce    -5.80151900    10.05467345     7.22024620
Ce     5.81181033     1.12175166     0.90127712
Ce     3.84273024     2.21574681     4.00903662
Ce    -1.92443014    10.05181311     7.22320908
Ce     9.66901012     1.12377363     0.90450652
Ce     7.72236657     2.24782960     4.08529558
Ce     1.95306179    10.03854884     7.22601183
Ce    -0.00709724     4.47602159     0.89067279
Ce    -1.93876198     5.58646877     4.05536419
Ce    -1.90923260     3.35101596     7.22562989
Ce     3.86254305     4.47635356     0.87798423
Ce     1.94141220     5.58550836     4.05804579
Ce     1.85002260     3.29422036     7.21217575
Ce     7.74213807     4.46545905     0.90125422
Ce     5.81136686     5.62607979     4.00643785
Ce    -1.94645625     7.83004003     0.90010904
Ce    -3.86633534     8.93913538     4.06214859
Ce    -3.85881055     6.69588780     7.22540042
Ce     1.92815559     7.82745473     0.89060408
Ce     0.00070974     8.94561436     4.05551993
Ce     0.00670332     6.70373062     7.20681355
Ce     5.81127600     7.83258510     0.88371011
Ce     3.86545096     8.95602359     4.03508830
Ce     3.88215289     6.80529766     7.21009388
Rh     4.83639770     3.90839672     6.43364568
Pd     6.51021829     2.94580440     8.03247999
O     11.61334069     0.00154917     0.10141687
O      1.92650566     1.11253861     3.22810989
O     -0.00999288     2.23019333     6.39362848
O     -0.00785227     2.23805103     1.69392277
O     -5.80357182    10.05691980     4.85628594
O      1.89843276     1.10894351     8.00295659
O     -1.93899312    10.05733740     0.10496691
O      5.80397010     1.11132283     3.24233582
O      3.78921850     2.19587272     6.38937278
O      3.86763657     2.23577757     1.68132582
O     -1.93655341    10.04962267     4.85876578
O      5.80712534     1.00096915     8.06818504
O      7.73821774     0.00761509     0.10924988
O      9.67080616     1.12299497     3.24550173
O      7.74888411     2.23029361     6.53022768
O      7.74357843     2.23531483     1.71563532
O      7.74552656     0.03203704     4.87792883
O      9.71678797     1.09575052     8.01476900
O      9.67032270     3.35425987     0.10911246
O     -0.01366905     4.47173316     3.23877631
O     -1.91245398     5.58832842     6.40472943
O     -1.94403436     5.59119430     1.70564938
O      9.65197323     3.33595341     4.87766917
O      0.00184288     4.44434781     8.01179508
O      1.92738314     3.35244915     0.09928684
O      3.84427588     4.48831305     3.21326875
O      1.96099381     5.57382958     6.45685540
O      1.92862022     5.59252216     1.67404250
O      1.89939593     3.35730147     4.84671818
O      5.81155478     3.35101064     0.10766953
O      7.74558109     4.47788243     3.24235968
O      5.79705391     5.67346033     6.39156660
O      5.80528807     5.59217007     1.68114259
O      5.78649378     3.36410507     4.75421125
O      7.85655268     4.52962677     8.06937990
O     -3.87155109     6.71022987     0.10512724
O     -1.93239538     7.82132740     3.24875907
O     -3.85853631     8.93392266     6.41755646
O     -3.87509971     8.94378428     1.69355631
O     -3.86650990     6.71066375     4.85954242
O     -1.91762024     7.81291302     7.99547858
O     -0.01209783     6.71325780     0.10434852
O      1.92908896     7.83549770     3.23852326
O      0.01184011     8.92452435     6.40809384
O     -0.00628994     8.94736548     1.70514550
O      0.01649079     6.69806767     4.86873010
O      1.96035466     7.83579447     8.01061160
O      3.86815347     6.71410280     0.09951587
O      5.80811659     7.83470600     3.22742374
O      3.87177909     8.95196835     6.39380666
O      3.86556896     8.94715423     1.69389986
O      3.85225923     6.73578462     4.84511208
O      5.79864522     7.85801206     8.00120637
O      3.92224940     4.43976812     8.05134990
O      5.34473027     3.65753194     9.30752918
