83
CIF: Sc-Cr-CeO2-O.cif | data_image0
Ce     1.93038582     1.11050507     0.88387043
Ce    -0.01559659     2.23028768     4.07783304
Ce    -5.71301266    10.04084425     7.19655108
Ce     5.81181033     1.12175166     0.90127712
Ce     3.82946785     2.20247996     3.99641969
Ce    -1.84029346    10.03283396     7.38442835
Ce     9.66901012     1.12377363     0.90450652
Ce     7.74941634     2.23156726     3.97864242
Ce     1.97960160     9.82504147     7.36179591
Ce    -0.00709724     4.47602159     0.89067279
Ce    -1.95485583     5.57464070     4.08225347
Ce    -1.77700711     3.39576536     7.40656424
Ce     3.86254305     4.47635356     0.87798423
Ce     1.94169586     5.57882094     4.08676638
Ce     1.94218408     3.30189453     7.25675166
Ce     7.74213807     4.46545905     0.90125422
Ce     5.80709022     5.64947755     3.98880529
Ce    -1.94645625     7.83004003     0.90010904
Ce    -3.83656746     8.95071556     4.04710200
Ce    -3.77980345     6.81482671     7.22156636
Ce     1.92815559     7.82745473     0.89060408
Ce    -0.01042709     8.95313745     4.09288542
Ce     0.03673900     6.66240740     7.22961944
Ce     5.81127600     7.83258510     0.88371011
Ce     3.87997079     8.95142819     4.08165240
Ce     3.93964925     6.70165175     7.26522958
Cr     5.35406959     3.63927549     6.65307622
Sc     7.05619018     2.52904338     9.37519641
O     11.61334069     0.00154917     0.10141687
O      1.91409090     1.10961793     3.21359262
O     -0.02066161     2.20350686     6.41725206
O     -0.00785227     2.23805103     1.69392277
O     -5.78451347    10.05665516     4.85267279
O      1.86011881     1.02868742     8.03120435
O     -1.93899312    10.05733740     0.10496691
O      5.82350697     1.13866022     3.22819435
O      4.11538815     2.28819786     6.37132341
O      3.86763657     2.23577757     1.68132582
O      3.89091193     0.02645930     4.81941320
O      6.30877687     0.68959690     8.61509860
O      7.73821774     0.00761509     0.10924988
O      9.67284481     1.11699111     3.23131227
O      6.65338489     2.89713873     7.28733571
O      7.74357843     2.23531483     1.71563532
O      7.75665473     0.18659413     4.98064867
O      9.44200123     1.20702482     8.00336342
O      9.67032270     3.35425987     0.10911246
O     -0.04284879     4.43859403     3.28266923
O     -2.00098294     5.55420078     6.43584437
O     -1.94403436     5.59119430     1.70564938
O      9.51122307     3.26064199     4.96361056
O      0.04713691     4.53412091     8.07696823
O      1.92738314     3.35244915     0.09928684
O      3.85937118     4.47897162     3.20739570
O      1.94277716     5.58716899     6.35594231
O      1.92862022     5.59252216     1.67404250
O      1.95375203     3.29581058     4.82918358
O      5.81155478     3.35101064     0.10766953
O      7.72937362     4.46580054     3.22748578
O      5.94344016     5.39141189     6.38045410
O      5.80528807     5.59217007     1.68114259
O      5.73868071     3.40966819     4.82949423
O      8.41395709     4.01544283     8.81193437
O     -3.87155109     6.71022987     0.10512724
O     -1.92950738     7.81673859     3.25173644
O     -3.80878993     8.91602244     6.37402588
O     -3.87509971     8.94378428     1.69355631
O      7.73519453     6.71817876     4.84543375
O     -1.92055041     7.71319600     8.05766787
O     -0.01209783     6.71325780     0.10434852
O      1.93931647     7.86826357     3.30035671
O      0.05676660     8.88367445     6.39885365
O     -0.00628994     8.94736548     1.70514550
O     -0.03516399     6.67681864     4.85321662
O      1.91644351     7.71704881     8.10215216
O      3.86815347     6.71410280     0.09951587
O      5.81055314     7.85260723     3.21720666
O      3.93737580     8.94360575     6.43308701
O      3.86556896     8.94715423     1.69389986
O      3.93692818     6.70721965     4.82840843
O      5.99687796     7.83055727     7.99806169
O      4.16878448     4.31612065     7.76269737
O      5.78174889     3.22359602    10.46562905
