81
CIF: Ru-Y-CeO2-Ov.cif | data_image0
Ce     1.93596140     1.11772783     0.89035214
Ce    -0.00662813     2.24287021     4.03331899
Ce     0.01913478     0.00437612     7.20046094
Ce     5.80789581     1.11772783     0.89035214
Ce     3.87055538     2.24356307     4.02943536
Ce     3.82689278     0.01151616     7.21372216
Ce     9.67981860     1.11772783     0.89035214
Ce     7.77225272     2.21706481     4.02110181
Ce     2.03029661     9.99703468     7.20308098
Ce     0.00000000     4.47091133     0.89035214
Ce    -1.94934927     5.57189831     4.07647157
Ce     9.69997576     3.28153800     7.31009985
Ce     3.87193441     4.47091133     0.89035214
Ce     1.94871494     5.57731130     4.08511261
Ce     1.81938979     3.28827100     7.21435292
Ce     7.74385721     4.47091133     0.89035214
Ce     5.81260811     5.59481639     4.01494146
Ce    -1.93596721     7.82410489     0.89035214
Ce    -3.87042644     8.96734069     3.99246660
Ce    -3.86769307     6.88691606     7.15012901
Ce     1.93596721     7.82410489     0.89035214
Ce     0.00361181     8.95234704     4.06214639
Ce     0.00689789     6.70408840     7.26618716
Ce     5.80789000     7.82410489     0.89035214
Ce     3.88366984     8.93338284     4.00520359
Ce     3.90854115     6.83971887     7.19257168
Y      5.90485433     3.31541263     6.90024562
O      0.00000000     0.00000000     0.09999685
O      1.94200623     1.11929802     3.20743568
O     -0.00883942     2.19029314     6.41388207
O      0.00000000     2.23545567     1.68070743
O      0.01338647     0.00038768     4.81048224
O      1.96126261     0.96553796     8.05144310
O      3.87192279     0.00000000     0.09999685
O      5.81259709     1.09262644     3.23170220
O      3.99710064     2.30648932     6.55266314
O      3.87192279     2.23545567     1.68070743
O      3.86228552     0.06043179     4.85867224
O      5.94473004     0.97857566     8.51197156
O      7.74385721     0.00000000     0.09999685
O      9.68623268     1.11325039     3.21592358
O      7.67502244     2.16969434     6.37477879
O      7.74385721     2.23545567     1.68070743
O      1.96260635    10.02688444     4.81939964
O      9.71447833     0.93320946     8.05127750
O     -1.93596140     3.35318350     0.09999685
O      0.00203116     4.49787061     3.25419806
O     -2.14819274     5.58420004     6.50160991
O     -1.93596721     5.58864923     1.68070743
O     -1.93219912     3.35213334     4.82131471
O     -0.02515399     4.65183742     8.08443875
O      1.93596140     3.35318350     0.09999685
O      3.85672933     4.47695349     3.22990199
O      2.03922340     5.55616068     6.45657272
O      1.93595559     5.58864923     1.68070743
O      1.94216430     3.31551913     4.81538431
O      5.80789581     3.35318350     0.09999685
O      7.76523971     4.49224696     3.22921674
O      5.89027368     5.46922027     6.59020238
O      5.80789000     5.58864923     1.68070743
O      5.81890322     3.36484071     4.70505569
O      7.51065250     3.72311158     8.76976900
O     -3.87192860     6.70637706     0.09999685
O     -1.92319163     7.82453149     3.25850704
O     -3.83041912     8.96970793     6.32828119
O     -3.87192860     8.94183273     1.68070743
O      7.69041653     6.73949034     4.83550952
O     -1.95369296     7.89531066     8.01148961
O     -0.00000581     6.70637706     0.09999685
O      1.91558487     7.79685960     3.25236401
O     -0.01697572     9.07886018     6.43527646
O     -0.00000581     8.94183273     1.68070743
O     -0.02452612     6.69448613     4.95650106
O      3.87192860     6.70637706     0.09999685
O      5.81912789     7.83151282     3.19678780
O      3.90441585     8.94938098     6.34754139
O      3.87192860     8.94183273     1.68070743
O      3.93805745     6.70119639     4.80290051
O      5.95894756     7.93258271     8.03228088
O      1.86151018     7.89398203     8.03004353
Ru     6.55599266     2.38287484     9.52118098
