84
CIF: 6-OH+2H-H2O+H_is.cif | data_image0
Ce    -4.63318328     9.31507013     8.15918837
Ce     3.11912735     0.37879463     4.97355530
Ce     1.18513649     1.50637093     1.85489769
Ce    -0.84675512     9.39816459     8.16503493
Ce     7.00124646     0.37576456     5.06395171
Ce     5.06819541     1.50125483     1.89118509
Ce     3.21748147     9.39059896     8.18039064
Ce    10.87309549     0.35999972     4.96610833
Ce     8.91641029     1.49340654     1.88622062
Ce    -0.63991154     2.53979947     8.11855474
Ce     1.19191823     3.71412658     5.05711849
Ce    -0.75647065     4.83960900     1.88214352
Ce     3.11525034     2.53339816     8.16927445
Ce     5.05788911     3.73482380     5.08613894
Ce     3.11021733     4.84722097     1.89539222
Ce     7.04229895     2.63181226     8.28700799
Ce     8.94184701     3.73547832     5.06576246
Ce     6.98257786     4.84570978     1.90732023
Ce    -2.74869817     6.03539905     8.16240632
Ce    -0.76712236     7.09297461     4.98577232
Ce    -2.69452338     8.19872971     1.85345343
Ce     3.09744675     7.05976369     5.05813783
Ce     1.18622870     8.19914393     1.87546354
Ce     5.06256756     5.95902908     8.29883332
Ce     6.96087677     7.09360089     5.02220510
Ce     5.04167348     8.18490368     1.86178435
Cr     1.02307344     6.45217600     7.82928911
O     -4.62770163     9.31381723     5.77837883
O      1.18520761     1.41647964     9.04522912
O      3.12958577     0.38551107     2.65494336
O      1.17899504     1.48849714     4.18285018
O     -4.61673677     9.31193456     1.08329608
O      3.06884248     0.35738631     7.33637072
O     -0.77614944     9.36062052     5.81334970
O      4.94072768     1.37434757     9.02816866
O      7.00073307     0.36186104     2.69753214
O      5.09695733     1.50337152     4.22196012
O     -0.74401330     9.32213954     1.08855866
O      7.01189772     0.22331170     7.47371634
O      3.15956507     9.29097319     5.86135361
O      9.11914564     1.42891889     9.00740355
O     10.85721508     0.37421765     2.64072534
O      8.92771481     1.47580601     4.22491748
O      3.10690832     9.30480876     1.08128718
O     10.92549411     0.39229397     7.30954170
O     -0.75224068     2.59449603     5.79626666
O     -0.31694094     5.20218941     8.97900942
O      1.17779184     3.72990567     2.68148165
O     -0.75697368     4.86021511     4.22413247
O     -0.76371734     2.62304862     1.08737396
O      1.24538731     3.53774593     7.36816088
O      3.14445445     2.57349154     5.77665429
O      5.05085311     3.74398240     2.70906664
O      3.09232722     4.85821195     4.25719509
O      3.12075161     2.62482975     1.09526148
O      4.97546220     3.70531388     7.39901399
O      7.05348270     2.60335371     5.88628975
O      7.16509626     4.97542817     9.05166161
O      8.91638124     3.72393571     2.70882705
O      6.98846355     4.85459591     4.26701586
O      6.98579083     2.60950444     1.10386746
O      9.14707932     3.82500813     7.47372258
O     -2.68589685     6.00173177     5.85170249
O     -2.68289346     8.21876637     8.99111806
O     -0.74992416     7.08553163     2.66383809
O     -2.69104397     8.19533295     4.18481158
O     -2.69785497     5.95581051     1.09788734
O     -0.65498342     7.18622847     7.35315218
O      1.11361732     5.92138066     5.92746563
O      1.06179631     8.02992981     9.28914942
O      3.10324526     7.07526854     2.69492511
O      1.18070551     8.18484654     4.25451918
O      1.18028375     5.96125507     1.09092606
O      2.77941921     7.05755172     7.50987020
O      4.99996206     6.01805917     5.86047236
O      5.01471812     8.33339414     8.98832497
O      6.97780594     7.07427977     2.67302516
O      5.03422354     8.19602783     4.19133391
O      5.04233048     5.96236769     1.09186951
O      7.01547742     7.14478478     7.36708628
O      3.42888361     4.49430935     9.53925656
H     -0.05063822     5.27875535     9.91291469
H      2.96961105     4.64348680    10.38193692
H      1.04478413     7.76671313    10.22539190
