83
CIF: Pd-Cu-CeO2-Ov-O2.cif | data_image0
Ce     1.93038582     1.11050507     0.88387043
Ce    -0.01008338     2.24138380     4.04420606
Ce    -5.78549812    10.05424498     7.22302025
Ce     5.81181033     1.12175166     0.90127712
Ce     3.83336083     2.22560956     4.02314771
Ce    -1.92855072    10.04831685     7.20742491
Ce     9.66901012     1.12377363     0.90450652
Ce     7.71331748     2.25352139     4.08424108
Ce     1.96881275    10.03206346     7.25741382
Ce    -0.00709724     4.47602159     0.89067279
Ce    -1.94214921     5.58176966     4.05301326
Ce    -1.88276685     3.36316694     7.24240187
Ce     3.86254305     4.47635356     0.87798423
Ce     1.93919829     5.58075672     4.06334127
Ce     1.85543609     3.26822863     7.26295379
Ce     7.74213807     4.46545905     0.90125422
Ce     5.79378681     5.61926166     4.00376867
Ce    -1.94645625     7.83004003     0.90010904
Ce    -3.87747622     8.93982098     4.05334381
Ce     7.74737098     6.68662809     7.19416854
Ce     1.92815559     7.82745473     0.89060408
Ce     0.00194624     8.94812764     4.06354235
Ce    -0.01116044     6.70608802     7.22588015
Ce     5.81127600     7.83258510     0.88371011
Ce     3.86140494     8.97276022     4.01707721
Ce     3.88054453     6.86297443     7.15459095
Cu     4.95398957     3.83155740     6.46623718
Pd     6.62494807     2.88672249     8.08251249
O     11.61334069     0.00154917     0.10141687
O      1.92413689     1.10760292     3.22695606
O     -0.03104047     2.21132849     6.41108178
O     -0.00785227     2.23805103     1.69392277
O     -5.80613069    10.05949973     4.84874276
O      1.95350978     0.96100847     8.02965890
O     -1.93899312    10.05733740     0.10496691
O      5.80317488     1.11655499     3.24939510
O      3.86388833     2.24540910     6.36749655
O      3.86763657     2.23577757     1.68132582
O     -1.94376539    10.05875305     4.86081829
O      5.86619747     0.98930684     8.10010454
O      7.73821774     0.00761509     0.10924988
O      9.66229650     1.13138187     3.24296768
O      7.78804445     2.22013610     6.57352009
O      7.74357843     2.23531483     1.71563532
O      7.73956850     0.04471158     4.88590063
O      9.75311852     1.05812779     8.05364531
O      9.67032270     3.35425987     0.10911246
O     -0.02292321     4.48078905     3.23669263
O     -1.94441793     5.60728710     6.37480326
O     -1.94403436     5.59119430     1.70564938
O      9.64516464     3.33809148     4.88083978
O     -0.10089486     4.54899519     8.03730090
O      1.92738314     3.35244915     0.09928684
O      3.84537425     4.49374671     3.21634650
O      2.08896278     5.58408262     6.51655243
O      1.92862022     5.59252216     1.67404250
O      1.89245188     3.36529411     4.80927232
O      5.81155478     3.35101064     0.10766953
O      7.74085062     4.47213364     3.23911224
O      5.69412587     5.61239197     6.38993909
O      5.80528807     5.59217007     1.68114259
O      5.77610253     3.38556847     4.76584661
O      7.86379059     4.51452378     8.07009824
O     -3.87155109     6.71022987     0.10512724
O     -1.93131684     7.81541838     3.26497959
O     -3.85836180     8.89707944     6.38099484
O     -3.87509971     8.94378428     1.69355631
O      7.70702684     6.68650346     4.85784391
O     -1.93203720     7.80388813     7.99228195
O     -0.01209783     6.71325780     0.10434852
O      1.91929264     7.84268599     3.23727381
O      0.00507461     8.92576603     6.41219029
O     -0.00628994     8.94736548     1.70514550
O      0.04473955     6.67951312     4.89749601
O      1.96811262     7.86114027     8.03094035
O      3.86815347     6.71410280     0.09951587
O      5.80546450     7.83978517     3.21520037
O      3.87470425     8.95825508     6.38242934
O      3.86556896     8.94715423     1.69389986
O      3.85280227     6.76505853     4.81372273
O      5.80626125     7.82633764     7.98382500
O      4.25114412     4.25363836     8.36634010
O      5.21570928     3.71942500     9.20467258
