90
CIF: H+OH.cif | data_image0
O      0.00261135     0.00382715     0.19995339
O      1.90333161     1.10720959     3.33730001
O      0.28045851     2.33991280     6.57678540
O      0.00261135     2.21285656     1.76196664
O     -0.03203623     0.05769422     5.00335771
O      1.86571701     1.41558770     8.45722938
O      3.82876252     0.00382715     0.19995339
O      5.74810626     1.10789176     3.32607664
O      3.52808735     2.36644285     6.58659049
O      3.82876252     2.21285656     1.76196664
O      3.82841713     0.06001808     4.96977719
O      5.86664701     1.03416528     8.24600823
O      7.65492518     0.00382715     0.19995339
O      9.56384909     1.10149859     3.32761132
O      7.70406632     2.17427766     6.52653198
O      7.65492518     2.21285656     1.76196664
O      1.91357940     9.93661204     4.95433991
O      9.65460796     0.97365374     8.21394162
O     -1.91046424     3.31737126     0.19995339
O      0.00763683     4.42849520     3.32702998
O     -1.78671370     5.53202007     6.56202154
O     -1.91046998     5.52641062     1.76196664
O     -1.85795809     3.29136546     4.96988199
O      0.36669440     4.18191071     8.47590741
O      1.91568694     3.31737126     0.19995339
O      3.83331243     4.41474838     3.33633382
O      1.90200264     5.20188718     6.59897763
O      1.91568120     5.52641062     1.76196664
O      1.90501558     3.32321485     4.93704279
O      3.49406078     4.10436808     8.50031622
O      5.74184959     3.31737126     0.19995339
O      7.65712283     4.43015114     3.38374615
O      5.72444184     5.54632258     6.55873110
O      5.74184385     5.52641062     1.76196664
O      5.70664875     3.27162855     4.98213793
O      7.68452042     4.56229318     8.28455835
O     -3.82354556     6.63092532     0.19995339
O     -1.90908651     7.73229931     3.37278215
O     -3.88196859     8.90285422     6.58016068
O     -3.82354556     8.83995473     1.76196664
O     -3.79031103     6.63476674     5.03059218
O     -1.88114438     7.64749466     8.24146740
O      0.00260561     6.63092532     0.19995339
O      1.91074665     7.74324329     3.31590435
O     -0.00346862     8.82492531     6.47991815
O      0.00260561     8.83995473     1.76196664
O      0.07791594     6.62227520     4.98584921
O      1.75984368     7.74274327     8.16570382
O      3.82876826     6.63092532     0.19995339
O      5.75261990     7.73694433     3.38875014
O      3.82049607     8.83123849     6.51958606
O      3.82876826     8.83995473     1.76196664
O      3.76130734     6.61211117     4.96285946
O      5.80361001     7.80680887     8.28379897
Ce     1.91568694     1.10834185     0.98097142
Ce    -0.02231678     2.20973547     4.11273900
Ce     5.67127350     9.85731800     7.36211908
Ce     5.74184959     1.10834185     0.98097142
Ce     3.84573030     2.20141196     4.12201465
Ce    -1.86572830     9.93429627     7.45186737
Ce     9.56800076     1.10834185     0.98097142
Ce     7.66263689     2.21646758     4.17607571
Ce     7.63748448     0.00639632     7.34205861
Ce     0.00261135     4.42188597     0.98097142
Ce    -1.89543252     5.51572588     4.18676911
Ce     9.56028013     3.29435810     7.45573115
Ce     3.82877400     4.42188597     0.98097142
Ce     1.93018196     5.54298234     4.11062198
Ce     7.65492518     4.42188597     0.98097142
Ce     5.73651988     5.52142286     4.21637473
Ce     5.82871845     3.29389166     7.42116733
Ce    -1.91046998     7.73544003     0.98097142
Ce    -3.81822765     8.85402210     4.19855466
Ce    -3.81756284     6.62128860     7.40501671
Ce     1.91569268     7.73544003     0.98097142
Ce    -0.00190443     8.85352264     4.14250460
Ce    -0.02710368     6.73319385     7.32528886
Ce     5.74184385     7.73544003     0.98097142
Ce     3.81925143     8.83012963     4.15401160
Ce     3.82104536     6.66451412     7.43674482
Nb     1.89866532     3.30115902     6.99632730
C      3.36361334     6.59127943    10.82092972
C      2.88873429     5.44878113    10.37194890
C      3.40049107     4.14366720     9.91206794
H      2.73114001     7.47451166    10.94063799
H      4.42923413     6.70946058    11.07627743
H      0.72249127     4.42225383     9.35168808
H      1.64063541     1.64425966     9.37567474
H      2.78245064     3.30876712    10.30124864
H      4.40954265     3.99602509    10.37473972
