85
CIF: W-Cu-CeO2-O-CO.cif | data_image0
Ce     1.93038582     1.11050507     0.88387043
Ce    -0.00177536     2.23475248     4.03049322
Ce     0.00597959     0.00801532     7.20794101
Ce     5.81181033     1.12175166     0.90127712
Ce     3.87211061     2.23861797     4.02140608
Ce    -2.08624549     9.99860116     7.12209251
Ce     9.66901012     1.12377363     0.90450652
Ce     7.71694112     2.23800778     4.01173028
Ce     2.00552735     9.95598074     7.38199262
Ce    -0.00709724     4.47602159     0.89067279
Ce    -1.95334806     5.58331468     4.07969081
Ce    -1.71765900     3.35228923     7.28354384
Ce     3.86254305     4.47635356     0.87798423
Ce     1.95700603     5.58251098     4.10185720
Ce     1.94096134     3.27326537     7.22287427
Ce     7.74213807     4.46545905     0.90125422
Ce     5.80565687     5.59201988     4.02932383
Ce    -1.94645625     7.83004003     0.90010904
Ce    -3.89303036     8.94451306     3.97965747
Ce    -3.91103308     6.82743406     7.16363092
Ce     1.92815559     7.82745473     0.89060408
Ce     0.00319053     8.96333041     4.08911355
Ce     0.01326185     6.71631194     7.27688770
Ce     5.81127600     7.83258510     0.88371011
Ce     3.85648709     8.95881504     4.06064428
Ce     3.91724837     6.78207067     7.24083547
Cu     5.06476952     3.77849679     6.48739052
W      6.76923758     2.94763826     8.55747640
O     11.61334069     0.00154917     0.10141687
O      1.91585233     1.10994494     3.20411967
O      0.05610083     2.24648915     6.38257483
O     -0.00785227     2.23805103     1.69392277
O     11.59896626     0.01533630     4.83528121
O      1.92463195     0.94743513     8.04157397
O     -1.93899312    10.05733740     0.10496691
O      5.79983404     1.06520953     3.22532961
O      3.98528436     2.17063148     6.47464657
O      3.86763657     2.23577757     1.68132582
O     -1.97953543    10.05292631     4.81459322
O      6.72564674     1.31655523     9.29981010
O      7.73821774     0.00761509     0.10924988
O      9.67512984     1.12699807     3.22275439
O      7.35273190     2.47677572     6.87009733
O      7.74357843     2.23531483     1.71563532
O      7.75371709     0.09472968     4.91171560
O      9.81941190     1.22551329     8.00507056
O      9.67032270     3.35425987     0.10911246
O     -0.03336044     4.48346937     3.28531504
O     -2.07942148     5.51060284     6.51480279
O     -1.94403436     5.59119430     1.70564938
O      9.60526060     3.27576729     4.95643592
O     -0.03667678     4.52149575     8.08137056
O      1.92738314     3.35244915     0.09928684
O      3.83996999     4.50121625     3.21668268
O      1.99797371     5.54194788     6.45051153
O      1.92862022     5.59252216     1.67404250
O      1.96062728     3.32291019     4.79913778
O      5.81155478     3.35101064     0.10766953
O      7.79485021     4.49683063     3.23042768
O      5.90151467     5.52819865     6.47344648
O      5.80528807     5.59217007     1.68114259
O      5.83215849     3.33990094     4.59377751
O      8.16645242     4.00553507     9.01920337
O     -3.87155109     6.71022987     0.10512724
O     -1.92114060     7.80898907     3.25168949
O     -3.89730619     8.93651361     6.31455752
O     -3.87509971     8.94378428     1.69355631
O     -3.87633313     6.72663369     4.83631443
O     -2.01817222     7.84089915     7.97903751
O     -0.01209783     6.71325780     0.10434852
O      1.90905951     7.83971644     3.28412461
O     -0.07790849     9.09536295     6.51872405
O     -0.00628994     8.94736548     1.70514550
O     -0.02831430     6.72534592     4.97183139
O      1.79240279     7.72167322     8.12318967
O      3.86815347     6.71410280     0.09951587
O      5.80380013     7.84035109     3.21510388
O      3.91512849     8.94639901     6.44461105
O      3.86556896     8.94715423     1.69389986
O      3.90054803     6.72625724     4.82364589
O      5.95853852     7.91747814     8.06554909
O      5.17990492     3.77557346     8.72882511
O      6.33201123     3.73997086    11.76018069
O      6.10956315     3.50219034    14.08994592
C      6.22203411     3.61758634    12.92536009
