82
CIF: W-Cu-CeO2.cif | data_image0
Ce     1.93038582     1.11050507     0.88387043
Ce    -0.00097599     2.23875795     4.04929265
Ce    -5.80218530    10.05609435     7.21852210
Ce     5.81181033     1.12175166     0.90127712
Ce     3.89447613     2.24778684     4.02698289
Ce    -2.05637772    10.02792218     7.18742936
Ce     9.66901012     1.12377363     0.90450652
Ce     7.73070914     2.24283881     4.01682497
Ce     2.06894461     9.87265552     7.33372049
Ce    -0.00709724     4.47602159     0.89067279
Ce    -1.95858857     5.58329526     4.08948495
Ce    -1.70781811     3.33104253     7.33380900
Ce     3.86254305     4.47635356     0.87798423
Ce     1.93835496     5.58705126     4.03753868
Ce     1.93798938     3.39003958     7.21949981
Ce     7.74213807     4.46545905     0.90125422
Ce     5.80833291     5.56275297     4.02693756
Ce    -1.94645625     7.83004003     0.90010904
Ce    -3.89254378     8.95365105     4.00226208
Ce    -3.90488370     6.82645668     7.18733031
Ce     1.92815559     7.82745473     0.89060408
Ce    -0.00682697     8.96378385     4.08938282
Ce    -0.01313879     6.71374122     7.23475057
Ce     5.81127600     7.83258510     0.88371011
Ce     3.86845626     8.94075456     4.04933581
Ce     3.84085218     6.68589850     7.21951185
Cu     4.92793583     3.86118536     6.83043236
W      6.69186882     2.84227986     8.11563548
O     11.61334069     0.00154917     0.10141687
O      1.92519381     1.11883616     3.21849287
O      0.11109468     2.23330291     6.39052996
O     -0.00785227     2.23805103     1.69392277
O     11.60150318     0.00806644     4.84142279
O      1.96496859     1.07250797     8.01605795
O     -1.93899312    10.05733740     0.10496691
O      5.80627266     1.07242195     3.23182825
O      4.01014164     2.21153857     6.51784040
O      3.86763657     2.23577757     1.68132582
O      3.83919870     0.01917659     4.86337869
O      6.17650967     1.32322125     8.90203804
O      7.73821774     0.00761509     0.10924988
O      9.67868499     1.11819744     3.23086551
O      7.56781341     2.33681557     6.62305713
O      7.74357843     2.23531483     1.71563532
O      7.75907641     0.04819718     4.89176726
O      9.86074627     1.01301119     8.06051066
O      9.67032270     3.35425987     0.10911246
O     -0.00972773     4.48122299     3.27171806
O     -2.05602028     5.59695174     6.53150207
O     -1.94403436     5.59119430     1.70564938
O      9.64541276     3.31563329     4.89178887
O      0.13989572     4.56428541     8.06417769
O      1.92738314     3.35244915     0.09928684
O      3.83642825     4.49135189     3.19678820
O      1.88124895     5.62001343     6.29623688
O      1.92862022     5.59252216     1.67404250
O      1.99987267     3.33522986     4.86017702
O      3.53449770     4.66553263     8.12469200
O      5.81155478     3.35101064     0.10766953
O      7.78200347     4.49470912     3.23172452
O      5.89757546     5.48077357     6.51782992
O      5.80528807     5.59217007     1.68114259
O      5.81292430     3.35013911     4.61580332
O      7.74996757     4.04722595     8.90273994
O     -3.87155109     6.71022987     0.10512724
O     -1.95079716     7.83260888     3.25164373
O     -3.88174778     8.94740406     6.36827129
O     -3.87509971     8.94378428     1.69355631
O      7.71072335     6.72493877     4.86330985
O     -2.02555120     7.87569692     8.04058250
O     -0.01209783     6.71325780     0.10434852
O      1.92202355     7.82704899     3.27159414
O     -0.06732776     9.04129756     6.53136100
O     -0.00628994     8.94736548     1.70514550
O     -0.07955043     6.75207372     4.91584617
O      1.92492144     7.65590830     8.06413608
O      3.86815347     6.71410280     0.09951587
O      5.80148340     7.83272967     3.21827868
O      3.92923706     8.84638116     6.39053406
O      3.86556896     8.94715423     1.69389986
O      3.91931721     6.65980583     4.86015241
O      5.86143094     7.82141821     8.01610657
