84
CIF: CO+Olatt—CO2.cif | data_image0
Ce     1.93038582     1.11050507     0.88387043
Ce    -0.00763415     2.23052794     4.04382874
Ce    -5.76508158    10.03938143     7.22680337
Ce     5.81181033     1.12175166     0.90127712
Ce     3.83823014     2.20926452     3.97889824
Ce    -1.90858576    10.04761532     7.20375691
Ce     9.66901012     1.12377363     0.90450652
Ce     7.74361560     2.23804142     4.06987297
Ce     1.98953503     9.99615101     7.25408487
Ce    -0.00709724     4.47602159     0.89067279
Ce    -1.93263075     5.58036405     4.07123694
Ce    -1.85412034     3.32447338     7.27824270
Ce     3.86254305     4.47635356     0.87798423
Ce     1.95090119     5.58641188     4.07004340
Ce     1.89523266     3.30238978     7.21575788
Ce     7.74213807     4.46545905     0.90125422
Ce     5.81223058     5.63711099     4.00499114
Ce    -1.94645625     7.83004003     0.90010904
Ce    -3.85678285     8.93678423     4.05364097
Ce    -3.83521935     6.71670404     7.23511185
Ce     1.92815559     7.82745473     0.89060408
Ce     0.00949572     8.94410900     4.05694236
Ce     0.01775960     6.70340651     7.23209372
Ce     5.81127600     7.83258510     0.88371011
Ce     3.87515382     8.93434656     4.06698986
Ce     3.90766391     6.74574771     7.32582829
Sc     5.29096044     3.64773444     6.65467681
Pt     6.70300092     2.83199200     8.42644170
O     11.61334069     0.00154917     0.10141687
O      1.92432597     1.10663292     3.21530765
O      0.02973758     2.22058997     6.41434479
O     -0.00785227     2.23805103     1.69392277
O     -5.79056324    10.05376635     4.86013710
O      1.98788222     1.11430525     7.99518553
O     -1.93899312    10.05733740     0.10496691
O      5.81973602     1.10312742     3.23597705
O      3.84389209     2.25417089     6.32359475
O      3.86763657     2.23577757     1.68132582
O      3.88149591     0.00462443     4.83779964
O      5.85986979     0.96321189     8.22467407
O      7.73821774     0.00761509     0.10924988
O      9.67482504     1.12074036     3.24744035
O      7.74948121     2.23489323     6.63858067
O      7.74357843     2.23531483     1.71563532
O      7.76335005     0.04231327     4.89366624
O      9.77898396     1.08677000     8.06109578
O      9.67032270     3.35425987     0.10911246
O     -0.01601340     4.47251516     3.24704184
O     -1.92943497     5.56396988     6.44483687
O     -1.94403436     5.59119430     1.70564938
O      9.65280875     3.31627279     4.90096355
O      0.02699491     4.42983786     8.04190056
O      1.92738314     3.35244915     0.09928684
O      3.84479600     4.48134232     3.21520747
O      1.97872794     5.49052596     6.46547929
O      1.92862022     5.59252216     1.67404250
O      1.91227005     3.33751880     4.83138208
O      4.03353003     4.26897089     8.20769505
O      5.81155478     3.35101064     0.10766953
O      7.76233076     4.47501913     3.24768351
O      5.83108832     5.56523200     6.35644318
O      5.80528807     5.59217007     1.68114259
O      5.77844212     3.36028301     4.70801596
O      7.93573258     4.47317839     8.27476342
O     -3.87155109     6.71022987     0.10512724
O     -1.92170328     7.81442996     3.25472121
O     -3.81048277     8.94834256     6.39002843
O     -3.87509971     8.94378428     1.69355631
O     -3.85471457     6.71152050     4.86557032
O     -1.90539844     7.82781268     7.99252359
O     -0.01209783     6.71325780     0.10434852
O      1.92453813     7.83519903     3.24594625
O     -0.00049254     8.97077858     6.39601743
O     -0.00628994     8.94736548     1.70514550
O      0.02351635     6.69424027     4.90295930
O      1.82846821     7.85906100     8.04206777
O      3.86815347     6.71410280     0.09951587
O      5.81933679     7.83704604     3.22768178
O      3.90580789     8.96973438     6.43479594
O      3.86556896     8.94715423     1.69389986
O      3.86686401     6.71995953     4.81832922
O      5.99599168     7.86654034     8.04331973
O      4.84156659     3.87550427    10.55086179
C      5.24618167     3.63510619     9.47347820
