83
CIF: Pt-Sc-CeO2-O.cif | data_image0
Ce     1.93038582     1.11050507     0.88387043
Ce    -0.00913598     2.23123728     4.04167601
Ce    -5.76971207    10.03816846     7.19223657
Ce     5.81181033     1.12175166     0.90127712
Ce     3.84806933     2.22107212     4.00613367
Ce    -1.92192542    10.04822160     7.22768934
Ce     9.66901012     1.12377363     0.90450652
Ce     7.71440783     2.25223950     4.10420934
Ce     1.98817033    10.00113351     7.24150991
Ce    -0.00709724     4.47602159     0.89067279
Ce    -1.94736316     5.58972500     4.05930271
Ce    -1.85874327     3.33785896     7.24166376
Ce     3.86254305     4.47635356     0.87798423
Ce     1.92859607     5.59311677     4.03268932
Ce     1.93674331     3.34827844     7.17550357
Ce     7.74213807     4.46545905     0.90125422
Ce     5.80804326     5.61663052     4.00615776
Ce    -1.94645625     7.83004003     0.90010904
Ce    -3.86350091     8.93736602     4.05027265
Ce    -3.85467561     6.70034315     7.22800063
Ce     1.92815559     7.82745473     0.89060408
Ce    -0.00639527     8.95146238     4.05904934
Ce     0.00338724     6.70478006     7.19663271
Ce     5.81127600     7.83258510     0.88371011
Ce     3.87099284     8.95244636     4.04163499
Ce     3.87677750     6.70903295     7.17549382
Sc     5.40413521     3.58656746     6.77687352
Pt     7.00768126     2.66095290     8.57854726
O     11.61334069     0.00154917     0.10141687
O      1.92492816     1.11196612     3.22363375
O      0.05048167     2.23056116     6.38130559
O     -0.00785227     2.23805103     1.69392277
O     -5.79703579    10.05359337     4.85271453
O      1.98497659     1.10143393     7.96915922
O     -1.93899312    10.05733740     0.10496691
O      5.80859626     1.11222249     3.25087184
O      3.93234176     2.20527023     6.38480086
O      3.86763657     2.23577757     1.68132582
O     -1.94301321    10.05188000     4.85828270
O      5.98331150     0.90632168     8.26996255
O      7.73821774     0.00761509     0.10924988
O      9.67352144     1.12173248     3.24996571
O      7.54996967     2.34787659     6.53380353
O      7.74357843     2.23531483     1.71563532
O      7.75837646     0.04083092     4.89386655
O      9.76850431     1.06728336     7.92100501
O      9.67032270     3.35425987     0.10911246
O     -0.01308543     4.46676838     3.24837382
O     -1.95098508     5.58215900     6.41686849
O     -1.94403436     5.59119430     1.70564938
O      9.65199467     3.32064920     4.89407066
O      0.04202219     4.46635911     7.97973505
O      1.92738314     3.35244915     0.09928684
O      3.83612033     4.49195886     3.19577175
O      1.89306883     5.61400385     6.34625291
O      1.92862022     5.59252216     1.67404250
O      1.95337520     3.34762994     4.84217852
O      5.81155478     3.35101064     0.10766953
O      7.74848562     4.47345963     3.25092912
O      5.86417148     5.55171600     6.38475490
O      5.80528807     5.59217007     1.68114259
O      5.72843833     3.39907306     4.73669615
O      8.01469044     4.42556350     8.26953764
O     -3.87155109     6.71022987     0.10512724
O     -1.94284632     7.82775058     3.23745244
O     -3.84246240     8.92533587     6.41180910
O     -3.87509971     8.94378428     1.69355631
O     -3.86932457     6.71663076     4.85889507
O     -1.93269918     7.82263610     7.98814423
O     -0.01209783     6.71325780     0.10434852
O      1.93330702     7.83751379     3.24808220
O     -0.00163722     8.95853355     6.41673757
O     -0.00628994     8.94736548     1.70514550
O     -0.03050402     6.72411138     4.85097512
O      1.96155689     7.79094155     7.97957766
O      3.86815347     6.71410280     0.09951587
O      5.80744538     7.83657155     3.22326330
O      3.90183713     8.90162293     6.38129633
O      3.86556896     8.94715423     1.69389986
O      3.88574362     6.69497053     4.84246523
O      5.84636905     7.79021982     7.96882802
O      3.82512481     4.49841345     7.79596080
O      6.56796989     2.91534625    10.32290093
