83
CIF: Ni-Mo-CeO2-O.cif | data_image0
Ce     1.93596140     1.11772783     0.89035214
Ce    -0.01924465     2.23357579     4.04916333
Ce     5.79989036    10.05648069     7.18213419
Ce     5.80789581     1.11772783     0.89035214
Ce     3.87499866     2.21490919     3.97354304
Ce    -2.06722566     9.92189857     7.13335463
Ce     9.67981860     1.11772783     0.89035214
Ce     7.73538730     2.25512014     4.05888161
Ce     2.07726394    10.00644675     7.24894885
Ce     0.00000000     4.47091133     0.89035214
Ce    -1.94326191     5.59006969     4.07970463
Ce    -1.89504331     3.39186631     7.35126720
Ce     3.87193441     4.47091133     0.89035214
Ce     1.96195996     5.59387283     4.05645807
Ce     1.84446794     3.38024186     7.18985151
Ce     7.74385721     4.47091133     0.89035214
Ce     5.81637294     5.58929156     4.00024807
Ce    -1.93596721     7.82410489     0.89035214
Ce    -3.88812653     8.92136300     3.99904456
Ce    -3.78885126     6.74555027     7.29733283
Ce     1.93596721     7.82410489     0.89035214
Ce     0.00980692     8.95929953     4.06729507
Ce     0.04637449     6.72536445     7.23011623
Ce     5.80789000     7.82410489     0.89035214
Ce     3.87838797     8.94393510     4.04517289
Ce     3.88393213     6.68261497     7.27884801
Mo     5.64454277     3.37421908     6.96098765
O      0.00000000     0.00000000     0.09999685
O      1.92350285     1.12052130     3.20463526
O      0.03856061     2.25695404     6.36178406
O      0.00000000     2.23545567     1.68070743
O      0.01066561     0.00401139     4.82931010
O      2.01215596     1.13543103     7.88532432
O      3.87192279     0.00000000     0.09999685
O      5.80662994     1.11465942     3.23164837
O      4.44341744     2.00896810     6.48283478
O      3.87192279     2.23545567     1.68070743
O      3.82054631     0.00144498     4.80782335
O      6.08246712     3.00411066     8.65408902
O      7.74385721     0.00000000     0.09999685
O      9.68411875     1.12033569     3.23132362
O      7.35583015     2.44071939     6.51145343
O      7.74385721     2.23545567     1.68070743
O      7.75848291     0.05133782     4.84667238
O      9.83724022     1.05128925     8.03755635
O     -1.93596140     3.35318350     0.09999685
O      0.01797926     4.46819083     3.29148615
O     -1.90924463     5.66211621     6.38691545
O     -1.93596721     5.58864923     1.68070743
O      9.61255418     3.32391430     4.86564099
O      0.14291197     4.51724241     8.07037008
O      1.93596140     3.35318350     0.09999685
O      3.84838406     4.46856367     3.18899041
O      1.86579709     5.56654684     6.33376414
O      1.93595559     5.58864923     1.68070743
O      2.05656173     3.27668930     4.90249641
O      5.80789581     3.35318350     0.09999685
O      7.74282329     4.47297813     3.22809400
O      6.09424690     5.16657080     6.56966572
O      5.80789000     5.58864923     1.68070743
O      5.71512226     3.39701362     4.76605528
O      8.22320415     4.92406700     8.62269154
O     -3.87192860     6.70637706     0.09999685
O     -1.94401154     7.81437089     3.24198952
O     -3.85468403     8.92385264     6.34723542
O     -3.87192860     8.94183273     1.68070743
O      7.68462371     6.68857526     4.86468959
O     -1.95076424     7.88185749     8.06093416
O     -0.00000581     6.70637706     0.09999685
O      1.95883481     7.82438734     3.26039879
O     -0.07077478     9.07793483     6.48184352
O     -0.00000581     8.94183273     1.68070743
O      0.00829820     6.78628948     4.85884351
O      3.87192860     6.70637706     0.09999685
O      5.80453227     7.82926626     3.20726674
O      3.92255069     8.92882157     6.36152437
O      3.87192860     8.94183273     1.68070743
O      3.96946899     6.63995116     4.86250402
O      5.95248445     7.81687499     7.96375957
O      1.85156556     7.74606265     8.04586372
O      3.93923698     4.24496388     7.58025637
O      6.30354304     4.50084572    11.25884891
Ni     6.98883080     4.31777726     9.77599322
