81
CIF: Ru-Fe-CeO2-Ov.cif | data_image0
Ce     1.93038582     1.11050507     0.88387043
Ce    -0.00422937     2.23243023     4.04298517
Ce    -5.78474399    10.02705355     7.23637535
Ce     5.81181033     1.12175166     0.90127712
Ce     3.83103642     2.22139481     3.98893764
Ce    -1.97724220     9.99847841     7.24873969
Ce     9.66901012     1.12377363     0.90450652
Ce     7.76462471     2.22988068     4.02025312
Ce     2.02772701     9.96222489     7.25141066
Ce    -0.00709724     4.47602159     0.89067279
Ce    -1.94910104     5.58068509     4.10755028
Ce    -1.79546849     3.33973276     7.30701144
Ce     3.86254305     4.47635356     0.87798423
Ce     1.94510596     5.58616283     4.08834595
Ce     1.81577487     3.29386676     7.24577056
Ce     7.74213807     4.46545905     0.90125422
Ce     5.80503509     5.62981115     3.99309435
Ce    -1.94645625     7.83004003     0.90010904
Ce    -3.87557430     8.93417886     4.05425285
Ce    -3.86383358     6.77187759     7.30994925
Ce     1.92815559     7.82745473     0.89060408
Ce     0.00310947     8.95785163     4.07737933
Ce     0.00454386     6.70325627     7.26170168
Ce     5.81127600     7.83258510     0.88371011
Ce     3.87403766     8.94275744     4.01852345
Ce     3.86607776     6.86875882     7.23729639
Fe     5.26333891     3.64109257     6.54750916
Ru     6.70163456     2.78866157     7.98347223
O     11.61334069     0.00154917     0.10141687
O      1.93413729     1.10605548     3.20968677
O      0.01554186     2.18587810     6.41537798
O     -0.00785227     2.23805103     1.69392277
O     -5.79738302    10.04754589     4.82814056
O      2.00044017     0.97047933     8.05547531
O     -1.93899312    10.05733740     0.10496691
O      5.80192777     1.12165141     3.23302817
O      3.98693017     2.36925797     6.55097799
O      3.86763657     2.23577757     1.68132582
O      3.86250505     0.07503099     4.88620220
O      5.96828159     1.12237881     8.40342444
O      7.73821774     0.00761509     0.10924988
O      9.67915873     1.11788077     3.22486823
O      7.70196198     2.20223850     6.48609316
O      7.74357843     2.23531483     1.71563532
O      7.75445812     0.03423636     4.85066206
O      9.69773206     0.96042542     8.07312346
O      9.67032270     3.35425987     0.10911246
O     -0.00531476     4.48663590     3.26644974
O     -1.95350028     5.58113731     6.44748343
O     -1.94403436     5.59119430     1.70564938
O      9.65533268     3.31634249     4.84871182
O      0.02124339     4.61246529     8.14518119
O      1.92738314     3.35244915     0.09928684
O      3.85827317     4.47249977     3.21627253
O      2.01751681     5.55623574     6.45567225
O      1.92862022     5.59252216     1.67404250
O      1.94569029     3.31099160     4.81539316
O      5.81155478     3.35101064     0.10766953
O      7.74007087     4.46617303     3.23677898
O      5.69261001     5.39199136     6.58445942
O      5.80528807     5.59217007     1.68114259
O      5.78535945     3.36524375     4.76638955
O      7.62740489     4.18015751     8.64569393
O     -3.87155109     6.71022987     0.10512724
O     -1.93623241     7.82952999     3.28497418
O     -3.81917373     8.94258146     6.37005259
O     -3.87509971     8.94378428     1.69355631
O      7.66310316     6.67626613     4.85539152
O     -1.84262033     7.91289906     8.07980725
O     -0.01209783     6.71325780     0.10434852
O      1.91975489     7.82504131     3.25049585
O      0.00005783     9.04841910     6.43301866
O     -0.00628994     8.94736548     1.70514550
O      0.01763606     6.72170304     4.91764063
O      1.85560218     7.89419353     8.08593495
O      3.86815347     6.71410280     0.09951587
O      5.81570505     7.83567017     3.19909105
O      3.86599413     8.96545479     6.34635305
O      3.86556896     8.94715423     1.69389986
O      3.92019457     6.71903847     4.79605983
O      5.81880374     7.98563347     8.08232346
