84
CIF: Ru-Fe-CeO2-CO.cif | data_image0
Ce     1.93038582     1.11050507     0.88387043
Ce    -0.00504404     2.23093529     4.02901762
Ce     5.82275895    10.03032161     7.21136535
Ce     5.81181033     1.12175166     0.90127712
Ce     3.84818163     2.23117568     4.01421477
Ce    -1.92749855    10.02429158     7.23517117
Ce     9.66901012     1.12377363     0.90450652
Ce     7.74208641     2.23921075     4.10494566
Ce     2.01677806     9.99581412     7.19543495
Ce    -0.00709724     4.47602159     0.89067279
Ce    -1.95294358     5.58936915     4.08550035
Ce    -1.83012382     3.30866413     7.23817798
Ce     3.86254305     4.47635356     0.87798423
Ce     1.92551593     5.59549513     4.03387180
Ce     1.87399234     3.33991194     7.19196952
Ce     7.74213807     4.46545905     0.90125422
Ce     5.81224877     5.61618768     4.01797574
Ce    -1.94645625     7.83004003     0.90010904
Ce    -3.87273152     8.93461586     4.06942224
Ce    -3.85030062     6.71504726     7.30894461
Ce     1.92815559     7.82745473     0.89060408
Ce    -0.00651258     8.95457596     4.05416297
Ce     0.00473235     6.71330459     7.19492188
Ce     5.81127600     7.83258510     0.88371011
Ce     3.87469824     8.94761203     4.01066279
Ce     3.84583683     6.78538627     7.17482858
Fe     5.02587552     3.80117512     6.66251548
Ru     6.64642503     2.82388095     8.11927776
O     11.61334069     0.00154917     0.10141687
O      1.93680367     1.11585459     3.22399465
O      0.03772163     2.20524286     6.37970378
O     -0.00785227     2.23805103     1.69392277
O     -5.79653604    10.04643550     4.83821332
O      1.99324887     1.13011314     7.98366736
O     -1.93899312    10.05733740     0.10496691
O      5.79989719     1.15628800     3.25948806
O      3.94067192     2.31320458     6.44053184
O      3.86763657     2.23577757     1.68132582
O      3.86385115     0.03891577     4.88636228
O      5.94477804     0.99591765     8.16639239
O      7.73821774     0.00761509     0.10924988
O      9.67506653     1.12329726     3.24049986
O      7.76461904     2.17713076     6.48889025
O      7.74357843     2.23531483     1.71563532
O      7.74933976     0.01327749     4.83102320
O      9.76997871     0.96824258     8.02519642
O      9.67032270     3.35425987     0.10911246
O     -0.00156592     4.47417625     3.24111894
O     -1.89368163     5.57912220     6.43741388
O     -1.94403436     5.59119430     1.70564938
O      9.67088732     3.33829609     4.83962577
O      0.12548215     4.47854226     8.03511815
O      1.92738314     3.35244915     0.09928684
O      3.86839890     4.47011304     3.21552663
O      1.91239515     5.62531998     6.34753988
O      1.92862022     5.59252216     1.67404250
O      1.94131940     3.34324554     4.84677559
O      3.82214331     4.49506231     7.85405291
O      5.81155478     3.35101064     0.10766953
O      7.70971934     4.45090196     3.26214505
O      5.74727686     5.48257798     6.44895420
O      5.80528807     5.59217007     1.68114259
O      5.73557551     3.39587492     4.94500005
O      7.88838154     4.25957213     8.29825051
O     -3.87155109     6.71022987     0.10512724
O     -1.94889854     7.83937321     3.25764583
O     -3.83816403     8.95931655     6.43264261
O     -3.87509971     8.94378428     1.69355631
O      7.70842482     6.69792556     4.85286488
O     -1.81140164     7.91419759     8.05674252
O     -0.01209783     6.71325780     0.10434852
O      1.92966911     7.82342762     3.23043905
O      0.02319815     8.96368241     6.38519213
O     -0.00628994     8.94736548     1.70514550
O     -0.02013929     6.72499350     4.83961575
O      1.96765904     7.81665904     7.99722775
O      3.86815347     6.71410280     0.09951587
O      5.81008107     7.82888304     3.21452387
O      3.86594708     8.93149813     6.32644229
O      3.86556896     8.94715423     1.69389986
O      3.89243538     6.70852986     4.83059241
O      5.68170490     7.86227002     7.99615109
O      5.09399605     3.65254247    10.60745368
C      5.67945994     3.34934974     9.64941191
