84
CIF: Nb-Rh-CeO2-CO.cif | data_image0
Ce     1.93038582     1.11050507     0.88387043
Ce    -0.00605486     2.23749401     4.05134438
Ce    -5.79803429    10.05324439     7.23716122
Ce     5.81181033     1.12175166     0.90127712
Ce     3.85282901     2.21336855     4.00783125
Ce    -2.02377533    10.00776791     7.21605989
Ce     9.66901012     1.12377363     0.90450652
Ce     7.75424323     2.23062467     4.06188281
Ce     2.03302374     9.94618940     7.33268756
Ce    -0.00709724     4.47602159     0.89067279
Ce    -1.94875297     5.58114180     4.08589227
Ce    -1.78810115     3.32730858     7.33886905
Ce     3.86254305     4.47635356     0.87798423
Ce     1.94278692     5.58448664     4.03904707
Ce     1.90187734     3.34718660     7.20562909
Ce     7.74213807     4.46545905     0.90125422
Ce     5.81705987     5.61576523     4.00791255
Ce    -1.94645625     7.83004003     0.90010904
Ce    -3.87795577     8.94507652     4.01997201
Ce    -3.87124338     6.80726895     7.21612572
Ce     1.92815559     7.82745473     0.89060408
Ce    -0.00028603     8.95652017     4.08551178
Ce     0.01895916     6.69493947     7.22624028
Ce     5.81127600     7.83258510     0.88371011
Ce     3.86783578     8.94513278     4.05099711
Ce     3.85962225     6.73902905     7.20603724
Rh     4.85019888     3.90541203     6.49986632
Nb     6.50694445     2.95138018     7.94169342
O     11.61334069     0.00154917     0.10141687
O      1.93141339     1.11296770     3.21769491
O      0.09946821     2.22002332     6.38840937
O     -0.00785227     2.23805103     1.69392277
O      5.80876214    10.05793354     4.83908094
O      1.96754400     1.06253001     8.04649415
O     -1.93899312    10.05733740     0.10496691
O      5.80772912     1.11673456     3.24885470
O      3.87111198     2.15760948     6.45077423
O      3.86763657     2.23577757     1.68132582
O     -1.95812083    10.05199158     4.85256047
O      6.11424235     1.26471967     8.60088459
O      7.73821774     0.00761509     0.10924988
O      9.67420969     1.12025816     3.24045099
O      7.62636178     2.30364778     6.56091905
O      7.74357843     2.23531483     1.71563532
O      7.75717893     0.02981141     4.86921178
O      9.87326547     1.00470412     8.08135532
O      9.67032270     3.35425987     0.10911246
O     -0.00841202     4.48193220     3.25516654
O     -2.01865218     5.62258907     6.50208370
O     -1.94403436     5.59119430     1.70564938
O      9.65942541     3.32883402     4.86703914
O      0.15060971     4.54770148     8.05557182
O      1.92738314     3.35244915     0.09928684
O      3.86507969     4.47461171     3.20488825
O      1.93319987     5.58801247     6.32659059
O      1.92862022     5.59252216     1.67404250
O      1.96480250     3.34015041     4.83298482
O      3.72012463     4.55711556     8.07969904
O      5.81155478     3.35101064     0.10766953
O      7.74341078     4.47174380     3.24812822
O      5.87415461     5.62736236     6.45063524
O      5.80528807     5.59217007     1.68114259
O      5.78794081     3.36451983     4.80266409
O      7.77227684     4.13645979     8.60003874
O     -3.87155109     6.71022987     0.10512724
O     -1.93497666     7.82393823     3.24757231
O     -3.85929295     8.93439296     6.39094009
O     -3.87509971     8.94378428     1.69355631
O     -3.87736007     6.72922001     4.85237690
O     -2.01085606     7.86701469     8.06576991
O     -0.01209783     6.71325780     0.10434852
O      1.92216960     7.82691993     3.25483505
O     -0.07056512     8.99890275     6.50474484
O     -0.00628994     8.94736548     1.70514550
O     -0.03578539     6.72836873     4.90220082
O      1.94431855     7.65498515     8.05085129
O      3.86815347     6.71410280     0.09951587
O      5.80925893     7.83003523     3.21738333
O      3.93558360     8.86172378     6.39170476
O      3.86556896     8.94715423     1.69389986
O      3.89652321     6.68787491     4.83279906
O      5.87358479     7.82321841     8.04743289
O      4.60857878     4.04454101    10.82829592
C      5.10389837     3.76215129     9.83434804
