82
CIF: Ni-Cr-CeO2.cif | data_image0
Ce     1.93038582     1.11050507     0.88387043
Ce    -0.01850449     2.22827252     4.02028824
Ce    -5.77041419    10.03756826     7.21833532
Ce     5.81181033     1.12175166     0.90127712
Ce     3.83522242     2.20750142     4.00337221
Ce     3.90763131     0.02079886     7.21403255
Ce     9.66901012     1.12377363     0.90450652
Ce     7.74209851     2.23664518     4.09118736
Ce     1.98479088     9.99639881     7.22635861
Ce    -0.00709724     4.47602159     0.89067279
Ce    -1.94329897     5.58503049     4.06784683
Ce    -1.85626711     3.32535293     7.24113267
Ce     3.86254305     4.47635356     0.87798423
Ce     1.93914871     5.59311761     4.05404063
Ce     1.84095684     3.29901485     7.15732709
Ce     7.74213807     4.46545905     0.90125422
Ce     5.80565724     5.63288313     4.00711582
Ce    -1.94645625     7.83004003     0.90010904
Ce    -3.86897675     8.94051998     4.06271022
Ce    -3.82167760     6.72909003     7.25062965
Ce     1.92815559     7.82745473     0.89060408
Ce     0.00003527     8.95223756     4.05600188
Ce     0.00217713     6.71843038     7.21216435
Ce     5.81127600     7.83258510     0.88371011
Ce     3.87107123     8.94257841     4.04625578
Ce     3.86908532     6.78806769     7.26054456
Cr     5.12502005     3.78921272     6.73404399
Ni     6.77816285     2.79348991     7.93750428
O     11.61334069     0.00154917     0.10141687
O      1.92831209     1.10771432     3.22157081
O      0.01846050     2.20164483     6.38363375
O     -0.00785227     2.23805103     1.69392277
O     -5.77983025    10.03639416     4.86455233
O      1.96490869     1.14039416     7.98636186
O     -1.93899312    10.05733740     0.10496691
O      5.74556501     1.12049484     3.25085804
O      3.92076547     2.27008514     6.42490218
O      3.86763657     2.23577757     1.68132582
O      3.85902137     0.02360777     4.87662568
O      5.96062829     1.13229045     8.10450539
O      7.73821774     0.00761509     0.10924988
O      9.72133141     1.08989284     3.24721544
O      7.82416080     2.18853374     6.51986351
O      7.74357843     2.23531483     1.71563532
O      1.93508074     9.99050569     4.88964095
O      9.78483625     1.08056249     8.04671037
O      9.67032270     3.35425987     0.10911246
O      0.00450099     4.48457927     3.23626244
O     -1.93790574     5.60120141     6.46388856
O     -1.94403436     5.59119430     1.70564938
O     -1.87806108     3.38851234     4.89502250
O      0.02554716     4.41790588     8.03186835
O      1.92738314     3.35244915     0.09928684
O      3.86833255     4.47165117     3.22011642
O      1.89815001     5.54759432     6.41769795
O      1.92862022     5.59252216     1.67404250
O      1.93002831     3.33094842     4.84419517
O      3.93731569     4.34674442     7.86274906
O      5.81155478     3.35101064     0.10766953
O      7.71010247     4.53143133     3.26362370
O      5.84528149     5.45942247     6.48419156
O      5.80528807     5.59217007     1.68114259
O      5.64691379     3.42350226     5.00145869
O      7.84203808     4.30109879     8.13998332
O     -3.87155109     6.71022987     0.10512724
O     -1.94934408     7.82413364     3.26304249
O     -3.80541685     8.95106257     6.41941418
O     -3.87509971     8.94378428     1.69355631
O      7.71254610     6.71404830     4.91543718
O     -1.92461010     7.83919227     8.03655457
O     -0.01209783     6.71325780     0.10434852
O      1.93081300     7.80930838     3.23715494
O     -0.02916004     8.96513917     6.42677551
O     -0.00628994     8.94736548     1.70514550
O     -0.00709264     6.71674592     4.87537105
O      1.84775064     7.85398929     8.04463457
O      3.86815347     6.71410280     0.09951587
O      5.81798777     7.82439808     3.22571180
O      3.90521077     8.96945039     6.41700861
O      3.86556896     8.94715423     1.69389986
O      3.89759846     6.70199007     4.84658885
O      5.94713590     7.84405055     8.01350318
