81
CIF: Ni-Cr-CeO2-Ov.cif | data_image0
Ce     1.93038582     1.11050507     0.88387043
Ce    -0.00431454     2.23895658     4.05161087
Ce    -5.76414124    10.03574426     7.23297898
Ce     5.81181033     1.12175166     0.90127712
Ce     3.81714627     2.21987173     3.96557384
Ce    -1.91041229    10.01715899     7.33842404
Ce     9.66901012     1.12377363     0.90450652
Ce     7.78256404     2.21259081     4.07202669
Ce     1.94494016    10.04633450     7.27838364
Ce    -0.00709724     4.47602159     0.89067279
Ce    -1.95628632     5.57928814     4.08879929
Ce    -1.91732452     3.35250973     7.27791658
Ce     3.86254305     4.47635356     0.87798423
Ce     1.93562758     5.58974501     4.09107477
Ce     1.76184100     3.31188491     7.26011004
Ce     7.74213807     4.46545905     0.90125422
Ce     5.79313261     5.64572069     3.95632577
Ce    -1.94645625     7.83004003     0.90010904
Ce    -3.87531144     8.94430720     4.10632240
Ce    -3.81270957     6.71400310     7.34383533
Ce     1.92815559     7.82745473     0.89060408
Ce    -0.00200478     8.96392732     4.08961383
Ce    -0.00913858     6.71210453     7.25833917
Ce     5.81127600     7.83258510     0.88371011
Ce     3.86602170     8.94375025     4.05406910
Ce     3.81242108     6.88483699     7.26804307
Cr     5.59130977     3.47627530     6.64685969
Ni     6.92890028     2.70516047     8.31533968
O     11.61334069     0.00154917     0.10141687
O      1.93244371     1.09458721     3.22045259
O     -0.03334915     2.17779101     6.43122613
O     -0.00785227     2.23805103     1.69392277
O     -5.75565249    10.02922981     4.89352267
O      2.00044445     0.98762174     8.02785301
O     -1.93899312    10.05733740     0.10496691
O      5.72305739     1.08065097     3.23853279
O      4.07134429     2.61936993     6.75814291
O      3.86763657     2.23577757     1.68132582
O      3.83668206     0.16052900     4.99496970
O      5.99069684     1.03196883     8.31000354
O      7.73821774     0.00761509     0.10924988
O      9.75990225     1.06899727     3.25407867
O      7.67303083     2.27119180     6.54101900
O      7.74357843     2.23531483     1.71563532
O      1.92300552     9.97795625     4.91039698
O      9.70509975     1.10810534     8.06613682
O      9.67032270     3.35425987     0.10911246
O      0.00709534     4.48950696     3.25613239
O     -1.99205627     5.64585665     6.45196505
O     -1.94403436     5.59119430     1.70564938
O     -1.87573583     3.40472069     4.90922692
O     -0.12196089     4.54175056     8.09068226
O      1.92738314     3.35244915     0.09928684
O      3.85701262     4.48009047     3.21840187
O      1.95617033     5.57889597     6.49008435
O      1.92862022     5.59252216     1.67404250
O      1.94905235     3.30476542     4.84611748
O      5.81155478     3.35101064     0.10766953
O      7.73249942     4.56702765     3.23557411
O      5.53029299     5.19721270     6.81226216
O      5.80528807     5.59217007     1.68114259
O      5.75641822     3.38916628     4.85064571
O      7.90996315     4.35749431     8.30001867
O     -3.87155109     6.71022987     0.10512724
O     -1.97484353     7.84309661     3.33359993
O     -3.77741145     8.89013135     6.43282388
O     -3.87509971     8.94378428     1.69355631
O      7.57628105     6.65032377     5.00722353
O     -1.94550827     7.83011960     8.13350452
O     -0.01209783     6.71325780     0.10434852
O      1.92482807     7.80707246     3.25523960
O     -0.07754024     8.96697751     6.45344495
O     -0.00628994     8.94736548     1.70514550
O      0.00733044     6.70354658     4.90941783
O      1.81008001     7.89627369     8.09529499
O      3.86815347     6.71410280     0.09951587
O      5.82747819     7.83877105     3.21778622
O      3.90569464     9.00432418     6.43542966
O      3.86556896     8.94715423     1.69389986
O      3.92553946     6.71804545     4.85120706
O      5.95619697     7.83093757     8.02495692
