83
CIF: Ni-Cr-CeO2-Ov-O2.cif | data_image0
Ce     1.93038582     1.11050507     0.88387043
Ce    -0.00691150     2.23722983     4.04914386
Ce    -5.76520116    10.03624117     7.21077123
Ce     5.81181033     1.12175166     0.90127712
Ce     3.82098304     2.21726018     3.99199764
Ce    -1.91797747    10.03580909     7.21688266
Ce     9.66901012     1.12377363     0.90450652
Ce     7.74170102     2.23481372     4.07695823
Ce     1.96566237    10.03343122     7.25870949
Ce    -0.00709724     4.47602159     0.89067279
Ce    -1.94229968     5.57918897     4.06913641
Ce    -1.90642429     3.33229625     7.26122576
Ce     3.86254305     4.47635356     0.87798423
Ce     1.94566173     5.58246424     4.09575667
Ce     1.81590527     3.28640987     7.28466953
Ce     7.74213807     4.46545905     0.90125422
Ce     5.79710282     5.64234063     3.99185719
Ce    -1.94645625     7.83004003     0.90010904
Ce    -3.86602015     8.93906125     4.05043636
Ce    -3.84456939     6.70370423     7.21661801
Ce     1.92815559     7.82745473     0.89060408
Ce     0.00482574     8.94853695     4.06670173
Ce     0.00273330     6.70080311     7.23992929
Ce     5.81127600     7.83258510     0.88371011
Ce     3.86753677     8.94688745     4.04780080
Ce     3.86878536     6.84387336     7.28653794
Cr     5.16732303     3.72286105     6.59021062
Ni     6.66426510     2.84289988     8.02438677
O     11.61334069     0.00154917     0.10141687
O      1.92578495     1.10606803     3.21236979
O     -0.03384309     2.19945392     6.40723187
O     -0.00785227     2.23805103     1.69392277
O     -5.78990208    10.04930419     4.84519808
O      1.98587010     0.96918978     7.99928333
O     -1.93899312    10.05733740     0.10496691
O      5.81016760     1.13972732     3.24896034
O      3.95940878     2.32302836     6.38244531
O      3.86763657     2.23577757     1.68132582
O      3.86909174     0.04090861     4.85842542
O      5.92838503     1.10698736     8.09941885
O      7.73821774     0.00761509     0.10924988
O      9.66736487     1.12575884     3.24984680
O      7.72767553     2.23190795     6.57248003
O      7.74357843     2.23531483     1.71563532
O      7.74560758     0.03885498     4.87545313
O      9.73364458     1.08537181     8.06162013
O      9.67032270     3.35425987     0.10911246
O     -0.01992444     4.47740942     3.25311252
O     -1.96817181     5.59208034     6.40675169
O     -1.94403436     5.59119430     1.70564938
O      9.64049188     3.33047579     4.88043421
O     -0.11814845     4.52456674     8.07313948
O      1.92738314     3.35244915     0.09928684
O      3.86284776     4.47621345     3.22235725
O      1.99836996     5.55305469     6.48445022
O      1.92862022     5.59252216     1.67404250
O      1.91903348     3.32878602     4.81413802
O      5.81155478     3.35101064     0.10766953
O      7.72474844     4.45808123     3.24904750
O      5.76978978     5.46800130     6.38356387
O      5.80528807     5.59217007     1.68114259
O      5.75398435     3.38532258     4.85233202
O      7.79925257     4.34976279     8.09352571
O     -3.87155109     6.71022987     0.10512724
O     -1.93128863     7.81947912     3.26807423
O     -3.81307678     8.90778423     6.35344272
O     -3.87509971     8.94378428     1.69355631
O      7.70414307     6.68843040     4.86127642
O     -1.93634949     7.82317215     8.00867347
O     -0.01209783     6.71325780     0.10434852
O      1.91917906     7.83477450     3.25198507
O     -0.01739155     8.96010208     6.40183201
O     -0.00628994     8.94736548     1.70514550
O      0.01833394     6.69164362     4.89597050
O      1.82890702     7.89486145     8.07612707
O      3.86815347     6.71410280     0.09951587
O      5.81353592     7.83974691     3.21098033
O      3.88721764     8.98657009     6.40715327
O      3.86556896     8.94715423     1.69389986
O      3.88365596     6.73418306     4.81260074
O      5.96439516     7.85353891     8.00058693
O      4.42320391     4.14825545     8.27275928
O      5.38259852     3.57992950     9.17041304
