83
CIF: O2—Olatt+Osur.cif | data_image0
Ce     1.93038582     1.11050507     0.88387043
Ce    -0.00129786     2.24065938     4.04795312
Ce    -5.76945372    10.02732584     7.20077682
Ce     5.81181033     1.12175166     0.90127712
Ce     3.82986911     2.22805037     3.97560744
Ce    -1.91559999    10.02456573     7.22852608
Ce     9.66901012     1.12377363     0.90450652
Ce     7.74894116     2.23289145     4.07404046
Ce     1.97199744    10.04281934     7.26170602
Ce    -0.00709724     4.47602159     0.89067279
Ce    -1.94559949     5.57959418     4.06659261
Ce    -1.88289126     3.33425632     7.25799956
Ce     3.86254305     4.47635356     0.87798423
Ce     1.93791636     5.58633602     4.09125525
Ce     1.82704701     3.30530961     7.29767002
Ce     7.74213807     4.46545905     0.90125422
Ce     5.78741169     5.61756471     3.98597214
Ce    -1.94645625     7.83004003     0.90010904
Ce    -3.87470943     8.93616759     4.05573794
Ce    -3.81030577     6.70354382     7.24266767
Ce     1.92815559     7.82745473     0.89060408
Ce     0.00066755     8.95455855     4.06745593
Ce     0.01099759     6.70478587     7.23893118
Ce     5.81127600     7.83258510     0.88371011
Ce     3.86430130     8.93771727     4.05103846
Ce     3.84836830     6.81917440     7.29764917
Cr     5.25322227     3.63350890     6.61316823
Ni     6.71987982     2.85873103     8.06379253
O     11.61334069     0.00154917     0.10141687
O      1.92445567     1.09817373     3.21328089
O     -0.01740723     2.19229082     6.41416572
O     -0.00785227     2.23805103     1.69392277
O     -5.79022038    10.04302373     4.85378004
O      2.02181626     0.96385161     7.98086415
O     -1.93899312    10.05733740     0.10496691
O      5.80667655     1.11733702     3.23545064
O      3.94719693     2.43087491     6.33582254
O      3.86763657     2.23577757     1.68132582
O      3.86750759     0.06289445     4.88648232
O      5.92591351     1.12796014     8.08653794
O      7.73821774     0.00761509     0.10924988
O      9.67294528     1.11965484     3.25037739
O      7.76395952     2.23467371     6.57177907
O      7.74357843     2.23531483     1.71563532
O      7.74064616     0.03251349     4.88436440
O      9.75884336     1.06194255     8.06312780
O      9.67032270     3.35425987     0.10911246
O     -0.02416496     4.48367179     3.24751110
O     -1.94779421     5.61186790     6.40343952
O     -1.94403436     5.59119430     1.70564938
O      9.65652192     3.33922790     4.87702154
O     -0.10919960     4.53069016     8.08126617
O      1.92738314     3.35244915     0.09928684
O      3.86220272     4.47734214     3.21769051
O      1.97192675     5.56533764     6.48490407
O      1.92862022     5.59252216     1.67404250
O      1.90684839     3.33820913     4.80314025
O      5.81155478     3.35101064     0.10766953
O      7.73859015     4.47022074     3.23892448
O      5.62461785     5.36769605     6.37133541
O      5.80528807     5.59217007     1.68114259
O      5.80559593     3.34472049     4.80957856
O      7.87663363     4.37836853     8.10380905
O     -3.87155109     6.71022987     0.10512724
O     -1.95045556     7.82289820     3.28004928
O     -3.80073133     8.90109266     6.35872552
O     -3.87509971     8.94378428     1.69355631
O      7.66794205     6.66052479     4.90839348
O     -1.94533850     7.83055513     8.02871968
O     -0.01209783     6.71325780     0.10434852
O      1.91647435     7.83968532     3.24779827
O     -0.03011340     8.96452518     6.41489170
O     -0.00628994     8.94736548     1.70514550
O      0.01715921     6.70574374     4.88861125
O      1.81920888     7.90090055     8.08058268
O      3.86815347     6.71410280     0.09951587
O      5.81750731     7.83224368     3.21528197
O      3.88894954     8.97466460     6.41621969
O      3.86556896     8.94715423     1.69389986
O      3.87309619     6.73469132     4.80885727
O      5.98429406     7.80474261     7.97097939
O      4.40505742     4.06297927     8.32094663
O      5.49898449     3.69866708     9.19029433
