    83
 Tv_1:  11.598200   0.000000   0.000000 Tv_2:  -5.799100  10.044336   0.000000 Tv_3:   0.000000   0.000000  22.891600
Ce      2.14531905      1.20773094      3.19108904
Ce      0.25543876      2.37747420      9.50969715
Ce      0.22713335      0.08279546      6.35550937
Ce      6.01134706      1.20773094      3.19108904
Ce      4.14365992      2.27708107      9.51395498
Ce      4.07082902      0.10297453      6.32726113
Ce      9.87749105      1.20773094      3.19108904
Ce      7.98599860      2.29908821      9.49987665
Ce      7.95026455      0.07852662      6.34770333
Ce      0.21230505      4.55580941      3.19108904
Ce     -1.68888929      5.70487138      9.45315489
Ce     -1.70677951      3.44076760      6.34774911
Ce      4.07833306      4.55580941      3.19108904
Ce      2.16229302      3.49377156      6.35452503
Ce      7.94447705      4.55580941      3.19108904
Ce      6.08372563      5.63747389      9.51448149
Ce      6.01779566      3.43578561      6.33911898
Ce     -1.72076694      7.90398831      3.19108904
Ce     -3.66304791      9.02449424      9.45917539
Ce     -3.66770459      6.78819318      6.32749005
Ce      2.14526106      7.90398831      3.19108904
Ce      0.19885114      8.97507611      9.45299465
Ce      0.21870726      6.78382389      6.30464423
Ce      6.01140505      7.90398831      3.19108904
Ce      4.05281122      8.95499748      9.50965136
Ce      4.03993722      6.74588644      6.35436479
O       0.21230505      2.32375710      2.40201559
O       2.15549647      1.26577716     10.21269818
O       2.13920100      1.20209607      5.53273948
O       0.30755527      2.35440236      7.22687812
O       0.20565348      0.09523035      8.71538152
O       0.21230505      0.09170479      3.98039141
O       4.07833306      2.32375710      2.40201559
O       6.03418392      1.17114947     10.22904279
O       6.01437419      1.22281753      5.54590215
O       4.03488040      2.32471131      7.18764192
O       4.06447901      0.07389618      8.68692726
O       4.07833306      0.09170479      3.98039141
O       7.94436106      2.32375710      2.40201559
O       9.88390485      1.20347214     10.28549347
O       9.90765797      1.19013326      5.57708051
O       7.97888311      2.30355794      7.17143466
O       7.98015311      0.04166391      8.71851767
O       7.94436106      0.09170479      3.98039141
O      -1.72076694      5.67193600      2.40201559
O       0.24490759      4.73721011     10.23396448
O       0.16692129      4.51669676      5.51765391
O      -1.74616120      5.66174100      7.12668159
O      -1.65987059      3.43306359      8.71872369
O      -1.72070895      3.43978325      3.98039141
O       2.14526106      5.67193600      2.40201559
O       4.86712664      4.09895283     10.86238468
O       4.13028719      4.52564627      5.52653586
O       2.13713072      5.67643587      6.86690771
O       2.26436298      3.75979579      8.86110944
O       2.14531905      3.43978325      3.98039141
O       6.01128907      5.67193600      2.40201559
O       7.98694385      4.55371014     10.22934038
O       7.93263528      4.54548383      5.54587926
O       5.98848121      5.70868823      7.18805397
O       6.02673207      3.43057260      8.64535611
O       6.01134706      3.43978325      3.98039141
O      -3.65378095      9.02001447      2.40201559
O      -1.72104530      7.90344592     10.24630305
O      -1.74178868      7.91583059      5.52829851
O      -3.66357563      9.02514713      7.15181656
O      -3.64594056      6.80787003      8.68717907
O      -3.65378095      6.78796216      3.98039141
O       0.21224706      9.02001447      2.40201559
O       2.00408777      7.78506338     10.23362111
O       2.15636054      7.96234591      5.51758524
O       0.20787454      9.04633063      7.12647556
O       0.24127735      6.77068590      8.57233191
O       0.21224706      6.78796216      3.98039141
O       4.07827507      9.02001447      2.40201559
O       5.96555157      7.86526740     10.21267529
O       6.01297081      7.91174254      5.53264791
O       4.09923881      8.92201188      7.22669499
O       3.86039708      6.52539318      8.86049137
O       4.07827507      6.78796216      3.98039141
O       2.79199989      5.30152099     11.22858161
Pd      2.01076254      5.75019142      9.61023705
H       4.09618269      4.54154645     11.33905647
