    86
 Tv_1:  11.598200   0.000000   0.000000 Tv_2:  -5.799100  10.044336   0.000000 Tv_3:   0.000000   0.000000  22.891600
Ce      2.14531905      1.20773094      3.19108904
Ce      0.23897035      2.34568450      9.49857946
Ce      0.23863592      0.07395405      6.34819269
Ce      6.01134706      1.20773094      3.19108904
Ce      4.14055958      2.24259746      9.53868605
Ce      4.07499602      0.11082710      6.32044410
Ce      9.87749105      1.20773094      3.19108904
Ce      7.99203610      2.29269149      9.49650659
Ce      7.95083031      0.08234002      6.34234009
Ce      0.21230505      4.55580941      3.19108904
Ce     -1.70243182      5.72883373      9.44399416
Ce     -1.71050334      3.43941371      6.34528130
Ce      4.07833306      4.55580941      3.19108904
Ce      2.16775410      3.49195509      6.37034171
Ce      7.94447705      4.55580941      3.19108904
Ce      6.13712713      5.66868113      9.47249557
Ce      6.01481924      3.43226227      6.34240116
Ce     -1.72076694      7.90398832      3.19108904
Ce     -3.65737490      9.02623631      9.49117309
Ce     -3.66032097      6.78683200      6.30693097
Ce      2.14526106      7.90398832      3.19108904
Ce      0.17727177      8.98551601      9.43726480
Ce      0.20369907      6.79218400      6.31862564
Ce      6.01140505      7.90398832      3.19108904
Ce      4.06564276      8.97064038      9.49244057
Ce      4.03792590      6.74009869      6.36052728
O       0.21230505      2.32375710      2.40201559
O       2.09517704      1.21359325     10.22519428
O       2.13301288      1.21046835      5.53113656
O       0.32236259      2.37034189      7.23247335
O       0.17424412      0.09319785      8.68346226
O       0.21230505      0.09170479      3.98039141
O       4.07833306      2.32375710      2.40201559
O       6.07775770      1.16578598     10.22869609
O       6.02088416      1.23770870      5.52040256
O       4.05551422      2.30695575      7.14977276
O       4.07021940      0.07655364      8.69117143
O       4.07833306      0.09170479      3.98039141
O       7.94436106      2.32375710      2.40201559
O       9.90015020      1.18983289     10.31171337
O       9.91289018      1.18596185      5.58494619
O       7.95296783      2.31796824      7.16738324
O       8.00624267      0.07074688      8.70926829
O       7.94436106      0.09170479      3.98039141
O      -1.72076694      5.67193601      2.40201559
O       0.31732811      4.75350021      9.99925449
O       0.20192726      4.52866829      5.52452653
O      -1.78109407      5.60094672      7.08552282
O      -1.68860223      3.40710121      8.72547142
O      -1.72070895      3.43978325      3.98039141
O       2.14526106      5.67193601      2.40201559
O       4.86805194      4.07582244     11.10801883
O       4.09077228      4.54962432      5.54553523
O       2.10041076      5.69761313      7.06793316
O       2.41620182      3.67412454      8.91338728
O       2.14531905      3.43978325      3.98039141
O       6.01128907      5.67193601      2.40201559
O       7.97332157      4.56211198     10.25597117
O       7.92252014      4.53410117      5.52078403
O       6.01879810      5.70670830      7.15190917
O       5.99361011      3.46883505      8.68383960
O       6.01134706      3.43978325      3.98039141
O      -3.65378095      9.02001447      2.40201559
O      -1.80440640      7.94524579     10.35516819
O      -1.73367240      7.91216070      5.53026729
O      -3.66010915      9.02617421      7.14619112
O      -3.64120449      6.80106841      8.67051618
O      -3.65378095      6.78796216      3.98039141
O       0.21224706      9.02001447      2.40201559
O       2.04420175      7.71500993      9.99319580
O       2.15994387      7.92459278      5.52161800
O       0.24076665      9.11219266      7.08567962
O      -0.12884290      6.98834428      8.50829953
O       0.21224706      6.78796216      3.98039141
O       4.07827507      9.02001447      2.40201559
O       5.98775839      7.88537578     10.23066506
O       6.00612555      7.91077029      5.52683545
O       4.09140940      8.88604360      7.22524051
O       4.01880841      6.40953909      8.91148950
O       4.07827507      6.78796216      3.98039141
O       4.38599794      3.08681435     11.85215187
Pd      2.16586992      5.65412862      9.50032518
C       2.39926779      5.52030740     11.51062589
H       1.55433276      6.08285552     11.91420379
H       2.35992429      4.45586942     11.75684543
H       3.36549171      5.97728941     11.74592133
