    82
 Tv_1:  11.598200   0.000000   0.000000 Tv_2:  -5.799100  10.044336   0.000000 Tv_3:   0.000000   0.000000  22.891600
Ce      2.14524488      1.20776964      3.19065141
Ce      0.21076587      2.34867501      9.49386897
Ce      0.21178592      0.08130538      6.36182321
Ce      6.01110167      1.20797985      3.19122579
Ce      4.06644942      2.16952154      9.44563597
Ce      4.07093406      0.08809516      6.30573476
Ce      9.87720620      1.20793789      3.19033530
Ce      7.94481888      2.34389551      9.52651800
Ce      7.92750534      0.09605020      6.34626142
Ce      0.21210178      4.55590658      3.19011175
Ce     -1.67398460      5.73459383      9.45445363
Ce     -1.72941179      3.45555842      6.35077763
Ce      4.07833477      4.55587995      3.19091597
Ce      2.14538437      3.48446383      6.34630007
Ce      7.94412757      4.55591420      3.19120016
Ce      6.11277704      5.76145842      9.45087443
Ce      5.99238598      3.45290841      6.34741743
Ce     -1.72099693      7.90413515      3.19059289
Ce     -3.67126346      9.02273296      9.49201123
Ce     -3.66293806      6.80031069      6.30336317
Ce      2.14509171      7.90413273      3.19010655
Ce      0.22717427      8.98272474      9.47649024
Ce      0.21728854      6.78856951      6.33430243
Ce      6.01137587      7.90408062      3.19062096
Ce      3.98763371      9.01578244      9.53840419
Ce      4.01681114      6.75309359      6.36167414
O       0.21218212      2.32385339      2.40168728
O       2.13574918      1.20937961     10.26804863
O       2.12794403      1.20641297      5.53254400
O       0.27362163      2.36265396      7.21442147
O       0.18257654      0.11721907      8.71024109
O       0.21204397      0.09186983      3.97960240
O       4.07840639      2.32379604      2.40201946
O       5.98888492      1.20860235     10.26097715
O       6.01527451      1.23418694      5.52559147
O       4.07528747      2.28361473      7.14596660
O       4.05193783      0.06295043      8.67530859
O       4.07806693      0.09202571      3.98010248
O       7.94388482      2.32402911      2.40192167
O       9.84409545      1.23607436     10.31130961
O       9.87604622      1.20388592      5.59732724
O       7.87140515      2.39588654      7.21248968
O       7.95098454      0.15455315      8.66879585
O       7.94403053      0.09177197      3.97992923
O      -1.72108872      5.67203796      2.40164684
O       0.31470903      4.62637125     10.14206796
O       0.16387614      4.51775879      5.52051308
O      -1.76479123      5.64235659      7.11374272
O      -1.70970324      3.43855376      8.72322503
O      -1.72094379      3.44007198      3.97987614
O       2.14525558      5.67196275      2.40147445
O       3.79760284      4.66395978     11.87246680
O       4.11629474      4.53115183      5.53777651
O       2.11925836      5.68269203      6.89064826
O       2.34671999      3.57950651      8.78504392
O       2.14516405      3.43979546      3.97943860
O       6.01130642      5.67191591      2.40199620
O       7.94742246      4.58814044     10.25589600
O       7.91987802      4.55117980      5.52599423
O       6.01667852      5.71386709      7.16039116
O       5.81542763      3.55447856      8.85044852
O       6.01126025      3.43983792      3.98095888
O      -3.65382997      9.02013220      2.40157578
O      -1.77319323      7.92034870     10.32044169
O      -1.73974845      7.91303359      5.52614182
O      -3.67717729      9.03106537      7.14659051
O      -3.63900341      6.82079829      8.66845613
O      -3.65418335      6.78805875      3.98007959
O       0.21201666      9.02024408      2.40167571
O       2.11604993      8.06509971     10.23819073
O       2.15322017      7.96235127      5.51867589
O       0.21879022      9.07403400      7.10932439
O       0.04766310      6.89293382      8.58795834
O       0.21192418      6.78815654      3.97925963
O       4.07814041      9.02011051      2.40168341
O       5.99608252      7.89686394     10.24459761
O       5.99945760      7.91718810      5.53095634
O       4.06994932      8.90812785      7.24116483
O       3.94073175      6.40332163      8.92353809
O       4.07825316      6.78814641      3.97941068
Pd      2.14567363      5.51071241      9.66803564
C       2.86448503      5.32349356     11.57855337
