    83
 Tv_1:  11.598200   0.000000   0.000000 Tv_2:  -5.799100  10.044336   0.000000 Tv_3:   0.000000   0.000000  22.891600
Ce      2.14479675      1.20862212      3.18970399
Ce      0.25321636      2.40206417      9.51359990
Ce      0.21656295      0.09160211      6.35121776
Ce      6.01068099      1.20880817      3.18852418
Ce      4.08686972      2.20940415      9.51778899
Ce      4.06924860      0.08538453      6.32744601
Ce      9.87757098      1.20830001      3.18858167
Ce      7.95270371      2.32096355      9.52789814
Ce      7.94374342      0.09063884      6.34213322
Ce      0.21197518      4.55590068      3.18859324
Ce     -1.67805537      5.67733985      9.48544652
Ce     -1.71877249      3.45250710      6.35343447
Ce      4.07774539      4.55626740      3.19009079
Ce      2.16107268      3.48249082      6.34578051
Ce      7.94363542      4.55616974      3.18895303
Ce      5.95878004      5.63708227      9.56071058
Ce      5.99630398      3.44365221      6.36127514
Ce     -1.72214340      7.90476047      3.18735473
Ce     -3.68128666      8.98445871      9.44938021
Ce     -3.67660280      6.78188325      6.34960284
Ce      2.14493539      7.90454998      3.18768855
Ce      0.23151337      8.94763726      9.45980883
Ce      0.22858291      6.77119107      6.30333097
Ce      6.01075895      7.90452778      3.18944004
Ce      4.04439616      8.99716176      9.47587867
Ce      4.03936061      6.76704658      6.31685305
O       0.21237551      2.32408595      2.40033035
O       2.12747775      1.24585528     10.22596517
O       2.13379287      1.19147080      5.53166434
O       0.28941729      2.35186625      7.23007675
O       0.20588690      0.07977308      8.72154234
O       0.21222072      0.09240827      3.97874903
O       4.07764933      2.32467350      2.40052263
O       6.05283285      1.11388506     10.18685591
O       6.01735220      1.21438436      5.55287996
O       4.04076690      2.28836092      7.16772847
O       4.04034820      0.02967207      8.70233977
O       4.07733577      0.09302049      3.97740443
O       7.94394516      2.32444215      2.39998597
O       9.86409312      1.23309460     10.27389637
O       9.88679282      1.22205765      5.57499324
O       7.93375213      2.33944917      7.21574259
O       7.98046919      0.03485964      8.69915339
O       7.94402667      0.09276388      3.97657668
O      -1.72167063      5.67199294      2.39952218
O       0.31655285      4.67288475     10.30686381
O       0.13292618      4.50691580      5.51593545
O      -1.73408756      5.69447070      7.16909711
O      -1.66433301      3.46604447      8.73322367
O      -1.72122282      3.44022628      3.97776683
O       2.14513339      5.67193528      2.40001177
O       4.76025698      3.57740977     11.27831551
O       4.15260157      4.51277885      5.52076945
O       2.13494723      5.66207147      6.72139328
O       2.28106429      3.75646529      8.80129294
O       2.14493106      3.44045608      3.97968764
O       6.01053613      5.67231058      2.40049489
O       7.93058852      4.53457197     10.25200134
O       7.93047604      4.55337873      5.56206810
O       5.97343324      5.70845564      7.22120050
O       5.89841580      3.48565225      8.73266828
O       6.01037465      3.44078949      3.97871086
O      -3.65488071      9.02086946      2.39983102
O      -1.67983219      7.84487342     10.22873239
O      -1.74557363      7.90986983      5.52715105
O      -3.67350056      9.00829803      7.15823364
O      -3.68309718      6.78637144      8.72864232
O      -3.65525122      6.78834974      3.97782551
O       0.21153352      9.02096466      2.39904189
O       2.06496471      7.78900689     10.28389479
O       2.14496569      7.98810616      5.50966765
O       0.19749349      9.00868141      7.15307738
O       0.37347448      6.67195249      8.62226565
O       0.21108675      6.78862094      3.97533153
O       4.07833138      9.02046087      2.39995150
O       5.91729811      7.83215614     10.21621502
O       6.01962536      7.90798052      5.52756560
O       4.10646140      8.98710325      7.17307025
O       3.78516014      6.67796207      8.66509568
O       4.07775274      6.78848340      3.97811448
O       3.61921639      5.39062607     10.71831273
Pd      2.09954901      5.78512368      9.58194362
H       4.14479381      3.93354578     11.95044960
