    83
 Tv_1:  11.598200   0.000000   0.000000 Tv_2:  -5.799100  10.044336   0.000000 Tv_3:   0.000000   0.000000  22.891600
Ce      2.14531905      1.20773094      3.19108904
Ce      0.25544350      2.37747476      9.50970101
Ce      0.22712981      0.08279862      6.35550333
Ce      6.01134706      1.20773094      3.19108904
Ce      4.14365910      2.27708591      9.51394417
Ce      4.07082795      0.10297546      6.32726964
Ce      9.87749105      1.20773094      3.19108904
Ce      7.98600479      2.29908433      9.49986680
Ce      7.95026406      0.07852164      6.34769894
Ce      0.21230505      4.55580941      3.19108904
Ce     -1.68888704      5.70487595      9.45316206
Ce     -1.70678314      3.44076805      6.34775173
Ce      4.07833306      4.55580941      3.19108904
Ce      2.16229362      3.49377645      6.35451517
Ce      7.94447705      4.55580941      3.19108904
Ce      6.08372373      5.63746981      9.51448328
Ce      6.01779013      3.43578835      6.33911845
Ce     -1.72076694      7.90398832      3.19108904
Ce     -3.66304163      9.02449167      9.45917142
Ce     -3.66770322      6.78819445      6.32749100
Ce      2.14526106      7.90398832      3.19108904
Ce      0.19885344      8.97507827      9.45300173
Ce      0.21870602      6.78382187      6.30464885
Ce      6.01140505      7.90398832      3.19108904
Ce      4.05281618      8.95499277      9.50965993
Ce      4.03993466      6.74588975      6.35435422
O       0.21230505      2.32375710      2.40201559
O       2.15550101      1.26577419     10.21269001
O       2.13920797      1.20209235      5.53272981
O       0.30755521      2.35440185      7.22686991
O       0.20565616      0.09523478      8.71539239
O       0.21230505      0.09170479      3.98039141
O       4.07833306      2.32375710      2.40201559
O       6.03418886      1.17115026     10.22903242
O       6.01436870      1.22282222      5.54590340
O       4.03487676      2.32471008      7.18763104
O       4.06447658      0.07389169      8.68692198
O       4.07833306      0.09170479      3.98039141
O       7.94436106      2.32375710      2.40201559
O       9.88390941      1.20347124     10.28550031
O       9.90766126      1.19012983      5.57707083
O       7.97888091      2.30355713      7.17144037
O       7.98015786      0.04166116      8.71851130
O       7.94436106      0.09170479      3.98039141
O      -1.72076694      5.67193601      2.40201559
O       0.24491361      4.73720673     10.23396556
O       0.16692694      4.51669300      5.51764729
O      -1.74616163      5.66174481      7.12667933
O      -1.65986919      3.43306207      8.71872635
O      -1.72070895      3.43978325      3.98039141
O       2.14526106      5.67193601      2.40201559
O       4.86712751      4.09895533     10.86238571
O       4.13028804      4.52564994      5.52652960
O       2.13713037      5.67643824      6.86691831
O       2.26436401      3.75979340      8.86111974
O       2.14531905      3.43978325      3.98039141
O       6.01128907      5.67193601      2.40201559
O       7.98694644      4.55371227     10.22934630
O       7.93263397      4.54548574      5.54587153
O       5.98847774      5.70868901      7.18805792
O       6.02672603      3.43057245      8.64535509
O       6.01134706      3.43978325      3.98039141
O      -3.65378095      9.02001447      2.40201559
O      -1.72104761      7.90344827     10.24629835
O      -1.74179358      7.91583157      5.52829165
O      -3.66357098      9.02514833      7.15181791
O      -3.64594266      6.80787322      8.68718266
O      -3.65378095      6.78796216      3.98039141
O       0.21224706      9.02001447      2.40201559
O       2.00408797      7.78506047     10.23362262
O       2.15635924      7.96234292      5.51758894
O       0.20787484      9.04632935      7.12648529
O       0.24127667      6.77068750      8.57233006
O       0.21224706      6.78796216      3.98039141
O       4.07827507      9.02001447      2.40201559
O       5.96555955      7.86526324     10.21266456
O       6.01296845      7.91174615      5.53265067
O       4.09923445      8.92201214      7.22669020
O       3.86040166      6.52538830      8.86048410
O       4.07827507      6.78796216      3.98039141
O       2.79200099      5.30152388     11.22858015
Pd      2.01076052      5.75019054      9.61024648
H       4.09617677      4.54154747     11.33906386
