    85
 Tv_1:  11.598200   0.000000   0.000000 Tv_2:  -5.799100  10.044336   0.000000 Tv_3:   0.000000   0.000000  22.891600
Ce      2.14531905      1.20773094      3.19108904
Ce      0.21364285      2.28609346      9.56247244
Ce      0.21784575      0.09812301      6.34702271
Ce      6.01134706      1.20773094      3.19108904
Ce      3.99209033      2.41036022      9.54145778
Ce      4.08021955      0.10110237      6.36007493
Ce      9.87749105      1.20773094      3.19108904
Ce      7.98515894      2.34434305      9.55078943
Ce      7.94549525      0.08779102      6.34918492
Ce      0.21230505      4.55580941      3.19108904
Ce     -1.72698816      5.68295691      9.49681999
Ce     -1.70773089      3.43803455      6.35951805
Ce      4.07833306      4.55580941      3.19108904
Ce      2.13793524      3.47161381      6.33359327
Ce      7.94447705      4.55580941      3.19108904
Ce      5.94770804      5.67176090      9.50288201
Ce      6.00255857      3.44117314      6.36746280
Ce     -1.72076694      7.90398832      3.19108904
Ce     -3.63799500      9.01965114      9.44836538
Ce     -3.65168587      6.78637576      6.34105427
Ce      2.14526106      7.90398832      3.19108904
Ce      0.25773375      8.90371409      9.46679111
Ce      0.24061496      6.76548322      6.30281891
Ce      6.01140505      7.90398832      3.19108904
Ce      4.04760471      8.95989098      9.47307457
Ce      4.05107314      6.76609788      6.30341499
O       0.21230505      2.32375710      2.40201559
O       2.15600362      1.23143024     10.20867314
O       2.14695265      1.19021793      5.53226777
O       0.24384141      2.31118595      7.17227795
O       0.22893255      0.06126180      8.72157533
O       0.21230505      0.09170479      3.98039141
O       4.07833306      2.32375710      2.40201559
O       6.22543851      1.04984514     10.36092442
O       6.01836382      1.21730926      5.57433376
O       4.02466568      2.33855595      7.18121953
O       4.11342139      0.10633073      8.74306476
O       4.07833306      0.09170479      3.98039141
O       7.94436106      2.32375710      2.40201559
O       9.82182396      1.14989735     10.21440287
O       9.87038802      1.21289099      5.56001335
O       7.96260161      2.34395387      7.23516750
O       7.91747440      0.01274915      8.69708655
O       7.94436106      0.09170479      3.98039141
O      -1.72076694      5.67193601      2.40201559
O       0.48285225      5.04056689     10.37693137
O       0.13226983      4.51274588      5.51579227
O      -1.71398902      5.69819580      7.19305422
O      -1.61868879      3.48768688      8.77676935
O      -1.72070895      3.43978325      3.98039141
O       2.14526106      5.67193601      2.40201559
O       3.88285795      4.77804484     10.30917813
O       4.15775424      4.51411580      5.51463994
O       2.14371754      5.66327813      6.71694211
O       2.11282995      3.71107452      8.75318935
O       2.14531905      3.43978325      3.98039141
O       6.01128907      5.67193601      2.40201559
O       7.96333324      4.56532919     10.24782381
O       7.94529183      4.55061207      5.56332235
O       6.00367937      5.68239897      7.19406157
O       5.93552276      3.43244350      8.77813875
O       6.01134706      3.43978325      3.98039141
O      -3.65378095      9.02001447      2.40201559
O      -1.66179289      7.85050774     10.21959630
O      -1.73936766      7.90693501      5.52912166
O      -3.63530694      9.02798008      7.16926280
O      -3.65591952      6.80529782      8.71269931
O      -3.65378095      6.78796216      3.98039141
O       0.21224706      9.02001447      2.40201559
O       2.18663496      7.73225096     10.28949789
O       2.14715239      7.98727590      5.50996007
O       0.18511519      8.97684081      7.16196088
O       0.44311443      6.67637098      8.65599050
O       0.21224706      6.78796216      3.98039141
O       4.07827507      9.02001447      2.40201559
O       5.93878194      7.84196238     10.21884711
O       6.03265403      7.90806140      5.53673161
O       4.09750001      8.99992121      7.16776459
O       3.87184947      6.66947771      8.63648408
O       4.07827507      6.78796216      3.98039141
O       5.14069863      2.52375369     11.60376819
O       0.01454813      3.23420416     11.62672467
Pd      2.19641126      5.72668710      9.54805873
H       5.18424182      1.84848556     12.30733236
H       0.65221340      3.67085115     12.22022708
