    82
 Tv_1:  11.598200   0.000000   0.000000 Tv_2:  -5.799100  10.044336   0.000000 Tv_3:   0.000000   0.000000  22.891600
Ce      2.14531905      1.20773094      3.19108904
Ce      0.24217583      2.38495021      9.50308713
Ce      0.22992392      0.08164448      6.36176149
Ce      6.01134706      1.20773094      3.19108904
Ce      4.10079273      2.20050544      9.46347958
Ce      4.07752233      0.09331992      6.31031028
Ce      9.87749105      1.20773094      3.19108904
Ce      7.97471609      2.30648517      9.52402740
Ce      7.94277824      0.08446540      6.34998001
Ce      0.21230505      4.55580941      3.19108904
Ce     -1.67474965      5.71589230      9.46231858
Ce     -1.71516790      3.44474012      6.34988443
Ce      4.07833306      4.55580941      3.19108904
Ce      2.16215938      3.48742416      6.35390573
Ce      7.94447705      4.55580941      3.19108904
Ce      6.12939181      5.71506083      9.46287805
Ce      6.01291854      3.43896082      6.34803452
Ce     -1.72076694      7.90398832      3.19108904
Ce     -3.65886223      9.02316085      9.48935658
Ce     -3.65550911      6.78781912      6.31008938
Ce      2.14526106      7.90398832      3.19108904
Ce      0.19697931      8.95788162      9.46242859
Ce      0.20850186      6.78998584      6.31655817
Ce      6.01140505      7.90398832      3.19108904
Ce      4.03990415      8.96303917      9.50297892
Ce      4.04543344      6.74973605      6.35391701
O       0.21230505      2.32375710      2.40201559
O       2.14678635      1.23147320     10.23733316
O       2.13355178      1.20649812      5.53204975
O       0.30666543      2.36916358      7.23016851
O       0.18873753      0.10557481      8.70904316
O       0.21230505      0.09170479      3.98039141
O       4.07833306      2.32375710      2.40201559
O       6.01313271      1.19091388     10.25483826
O       6.02483814      1.23437565      5.52479539
O       4.06983280      2.28431087      7.14680439
O       4.07041500      0.05541386      8.67847040
O       4.07833306      0.09170479      3.98039141
O       7.94436106      2.32375710      2.40201559
O       9.86630655      1.21407164     10.30350984
O       9.89753958      1.19619295      5.59225455
O       7.92268948      2.33634456      7.20788384
O       7.97013650      0.06552929      8.73130270
O       7.94436106      0.09170479      3.98039141
O      -1.72076694      5.67193601      2.40201559
O       0.34713653      4.70630946     10.09141829
O       0.18163576      4.52007926      5.51962365
O      -1.77141776      5.61579070      7.09832988
O      -1.68490212      3.43013159      8.73079427
O      -1.72070895      3.43978325      3.98039141
O       2.14526106      5.67193601      2.40201559
O       4.54971843      4.29564206     11.11595236
O       4.11426866      4.53501330      5.54244238
O       2.11425831      5.68978020      6.94058778
O       2.40107277      3.65623186      8.82977131
O       2.14531905      3.43978325      3.98039141
O       6.01128907      5.67193601      2.40201559
O       7.96122990      4.56238332     10.25358426
O       7.92816372      4.53063800      5.52450912
O       6.04137914      5.69897444      7.14630299
O       5.90362098      3.50186328      8.75648617
O       6.01134706      3.43978325      3.98039141
O      -3.65378095      9.02001447      2.40201559
O      -1.77838696      7.93730852     10.34693571
O      -1.73377366      7.91144431      5.52706532
O      -3.66529727      9.02690715      7.14782897
O      -3.62564036      6.81361588      8.67804473
O      -3.65378095      6.78796216      3.98039141
O       0.21224706      9.02001447      2.40201559
O       2.08135929      7.71176044     10.09145082
O       2.16087424      7.94839418      5.51971550
O       0.23515555      9.09148172      7.09871574
O      -0.05924177      6.94435813      8.53656925
O       0.21224706      6.78796216      3.98039141
O       4.07827507      9.02001447      2.40201559
O       5.99160254      7.89162996     10.23659670
O       6.00676966      7.91493957      5.53210302
O       4.08603404      8.91611935      7.22998869
O       4.01808446      6.45975093      8.82879673
O       4.07827507      6.78796216      3.98039141
O       4.60926194      4.31441025     12.40477995
Pd      2.19148058      5.64454087      9.50045945
