    81
 Tv_1:  11.598200   0.000000   0.000000 Tv_2:  -5.799100  10.044336   0.000000 Tv_3:   0.000000   0.000000  22.891600
Ce      2.14531905      1.20773094      3.19108904
Ce      0.24894330      2.38895592      9.68741134
Ce      0.22031833      0.08130938      6.46849068
Ce      6.01134706      1.20773094      3.19108904
Ce      4.09516751      2.21228683      9.60035453
Ce      4.08809115      0.09614921      6.37502664
Ce      9.87749105      1.20773094      3.19108904
Ce      7.96854175      2.30244072      9.70862897
Ce      7.95239634      0.08399819      6.43790688
Ce      0.21230505      4.55580941      3.19108904
Ce     -1.67126402      5.71310495      9.63287834
Ce     -1.72050521      3.43507835      6.43837951
Ce      4.07833306      4.55580941      3.19108904
Ce      2.15657083      3.48056815      6.41980435
Ce      7.94447705      4.55580941      3.19108904
Ce      6.10031736      5.71412385      9.63840916
Ce      6.01471634      3.44299099      6.42232200
Ce     -1.72076694      7.90398832      3.19108904
Ce     -3.58519608      9.05885456      9.62663358
Ce     -3.65647177      6.78595811      6.39739984
Ce      2.14526106      7.90398832      3.19108904
Ce      0.21162266      8.95416880      9.62744636
Ce      0.20420869      6.78897287      6.38638976
Ce      6.01140505      7.90398832      3.19108904
Ce      3.99373849      8.92358664      9.72985934
Ce      4.04859738      6.75769978      6.43283340
O       0.21230505      2.32375710      2.40201559
O       2.18852689      1.23176356     10.43543918
O       2.13684108      1.21734838      5.60341812
O       0.29901628      2.35036390      7.34806515
O       0.21374944      0.06059378      8.89705684
O       0.21230505      0.09170479      3.98039141
O       4.07833306      2.32375710      2.40201559
O       6.00273544      1.18446719     10.47178147
O       6.02565051      1.23962163      5.58970655
O       4.08127300      2.30029147      7.25411560
O       4.09863511      0.06171583      8.79284581
O       4.07833306      0.09170479      3.98039141
O       7.94436106      2.32375710      2.40201559
O       9.86119743      1.19361978     10.51924404
O       9.89475172      1.19825115      5.66550554
O       7.90832031      2.34480117      7.32353479
O       7.95906844      0.06517297      8.89852317
O       7.94436106      0.09170479      3.98039141
O      -1.72076694      5.67193601      2.40201559
O       0.37462196      4.71615884     10.30521466
O       0.16618848      4.50326847      5.58517238
O      -1.78775759      5.60645437      7.20604766
O      -1.68611045      3.42331774      8.90161999
O      -1.72070895      3.43978325      3.98039141
O       2.14526106      5.67193601      2.40201559
O       4.12544793      4.53105349      5.60278384
O       2.10793328      5.68093079      6.97064493
O       2.41085877      3.68288322      9.01073056
O       2.14531905      3.43978325      3.98039141
O       6.01128907      5.67193601      2.40201559
O       7.95347669      4.58663166     10.45718278
O       7.92515567      4.53023479      5.58883861
O       6.05121069      5.67531627      7.26880470
O       5.88447843      3.50952220      9.00042921
O       6.01134706      3.43978325      3.98039141
O      -3.65378095      9.02001447      2.40201559
O      -1.75499923      7.95321303     10.52957701
O      -1.73487486      7.90761468      5.59374621
O      -3.65054795      9.04216047      7.23566997
O      -3.64500509      6.85113881      8.83381474
O      -3.65378095      6.78796216      3.98039141
O       0.21224706      9.02001447      2.40201559
O       2.05391771      7.65876668     10.28364030
O       2.16879082      7.95877964      5.58201921
O       0.24430301      9.08884537      7.18433914
O      -0.07841585      6.94326402      8.64833246
O       0.21224706      6.78796216      3.98039141
O       4.07827507      9.02001447      2.40201559
O       6.11401144      7.96722283     10.62707040
O       6.00465094      7.90822344      5.61774757
O       4.08135788      8.93242319      7.34987067
O       3.99843447      6.44896988      8.92814815
O       4.07827507      6.78796216      3.98039141
O       5.11132594      7.24734864     11.34852322
Pd      2.21069596      5.63029482      9.69649549
