    83
 Tv_1:  11.598200   0.000000   0.000000 Tv_2:  -5.799100  10.044336   0.000000 Tv_3:   0.000000   0.000000  22.891600
Ce      2.14531905      1.20773094      3.19108904
Ce      0.21901093      2.35961860      9.50027814
Ce      0.21634733      0.08756602      6.35097784
Ce      6.01134706      1.20773094      3.19108904
Ce      4.06223752      2.16730926      9.42407670
Ce      4.07467749      0.07625234      6.30282222
Ce      9.87749105      1.20773094      3.19108904
Ce      7.94584885      2.32662258      9.51444436
Ce      7.93680260      0.08850138      6.34509786
Ce      0.21230505      4.55580941      3.19108904
Ce     -1.66381904      5.68464778      9.47761736
Ce     -1.72022683      3.45028864      6.34588455
Ce      4.07833306      4.55580941      3.19108904
Ce      2.15088485      3.47820491      6.36255365
Ce      7.94447705      4.55580941      3.19108904
Ce      6.10190620      5.75178524      9.44627860
Ce      6.00049111      3.44662759      6.34550880
Ce     -1.72076694      7.90398832      3.19108904
Ce     -3.66082690      9.01466634      9.48738575
Ce     -3.65046175      6.79629937      6.31308408
Ce      2.14526106      7.90398832      3.19108904
Ce      0.23035216      8.96516969      9.47574350
Ce      0.23777663      6.77349811      6.33013456
Ce      6.01140505      7.90398832      3.19108904
Ce      4.04951294      9.00004465      9.50349508
Ce      4.04056513      6.76321921      6.36588857
O       0.21230505      2.32375710      2.40201559
O       2.15919256      1.18339309     10.29050555
O       2.13544711      1.20096154      5.53136183
O       0.25883946      2.34713030      7.19929481
O       0.20235668      0.10125927      8.71584292
O       0.21230505      0.09170479      3.98039141
O       4.07833306      2.32375710      2.40201559
O       5.99632511      1.19128398     10.24731743
O       6.01979257      1.21749073      5.52953812
O       4.07662832      2.27725471      7.13961874
O       4.06051007      0.05181169      8.67315384
O       4.07833306      0.09170479      3.98039141
O       7.94436106      2.32375710      2.40201559
O       9.84968531      1.22871726     10.29261829
O       9.87488025      1.21132444      5.57553676
O       7.89125449      2.35651750      7.20962727
O       7.95632436      0.08553559      8.70049910
O       7.94436106      0.09170479      3.98039141
O      -1.72076694      5.67193601      2.40201559
O       0.17105073      4.58093911     10.31289669
O       0.16728895      4.51971511      5.52217596
O      -1.73108007      5.66741578      7.14118187
O      -1.70613325      3.43363736      8.70162675
O      -1.72070895      3.43978325      3.98039141
O       2.14526106      5.67193601      2.40201559
O       4.21882464      4.70923076     11.09465576
O       4.12876058      4.52472199      5.53714896
O       2.14676525      5.66093706      6.88688082
O       2.26835156      3.50842636      8.80320569
O       2.14531905      3.43978325      3.98039141
O       6.01128907      5.67193601      2.40201559
O       7.94292117      4.56729296     10.24512457
O       7.93825810      4.54816527      5.53541169
O       6.03232846      5.69721674      7.15349113
O       5.84324377      3.52829115      8.79496629
O       6.01134706      3.43978325      3.98039141
O      -3.65378095      9.02001447      2.40201559
O      -1.70577986      7.89229754     10.27761322
O      -1.73115304      7.90680087      5.52257864
O      -3.66693334      9.02381754      7.14606377
O      -3.63693398      6.81496393      8.68204490
O      -3.65378095      6.78796216      3.98039141
O       0.21224706      9.02001447      2.40201559
O       2.11239197      7.95605565     10.33402614
O       2.15390855      7.95737167      5.52477512
O       0.21189548      9.03800043      7.13252496
O       0.23692996      6.79204220      8.62620260
O       0.21224706      6.78796216      3.98039141
O       4.07827507      9.02001447      2.40201559
O       6.02533950      7.90134211     10.27549560
O       6.01097035      7.91293819      5.53256613
O       4.08391981      8.97294529      7.19764913
O       4.02139359      6.65651026      8.79826077
O       4.07827507      6.78796216      3.98039141
Pd      2.00792266      5.79285429      9.68306371
C       3.01329839      4.96655577     11.04777038
H       2.32677204      4.64248924     11.86681994
