    85
 Tv_1:  11.598200   0.000000   0.000000 Tv_2:  -5.799100  10.044336   0.000000 Tv_3:   0.000000   0.000000  22.891600
Ce      2.14327525      1.20733147      3.18657273
Ce      0.25411335      2.35391971      9.48766626
Ce      0.23356054      0.07623590      6.34780703
Ce      6.00992224      1.20730063      3.18754430
Ce      4.14050400      2.27261569      9.53147714
Ce      4.07593681      0.10953085      6.32378985
Ce      9.87550004      1.20775819      3.18863299
Ce      7.99610077      2.29087935      9.50650593
Ce      7.95089023      0.08038123      6.34199923
Ce      0.20991482      4.55543356      3.18809465
Ce     -1.71376172      5.72684020      9.44860851
Ce     -1.70932764      3.43424725      6.34346021
Ce      4.07628796      4.55544203      3.18714491
Ce      2.16487454      3.46352262      6.36204719
Ce      7.94210282      4.55531181      3.19000573
Ce      6.10126217      5.64774718      9.49583369
Ce      6.01999206      3.42923084      6.33166259
Ce     -1.72297791      7.90300905      3.18743150
Ce     -3.65730850      9.02297030      9.48867156
Ce     -3.66749920      6.78119609      6.31614465
Ce      2.14332251      7.90364670      3.18793870
Ce      0.16603757      8.98514432      9.45144092
Ce      0.17443089      6.80755084      6.31329800
Ce      6.00914637      7.90333600      3.18807051
Ce      4.06231097      8.96097417      9.48312550
Ce      4.06158259      6.75408504      6.35651516
O       0.20996720      2.32365428      2.39887191
O       2.11920501      1.23226878     10.21932299
O       2.13853269      1.21300555      5.52807862
O       0.30359834      2.34947636      7.20913633
O       0.18255743      0.09123460      8.69332105
O       0.20993798      0.09141992      3.97652380
O       4.07684725      2.32341104      2.39820492
O       6.04647116      1.15084353     10.24539786
O       6.02282154      1.23658002      5.51511910
O       4.07231569      2.30632793      7.15153398
O       4.06589420      0.06407656      8.68223610
O       4.07641094      0.09107789      3.97539452
O       7.94265989      2.32382692      2.40011052
O       9.89258722      1.19373278     10.30585229
O       9.90905737      1.18635944      5.56833125
O       7.97200236      2.30370218      7.16610310
O       7.99112048      0.04903616      8.72258145
O       7.94266812      0.09117089      3.97800927
O      -1.72320246      5.67106483      2.39946773
O       0.35851236      4.78256217     10.03362821
O       0.21551828      4.53977572      5.52677457
O      -1.78595793      5.60069296      7.08048742
O      -1.66335821      3.41288775      8.72303397
O      -1.72313760      3.43947793      3.97863807
O       2.14315653      5.67169776      2.39862223
O       2.96296067      3.98213595     11.89696697
O       4.07177489      4.55636403      5.54651455
O       2.07912594      5.71015166      7.12833832
O       2.35321270      3.64144161      8.79566861
O       2.14285039      3.43942553      3.97608679
O       6.00963228      5.67143416      2.39893593
O       8.01012242      4.55954995     10.24319158
O       7.92414581      4.52740764      5.51668598
O       6.02209269      5.68639885      7.14140038
O       6.04852354      3.42414337      8.65652139
O       6.00897582      3.43920145      3.97699309
O      -3.65588255      9.01916146      2.39848034
O      -1.81262819      7.95189227     10.37039840
O      -1.73945624      7.91346885      5.52701571
O      -3.66638645      9.02787217      7.13839030
O      -3.64088724      6.81319984      8.67264155
O      -3.65686407      6.78694798      3.97827332
O       0.21076989      9.01946261      2.39874003
O       2.03607132      7.65660818     10.04631840
O       2.15651451      7.90493805      5.52387390
O       0.23905234      9.11076637      7.08044033
O      -0.15186470      7.00042184      8.50531566
O       0.21002836      6.78734940      3.97689072
O       4.07635973      9.01982487      2.39933358
O       5.95599835      7.87719639     10.24518131
O       6.00190746      7.90579207      5.52704022
O       4.09225994      8.91693246      7.20581856
O       4.00844771      6.48730682      8.80376430
O       4.07573829      6.78735781      3.97691248
O       4.88988361      4.08368159     10.71033987
Pd      2.15237957      5.66190506      9.36165252
C       2.61864158      5.17130112     11.87080098
H       1.59909224      5.45581767     12.18917185
H       3.34182304      5.98237672     11.65973186
