84
CIF: Cu-Cr-CeO2-CO.cif | data_image0
Ce     1.93038582     1.11050507     0.88387043
Ce    -0.00267201     2.23241189     4.02876346
Ce    -5.78184887    10.04450617     7.20462894
Ce     5.81181033     1.12175166     0.90127712
Ce     3.84964094     2.21379218     4.02076930
Ce    -1.88265128    10.05757277     7.22750870
Ce     9.66901012     1.12377363     0.90450652
Ce     7.75879906     2.22684172     4.09020735
Ce     7.77008899     0.03124612     7.20165197
Ce    -0.00709724     4.47602159     0.89067279
Ce    -1.93650957     5.58613730     4.05408937
Ce     9.66594658     3.31473047     7.20197245
Ce     3.86254305     4.47635356     0.87798423
Ce     1.93976958     5.58640422     4.03671864
Ce     1.86653654     3.31047833     7.16960078
Ce     7.74213807     4.46545905     0.90125422
Ce     5.81546096     5.61873709     4.02086130
Ce    -1.94645625     7.83004003     0.90010904
Ce    -3.86517820     8.93787478     4.06810568
Ce    -3.84365151     6.66104119     7.22771846
Ce     1.92815559     7.82745473     0.89060408
Ce     0.00182753     8.94343723     4.05392126
Ce     0.01941799     6.69510159     7.19735533
Ce     5.81127600     7.83258510     0.88371011
Ce     3.87326932     8.94567184     4.02884270
Ce     3.87406977     6.78777318     7.16974589
Cr     5.19455747     3.70711975     6.71851977
Cu     6.68810988     2.84487776     8.78480444
O     11.61334069     0.00154917     0.10141687
O      1.93700380     1.11041396     3.22366591
O      0.00454886     2.20446054     6.37720723
O     -0.00785227     2.23805103     1.69392277
O     -5.78372984    10.04553486     4.84854684
O      1.95406055     1.12250573     7.98223918
O     -1.93899312    10.05733740     0.10496691
O      5.79724484     1.14803259     3.26116453
O      3.93757979     2.22763789     6.43818243
O      3.86763657     2.23577757     1.68132582
O      3.86659815     0.00858501     4.87372419
O      6.01849963     1.03550940     8.15493872
O      7.73821774     0.00761509     0.10924988
O      9.68268987     1.11601905     3.24829227
O      7.88157730     2.15608393     6.29632259
O      7.74357843     2.23531483     1.71563532
O      1.92953217    10.00957967     4.80985292
O      9.73822929     1.08400716     8.03099271
O      9.67032270     3.35425987     0.10911246
O      0.02079441     4.48125446     3.22629440
O     -1.95101067     5.58339936     6.41460753
O     -1.94403436     5.59119430     1.70564938
O     -1.89578182     3.38377629     4.80984992
O      0.05404198     4.45939058     7.97655596
O      1.92738314     3.35244915     0.09928684
O      3.86106039     4.47725359     3.21777017
O      1.94206078     5.58516578     6.37224622
O      1.92862022     5.59252216     1.67404250
O      1.94100884     3.32840684     4.85474371
O      3.92749840     4.43866651     7.78922701
O      5.81155478     3.35101064     0.10766953
O      7.71204098     4.46482013     3.26109160
O      5.84768207     5.53523092     6.43854244
O      5.80528807     5.59217007     1.68114259
O      5.69480271     3.41839557     4.92895124
O      7.92067563     4.32911599     8.15595723
O     -3.87155109     6.71022987     0.10512724
O     -1.94280336     7.82803887     3.24868461
O     -3.83714032     8.92161109     6.43320411
O     -3.87509971     8.94378428     1.69355631
O      7.73357137     6.70655685     4.87378970
O     -1.91123578     7.80963973     8.00364495
O     -0.01209783     6.71325780     0.10434852
O      1.93737131     7.80077554     3.22630840
O     -0.00301198     8.95709933     6.41440936
O     -0.00628994     8.94736548     1.70514550
O     -0.00583494     6.70963120     4.86225040
O      1.97289691     7.78303071     7.97665096
O      3.86815347     6.71410280     0.09951587
O      5.81473489     7.82681836     3.22346277
O      3.90088677     8.95341181     6.37721898
O      3.86556896     8.94715423     1.69389986
O      3.89610934     6.71439857     4.85490729
O      5.81261422     7.80580405     7.98218050
O      5.40283245     3.59179375    11.39076859
C      5.97912629     3.25539073    10.45067609
