84
CIF: Cu-Cr-CeO2-Ov-CO2.cif | data_image0
Ce     1.93038582     1.11050507     0.88387043
Ce    -0.01419241     2.23441376     4.00274373
Ce    -5.80105625    10.05554799     7.20347903
Ce     5.81181033     1.12175166     0.90127712
Ce     3.83680625     2.21516484     4.00575103
Ce    -1.88338748    10.05587862     7.35578888
Ce     9.66901012     1.12377363     0.90450652
Ce     7.75422169     2.22928322     4.06474592
Ce     7.76346009     0.01670002     7.19502122
Ce    -0.00709724     4.47602159     0.89067279
Ce    -1.95401435     5.58629388     4.07894598
Ce     9.67513500     3.32757321     7.19500639
Ce     3.86254305     4.47635356     0.87798423
Ce     1.94188739     5.58499963     4.05350057
Ce     1.74319340     3.27786133     7.17706014
Ce     7.74213807     4.46545905     0.90125422
Ce     5.80778790     5.62897920     4.00548448
Ce    -1.94645625     7.83004003     0.90010904
Ce    -3.86838072     8.93971859     4.12297755
Ce    -3.84265835     6.66237368     7.35598844
Ce     1.92815559     7.82745473     0.89060408
Ce    -0.00714434     8.95837269     4.07887857
Ce    -0.01362394     6.71404646     7.24847460
Ce     5.81127600     7.83258510     0.88371011
Ce     3.86567263     8.95449887     4.00281034
Ce     3.84057899     6.91077733     7.17715745
Cr     5.39560815     3.59051325     6.62529974
Cu     6.89139252     2.72724837     8.46890980
O     11.61334069     0.00154917     0.10141687
O      1.93005512     1.11399104     3.22211602
O     -0.04150549     2.22161900     6.34689141
O     -0.00785227     2.23805103     1.69392277
O     -5.80313521    10.05669089     4.83817471
O      1.82710291     1.23078643     8.02511099
O     -1.93899312    10.05733740     0.10496691
O      5.78901782     1.12866304     3.23928947
O      3.93073572     2.52972970     6.47996188
O      3.86763657     2.23577757     1.68132582
O      3.86041441     0.07985082     4.89257966
O      6.06731791     1.05703082     8.30690892
O      7.73821774     0.00761509     0.10924988
O      9.68272651     1.11595918     3.22226884
O      7.77168939     2.21921558     6.39395998
O      7.74357843     2.23531483     1.71563532
O      7.74413284     0.00577590     4.80593472
O      9.70745183     1.10152439     8.00286034
O      9.67032270     3.35425987     0.10911246
O      0.00569401     4.49024850     3.23084755
O     -1.92282341     5.53405356     6.39866514
O     -1.94403436     5.59119430     1.70564938
O      9.67468787     3.34983524     4.80606012
O      0.00371112     4.43587671     8.00656169
O      1.92738314     3.35244915     0.09928684
O      3.85277914     4.48196439     3.23154381
O      2.11988869     5.48216330     6.55294856
O      1.92862022     5.59252216     1.67404250
O      1.89633109     3.33518461     4.84282531
O      4.60878618     4.04439874     8.65145968
O      5.81155478     3.35101064     0.10766953
O      7.72469926     4.48157798     3.23919069
O      5.58236090     5.39022615     6.48030506
O      5.80528807     5.59217007     1.68114259
O      5.79269090     3.36192638     4.81583743
O      7.92575186     4.27629881     8.30705721
O     -3.87155109     6.71022987     0.10512724
O     -1.93768533     7.82488629     3.30299596
O     -3.90127112     8.95862082     6.46397876
O     -3.87509971     8.94378428     1.69355631
O      7.66860445     6.67603241     4.89260124
O     -1.77545006     7.73131520     8.09373438
O     -0.01209783     6.71325780     0.10434852
O      1.92198039     7.80914642     3.23060403
O      0.05358744     8.95745796     6.39867849
O     -0.00628994     8.94736548     1.70514550
O      0.06007462     6.67159245     4.91946326
O      1.96814293     7.83822331     8.00656434
O      3.86815347     6.71410280     0.09951587
O      5.80819530     7.83096878     3.22189913
O      3.86328114     8.98448334     6.34700480
O      3.86556896     8.94715423     1.69389986
O      3.86765564     6.74949012     4.84290885
O      5.65547265     7.86142857     8.02521828
O      5.54106983     3.50370240    10.70937470
C      5.39514918     3.58964230     9.52248170
