90
CIF: H+OH→H2O.cif | data_image0
O      0.00261135     0.00382715     0.19995339
O      1.90302046     1.10715181     3.33534875
O      0.07433518     2.26485273     6.48354896
O      0.00261135     2.21285656     1.76196664
O     11.45108762     0.01360647     4.96962734
O      1.76420743     1.52245436     8.39395796
O      3.82876252     0.00382715     0.19995339
O      5.75041115     1.10722372     3.32209772
O      3.75873311     2.44102104     6.60380898
O      3.82876252     2.21285656     1.76196664
O      3.81916545     0.08264227     4.97182246
O      5.86439730     1.21102923     8.20318512
O      7.65492518     0.00382715     0.19995339
O      9.56050998     1.09163458     3.32790084
O      7.69676267     2.20854160     6.51039090
O      7.65492518     2.21285656     1.76196664
O      1.91355324     9.94053026     4.95524911
O      9.57938440     0.93445942     8.19870862
O     -1.91046424     3.31737126     0.19995339
O      0.00042207     4.44460937     3.32685191
O     -1.75528782     5.52810050     6.62931482
O     -1.91046998     5.52641062     1.76196664
O     -1.90417026     3.32978912     4.92192246
O      0.19595444     3.25418280     9.13559183
O      1.91568694     3.31737126     0.19995339
O      3.84557638     4.42146287     3.32258458
O      1.72649479     5.11887786     7.08365966
O      1.91568120     5.52641062     1.76196664
O      1.91785137     3.34049773     4.90284059
O      4.32026472     4.41037341     8.77164914
O      5.74184959     3.31737126     0.19995339
O      7.65212361     4.45488843     3.35937600
O      5.73720764     5.49185224     6.53140831
O      5.74184385     5.52641062     1.76196664
O      5.75403103     3.28578955     4.96058463
O      7.62250928     4.50389996     8.23406813
O     -3.82354556     6.63092532     0.19995339
O     -1.89793334     7.73521836     3.38188251
O     -3.86613628     8.92358562     6.57601930
O     -3.82354556     8.83995473     1.76196664
O     -3.77877021     6.63815154     5.04997754
O     -1.91398331     7.69259446     8.25439470
O      0.00260561     6.63092532     0.19995339
O      1.90925765     7.74079695     3.31411632
O     -0.03187716     8.89039385     6.50209508
O      0.00260561     8.83995473     1.76196664
O      0.10683491     6.63797468     5.02281197
O      1.76572530     7.82298452     8.17474023
O      3.82876826     6.63092532     0.19995339
O      5.73796915     7.71194819     3.39299209
O      3.82681407     8.81068243     6.50855068
O      3.82876826     8.83995473     1.76196664
O      3.70463393     6.55253775     5.01688216
O      5.83192554     7.78149286     8.24569062
Ce     1.91568694     1.10834185     0.98097142
Ce    -0.03223476     2.20820432     4.11217554
Ce     5.66582952     9.87022292     7.33631793
Ce     5.74184959     1.10834185     0.98097142
Ce     3.84996981     2.21525157     4.12537411
Ce     3.82988962     0.09105087     7.47302618
Ce     9.56800076     1.10834185     0.98097142
Ce     7.67203939     2.22582408     4.14414433
Ce     7.66018848     0.01861416     7.33071793
Ce     0.00261135     4.42188597     0.98097142
Ce    -1.89639283     5.51985594     4.19699468
Ce     9.56277393     3.25690035     7.45736731
Ce     3.82877400     4.42188597     0.98097142
Ce     1.92165532     5.52887906     4.09150210
Ce     7.65492518     4.42188597     0.98097142
Ce     5.73566641     5.52060761     4.19920775
Ce     5.87185504     3.32322563     7.36759401
Ce    -1.91046998     7.73544003     0.98097142
Ce    -3.81742850     8.86119474     4.19707519
Ce    -3.81680721     6.64732171     7.40581177
Ce     1.91569268     7.73544003     0.98097142
Ce    -0.00249881     8.86797139     4.14701377
Ce    -0.03665205     6.82240357     7.33589542
Ce     5.74184385     7.73544003     0.98097142
Ce     3.81351241     8.81057943     4.16944475
Ce     3.81274910     6.60372350     7.52095769
Sn     1.87521137     3.11247180     7.01833539
C      3.43276327     6.83994444    10.88934106
C      3.23581266     5.59583715    10.50486733
C      4.05103361     4.40977132    10.15711420
H      2.62456511     7.57505827    10.93297125
H      4.43877841     7.19834482    11.16766524
H      0.50432052     3.76187452     9.90548617
H      0.90789154     2.33284682     8.99556095
H      3.54340114     3.47245810    10.46486222
H      4.99819591     4.46432893    10.74718154
