89
CIF: CH2+CH2CO.cif | data_image0
O      0.00261135     0.00382715     0.19995339
O      1.91773772     1.11204053     3.35324985
O      0.02242341     2.28392328     6.63208586
O      0.00261135     2.21285656     1.76196664
O     -0.00287990     0.03293969     4.99602864
O      1.91257577     0.98586979     8.01393079
O      3.82876252     0.00382715     0.19995339
O      5.73568669     1.10420183     3.33281082
O      3.75940661     2.22036256     6.59890517
O      3.82876252     2.21285656     1.76196664
O      3.84080075     0.00457848     4.98286335
O      5.75389123     0.96432342     8.20180029
O      7.65492518     0.00382715     0.19995339
O      9.57573059     1.11382530     3.33310963
O      7.69322189     2.20810851     6.54431045
O      7.65492518     2.21285656     1.76196664
O      7.65452131     0.01688003     4.95462855
O      9.56411721     1.10505403     8.18096890
O     -1.91046424     3.31737126     0.19995339
O      0.02970962     4.40599052     3.36204582
O     -1.84164841     5.50442053     6.54208985
O     -1.91046998     5.52641062     1.76196664
O     -1.90372017     3.30085547     4.98485659
O      1.91568694     3.31737126     0.19995339
O      3.79870865     4.41138597     3.37136197
O      1.94952997     5.79015217     6.48791133
O      1.91568120     5.52641062     1.76196664
O      1.90919647     3.26916972     5.10273461
O      4.69703280     4.99541122     9.26332233
O      5.74184959     3.31737126     0.19995339
O      7.65866820     4.41381132     3.33996278
O      5.61581326     5.54140549     6.60547739
O      5.74184385     5.52641062     1.76196664
O      5.74356919     3.29919739     4.95826558
O      7.74890795     4.50608635     8.22472027
O     -3.82354556     6.63092532     0.19995339
O     -1.93383857     7.73313637     3.34377852
O     -3.82805457     8.75753669     6.48952769
O     -3.82354556     8.83995473     1.76196664
O      7.64264777     6.56144390     4.99779940
O     -1.89168002     7.73613099     8.14601501
O      0.00260561     6.63092532     0.19995339
O      1.91653968     7.73317791     3.34233435
O      0.03436489     8.81973340     6.48856478
O      0.00260561     8.83995473     1.76196664
O     -0.02874650     6.63772755     4.93645513
O      1.93793400     7.82225826     8.23199869
O      3.82876826     6.63092532     0.19995339
O      5.76452455     7.74570438     3.34318093
O      3.81335677     8.86039575     6.50316965
O      3.82876826     8.83995473     1.76196664
O      3.86744945     6.67465889     4.92533031
O      5.71741583     7.78817521     8.19411087
O     -0.14168482     4.56988969     8.48852461
O      1.98864477     3.72903329     8.32737928
Ce     1.91568694     1.10834185     0.98097142
Ce     0.00370465     2.21948257     4.16904895
Ce     5.71864730     9.93680322     7.34467262
Ce     5.74184959     1.10834185     0.98097142
Ce     3.83369303     2.21145400     4.16678478
Ce    -1.87828020     9.88898704     7.32958949
Ce     9.56800076     1.10834185     0.98097142
Ce     7.65212101     2.20995922     4.15041196
Ce     7.64909192     0.02637625     7.36300682
Ce     0.00261135     4.42188597     0.98097142
Ce    -1.90598980     5.50912524     4.15608942
Ce     9.55682565     3.31007007     7.36322092
Ce     3.82877400     4.42188597     0.98097142
Ce     1.91771751     5.53697490     4.20518446
Ce     7.65492518     4.42188597     0.98097142
Ce     5.73028593     5.50969007     4.17395780
Ce     5.78114564     3.24777194     7.38538370
Ce    -1.91046998     7.73544003     0.98097142
Ce    -3.82497262     8.83286079     4.15489135
Ce    -3.81374507     6.61219829     7.32916905
Ce     1.91569268     7.73544003     0.98097142
Ce     0.00607245     8.84118814     4.12731983
Ce     0.04380364     6.69813793     7.30930351
Ce     5.74184385     7.73544003     0.98097142
Ce     3.82857124     8.85786939     4.11914614
Ce     3.78642205     6.77520905     7.29115127
Co     1.91467402     2.48465826     6.85678329
C      1.05194786     4.01788832    10.46406462
C      0.98015974     4.08301176     9.09533670
C      5.44766175     5.28731904    10.19566552
H      0.22770422     4.37411107    11.07799352
H      1.93687659     3.59980841    10.93782428
H      6.06716538     4.51142574    10.68894520
H      5.52905355     6.33415340    10.54840277
