83
CIF: O2—Olatt+Osur.cif | data_image0
Ce     1.93596140     1.11772783     0.89035214
Ce    -0.02046098     2.23248327     4.06319668
Ce    -5.59621973     9.98307337     7.15817027
Ce     5.80789581     1.11772783     0.89035214
Ce     3.86362127     2.23478196     4.02622498
Ce     3.92217486     0.03460849     7.21505796
Ce     9.67981860     1.11772783     0.89035214
Ce     7.73645981     2.23442603     4.04805271
Ce     1.88898457    10.01657948     7.19998112
Ce     0.00000000     4.47091133     0.89035214
Ce    -1.93278439     5.56479366     4.05207886
Ce     9.60315834     3.32622217     7.29472843
Ce     3.87193441     4.47091133     0.89035214
Ce     1.93900405     5.58827355     4.06091077
Ce     1.92800818     3.34286650     7.23874047
Ce     7.74385721     4.47091133     0.89035214
Ce     5.81786525     5.61905159     4.02246901
Ce    -1.93596721     7.82410489     0.89035214
Ce    -3.83366145     8.94774311     3.98666381
Ce    -3.82662146     6.79236702     7.17213495
Ce     1.93596721     7.82410489     0.89035214
Ce     0.00952587     8.94064062     4.02893335
Ce     0.02634616     6.68181932     7.22911513
Ce     5.80789000     7.82410489     0.89035214
Ce     3.88124793     8.94773639     4.04072937
Ce     3.90325744     6.75437146     7.25801443
Y      5.69566414     3.49839197     6.95549149
O      0.00000000     0.00000000     0.09999685
O      1.93029430     1.12454702     3.22029695
O     -0.05711476     2.08231670     6.55442757
O      0.00000000     2.23545567     1.68070743
O     -5.75782642    10.02195447     4.84522542
O      2.01959791     1.06640067     8.02087944
O      3.87192279     0.00000000     0.09999685
O      5.81216125     1.09379156     3.23292970
O      3.88792624     2.22371607     6.36835033
O      3.87192279     2.23545567     1.68070743
O      3.87921410     0.00780120     4.82814227
O      5.94309028     0.99032114     8.29786066
O      7.74385721     0.00000000     0.09999685
O      9.69838888     1.10471217     3.24538833
O      7.62375975     2.18001933     6.28120457
O      7.74385721     2.23545567     1.68070743
O      1.96805765     9.98252664     4.82286863
O      8.64106043     1.42277232     8.76492461
O     -1.93596140     3.35318350     0.09999685
O      0.01440498     4.47567277     3.24139116
O     -2.04024095     5.58749877     6.50179113
O     -1.93596721     5.58864923     1.68070743
O     -1.90655054     3.35541609     4.83197846
O      0.13153445     4.51179984     8.02688498
O      1.93596140     3.35318350     0.09999685
O      3.81809227     4.50500016     3.24389532
O      2.00295230     5.54484842     6.40864197
O      1.93595559     5.58864923     1.68070743
O      1.87340019     3.31243752     4.90988513
O      5.80789581     3.35318350     0.09999685
O      7.76582272     4.49493342     3.23544794
O      5.91963033     5.63042051     6.38585893
O      5.80789000     5.58864923     1.68070743
O      5.75662972     3.40511553     4.68593293
O      7.52052726     4.02135504     8.40338332
O     -3.87192860     6.70637706     0.09999685
O     -1.90665076     7.81921444     3.22178965
O     -3.77977472     8.94589962     6.36511476
O     -3.87192860     8.94183273     1.68070743
O     -3.83541496     6.74880463     4.82077743
O     -1.91157376     7.86584411     8.01728915
O     -0.00000581     6.70637706     0.09999685
O      1.93080567     7.79538048     3.23170823
O     -0.03025864     9.00034198     6.39438115
O     -0.00000581     8.94183273     1.68070743
O     -0.01154655     6.68389534     4.91419288
O      3.87192860     6.70637706     0.09999685
O      5.81703934     7.83349493     3.21258630
O      3.94195266     9.12213578     6.59638944
O      3.87192860     8.94183273     1.68070743
O      3.89680308     6.78952928     4.88098221
O      6.00025547     7.88326106     8.04610928
O      1.85036915     7.82826842     7.98892743
O      3.89984117     4.55964634     8.11065483
O      4.85131053     3.04110066     8.98813189
Sc     6.99775165     2.38708662     9.34249181
