83
CIF: Sc-Y-CeO2-O.cif | data_image0
Ce     1.93596140     1.11772783     0.89035214
Ce    -0.02237450     2.23888027     4.06177095
Ce    -5.67523617    10.01253096     7.17333486
Ce     5.80789581     1.11772783     0.89035214
Ce     3.86343522     2.23682958     4.04485718
Ce     3.87547696     0.03617567     7.24124879
Ce     9.67981860     1.11772783     0.89035214
Ce     7.73272321     2.24050682     4.03946556
Ce     1.89905086    10.04133005     7.15104516
Ce     0.00000000     4.47091133     0.89035214
Ce    -1.95316230     5.57962195     4.05538793
Ce     9.61091201     3.34471133     7.26828855
Ce     3.87193441     4.47091133     0.89035214
Ce     1.92160902     5.59377610     4.03707788
Ce     1.93316627     3.39438773     7.21617284
Ce     7.74385721     4.47091133     0.89035214
Ce     5.80942452     5.59809136     4.04415409
Ce    -1.93596721     7.82410489     0.89035214
Ce    -3.85862442     8.95343931     3.99888615
Ce    -3.87795757     6.81005689     7.18212980
Ce     1.93596721     7.82410489     0.89035214
Ce    -0.01635533     8.94671862     4.03419707
Ce    -0.00612795     6.70089444     7.21775991
Ce     5.80789000     7.82410489     0.89035214
Ce     3.87779221     8.95232256     4.04200522
Ce     3.85981389     6.69650065     7.20424184
Y      5.71729497     3.40268146     7.04819996
O      0.00000000     0.00000000     0.09999685
O      1.93042499     1.13152936     3.22759947
O     -0.07007300     2.10361616     6.51356041
O      0.00000000     2.23545567     1.68070743
O     -5.76900069    10.03808479     4.83989478
O      1.97408936     1.08491907     8.02951726
O      3.87192279     0.00000000     0.09999685
O      5.79468696     1.11086815     3.23602419
O      3.89355479     2.18264590     6.42550739
O      3.87192279     2.23545567     1.68070743
O     -1.94743128    10.05698992     4.84144774
O      5.96035038     1.23895439     8.29135243
O      7.74385721     0.00000000     0.09999685
O      9.69280339     1.10770217     3.24686181
O      7.66677473     2.17869418     6.24605734
O      7.74385721     2.23545567     1.68070743
O      1.93398767     9.98437768     4.79505572
O      8.90475560     1.27853857     8.57629757
O     -1.93596140     3.35318350     0.09999685
O      0.01343701     4.48751518     3.24056496
O     -2.08263976     5.61479427     6.49811558
O     -1.93596721     5.58864923     1.68070743
O     -1.90483934     3.38047981     4.80869282
O      0.11064246     4.55968336     7.98265068
O      1.93596140     3.35318350     0.09999685
O      3.82957120     4.49822767     3.24229181
O      1.93092761     5.61654645     6.33617541
O      1.93595559     5.58864923     1.68070743
O      1.89761615     3.32358393     4.90281737
O      5.80789581     3.35318350     0.09999685
O      7.74087716     4.49388259     3.24116405
O      5.91793228     5.59592941     6.44516700
O      5.80789000     5.58864923     1.68070743
O      5.74494386     3.40004512     4.77206953
O      7.47507826     3.91184101     8.47582368
O     -3.87192860     6.70637706     0.09999685
O     -1.93391201     7.82245876     3.22014978
O     -3.84216693     8.96016546     6.39731530
O     -3.87192860     8.94183273     1.68070743
O     -3.87450665     6.75520773     4.83590617
O     -1.95774007     7.88394482     8.01723024
O     -0.00000581     6.70637706     0.09999685
O      1.93052538     7.79190441     3.23647824
O     -0.04204102     9.02531409     6.44320502
O     -0.00000581     8.94183273     1.68070743
O     -0.05941175     6.72202598     4.89976315
O      3.87192860     6.70637706     0.09999685
O      5.80161665     7.82775993     3.21831759
O      3.91655232     9.09871268     6.48532199
O      3.87192860     8.94183273     1.68070743
O      3.90583622     6.75370657     4.90737006
O      5.85138605     7.85586464     7.99120326
O      1.92915260     7.78844314     7.93356852
O      3.79870543     4.53500394     7.90550960
O      7.13858704     2.31716305    11.47309805
Sc     7.34423432     2.21565196     9.50599414
