82
CIF: Sc-Y-CeO2.cif | data_image0
Ce     1.93596140     1.11772783     0.89035214
Ce    -0.00336808     2.22588604     4.04744817
Ce    -5.65488230     9.97094557     7.15434609
Ce     5.80789581     1.11772783     0.89035214
Ce     3.87610999     2.22491077     4.03918390
Ce    -1.97469311    10.02728627     7.20026743
Ce     9.67981860     1.11772783     0.89035214
Ce     7.74130476     2.23502893     4.06554202
Ce     1.93204552    10.04089321     7.23209561
Ce     0.00000000     4.47091133     0.89035214
Ce    -1.93602565     5.57967794     4.04720928
Ce    -1.91996320     3.36335965     7.22578777
Ce     3.87193441     4.47091133     0.89035214
Ce     1.93844938     5.58723444     4.02702638
Ce     1.96774955     3.37092442     7.20503061
Ce     7.74385721     4.47091133     0.89035214
Ce     5.81947511     5.59030224     4.03940407
Ce    -1.93596721     7.82410489     0.89035214
Ce    -3.85205803     8.93056481     3.98534554
Ce    -3.86307852     6.75585332     7.20143369
Ce     1.93596721     7.82410489     0.89035214
Ce     0.00860011     8.94623143     4.04816988
Ce     0.03566145     6.68472991     7.21839200
Ce     5.80789000     7.82410489     0.89035214
Ce     3.87791586     8.94990124     4.04857568
Ce     3.87330393     6.67205558     7.20508632
Y      5.73278050     3.39576709     7.04819551
O      0.00000000     0.00000000     0.09999685
O      1.93988063     1.11883959     3.21693961
O     -0.03487913     2.08736409     6.50911938
O      0.00000000     2.23545567     1.68070743
O     -5.75057717    10.02878175     4.83049421
O      1.98413746     1.03842137     8.03695989
O      3.87192279     0.00000000     0.09999685
O      5.79602377     1.10465414     3.24521516
O      3.93278632     2.14386834     6.44813388
O      3.87192279     2.23545567     1.68070743
O     -1.95266285    10.04015434     4.83722050
O      6.05017220     1.48159429     8.51434091
O      7.74385721     0.00000000     0.09999685
O      9.70431148     1.10470342     3.24903924
O      7.68456470     2.26333715     6.27644213
O      7.74385721     2.23545567     1.68070743
O      1.94683895     9.99133506     4.79160494
O      9.00380701     1.50251642     8.77334260
O     -1.93596140     3.35318350     0.09999685
O      0.02903174     4.48274620     3.23649829
O     -2.03174080     5.61590291     6.48733362
O     -1.93596721     5.58864923     1.68070743
O     -1.87396069     3.37728051     4.79512083
O      0.15828567     4.54245884     8.00726092
O      1.93596140     3.35318350     0.09999685
O      3.83756079     4.49071762     3.23483766
O      1.95933273     5.57615413     6.31903170
O      1.93595559     5.58864923     1.68070743
O      1.92573094     3.29726200     4.89780674
O      5.80789581     3.35318350     0.09999685
O      7.74986059     4.48727356     3.24542188
O      5.91904280     5.58105524     6.44819119
O      5.80789000     5.58864923     1.68070743
O      5.73874374     3.39332856     4.77331005
O      7.54451977     4.07475043     8.51335251
O     -3.87192860     6.70637706     0.09999685
O     -1.92194815     7.81568123     3.22042492
O     -3.83168188     8.91793651     6.38525796
O     -3.87192860     8.94183273     1.68070743
O     -3.86200689     6.72987171     4.83796277
O     -1.98018891     7.85000933     8.06198686
O     -0.00000581     6.70637706     0.09999685
O      1.93999565     7.79081017     3.23619124
O     -0.07340928     9.00894802     6.48390431
O     -0.00000581     8.94183273     1.68070743
O     -0.02724408     6.72071811     4.89560499
O      3.87192860     6.70637706     0.09999685
O      5.80980552     7.82035939     3.21758749
O      3.98430970     9.04817037     6.50480536
O      3.87192860     8.94183273     1.68070743
O      3.91607139     6.74254705     4.89786937
O      5.89902466     7.82195806     8.03697210
O      3.81288829     4.50530979     7.94084664
O      1.95624570     7.65574243     8.00665194
Sc     7.46022778     2.39685016     9.47113447
