85
CIF: Sc-Y-CeO2-O-CO.cif | data_image0
Ce     1.93596140     1.11772783     0.89035214
Ce    -0.01164507     2.22748928     4.04792267
Ce    -5.65932648     9.97183301     7.15336248
Ce     5.80789581     1.11772783     0.89035214
Ce     3.86772690     2.22622172     4.03531353
Ce    -1.97340603    10.03781683     7.20353030
Ce     9.67981860     1.11772783     0.89035214
Ce     7.73660383     2.23707328     4.06113288
Ce     1.92282803    10.03735366     7.21911280
Ce     0.00000000     4.47091133     0.89035214
Ce    -1.94323104     5.57853494     4.04629739
Ce     9.67177333     3.36040905     7.23305688
Ce     3.87193441     4.47091133     0.89035214
Ce     1.92960032     5.58823471     4.02591022
Ce     1.95001219     3.37249993     7.20153285
Ce     7.74385721     4.47091133     0.89035214
Ce     5.81208239     5.59322180     4.03629340
Ce    -1.93596721     7.82410489     0.89035214
Ce    -3.85592404     8.93297989     3.98460485
Ce    -3.87316852     6.76059669     7.19847319
Ce     1.93596721     7.82410489     0.89035214
Ce     0.00142275     8.94745241     4.04433442
Ce     0.02103653     6.68555126     7.21559162
Ce     5.80789000     7.82410489     0.89035214
Ce     3.87295922     8.95001026     4.04637662
Ce     3.85994514     6.67349611     7.20088081
Y      5.71259956     3.40256650     7.03487560
O      0.00000000     0.00000000     0.09999685
O      1.93491471     1.11949871     3.21695825
O     -0.04649366     2.08577086     6.51135547
O      0.00000000     2.23545567     1.68070743
O     -5.75632059    10.02865084     4.83075338
O      1.97949332     1.03982513     8.04459043
O      3.87192279     0.00000000     0.09999685
O      5.79230824     1.10556380     3.24109560
O      3.91063110     2.15403815     6.43643294
O      3.87192279     2.23545567     1.68070743
O     -1.95659604    10.04330755     4.83630110
O      5.99858683     1.46179189     8.47801505
O      7.74385721     0.00000000     0.09999685
O      9.70017277     1.10438477     3.24713325
O      7.67352168     2.26906160     6.27152886
O      7.74385721     2.23545567     1.68070743
O      1.94158428     9.99319236     4.78735930
O      8.97483567     1.49770668     8.76233157
O     -1.93596140     3.35318350     0.09999685
O      0.02271925     4.48378096     3.23323911
O     -2.04512458     5.61740478     6.48800325
O     -1.93596721     5.58864923     1.68070743
O     -1.88045578     3.37683563     4.79367822
O      0.13901015     4.53863779     8.00965160
O      1.93596140     3.35318350     0.09999685
O      3.83131317     4.49205867     3.23233867
O      1.94390936     5.57712742     6.32063532
O      1.93595559     5.58864923     1.68070743
O      1.91191827     3.30219931     4.89433575
O      5.80789581     3.35318350     0.09999685
O      7.74531474     4.48830845     3.24199283
O      5.90088228     5.58913452     6.44128845
O      5.80789000     5.58864923     1.68070743
O      5.73231585     3.39495713     4.76473029
O      7.51014285     4.07392105     8.50451973
O     -3.87192860     6.70637706     0.09999685
O     -1.92666567     7.81701461     3.22048664
O     -3.83526641     8.92223361     6.38522053
O     -3.87192860     8.94183273     1.68070743
O     -3.86964859     6.73276000     4.83663157
O     -1.98600927     7.85190465     8.06720180
O     -0.00000581     6.70637706     0.09999685
O      1.93428511     7.79213260     3.23388056
O     -0.08372487     9.00364028     6.47827014
O     -0.00000581     8.94183273     1.68070743
O     -0.03663933     6.71928353     4.89500398
O      3.87192860     6.70637706     0.09999685
O      5.80454761     7.82189417     3.21778985
O      3.97931533     9.04300672     6.50384868
O      3.87192860     8.94183273     1.68070743
O      3.90236591     6.74281069     4.89460244
O      5.89680775     7.82511617     8.04447445
O      1.94394347     7.65654045     8.00664553
O      3.79671002     4.50951251     7.94300615
O      7.18628329     2.35427726    11.82733783
O      7.06680514     2.30583893    14.17168981
Sc     7.41167603     2.38196795     9.45072697
C      7.12648218     2.32952317    13.00568260
