90
CIF: CH2CHCH2.cif | data_image0
O      0.00261135     0.00382715     0.19995339
O      1.92289208     1.10066715     3.33994141
O      0.15263062     2.23410637     6.58037605
O      0.00261135     2.21285656     1.76196664
O     11.45247203     0.01115003     4.98397408
O      1.93215418     1.22381642     8.25628207
O      3.82876252     0.00382715     0.19995339
O      5.74726651     1.10758302     3.33424664
O      3.69588495     2.27131742     6.61659730
O      3.82876252     2.21285656     1.76196664
O      3.86919979     0.01562689     5.00122315
O      5.71416727     1.00101932     8.16484369
O      7.65492518     0.00382715     0.19995339
O      9.56399796     1.11425618     3.33412905
O      7.69715619     2.21194839     6.58368762
O      7.65492518     2.21285656     1.76196664
O      7.64976224     0.01960050     4.97320374
O      9.63241265     1.07655087     8.16285925
O     -1.91046424     3.31737126     0.19995339
O      0.02296868     4.40223525     3.35087774
O     -1.94640851     5.57013221     6.45394649
O     -1.91046998     5.52641062     1.76196664
O     -1.86690926     3.29414489     5.00539457
O     -0.39750208     4.64743368     8.37134017
O      1.91568694     3.31737126     0.19995339
O      3.81603793     4.40610122     3.36085201
O      1.95016868     5.64743532     6.54654889
O      1.91568120     5.52641062     1.76196664
O      1.92351150     3.26738757     5.02925804
O      4.22537506     4.76064243     8.71057859
O      5.74184959     3.31737126     0.19995339
O      7.65594556     4.41846905     3.36888480
O      5.69084862     5.55284223     6.52348529
O      5.74184385     5.52641062     1.76196664
O      5.72663028     3.28200092     4.99632636
O      7.70775580     4.51744778     8.18282058
O     -3.82354556     6.63092532     0.19995339
O     -1.92044539     7.74770626     3.34853684
O     -3.82196677     8.90703083     6.57022503
O     -3.82354556     8.83995473     1.76196664
O      7.62361116     6.66975453     4.98169499
O     -1.91780332     7.75768693     8.16120593
O      0.00260561     6.63092532     0.19995339
O      1.91363422     7.73552879     3.34532358
O      0.04421520     8.78869270     6.51390947
O      0.00260561     8.83995473     1.76196664
O     -0.00051788     6.61253628     4.94970811
O      1.95053467     7.78984190     8.23573516
O      3.82876826     6.63092532     0.19995339
O      5.74780942     7.75042567     3.33528472
O      3.79767076     8.84273891     6.50514867
O      3.82876826     8.83995473     1.76196664
O      3.83981770     6.65180696     4.93986284
O      5.72153989     7.79669047     8.15912107
Ce     1.91568694     1.10834185     0.98097142
Ce    -0.00985365     2.21162231     4.12840082
Ce     5.65305590     9.89362664     7.33021014
Ce     5.74184959     1.10834185     0.98097142
Ce     3.85472376     2.20905453     4.13012508
Ce    -1.80231498     9.83662605     7.32900442
Ce     9.56800076     1.10834185     0.98097142
Ce     7.66197946     2.21750065     4.18992793
Ce     7.66189174     0.00234529     7.35715995
Ce     0.00261135     4.42188597     0.98097142
Ce    -1.90687226     5.52630119     4.15454730
Ce    -1.89017517     3.41328824     7.41246519
Ce     3.82877400     4.42188597     0.98097142
Ce     1.91813628     5.53113479     4.22380202
Ce     7.65492518     4.42188597     0.98097142
Ce     5.73154521     5.52866129     4.17250850
Ce     5.77736069     3.33326499     7.40669764
Ce    -1.91046998     7.73544003     0.98097142
Ce    -3.82731239     8.84909712     4.16030204
Ce     7.63861313     6.63975137     7.34091667
Ce     1.91569268     7.73544003     0.98097142
Ce     0.01542066     8.82659414     4.14323500
Ce     0.02798247     6.56077820     7.37494315
Ce     5.74184385     7.73544003     0.98097142
Ce     3.81968548     8.84027447     4.12726643
Ce     3.77493653     6.67347296     7.34438759
Co     1.93080738     2.38785379     6.67334585
C      3.77301542     4.60178347    10.04880546
C      2.45767666     3.88102765    10.14402285
C      2.23810399     2.82066117    10.93536630
H      3.64585817     5.60059555    10.52241210
H      4.53831064     4.07658990    10.65534199
H      1.63489213     4.28007441     9.53424635
H      2.04322621     1.81609271     9.03841497
H      1.24254888     2.37753116    11.03096975
H      3.03396530     2.38673784    11.54844814
