81
CIF: Co-CeO2.cif | data_image0
O      0.00261284     0.00382715     0.19994632
O      1.91589504     1.11331594     3.33617340
O      0.15131915     2.26323675     6.59479607
O      0.00261284     2.21285656     1.76195957
O     11.45002506     0.03267872     4.99934849
O      1.91660231     1.16910665     8.03790554
O      3.82876402     0.00382715     0.19994632
O      5.75083375     1.11093172     3.33424854
O      3.68108115     2.26889804     6.59638956
O      3.82876402     2.21285656     1.76195957
O      3.85931899     0.03446054     5.00058461
O      5.70169720     1.07014399     8.12148992
O      7.65492667     0.00382715     0.19994632
O      9.55865485     1.11096742     3.33433974
O      7.65421679     2.25736900     6.58650045
O      7.65492667     2.21285656     1.76195957
O      7.65501313     0.02678708     4.98983070
O      9.60992825     1.06968685     8.12136861
O     -1.91046274     3.31737126     0.19994632
O      0.03388527     4.39401090     3.35955571
O     -1.97136271     5.56971933     6.44993418
O     -1.91046848     5.52641062     1.76195957
O     -1.86714558     3.28256067     5.01045863
O     -0.44530168     4.64398314     8.35493743
O      1.91568843     3.31737126     0.19994632
O      3.79705313     4.39482403     3.35924689
O      1.91458571     5.63083687     6.51357100
O      1.91568269     5.52641062     1.76195957
O      1.91609936     3.21580924     5.08318240
O      4.27455685     4.64542413     8.35670852
O      5.74185108     3.31737126     0.19994632
O      7.65562629     4.40326869     3.36613029
O      5.79917506     5.56843286     6.45014081
O      5.74184534     5.52641062     1.76195957
O      5.69918286     3.28358928     5.00933816
O      7.65294547     4.49480075     8.19140448
O     -3.82354407     6.63092532     0.19994632
O     -1.90831780     7.76126649     3.33736755
O     -3.82327996     8.85631188     6.52848394
O     -3.82354407     8.83995473     1.76195957
O     -3.82558701     6.67464737     4.92068933
O     -1.91479114     7.77414377     8.16206199
O      0.00260710     6.63092532     0.19994632
O      1.91513877     7.73760398     3.35622642
O      0.02661436     8.80484608     6.51410239
O      0.00260710     8.83995473     1.76195957
O     -0.01482754     6.62466682     4.94447905
O      1.91494977     7.78287555     8.21283171
O      3.82876976     6.63092532     0.19994632
O      5.73766555     7.76069896     3.33659363
O      3.80581638     8.80453002     6.51437710
O      3.82876976     8.83995473     1.76195957
O      3.84446708     6.62367550     4.94460606
O      5.74649750     7.77276895     8.16225875
Ce     1.91568843     1.10834185     0.98096435
Ce    -0.03129840     2.20811046     4.11461590
Ce     5.64671259     9.85383544     7.34654626
Ce     5.74185108     1.10834185     0.98096435
Ce     3.86252929     2.20883282     4.11462911
Ce    -1.81450280     9.85472849     7.34672477
Ce     9.56800226     1.10834185     0.98096435
Ce     7.65495530     2.22125589     4.20271883
Ce     1.91591999     9.92825931     7.35968403
Ce     0.00261284     4.42188597     0.98096435
Ce    -1.90861275     5.53207831     4.15455602
Ce    -1.92381118     3.41686515     7.42872150
Ce     3.82877550     4.42188597     0.98096435
Ce     1.91517454     5.54293924     4.23214075
Ce     7.65492667     4.42188597     0.98096435
Ce     5.73888132     5.53204063     4.15434623
Ce     5.75312108     3.41755303     7.42896849
Ce    -1.91046848     7.73544003     0.98096435
Ce    -3.82407217     8.84781388     4.15279637
Ce    -3.82448642     6.65697659     7.32552046
Ce     1.91569417     7.73544003     0.98096435
Ce     0.01054285     8.83139322     4.15047251
Ce     0.03286282     6.56223280     7.38649747
Ce     5.74184534     7.73544003     0.98096435
Ce     3.82017482     8.83082354     4.15039786
Ce     3.79695015     6.56153606     7.38670707
Co     1.91608978     2.35246480     6.73221757
