90
CIF: H2O.cif | data_image0
O      0.00261135     0.00382715     0.19995339
O      1.91312489     1.10892707     3.33936801
O      0.10111144     2.27578383     6.60430587
O      0.00261135     2.21285656     1.76196664
O     -0.01429832     0.02815686     4.99139359
O      1.92077151     1.15131741     8.05324195
O      3.82876252     0.00382715     0.19995339
O      5.74318026     1.11543106     3.32585314
O      3.74724706     2.26150300     6.57926144
O      3.82876252     2.21285656     1.76196664
O      3.83833673     0.02630320     4.97649255
O      5.71246909     1.01898758     8.19832655
O      7.65492518     0.00382715     0.19995339
O      9.57186496     1.11145813     3.32937154
O      7.65645365     2.19788532     6.54977509
O      7.65492518     2.21285656     1.76196664
O      7.66480148     0.01972647     4.94434732
O      9.58804519     0.98635223     8.20541098
O     -1.91046424     3.31737126     0.19995339
O      0.03037053     4.41771065     3.36803908
O     -1.75755943     5.55298418     6.59893887
O     -1.91046998     5.52641062     1.76196664
O     -1.90329073     3.31037550     4.96282924
O      0.28553544     4.53660147     8.73579509
O      1.91568694     3.31737126     0.19995339
O      3.80206600     4.41659965     3.36095559
O      1.88848265     5.64273969     6.60744623
O      1.91568120     5.52641062     1.76196664
O      1.91796704     3.25893840     5.05698161
O      4.14062215     4.73007463     8.71624750
O      5.74184959     3.31737126     0.19995339
O      7.65878573     4.43047020     3.34879630
O      5.65507185     5.58618888     6.53004218
O      5.74184385     5.52641062     1.76196664
O      5.73418358     3.31259470     4.96028718
O      7.65098595     4.57562662     8.20084982
O     -3.82354556     6.63092532     0.19995339
O     -1.92380162     7.74151838     3.34798329
O     -3.82298565     8.81983453     6.53258158
O     -3.82354556     8.83995473     1.76196664
O     -3.79374539     6.59214337     5.01497331
O     -1.85744419     7.80256138     8.17897867
O      0.00260561     6.63092532     0.19995339
O      1.91801067     7.73379286     3.33374175
O      0.02479271     8.87985955     6.46732252
O      0.00260561     8.83995473     1.76196664
O      0.01389665     6.66989712     4.93691280
O      1.89399814     7.84349013     8.20118519
O      3.82876826     6.63092532     0.19995339
O      5.75936700     7.73588972     3.36285189
O      3.81114614     8.82904429     6.49725752
O      3.82876826     8.83995473     1.76196664
O      3.80312637     6.63911500     4.95445090
O      5.72172844     7.78362526     8.18564422
Ce     1.91568694     1.10834185     0.98097142
Ce    -0.01678450     2.21357953     4.14141844
Ce     5.69502671     9.90377167     7.35082427
Ce     5.74184959     1.10834185     0.98097142
Ce     3.84786683     2.21716408     4.13534186
Ce    -1.86548597     9.93566407     7.34496586
Ce     9.56800076     1.10834185     0.98097142
Ce     7.65806063     2.22413965     4.16132432
Ce     7.66098009     0.04365058     7.35183893
Ce     0.00261135     4.42188597     0.98097142
Ce    -1.89731000     5.52047269     4.17852481
Ce     9.52083425     3.28829606     7.39402452
Ce     3.82877400     4.42188597     0.98097142
Ce     1.91923708     5.53023133     4.21799383
Ce     7.65492518     4.42188597     0.98097142
Ce     5.73571850     5.52258598     4.17692420
Ce     5.74336464     3.33716625     7.39536048
Ce    -1.91046998     7.73544003     0.98097142
Ce    -3.82008509     8.84384233     4.16923125
Ce    -3.82414332     6.62903211     7.36567317
Ce     1.91569268     7.73544003     0.98097142
Ce     0.01170452     8.85988760     4.10958789
Ce     0.04055446     6.79843998     7.27348862
Ce     5.74184385     7.73544003     0.98097142
Ce     3.82157822     8.84372965     4.13551870
Ce     3.79046540     6.69930399     7.34640417
Co     1.92544350     2.35761084     6.69028793
C      2.55452909     6.33662371    11.18059835
C      2.53204427     5.25822283    10.42851684
C      3.50596494     4.27792517     9.88633825
H      1.68760478     6.98617421    11.32565146
H      3.48376108     6.65057215    11.68434126
H      0.83815015     4.71963991     9.55258868
H      0.97012919     4.23404297     8.08456274
H      3.01943947     3.29189920     9.72199470
H      4.25319617     4.11745858    10.70310204
