84
CIF: Pt-Cr-CeO2-Ov-CO2.cif | data_image0
Ce     1.93038582     1.11050507     0.88387043
Ce     0.01338342     2.24356285     4.04431134
Ce    -5.78277827    10.04596911     7.21252496
Ce     5.81181033     1.12175166     0.90127712
Ce     3.84115009     2.21921622     3.99309841
Ce    -1.93145122     9.98038408     7.25612189
Ce     9.66901012     1.12377363     0.90450652
Ce     7.76513488     2.22762873     4.07657192
Ce     1.98358434    10.03602727     7.21377634
Ce    -0.00709724     4.47602159     0.89067279
Ce    -1.94239088     5.58129291     4.07524634
Ce    -1.85813052     3.33241949     7.22812896
Ce     3.86254305     4.47635356     0.87798423
Ce     1.95005074     5.57646953     4.06872746
Ce     1.84114119     3.30321367     7.32779242
Ce     7.74213807     4.46545905     0.90125422
Ce     5.82079233     5.62709652     3.98858651
Ce    -1.94645625     7.83004003     0.90010904
Ce    -3.87185968     8.92955335     4.08181350
Ce    -3.84051291     6.67651513     7.32462057
Ce     1.92815559     7.82745473     0.89060408
Ce     0.00619558     8.94715222     4.06244149
Ce    -0.00197098     6.69549960     7.22719671
Ce     5.81127600     7.83258510     0.88371011
Ce     3.87081865     8.95217595     4.00964355
Ce     3.82958949     6.88788057     7.20012992
Cr     5.22237242     3.67883606     6.62693292
Pt     6.63719209     2.83602339     8.20449817
O     11.61334069     0.00154917     0.10141687
O      1.94042037     1.10474561     3.22363569
O     -0.01382159     2.20361958     6.41436370
O     -0.00785227     2.23805103     1.69392277
O     -5.79663670    10.04972364     4.84510043
O      2.00718862     0.97785874     8.00739090
O     -1.93899312    10.05733740     0.10496691
O      5.79927505     1.13441215     3.24376809
O      3.95616797     2.44523761     6.38804783
O      3.86763657     2.23577757     1.68132582
O      3.87407266     0.05633380     4.90669394
O      5.84146701     0.96804715     8.17633196
O      7.73821774     0.00761509     0.10924988
O      9.68279068     1.12253462     3.23897762
O      7.88144334     2.14403678     6.46624293
O      7.74357843     2.23531483     1.71563532
O      7.73880893     0.00241894     4.82733560
O      9.76307254     1.04476305     8.06260489
O      9.67032270     3.35425987     0.10911246
O      0.00309533     4.48348233     3.23749982
O     -1.89971206     5.57088688     6.38598475
O     -1.94403436     5.59119430     1.70564938
O     -1.92964457     3.34782247     4.84165545
O     -0.07887047     4.54413530     8.06174386
O      1.92738314     3.35244915     0.09928684
O      3.88201906     4.47482349     3.23198779
O      2.07744333     5.59102018     6.50934531
O      1.92862022     5.59252216     1.67404250
O      1.92467641     3.34722113     4.82419348
O      4.28503731     4.20747627     8.41975526
O      5.81155478     3.35101064     0.10766953
O      7.73258489     4.45762898     3.23645104
O      5.56461891     5.42766357     6.41505058
O      5.80528807     5.59217007     1.68114259
O      5.82741285     3.36281019     4.88133898
O      7.93332133     4.37202657     8.24571918
O     -3.87155109     6.71022987     0.10512724
O     -1.93642503     7.82908578     3.28481672
O     -3.84444248     8.92635764     6.39492557
O     -3.87509971     8.94378428     1.69355631
O      7.67541485     6.66135281     4.86080832
O     -1.82390327     7.86246759     8.05079204
O     -0.01209783     6.71325780     0.10434852
O      1.92831496     7.81725672     3.22866384
O      0.02489052     8.94081530     6.39453293
O     -0.00628994     8.94736548     1.70514550
O      0.05184037     6.68518558     4.88906355
O      1.96250569     7.87040198     8.03419192
O      3.86815347     6.71410280     0.09951587
O      5.81333071     7.83410323     3.20855843
O      3.85342782     8.97418632     6.35615268
O      3.86556896     8.94715423     1.69389986
O      3.88392062     6.75414425     4.83085020
O      5.68227184     7.85160804     7.98566852
O      5.09018839     3.76615487    10.51881571
C      5.17105826     3.70181124     9.31263393
