81
CIF: Pt-Cr-CeO2-Ov.cif | data_image0
Ce     1.93038582     1.11050507     0.88387043
Ce    -0.00057315     2.23875156     4.03918256
Ce    -5.77690705    10.03698748     7.22260516
Ce     5.81181033     1.12175166     0.90127712
Ce     3.81745897     2.22583500     3.98632321
Ce    -1.91709506    10.00304428     7.29688993
Ce     9.66901012     1.12377363     0.90450652
Ce     7.78659159     2.21188864     4.02822268
Ce     1.93187854    10.03517458     7.22955653
Ce    -0.00709724     4.47602159     0.89067279
Ce    -1.95575195     5.57966381     4.08944047
Ce    -1.88946116     3.34902781     7.26259684
Ce     3.86254305     4.47635356     0.87798423
Ce     1.93868748     5.58905771     4.09315174
Ce     1.77562701     3.30343928     7.24762761
Ce     7.74213807     4.46545905     0.90125422
Ce     5.79851585     5.65488020     3.95800784
Ce    -1.94645625     7.83004003     0.90010904
Ce    -3.87372802     8.93785652     4.09948953
Ce    -3.82826073     6.70393786     7.39590834
Ce     1.92815559     7.82745473     0.89060408
Ce    -0.00523193     8.95850937     4.06352351
Ce    -0.01312839     6.70703836     7.23155401
Ce     5.81127600     7.83258510     0.88371011
Ce     3.86793250     8.94272075     4.03467566
Ce     3.80211197     6.92744379     7.27497444
Cr     5.54614860     3.50453655     6.58719190
Pt     6.84964086     2.68244014     8.38605176
O     11.61334069     0.00154917     0.10141687
O      1.93252330     1.10293294     3.21479731
O     -0.03460356     2.20740115     6.39708984
O     -0.00785227     2.23805103     1.69392277
O     -5.79133566    10.04473001     4.84342214
O      1.99980730     1.00444638     8.00910573
O     -1.93899312    10.05733740     0.10496691
O      5.79443990     1.13708290     3.22853439
O      4.04556548     2.56770290     6.58538052
O      3.86763657     2.23577757     1.68132582
O      3.86601908     0.12851892     4.92310163
O      5.85684503     0.89028279     8.28661011
O      7.73821774     0.00761509     0.10924988
O      9.68887561     1.11237088     3.22988765
O      7.71071341     2.24125122     6.39931063
O      7.74357843     2.23531483     1.71563532
O      7.73297198     0.01643260     4.82181758
O      9.68369958     1.10976018     8.02882064
O      9.67032270     3.35425987     0.10911246
O     -0.00167094     4.47961367     3.25073889
O     -1.92406425     5.57782028     6.38950227
O     -1.94403436     5.59119430     1.70564938
O      9.66806135     3.33709463     4.83837647
O     -0.10300579     4.52175016     8.09247992
O      1.92738314     3.35244915     0.09928684
O      3.87134387     4.47841114     3.22319605
O      1.95965423     5.57927959     6.47242982
O      1.92862022     5.59252216     1.67404250
O      1.93759977     3.31704545     4.82082591
O      5.81155478     3.35101064     0.10766953
O      7.72663587     4.46838240     3.22362803
O      5.49938645     5.20501997     6.77044722
O      5.80528807     5.59217007     1.68114259
O      5.81837161     3.36615327     4.81351400
O      8.00228255     4.35191115     8.38308846
O     -3.87155109     6.71022987     0.10512724
O     -1.96437806     7.83579534     3.30210368
O     -3.80311462     8.93409131     6.38282076
O     -3.87509971     8.94378428     1.69355631
O      7.59990800     6.63204876     4.91221751
O     -1.83207711     7.87561920     8.09214618
O     -0.01209783     6.71325780     0.10434852
O      1.93523945     7.81544337     3.24798902
O     -0.01956387     8.96305804     6.36266952
O     -0.00628994     8.94736548     1.70514550
O      0.01717389     6.70300661     4.86592227
O      1.81256391     7.92274073     8.08053730
O      3.86815347     6.71410280     0.09951587
O      5.81639313     7.83835075     3.20046584
O      3.83928462     9.02205971     6.36204368
O      3.86556896     8.94715423     1.69389986
O      3.93771838     6.71909017     4.83922234
O      5.81120359     7.97190057     8.04869374
