81
CIF: Ru-Ti-CeO2-Ov.cif | data_image0
Ce     1.93038582     1.11050507     0.88387043
Ce    -0.01379160     2.24145526     4.06091529
Ce    -5.77368422    10.03352748     7.21837596
Ce     5.81181033     1.12175166     0.90127712
Ce     3.81570814     2.21867849     3.97126339
Ce    -1.94583464    10.01020415     7.31877374
Ce     9.66901012     1.12377363     0.90450652
Ce     7.78210191     2.22196144     4.05367893
Ce     1.99291817     9.95674205     7.30221548
Ce    -0.00709724     4.47602159     0.89067279
Ce    -1.95670784     5.57636325     4.09625343
Ce    -1.85296425     3.36739315     7.34643982
Ce     3.86254305     4.47635356     0.87798423
Ce     1.93449573     5.59002386     4.07891856
Ce     1.82021384     3.30567013     7.23704480
Ce     7.74213807     4.46545905     0.90125422
Ce     5.79690377     5.64315019     3.96851343
Ce    -1.94645625     7.83004003     0.90010904
Ce    -3.87436793     8.94506223     4.07363725
Ce    -3.83190027     6.76939491     7.30050955
Ce     1.92815559     7.82745473     0.89060408
Ce    -0.00436619     8.96828701     4.09326544
Ce     0.00603971     6.70053777     7.27080266
Ce     5.81127600     7.83258510     0.88371011
Ce     3.86913949     8.94736974     4.04305048
Ce     3.87005513     6.82276904     7.22242855
Ti     5.65288576     3.44294990     6.53796845
Ru     6.88049579     2.68900156     8.57713940
O     11.61334069     0.00154917     0.10141687
O      1.92800501     1.09575212     3.21874127
O      0.03190838     2.15928175     6.44700487
O     -0.00785227     2.23805103     1.69392277
O     -5.77044838    10.02914979     4.88270245
O      2.02879966     0.97688765     8.05855848
O     -1.93899312    10.05733740     0.10496691
O      5.72522417     1.05758820     3.23772381
O      4.08352439     2.51930957     6.62625998
O      3.86763657     2.23577757     1.68132582
O      3.83518257     0.11759729     4.96883113
O      6.00649389     0.97783144     8.53969443
O      7.73821774     0.00761509     0.10924988
O      9.75269825     1.07074009     3.24048385
O      7.34275918     2.43372102     6.66289074
O      7.74357843     2.23531483     1.71563532
O      1.94201305    10.02791227     4.95825343
O      9.69264293     0.96357012     8.01958046
O      9.67032270     3.35425987     0.10911246
O     -0.00048228     4.49399029     3.26048908
O     -2.03705650     5.65734365     6.48753834
O     -1.94403436     5.59119430     1.70564938
O     -1.89163869     3.38006041     4.91028194
O      0.00474085     4.63229740     8.12341364
O      1.92738314     3.35244915     0.09928684
O      3.83751295     4.48596357     3.20677419
O      2.00013225     5.57120428     6.45431595
O      1.92862022     5.59252216     1.67404250
O      1.94903647     3.30971721     4.82837719
O      5.81155478     3.35101064     0.10766953
O      7.74809786     4.57726194     3.23634585
O      5.68293747     5.26883960     6.61192110
O      5.80528807     5.59217007     1.68114259
O      5.75117647     3.38317605     4.68491710
O      7.76419378     4.35085392     8.62967956
O     -3.87155109     6.71022987     0.10512724
O     -1.95696298     7.84167145     3.31566577
O     -3.79807206     8.90701979     6.42583703
O     -3.87509971     8.94378428     1.69355631
O      7.61438657     6.69577919     4.95862038
O     -1.95582921     7.85651891     8.12148824
O     -0.01209783     6.71325780     0.10434852
O      1.91503314     7.82800897     3.26539368
O     -0.05082924     9.00447095     6.48368542
O     -0.00628994     8.94736548     1.70514550
O     -0.00304422     6.70898312     4.93298034
O      1.86095865     7.87414170     8.09535589
O      3.86815347     6.71410280     0.09951587
O      5.82337369     7.84497630     3.20951240
O      3.91348818     8.93370217     6.40788796
O      3.86556896     8.94715423     1.69389986
O      3.92614541     6.71244897     4.81398880
O      5.96291568     7.82896494     8.03675318
