84
CIF: Ru-Ti-CeO2-CO.cif | data_image0
Ce     1.93038582     1.11050507     0.88387043
Ce    -0.00316193     2.22477896     4.03331763
Ce    -5.75703218    10.02999731     7.24188733
Ce     5.81181033     1.12175166     0.90127712
Ce     3.85769266     2.21976173     4.01705367
Ce    -1.91254731    10.03061843     7.25576980
Ce     9.66901012     1.12377363     0.90450652
Ce     7.73490379     2.23901622     4.13552662
Ce     2.02730077     9.97500300     7.22910113
Ce    -0.00709724     4.47602159     0.89067279
Ce    -1.94724567     5.58529629     4.06415512
Ce    -1.81984415     3.31374783     7.23015247
Ce     3.86254305     4.47635356     0.87798423
Ce     1.92812973     5.59245221     4.03249931
Ce     1.88147102     3.32991930     7.18896587
Ce     7.74213807     4.46545905     0.90125422
Ce     5.81435866     5.60849143     4.01647730
Ce    -1.94645625     7.83004003     0.90010904
Ce    -3.86872464     8.94011036     4.07110953
Ce    -3.83499070     6.70214692     7.25542429
Ce     1.92815559     7.82745473     0.89060408
Ce    -0.00252988     8.95074573     4.06443960
Ce     0.00026289     6.70615711     7.19742100
Ce     5.81127600     7.83258510     0.88371011
Ce     3.88001143     8.94813459     4.03353879
Ce     3.86576796     6.76488484     7.18949508
Ti     5.17181016     3.72041505     6.83176077
Ru     6.80491609     2.77404674     8.31685674
O     11.61334069     0.00154917     0.10141687
O      1.93857103     1.10851626     3.23643829
O      0.04694322     2.20077280     6.41182282
O     -0.00785227     2.23805103     1.69392277
O     -5.76547615    10.03588932     4.88977922
O      1.99553254     1.11147518     8.00157085
O     -1.93899312    10.05733740     0.10496691
O      5.73399371     1.09393445     3.26261523
O      3.92307811     2.29202604     6.46948808
O      3.86763657     2.23577757     1.68132582
O      3.85306893     0.02220572     4.92632853
O      5.96266315     0.96182062     8.19913504
O      7.73821774     0.00761509     0.10924988
O      9.74313298     1.07929881     3.25810881
O      7.85433856     2.16485248     6.61770898
O      7.74357843     2.23531483     1.71563532
O      1.94492697     9.96709303     4.91501235
O      9.83612904     1.02766932     8.06403201
O      9.67032270     3.35425987     0.10911246
O      0.00864698     4.47689135     3.23974851
O     -1.93318505     5.60749105     6.45375169
O     -1.94403436     5.59119430     1.70564938
O     -1.85836427     3.38927038     4.91633368
O      0.05176678     4.44984617     8.01238099
O      1.92738314     3.35244915     0.09928684
O      3.85678360     4.47871659     3.21701013
O      1.89671648     5.61185804     6.37085120
O      1.92862022     5.59252216     1.67404250
O      1.94948716     3.33856483     4.86865654
O      3.80080014     4.51087270     7.85406467
O      5.81155478     3.35101064     0.10766953
O      7.72631734     4.54792468     3.26094687
O      5.78435728     5.51655472     6.47282655
O      5.80528807     5.59217007     1.68114259
O      5.67172805     3.43343594     4.95317622
O      7.95472023     4.40836558     8.19447418
O     -3.87155109     6.71022987     0.10512724
O     -1.95664449     7.83510399     3.26781657
O     -3.82143353     8.91283531     6.46550179
O     -3.87509971     8.94378428     1.69355631
O      7.71429912     6.71100590     4.92716072
O     -1.92951259     7.82109517     8.05239068
O     -0.01209783     6.71325780     0.10434852
O      1.93510509     7.81087565     3.23780034
O     -0.01501783     8.92981321     6.45393954
O     -0.00628994     8.94736548     1.70514550
O     -0.02188137     6.71906874     4.86207463
O      1.98014948     7.78907433     8.01318625
O      3.86815347     6.71410280     0.09951587
O      5.81790052     7.82667442     3.23621882
O      3.92752317     8.91656576     6.41211309
O      3.86556896     8.94715423     1.69389986
O      3.89152437     6.69986356     4.86812308
O      5.84519883     7.77663402     8.00288771
O      5.11715163     3.75431820    10.63697724
C      5.77315054     3.37275017     9.74789903
