84
CIF: Ru-Ti-CeO2-Ov-CO2.cif | data_image0
Ce     1.93038582     1.11050507     0.88387043
Ce     0.01052111     2.23660123     4.05951000
Ce    -5.75950313    10.04352678     7.21480352
Ce     5.81181033     1.12175166     0.90127712
Ce     3.81916120     2.20716792     3.97169168
Ce    -1.97428337     9.98185801     7.27955022
Ce     9.66901012     1.12377363     0.90450652
Ce     7.79715149     2.19732910     4.04751899
Ce     1.96903408     9.97773055     7.34686725
Ce    -0.00709724     4.47602159     0.89067279
Ce    -1.94991268     5.58179870     4.08596415
Ce    -1.78946371     3.37365080     7.29431921
Ce     3.86254305     4.47635356     0.87798423
Ce     1.94880309     5.58573978     4.08788381
Ce     1.89916172     3.31535935     7.28332921
Ce     7.74213807     4.46545905     0.90125422
Ce     5.80619979     5.65220110     3.97751269
Ce    -1.94645625     7.83004003     0.90010904
Ce    -3.86812448     8.93736725     4.06547055
Ce    -3.82353978     6.73604920     7.30584553
Ce     1.92815559     7.82745473     0.89060408
Ce     0.00791280     8.96049778     4.09074546
Ce     0.02753598     6.70394450     7.26959663
Ce     5.81127600     7.83258510     0.88371011
Ce     3.86791389     8.94288766     4.07733570
Ce     3.87418131     6.77802895     7.29368383
Ti     5.66354384     3.43732442     6.48214787
Ru     6.78507988     2.87233604     8.69247551
O     11.61334069     0.00154917     0.10141687
O      1.92647406     1.09233682     3.21268828
O      0.05069785     2.19598590     6.44294725
O     -0.00785227     2.23805103     1.69392277
O     -5.75920624    10.04392918     4.89445927
O      2.02693729     0.97085771     8.03531136
O     -1.93899312    10.05733740     0.10496691
O      5.72780076     1.05192184     3.23591022
O      4.11584902     2.45190337     6.53675703
O      3.86763657     2.23577757     1.68132582
O      3.82047891     0.08847726     4.93877055
O      5.95450873     1.17520351     8.63982720
O      7.73821774     0.00761509     0.10924988
O      9.77106556     1.07206137     3.24437779
O      7.34039995     2.50251247     6.74789938
O      7.74357843     2.23531483     1.71563532
O      1.95102768    10.00748164     4.92634066
O      9.73343981     1.26338040     8.03526522
O      9.67032270     3.35425987     0.10911246
O     -0.00881655     4.48281490     3.27237557
O     -1.99886993     5.59976157     6.47869906
O     -1.94403436     5.59119430     1.70564938
O     -1.89633039     3.35150295     4.97178706
O     -0.05641445     4.52103558     8.09049885
O      1.92738314     3.35244915     0.09928684
O      3.85058216     4.49148065     3.21502682
O      1.99420869     5.54137805     6.44640050
O      1.92862022     5.59252216     1.67404250
O      1.96909621     3.29845372     4.82904788
O      4.11501287     4.38979080     8.96867121
O      5.81155478     3.35101064     0.10766953
O      7.76649706     4.57179320     3.23823571
O      5.72574287     5.26789753     6.52804145
O      5.80528807     5.59217007     1.68114259
O      5.78120359     3.36808519     4.65733901
O      7.96374054     4.39494527     8.52441162
O     -3.87155109     6.71022987     0.10512724
O     -1.95119040     7.82872996     3.30494237
O     -3.81244409     8.90237813     6.41880525
O     -3.87509971     8.94378428     1.69355631
O      7.65582406     6.69121696     4.95219627
O     -1.97169444     7.82501083     8.10139463
O     -0.01209783     6.71325780     0.10434852
O      1.92378886     7.81486579     3.26422428
O     -0.10407714     9.00425450     6.49082943
O     -0.00628994     8.94736548     1.70514550
O      0.00524401     6.71242271     4.93197327
O      1.80935569     7.73869840     8.11299589
O      3.86815347     6.71410280     0.09951587
O      5.82704871     7.84331978     3.22181002
O      3.97608636     8.95852274     6.48864572
O      3.86556896     8.94715423     1.69389986
O      3.92620292     6.72188122     4.84225603
O      6.00092115     7.79876356     8.05037521
O      5.72171507     3.58675831    10.46506046
C      5.15232725     3.83839467     9.37891085
