83
CIF: Ru-Ti-CeO2-Ov-O2.cif | data_image0
Ce     1.93038582     1.11050507     0.88387043
Ce    -0.01777756     2.24416220     4.07991666
Ce    -5.79682305    10.05036342     7.20334248
Ce     5.81181033     1.12175166     0.90127712
Ce     3.82459749     2.20639747     3.99145297
Ce    -1.98754665    10.02093528     7.23330060
Ce     9.66901012     1.12377363     0.90450652
Ce     7.76137888     2.23533231     4.07287420
Ce     2.02923481     9.90313401     7.28054133
Ce    -0.00709724     4.47602159     0.89067279
Ce    -1.94913418     5.57387751     4.08996986
Ce    -1.85326951     3.33554693     7.36683453
Ce     3.86254305     4.47635356     0.87798423
Ce     1.95396873     5.57506713     4.09074782
Ce     1.91286572     3.31705859     7.29396686
Ce     7.74213807     4.46545905     0.90125422
Ce     5.81527634     5.64636440     3.98136449
Ce    -1.94645625     7.83004003     0.90010904
Ce    -3.87133354     8.95724927     4.01440798
Ce    -3.83981395     6.86914179     7.18011127
Ce     1.92815559     7.82745473     0.89060408
Ce    -0.00388358     8.95968592     4.08256595
Ce     0.01534789     6.68256530     7.27203234
Ce     5.81127600     7.83258510     0.88371011
Ce     3.87408827     8.94186066     4.05393428
Ce     3.92386158     6.71975249     7.28114884
Ti     5.62397716     3.46860304     6.59349539
Ru     6.46012346     2.72526580     9.06179290
O     11.61334069     0.00154917     0.10141687
O      1.92047728     1.10746901     3.21700443
O      0.01842292     2.16125807     6.48268299
O     -0.00785227     2.23805103     1.69392277
O     -5.78649582    10.04389390     4.87373959
O      2.02447199     0.96663223     8.04614620
O     -1.93899312    10.05733740     0.10496691
O      5.73868730     1.06485377     3.25021488
O      4.15719785     2.26152845     6.49626912
O      3.86763657     2.23577757     1.68132582
O      3.83490584     0.02747061     4.89206754
O      6.18041865     0.94434745     8.81017115
O      7.73821774     0.00761509     0.10924988
O      9.73996460     1.07473514     3.25017276
O      7.21951950     2.51761820     6.77444873
O      7.74357843     2.23531483     1.71563532
O      1.95623336    10.03658490     4.97477452
O      9.62456259     0.96568809     8.01396686
O      9.67032270     3.35425987     0.10911246
O      0.00629586     4.48994565     3.27628632
O     -2.09968393     5.61492639     6.53378489
O     -1.94403436     5.59119430     1.70564938
O     -1.89913637     3.37305166     4.92900907
O      0.00945773     4.63125560     8.11307159
O      1.92738314     3.35244915     0.09928684
O      3.83675633     4.48299900     3.20405119
O      1.99152784     5.57551230     6.42502116
O      1.92862022     5.59252216     1.67404250
O      1.97245003     3.29516315     4.86365507
O      5.81155478     3.35101064     0.10766953
O      7.74843721     4.56872409     3.24790744
O      5.97055861     5.33087328     6.52064774
O      5.80528807     5.59217007     1.68114259
O      5.70430086     3.42074017     4.73734568
O      7.91696718     3.73050317     9.18957423
O     -3.87155109     6.71022987     0.10512724
O     -1.92991829     7.82965404     3.26991929
O     -3.83238339     8.95717454     6.37052160
O     -3.87509971     8.94378428     1.69355631
O      7.69393286     6.76141952     4.87455977
O     -1.96650928     7.88313814     8.05038552
O     -0.01209783     6.71325780     0.10434852
O      1.92264845     7.81983020     3.28328827
O     -0.03101859     9.05962632     6.51146671
O     -0.00628994     8.94736548     1.70514550
O     -0.03331153     6.71800862     4.95734867
O      1.87985252     7.83986802     8.08008828
O      3.86815347     6.71410280     0.09951587
O      5.81250441     7.85110461     3.20652694
O      3.92323973     8.90797546     6.41780641
O      3.86556896     8.94715423     1.69389986
O      3.95805319     6.68007843     4.84749170
O      5.97316912     7.86257475     8.02251337
O      4.19419544     4.28430200     8.23356093
O      4.90299512     3.67274570     9.38368982
