83
CIF: W-Cu-CeO2-O.cif | data_image0
Ce     1.93038582     1.11050507     0.88387043
Ce     0.01555148     2.23956307     4.02610833
Ce    11.60411461     0.00392998     7.21446156
Ce     5.81181033     1.12175166     0.90127712
Ce     3.85333168     2.21161811     4.02324246
Ce    -2.07980766     9.95792955     7.14976043
Ce     9.66901012     1.12377363     0.90450652
Ce     7.75210596     2.23643489     4.10745244
Ce     7.79463855     0.08178355     7.31838677
Ce    -0.00709724     4.47602159     0.89067279
Ce    -1.94595355     5.58163495     4.06164796
Ce    -1.88253856     3.28400799     7.17917826
Ce     3.86254305     4.47635356     0.87798423
Ce     1.95142061     5.57265886     4.06654825
Ce     1.89747977     3.25700112     7.25505650
Ce     7.74213807     4.46545905     0.90125422
Ce     5.80051752     5.60510459     4.00454851
Ce    -1.94645625     7.83004003     0.90010904
Ce    -3.90136112     8.92887657     4.00902656
Ce     7.69469185     6.71733411     7.18423670
Ce     1.92815559     7.82745473     0.89060408
Ce     0.00400864     8.95654250     4.08476026
Ce    -0.00197819     6.69162160     7.27279588
Ce     5.81127600     7.83258510     0.88371011
Ce     3.84757234     8.96957204     4.02856363
Ce     3.85429923     6.85352753     7.15580796
Cu     5.14539274     3.70490522     6.53376249
W      6.25943392     3.37438642     9.17359705
O     11.61334069     0.00154917     0.10141687
O      1.92910205     1.10319098     3.20751327
O      0.00442100     2.20444828     6.37494238
O     -0.00785227     2.23805103     1.69392277
O      5.80694885    10.05011765     4.83320020
O      1.92749553     0.93518697     8.03015587
O     -1.93899312    10.05733740     0.10496691
O      5.78550464     1.10508561     3.25787771
O      3.99157778     2.14719096     6.45754602
O      3.86763657     2.23577757     1.68132582
O     -1.99828968    10.03175505     4.83706217
O      6.37131565     1.60248392     8.80561293
O      7.73821774     0.00761509     0.10924988
O      9.67764278     1.12268691     3.24622365
O      7.92230011     2.27810267     6.35624181
O      7.74357843     2.23531483     1.71563532
O      1.91289567    10.03580061     4.82734989
O      9.86675769     1.16713720     8.09809123
O      9.67032270     3.35425987     0.10911246
O      0.02331183     4.51310556     3.23752529
O     -2.11195474     5.52290321     6.45986674
O     -1.94403436     5.59119430     1.70564938
O     -1.86423581     3.38688420     4.80504578
O     -0.07679693     4.55180444     7.97999509
O      1.92738314     3.35244915     0.09928684
O      3.84837387     4.49649130     3.21762587
O      2.13560925     5.52768179     6.48213936
O      1.92862022     5.59252216     1.67404250
O      1.95630973     3.32435488     4.82276951
O      5.81155478     3.35101064     0.10766953
O      7.74313047     4.48111239     3.25052529
O      5.76585294     5.54948489     6.42346029
O      5.80528807     5.59217007     1.68114259
O      5.75752911     3.37718678     4.75850149
O      7.69966488     4.33305423     8.51855236
O     -3.87155109     6.71022987     0.10512724
O     -1.92429112     7.80549331     3.26009351
O     -3.90651910     8.87944409     6.36865389
O     -3.87509971     8.94378428     1.69355631
O      7.70194730     6.70637212     4.84754777
O     -2.01805479     7.77322470     7.99334479
O     -0.01209783     6.71325780     0.10434852
O      1.90489033     7.79986645     3.24799220
O     -0.09361878     9.07001128     6.53666264
O     -0.00628994     8.94736548     1.70514550
O      0.00818607     6.69749942     4.98878147
O      1.92313439     7.70551730     8.02484866
O      3.86815347     6.71410280     0.09951587
O      5.79793030     7.82874464     3.20470338
O      3.89150025     8.95724048     6.41520608
O      3.86556896     8.94715423     1.69389986
O      3.88194479     6.75592752     4.83826779
O      5.80594711     7.80230631     7.99583633
O      4.67637923     4.03671261     8.43640193
O      6.16409557     3.58972669    10.89277682
