84
CIF: W-Cu-CeO2-Ov-CO2.cif | data_image0
Ce     1.93038582     1.11050507     0.88387043
Ce    -0.00356360     2.24098110     4.06786614
Ce    -0.00520356     0.01066248     7.21016640
Ce     5.81181033     1.12175166     0.90127712
Ce     3.85719284     2.21882083     4.00570882
Ce    -2.05626252     9.99222971     7.18243030
Ce     9.66901012     1.12377363     0.90450652
Ce     7.73685409     2.24095046     4.01830823
Ce     2.03043725     9.96544652     7.35910701
Ce    -0.00709724     4.47602159     0.89067279
Ce    -1.95109298     5.57332923     4.09323200
Ce    -1.78787761     3.33463044     7.34886491
Ce     3.86254305     4.47635356     0.87798423
Ce     1.95421138     5.57185079     4.07142277
Ce     1.95287359     3.30757724     7.27190870
Ce     7.74213807     4.46545905     0.90125422
Ce     5.80939001     5.60267430     3.98860152
Ce    -1.94645625     7.83004003     0.90010904
Ce    -3.88960773     8.94587343     3.99961175
Ce    -3.89265979     6.81448751     7.16722451
Ce     1.92815559     7.82745473     0.89060408
Ce     0.00071602     8.95715188     4.09917119
Ce     0.01291245     6.69919867     7.27091717
Ce     5.81127600     7.83258510     0.88371011
Ce     3.86204228     8.96297944     4.04188753
Ce     3.88644877     6.76959630     7.17359286
Cu     5.25919623     3.66334682     6.40827704
W      6.55731571     2.95006247     8.47063274
O     11.61334069     0.00154917     0.10141687
O      1.92246359     1.10726562     3.20974981
O      0.06792785     2.20728368     6.39123537
O     -0.00785227     2.23805103     1.69392277
O      5.79690456    10.05777137     4.82777596
O      1.96554699     0.94750624     8.04000956
O     -1.93899312    10.05733740     0.10496691
O      5.79959395     1.05653273     3.23034765
O      4.08577539     2.17800755     6.54914474
O      3.86763657     2.23577757     1.68132582
O      3.82889326     0.00821565     4.84662015
O      6.34275872     1.25237623     9.02093701
O      7.73821774     0.00761509     0.10924988
O      9.67377418     1.12034538     3.22548058
O      7.37849122     2.47147610     6.83599794
O      7.74357843     2.23531483     1.71563532
O      7.75493989     0.09729180     4.90714122
O      9.84336871     1.02070731     8.06146473
O      9.67032270     3.35425987     0.10911246
O     -0.01354255     4.48155672     3.28168850
O     -2.09877230     5.59977898     6.48660392
O     -1.94403436     5.59119430     1.70564938
O      9.60952784     3.29841682     4.89577080
O      0.05241965     4.65507140     8.05352102
O      1.92738314     3.35244915     0.09928684
O      3.82713504     4.50699985     3.19440417
O      2.09878560     5.57262414     6.39905153
O      1.92862022     5.59252216     1.67404250
O      1.99116460     3.31634830     4.82397983
O      3.79196994     4.68154893     8.79634559
O      5.81155478     3.35101064     0.10766953
O      7.78889812     4.50343955     3.22288695
O      5.84301524     5.46972929     6.52762945
O      5.80528807     5.59217007     1.68114259
O      5.80287982     3.35837164     4.51484660
O      7.91177723     4.00222296     9.00040614
O     -3.87155109     6.71022987     0.10512724
O     -1.92628471     7.81400110     3.27133772
O     -3.88352387     8.91602635     6.34714547
O     -3.87509971     8.94378428     1.69355631
O      7.68976098     6.71873357     4.84265149
O     -2.02459858     7.84398672     8.03018648
O     -0.01209783     6.71325780     0.10434852
O      1.91990834     7.83544793     3.28264559
O     -0.07088791     9.04057998     6.52039212
O     -0.00628994     8.94736548     1.70514550
O     -0.00727180     6.70322022     4.95773426
O      1.96340921     7.68765382     8.03716558
O      3.86815347     6.71410280     0.09951587
O      5.80177387     7.84057783     3.19873869
O      3.91079810     8.87928189     6.38406972
O      3.86556896     8.94715423     1.69389986
O      3.93905946     6.70859066     4.83444459
O      5.83872475     7.80815445     7.98414042
O      5.28703055     3.67252006    10.23368374
C      4.83182133     4.01718399     9.10765493
