81
CIF: W-Cu-CeO2-Ov.cif | data_image0
Ce     1.93038582     1.11050507     0.88387043
Ce    -0.01021486     2.23411365     4.04042504
Ce    -5.80385505    10.05766719     7.21881075
Ce     5.81181033     1.12175166     0.90127712
Ce     3.87144031     2.23123590     3.99532652
Ce    -2.05187384     9.99223932     7.18011487
Ce     9.66901012     1.12377363     0.90450652
Ce     7.72729113     2.24478404     4.01645697
Ce     2.04588467     9.91148182     7.34811441
Ce    -0.00709724     4.47602159     0.89067279
Ce    -1.94779675     5.57539808     4.09874909
Ce    -1.75439128     3.33107880     7.34735464
Ce     3.86254305     4.47635356     0.87798423
Ce     1.95668310     5.57710619     4.09215099
Ce     1.87823693     3.27638195     7.22120002
Ce     7.74213807     4.46545905     0.90125422
Ce     5.81168605     5.59191765     3.99551809
Ce    -1.94645625     7.83004003     0.90010904
Ce    -3.88656990     8.95052158     3.99364440
Ce    -3.87116169     6.84154725     7.17940087
Ce     1.92815559     7.82745473     0.89060408
Ce     0.00513197     8.95887342     4.09892633
Ce     0.01837647     6.69554607     7.29007962
Ce     5.81127600     7.83258510     0.88371011
Ce     3.86771768     8.95067673     4.04057817
Ce     3.91023022     6.79543337     7.22228074
Cu     5.03464389     3.80112660     6.53773349
W      6.60417159     2.88762048     8.20763836
O     11.61334069     0.00154917     0.10141687
O      1.92423754     1.10849869     3.19825692
O      0.05322605     2.20445314     6.38459026
O     -0.00785227     2.23805103     1.69392277
O     11.61294095     0.00052976     4.82037469
O      1.96364343     0.94722592     8.04576551
O     -1.93899312    10.05733740     0.10496691
O      5.80495832     1.07303187     3.22652803
O      4.06045548     2.22915065     6.57230384
O      3.86763657     2.23577757     1.68132582
O      3.83709672     0.03807549     4.84809707
O      6.17568000     1.35535969     9.00218305
O      7.73821774     0.00761509     0.10924988
O      9.67151370     1.12205732     3.22539093
O      7.46055896     2.39977290     6.67569971
O      7.74357843     2.23531483     1.71563532
O      7.75156778     0.07354828     4.89546083
O      9.83749692     1.02671789     8.08651950
O      9.67032270     3.35425987     0.10911246
O     -0.01389964     4.48447086     3.28126668
O     -2.08514018     5.59616250     6.51107419
O     -1.94403436     5.59119430     1.70564938
O      9.61968859     3.30969831     4.89440107
O      0.04367023     4.61464010     8.11483381
O      1.92738314     3.35244915     0.09928684
O      3.83126201     4.49447414     3.19913016
O      2.05233413     5.52303683     6.42475116
O      1.92862022     5.59252216     1.67404250
O      1.98002167     3.29720578     4.81280780
O      5.81155478     3.35101064     0.10766953
O      7.78106147     4.49583877     3.22629631
O      5.90474432     5.43335622     6.56750162
O      5.80528807     5.59217007     1.68114259
O      5.79086176     3.36310677     4.60010408
O      7.71772705     4.01855574     9.00868092
O     -3.87155109     6.71022987     0.10512724
O     -1.92431900     7.81758364     3.27311867
O     -3.85586175     8.93299717     6.32807976
O     -3.87509971     8.94378428     1.69355631
O      7.69528577     6.71758962     4.84803514
O     -2.00950122     7.86665835     8.05176797
O     -0.01209783     6.71325780     0.10434852
O      1.91621073     7.82965211     3.28103785
O     -0.08188523     9.06591504     6.50911375
O     -0.00628994     8.94736548     1.70514550
O     -0.00746996     6.70982152     4.96552821
O      1.83106879     7.71524357     8.11733527
O      3.86815347     6.71410280     0.09951587
O      5.81114406     7.83855407     3.19787574
O      3.92480057     8.91087957     6.38712534
O      3.86556896     8.94715423     1.69389986
O      3.94163534     6.69829091     4.81046836
O      5.97027433     7.88569968     8.04622906
