81
CIF: Mo-CeO2.cif | data_image0
O      0.55978538     0.45000321     0.60000009
O      2.55688537     1.57097440     3.80508959
O      0.37266258     2.55263029     7.02618141
O      0.55978538     2.65901948     2.16203581
O      0.56017250     0.33083583     5.42861882
O      2.51809687     2.09459224     8.52892298
O      4.38602857     0.45000321     0.60000009
O      6.28994910     1.55951222     3.75539826
O      4.61934985     2.52403097     6.87999918
O      4.38602857     2.65901948     2.16203581
O      4.40183412     0.37248820     5.39866531
O      6.32089775     1.54240927     8.68708116
O      8.21215698     0.45000321     0.60000009
O     10.07435721     1.52912435     3.74925073
O      8.20145785     2.62434673     6.98629171
O      8.21215698     2.65901948     2.16203581
O      8.19617969     0.46080317     5.40900843
O     10.05810669     1.51994830     8.68696700
O     -1.35327882     3.76352761     0.60000009
O      0.50682740     4.89897217     3.77472589
O     -1.24902921     5.91267922     7.14146680
O     -1.35333621     5.97264328     2.16203581
O     -1.47081153     3.81563248     5.45491070
O      1.04354330     4.58930715     8.57701988
O      2.47296437     3.76352761     0.60000009
O      4.41450217     4.78770470     3.80611072
O      2.47201779     6.19029509     7.02369370
O      2.47290698     5.97264328     2.16203581
O      2.50221836     3.74644552     5.95597780
O      3.93630258     4.55556802     8.52962476
O      6.29909277     3.76352761     0.60000009
O      8.20839578     4.90304428     3.73937485
O      6.19700379     5.90110211     7.10209808
O      6.29903538     5.97264328     2.16203581
O      6.37447424     3.78806165     5.39994592
O      8.19818541     4.84007583     8.59412902
O     -3.26640042     7.07715142     0.60000009
O     -1.38587107     8.16748280     3.73826581
O     -3.25599138     9.40794851     7.10043607
O     -3.26640042     9.28616768     2.16203581
O     -3.26862576     7.07754081     5.52538044
O     -1.33524216     8.20769320     8.59168087
O      0.55984277     7.07715142     0.60000009
O      2.47004649     8.23998822     3.74945184
O      0.58462128     9.31495725     6.98408237
O      0.55984277     9.28616768     2.16203581
O      0.45539253     7.15421064     5.45155820
O      2.46925721     8.25969982     8.68669607
O      4.38597118     7.07715142     0.60000009
O      6.33778304     8.16006356     3.73312356
O      4.34269545     9.31294071     6.97527961
O      4.38597118     9.28616768     2.16203581
O      4.49045776     7.13773687     5.42626320
O      6.27326593     8.19542258     8.57342900
Ce     2.47284958     1.55451135     1.38101795
Ce     0.53297948     2.65429909     4.59566331
Ce     0.46451620     0.44695244     7.73191334
Ce     6.29909277     1.55451135     1.38101795
Ce     4.44480852     2.62484662     4.56712068
Ce     4.47302726     0.44909065     7.73467483
Ce    10.12522118     1.55451135     1.38101795
Ce     8.22531029     2.65263342     4.53976217
Ce     8.20402720     0.45603889     7.83091696
Ce     0.55978538     4.86803574     1.38101795
Ce    -1.34028949     5.96530928     4.56601923
Ce    -1.40804819     3.68562185     7.75489212
Ce     4.38602857     4.86803574     1.38101795
Ce     2.46351952     6.00113838     4.59370686
Ce     8.21215698     4.86803574     1.38101795
Ce     6.29528283     5.96722487     4.56877620
Ce     6.34402572     3.68711484     7.73480241
Ce    -1.35333621     8.18165955     1.38101795
Ce    -3.26369673     9.29234171     4.56729445
Ce    -3.26398528     7.07469524     7.80447817
Ce     2.47290698     8.18165955     1.38101795
Ce     0.57180027     9.27813810     4.53900194
Ce     0.59901328     7.16568849     7.75390690
Ce     6.29903538     8.18165955     1.38101795
Ce     4.37699469     9.29253998     4.53314072
Ce     4.34140551     7.16403881     7.73098688
Mo     2.46655685     3.76423441     7.82010962
