83
CIF: Ti-Fe-CeO2-Ov-O2.cif | data_image0
Ce     1.93038582     1.11050507     0.88387043
Ce     0.00276563     2.22838642     4.04178986
Ce    -5.77728437    10.03185366     7.21522155
Ce     5.81181033     1.12175166     0.90127712
Ce     3.82727277     2.19155590     3.98788644
Ce    -2.05738399     9.90296919     7.21013168
Ce     9.66901012     1.12377363     0.90450652
Ce     7.74225899     2.22613328     4.13888329
Ce     2.04360208    10.04918116     7.43541596
Ce    -0.00709724     4.47602159     0.89067279
Ce    -1.94073161     5.57690647     4.07364422
Ce    -1.76513731     3.33501652     7.25666859
Ce     3.86254305     4.47635356     0.87798423
Ce     1.95773520     5.57434044     4.06405914
Ce     1.89860303     3.27186764     7.26739054
Ce     7.74213807     4.46545905     0.90125422
Ce     5.82292891     5.62961736     3.98470056
Ce    -1.94645625     7.83004003     0.90010904
Ce    -3.88224266     8.91549121     4.03570471
Ce    -3.83211909     6.66299195     7.26630101
Ce     1.92815559     7.82745473     0.89060408
Ce     0.02465892     8.95985567     4.10339626
Ce     0.04922799     6.69212134     7.26083251
Ce     5.81127600     7.83258510     0.88371011
Ce     3.85440103     8.96701535     4.05203418
Ce     3.87325523     6.81595190     7.19029054
Fe     4.99101680     3.78690864     6.51942575
Ti     6.81191305     3.02163218     8.24200821
O     11.61334069     0.00154917     0.10141687
O      1.93036363     1.08866892     3.21478369
O      0.04766006     2.18311924     6.37446510
O     -0.00785227     2.23805103     1.69392277
O     -5.77059401    10.02157075     4.86966295
O      1.98637884     0.93514736     8.01924540
O     -1.93899312    10.05733740     0.10496691
O      5.72388910     1.08631340     3.26645796
O      4.10012476     2.22168959     6.55105407
O      3.86763657     2.23577757     1.68132582
O      3.81091942     0.00046405     4.90920790
O      6.79703259     1.45363359     9.02470570
O      7.73821774     0.00761509     0.10924988
O      9.74119019     1.08453039     3.25573647
O      7.68495395     2.38508023     6.69733126
O      7.74357843     2.23531483     1.71563532
O      1.93374117     9.98454814     4.91384892
O      9.94343303     1.14444733     8.06479891
O      9.67032270     3.35425987     0.10911246
O      0.01621227     4.49535015     3.25989869
O     -1.98488138     5.59137174     6.45541454
O     -1.94403436     5.59119430     1.70564938
O     -1.86441259     3.37849456     4.91795946
O     -0.00708354     4.53985114     8.03419471
O      1.92738314     3.35244915     0.09928684
O      3.86157496     4.48983639     3.20518366
O      2.04168453     5.58190874     6.43131405
O      1.92862022     5.59252216     1.67404250
O      1.99016837     3.30804952     4.83561206
O      5.81155478     3.35101064     0.10766953
O      7.72858608     4.53889844     3.25583285
O      5.82787557     5.40469908     6.48551076
O      5.80528807     5.59217007     1.68114259
O      5.65524887     3.41828962     4.88898530
O      8.12567901     4.31016259     8.50738969
O     -3.87155109     6.71022987     0.10512724
O     -1.93467392     7.81352333     3.28121243
O     -3.85122447     8.83466297     6.41382908
O     -3.87509971     8.94378428     1.69355631
O      7.69709477     6.68615323     4.90930170
O     -1.99622691     7.76562853     8.08101765
O     -0.01209783     6.71325780     0.10434852
O      1.93084039     7.80062216     3.25605641
O     -0.07940073     9.03369511     6.59104668
O     -0.00628994     8.94736548     1.70514550
O      0.02171653     6.72963661     4.95266145
O      1.97599573     7.67385968     8.08845155
O      3.86815347     6.71410280     0.09951587
O      5.81455424     7.82697340     3.21680309
O      3.94749725     8.91409520     6.45254560
O      3.86556896     8.94715423     1.69389986
O      3.92884030     6.72074433     4.87142140
O      5.86492041     7.72086140     7.99523261
O      4.02580615     4.43723496     8.06430333
O      5.08695073     3.81143043     8.83712700
