84
CIF: Pt-CeO2-O2+CO.cif | data_image0
O      0.39639278     0.38660270     0.79999586
O      2.31306204     1.40610232     3.92448979
O      0.56783307     2.69479261     7.04077272
O      0.39639278     2.59561896     2.36203158
O      0.37248639     0.38829555     5.58800610
O      2.17405333     1.62447709     8.79933600
O      4.22263597     0.38660270     0.79999586
O      6.13804883     1.48056555     3.94133353
O      3.94118811     2.79985854     7.26444347
O      4.22263597     2.59561896     2.36203158
O      4.23620886     0.45709925     5.64693920
O      6.08154281     1.50446621     8.69476954
O      8.04876437     0.38660270     0.79999586
O      9.93617085     1.47708878     3.93518732
O      8.04608211     2.57158909     7.13248764
O      8.04876437     2.59561896     2.36203158
O      8.03292020     0.37802283     5.58694731
O      9.98523898     1.50506757     8.68824851
O     -1.51667142     3.70012710     0.79999586
O      0.32237334     4.84949441     3.92417304
O     -1.46533223     5.89126351     7.16630514
O     -1.51672882     5.90924277     2.36203158
O     -1.52753960     3.67959063     5.58916231
O      0.44523429     4.62335782     8.79915904
O      2.30957177     3.70012710     0.79999586
O      4.29840516     4.84708555     3.92985876
O      2.34780529     5.56405514     7.26534876
O      2.30951437     5.90924277     2.36203158
O      2.30872748     3.70036435     5.17315780
O      6.13570017     3.70012710     0.79999586
O      8.03705095     4.80857630     3.96783835
O      6.12290281     5.90320528     7.14802102
O      6.13564278     5.90924277     2.36203158
O      6.10635335     3.65592826     5.62394053
O      8.07182144     4.79677527     8.74120833
O     -3.42979302     7.01375090     0.79999586
O     -1.50623329     8.12416341     3.98466723
O     -3.42000606     9.27611717     7.16544277
O     -3.42979302     9.22276717     2.36203158
O     -3.41768671     7.02062859     5.62572371
O     -1.53326743     8.10995404     8.76221742
O      0.39645017     7.01375090     0.79999586
O      2.30069187     8.12594570     3.94099673
O      0.37534711     9.21050527     7.15199570
O      0.39645017     9.22276717     2.36203158
O      0.46497516     6.98913534     5.64708159
O      2.29390668     8.06559018     8.69507504
O      4.22257858     7.01375090     0.79999586
O      6.13303477     8.10652706     3.96796101
O      4.19980503     9.23408012     7.13170414
O      4.22257858     9.22276717     2.36203158
O      4.16771538     7.01110528     5.62296346
O      6.14003897     8.14317368     8.74109119
O      3.37282402     4.30978703     9.54093580
O      4.53843376     4.98830759     9.06600321
O      1.61583994     3.36833986    12.02779367
Ce     2.30945698     1.49111083     1.58101372
Ce     0.40730136     2.60230363     4.71990316
Ce     0.39745558     0.43197270     7.93587950
Ce     6.13570017     1.49111083     1.58101372
Ce     4.18631438     2.62108273     4.75536722
Ce     4.17758989     0.44121614     7.96329475
Ce     9.96182858     1.49111083     1.58101372
Ce     8.03833543     2.58944965     4.74853038
Ce     8.02356673     0.37285190     7.90850578
Ce     0.39639278     4.80463523     1.58101372
Ce    -1.51280676     5.90253462     4.77149460
Ce    -1.47723762     3.67908216     7.93646574
Ce     4.22263597     4.80463523     1.58101372
Ce     2.31316685     5.86514348     4.75502343
Ce     8.04876437     4.80463523     1.58101372
Ce     6.13318807     5.90802101     4.77484836
Ce     6.18389454     3.68855823     7.94908613
Ce    -1.51672882     8.11825903     1.58101372
Ce    -3.43353572     9.22976197     4.77126692
Ce    -3.41730316     7.02163822     7.97671690
Ce     2.30951437     8.11825903     1.58101372
Ce     0.39678539     9.22310979     4.77410937
Ce     0.42171052     6.94770334     7.96324539
Ce     6.13564278     8.11825903     1.58101372
Ce     4.21153538     9.21757102     4.74816058
Ce     4.23612654     7.06261772     7.94839298
Pt     2.16674795     3.61768785     8.10848798
C      0.77744099     2.86801920    11.43205387
