    81
 Tv_1:  11.598200   0.000000   0.000000 Tv_2:  -5.799100  10.044336   0.000000 Tv_3:   0.000000   0.000000  22.891600
Ce      2.14531905      1.20773094      3.19108904
Ce      0.17266240      2.40433276      9.73282157
Ce      0.20607682      0.11070867      6.44254323
Ce      6.01134706      1.20773094      3.19108904
Ce      4.07944069      0.11885463      6.40683233
Ce      9.87749105      1.20773094      3.19108904
Ce      7.89008149      2.33665402      9.67437932
Ce      7.93828361      0.08654200      6.44176491
Ce      0.21230505      4.55580941      3.19108904
Ce     -1.74551750      5.62436603      9.72563361
Ce     -1.72553960      3.44459449      6.42663357
Ce      4.07833306      4.55580941      3.19108904
Ce      2.17636164      3.38350484      6.46921194
Ce      7.94447705      4.55580941      3.19108904
Ce      6.04240704      5.62928775      9.66968654
Ce      6.00580892      3.44077764      6.38176603
Ce     -1.72076694      7.90398831      3.19108904
Ce     -3.65472040      9.01989394      9.64310939
Ce     -3.65568885      6.79305464      6.42596971
Ce      2.14526106      7.90398831      3.19108904
Ce      0.11580803      9.13303334      9.67467691
Ce      0.16995422      6.78264871      6.39144918
Ce      6.01140505      7.90398831      3.19108904
Ce      4.12258599      9.10953963      9.72062035
Ce      4.10802445      6.79559585      6.39575280
Ga      4.01630588      2.00726007      9.81946628
O       0.21230505      2.32375710      2.40201559
O       2.32957966      1.29170159     10.65045425
O       2.10322919      1.19415100      5.60940345
O       0.19875255      2.37929223      7.27218060
O       0.24154991      0.16481751      8.91545410
O       0.21230505      0.09170479      3.98039141
O       4.07833306      2.32375710      2.40201559
O       5.81905470      1.24444299     10.41107679
O       6.05347172      1.16604695      5.57254797
O       4.13155720      2.34016954      6.98763801
O       4.00831472      0.23294824      8.80436117
O       4.07833306      0.09170479      3.98039141
O       7.94436106      2.32375710      2.40201559
O       9.83786000      1.22175283     10.52702274
O       9.88551120      1.19361865      5.61853720
O       7.93222355      2.29883710      7.22028534
O       7.91554534      0.12703072      8.87882754
O       7.94436106      0.09170479      3.98039141
O      -1.72076694      5.67193600      2.40201559
O      -0.14920504      4.37357502     10.61723854
O       0.23775730      4.57104666      5.60862513
O      -1.70799732      5.69176352      7.24876249
O      -1.81327999      3.42940745      8.79934791
O      -1.72070895      3.43978325      3.98039141
O       2.14526106      5.67193600      2.40201559
O       4.62821532      3.79736161     10.25669584
O       4.04825892      4.61951058      5.59342511
O       2.13064153      5.58411838      7.36908074
O       2.36103398      2.75082217      8.95796380
O       2.14531905      3.43978325      3.98039141
O       6.01128907      5.67193600      2.40201559
O       7.91531337      4.55602034     10.53162395
O       7.94608919      4.57051431      5.60560344
O       5.99053409      5.72749123      7.24139139
O       6.13561597      3.51036480      8.73486227
O       6.01134706      3.43978325      3.98039141
O      -3.65378095      9.02001447      2.40201559
O      -1.76851673      7.99314184     10.45058769
O      -1.72734892      7.90586661      5.59445523
O      -3.67290638      9.00910632      7.25892636
O      -3.65658191      6.75926549      8.84993834
O      -3.65378095      6.78796216      3.98039141
O       0.21224706      9.02001447      2.40201559
O       2.12846107      8.00823848     10.54819747
O       2.14527846      7.87157524      5.63799506
O       0.18155242      9.01439969      7.27284445
O       0.15690045      6.80780977      8.90533602
O       0.21224706      6.78796216      3.98039141
O       4.07827507      9.02001447      2.40201559
O       6.03416072      7.93420168     10.47405158
O       6.00303115      7.92405690      5.59610343
O       4.09732511      9.01245108      7.31029511
O       4.09857192      6.75965722      8.96476261
O       4.07827507      6.78796216      3.98039141
Au      2.12366521      6.64848651      9.07132301
