83
CIF: Cr-CeO2+CO.cif | data_image0
O      0.55978923     0.45000431     0.59999690
O      2.47214758     1.54046801     3.72236682
O      0.91277695     2.88244265     7.04351915
O      0.55978923     2.65902057     2.16203261
O      0.54687620     0.53890340     5.42808733
O      2.47155405     1.05736678     8.79248496
O      4.38603242     0.45000431     0.59999690
O      6.31704050     1.54958721     3.74550046
O      4.03036179     2.88097307     7.04371241
O      4.38603242     2.65902057     2.16203261
O      4.39616720     0.53932241     5.42737151
O      6.22534591     1.60887950     8.50113021
O      8.21216082     0.45000431     0.59999690
O     10.10691095     1.55046899     3.74507515
O      8.21092364     2.68385370     6.96096878
O      8.21216082     2.65902057     2.16203261
O      8.21201890     0.45855305     5.41437527
O     10.19586040     1.60758540     8.50062947
O     -1.35327498     3.76352871     0.59999690
O      0.54204185     4.88384705     3.72265915
O     -1.40575690     6.01550912     6.84979741
O     -1.35333237     5.97264438     2.16203261
O     -1.29052152     3.72375539     5.42822892
O      0.09760461     5.14780630     8.81007180
O      2.47296821     3.76352871     0.59999690
O      4.40240568     4.88380642     3.72254807
O      2.47065664     5.56446940     7.05228704
O      2.47291082     5.97264438     2.16203261
O      2.47244088     3.77151169     5.22024783
O      4.84197787     5.14517771     8.80924673
O      6.29909662     3.76352871     0.59999690
O      8.21230612     4.83943183     3.77208501
O      6.34784829     6.01437892     6.85014383
O      6.29903923     5.97264438     2.16203261
O      6.23551726     3.72407506     5.42712329
O      8.21030731     4.90933592     8.57644301
O     -3.26639657     7.07715251     0.59999690
O     -1.32259459     8.20418776     3.77287492
O     -3.26708475     9.23920078     6.84891171
O     -3.26639657     9.28616878     2.16203261
O     -3.26792743     7.08581407     5.29869562
O     -1.37881459     8.18462478     8.57700109
O      0.55984662     7.07715251     0.59999690
O      2.47189442     8.20696924     3.74442352
O      0.54801543     9.29165411     6.95942030
O      0.55984662     9.28616878     2.16203261
O      0.63645393     7.05389329     5.43105406
O      2.47239046     8.11328868     8.50323851
O      4.38597502     7.07715251     0.59999690
O      6.26703100     8.20520215     3.77239844
O      4.39672857     9.29045450     6.96041697
O      4.38597502     9.28616878     2.16203261
O      4.30836629     7.05548388     5.43045300
O      6.32342618     8.18300933     8.57721844
O      2.46222627     3.73463255    10.38690777
Ce     2.47285343     1.55451244     1.38101475
Ce     0.54207178     2.65726977     4.52093930
Ce     0.61477942     0.42498470     7.82731669
Ce     6.29909662     1.55451244     1.38101475
Ce     4.40264222     2.65718244     4.52086550
Ce     4.32871649     0.42612016     7.82719145
Ce    10.12522502     1.55451244     1.38101475
Ce     8.21169298     2.66879415     4.59792909
Ce     8.21156954     0.46229552     7.73552892
Ce     0.55978923     4.86803684     1.38101475
Ce    -1.34764880     5.97631957     4.55897161
Ce    -1.36047231     3.84690262     7.83132905
Ce     4.38603242     4.86803684     1.38101475
Ce     2.47226457     5.99862758     4.52249046
Ce     8.21216082     4.86803684     1.38101475
Ce     6.29205748     5.97641757     4.55893979
Ce     6.30235746     3.84618464     7.83125606
Ce    -1.35333237     8.18166064     1.38101475
Ce    -3.26714042     9.30034945     4.55782624
Ce    -3.26773189     7.09078352     7.72995521
Ce     2.47291082     8.18166064     1.38101475
Ce     0.55824597     9.29165090     4.59767705
Ce     0.49503215     7.06068772     7.83398938
Ce     6.29903923     8.18166064     1.38101475
Ce     4.38636648     9.29181611     4.59768253
Ce     4.44799350     7.05956929     7.83411874
Cr     2.47225172     3.77255257     7.15569069
C      2.46682400     3.75002659     9.24339949
