    39
 Tv_1:   7.865150   0.000000   0.000000 Tv_2:  -3.932575   6.811420   0.000000 Tv_3:   0.000000   0.000000  23.027330
Pd      2.07046928      3.34574211      7.11390214
Ce      3.93257893      2.27047096      0.80273272
Ce     -0.00650055      4.54469502      3.93640693
Ce      7.86515000      0.00000000      7.26063229
Ce      1.96629143      5.67618082      0.80273272
Ce      1.98301274      1.18169277      4.02994394
Ce     -2.00898347      3.47966144      7.12239922
Ce     -1.96628357      5.67618082      0.80273272
Ce      5.90668439      1.13072973      3.95066084
Ce      0.00000393      2.27047096      0.80273272
Ce      3.90078406      4.50320666      4.02996697
Ce      3.84753700      0.00000000      7.12239922
O       3.93257107      4.54094874      1.60546545
O       4.01300009      0.07679876      4.78913198
O       0.23332754      2.50363267      7.67576899
O      -1.96628750      3.40570985      0.00000000
O       2.00136214      5.70134220      3.18461066
O       2.25765985      1.33465682      6.54669295
O       5.89885857      1.13523889      1.60546545
O       1.89972080      3.44420119      4.76214395
O      -2.00733572      5.70027281      8.01800117
O       0.00000000      0.00000000      0.00000000
O       3.91316774      2.28199589      3.18175527
O      -0.29272515      4.71015122      6.16363331
O       1.96628357      1.13523889      1.60546545
O       5.87284458      3.29770798      4.78927015
O       1.88155624      5.35759028      7.67576899
O       3.93257500      0.00000000      0.00000000
O      -0.00423538      2.22740917      3.18454158
O       3.90566046      4.18881878      6.54655478
O      -0.00000393      4.54094874      1.60546545
O       7.86309720      0.00128055      5.00139791
O       1.96628750      3.40570985      0.00000000
O      -1.99319418      5.69170404      3.24429750
O       5.78904141      1.19863277      6.94465126
H       2.63538761      1.96105541      9.21242878
H       1.79913340      3.50226173      9.63691458
H       3.55198039      3.54804128      9.21252089
C       2.59133490      3.04475229      9.03808886
