    41
 Tv_1:   7.865150   0.000000   0.000000 Tv_2:  -3.932575   6.811420   0.000000 Tv_3:   0.000000   0.000000  23.027330
Pt      2.02284973      3.37183666      7.12025768
Ce      3.93257893      2.27047096      0.80273272
Ce     -0.03483082      4.56078359      3.98789604
Ce      7.86078877      0.00087867      7.22837100
Ce      1.96629143      5.67618082      0.80273272
Ce      1.98310712      1.17662507      4.02432527
Ce     -1.90133316      3.40291036      7.17754968
Ce     -1.96628357      5.67618082      0.80273272
Ce      5.90487541      1.13146536      3.99498845
Ce      0.00000393      2.27047096      0.80273272
Ce      3.90520821      4.50544762      4.02391078
Ce      0.03303363      6.75374060      7.17734243
O       3.93257107      4.54094874      1.60546545
O       3.94741654      0.08296309      4.75726216
O       0.19364786      2.51849519      7.60035449
O      -1.96628750      3.40570985      0.00000000
O       2.00286438      5.69728259      3.20349307
O       2.23722619      1.38561986      6.56803928
O       5.89885857      1.13523889      1.60546545
O       1.88287365      3.45365544      4.80981053
O      -2.12052702      5.76253600      8.03232417
O       0.00000000      0.00000000      0.00000000
O       3.89838519      2.29019002      3.17733402
O      -0.42064002      4.78238632      6.21397106
O       1.96628357      1.13523889      1.60546545
O       5.83360535      3.35026490      4.75611079
O       1.84829452      5.38220675      7.60056173
O       3.93257500      0.00000000      0.00000000
O       0.00030674      2.22800176      3.20344701
O       3.85073025      4.17881961      6.56813139
O      -0.00000393      4.54094874      1.60546545
O      -3.80947754      6.74044471      4.96639637
O       4.94928328      1.67648792      8.69343881
O       1.96628750      3.40570985      0.00000000
O      -1.98965879      5.68962656      3.19386764
O       5.95559383      1.10165178      6.39236378
H       2.32895350      2.14445970      9.41062501
H       4.50540174      1.93263136      9.52062656
H       1.46209599      3.70242211      9.62213103
H       3.24455134      3.71243489      9.40956575
C       2.30919231      3.20719784      9.13482667
