    41
 Tv_1:   7.865150   0.000000   0.000000 Tv_2:  -3.932575   6.811420   0.000000 Tv_3:   0.000000   0.000000  23.027330
Rh      2.01098121      3.38224451      7.16237467
Ce      3.93257893      2.27047096      0.80273272
Ce     -0.02700106      4.55577720      3.98522487
Ce      0.03717463      0.08863700      7.25358592
Ce      1.96629143      5.67618082      0.80273272
Ce      1.99175879      1.17977195      4.02513123
Ce     -1.89939440      3.40058766      7.18058929
Ce     -1.96628357      5.67618082      0.80273272
Ce      5.90946079      1.13175144      3.99321535
Ce      0.00000393      2.27047096      0.80273272
Ce      3.90171608      4.49408617      4.03157888
Ce      0.06143469      6.74617993      7.17409558
O       3.93257107      4.54094874      1.60546545
O       3.95948561      0.07790221      4.77416422
O       0.22755059      2.51901967      7.66305790
O      -1.96628750      3.40570985      0.00000000
O       2.01115032      5.70892331      3.20809853
O       2.28977719      1.41969740      6.59942553
O       5.89885857      1.13523889      1.60546545
O       1.88559106      3.44442596      4.74224834
O      -2.12152590      5.76532868      8.00273405
O       0.00000000      0.00000000      0.00000000
O       3.91107561      2.28177792      3.17583724
O      -0.38405921      4.76022196      6.22645187
O       1.96628357      1.13523889      1.60546545
O       5.84401488      3.35426320      4.76465393
O       1.87225570      5.34398788      7.61721049
O       3.93257500      0.00000000      0.00000000
O      -0.00657133      2.21370459      3.20584186
O       3.83502354      4.00459712      6.57817131
O      -0.00000393      4.54094874      1.60546545
O      -3.78745512      6.72932847      5.00093737
O       5.03788026      1.63168921      8.71607468
O       1.96628750      3.40570985      0.00000000
O      -1.98379139      5.68883643      3.19778229
O       5.97749434      1.10710772      6.39455138
H       2.41927688      2.11417613      9.40297993
H       4.61042509      1.87406677      9.55629590
H       1.55047275      3.66586522      9.67880129
H       3.32680508      3.69022966      9.39132810
C       2.38263315      3.18294237      9.15446899
