    41
 Tv_1:   7.865150   0.000000   0.000000 Tv_2:  -3.932575   6.811420   0.000000 Tv_3:   0.000000   0.000000  23.027330
Ru      1.97790826      3.39936842      8.14515809
Ce      3.93257893      2.27047096      0.80273272
Ce      0.02561286      4.52710794      4.03535536
Ce     -3.90201496      6.79413913      7.16976644
Ce      1.96629143      5.67618082      0.80273272
Ce      1.96764031      1.16441220      4.03487179
Ce     -1.96574874      3.43576865      7.17054937
Ce     -1.96628357      5.67618082      0.80273272
Ce      5.90059283      1.13547729      3.93907810
Ce      0.00000393      2.27047096      0.80273272
Ce      3.90866101      4.52664476      4.03448033
Ce     -0.02466511      6.79658443      7.17117111
O       3.93257107      4.54094874      1.60546545
O       4.05727302      0.07167657      4.85773040
O       0.38341426      2.48723759      8.05590415
O      -1.96628750      3.40570985      0.00000000
O       1.96688525      5.68124170      3.17422533
O       1.96888300      0.76682963      6.39038343
O       5.89885857      1.13523889      1.60546545
O       1.96660604      3.40575753      4.71288849
O      -1.96639368      5.67615357      8.55591960
O       0.00000000      0.00000000      0.00000000
O       3.93723903      2.26844797      3.17427139
O      -0.32087059      4.72672340      6.38953142
O       1.96628357      1.13523889      1.60546545
O       5.90087205      3.26619154      4.85750013
O       1.97121108      5.23652411      8.05645681
O       3.93257500      0.00000000      0.00000000
O      -0.00416460      2.26793712      3.17422533
O       4.25228941      4.72359015      6.38831097
O      -0.00000393      4.54094874      1.60546545
O       7.74714129      0.07008951      4.85766132
O       3.57516685      2.47728610      8.05700947
O       1.96628750      3.40570985      0.00000000
O      -1.96397121      5.67731151      3.26787748
O       5.90320406      1.13317503      6.87902337
H       2.04465192      2.36348771     10.54299396
H      -1.96839143      5.67645327      9.52857099
H       1.04230934      3.85885317     10.54126691
H       2.83841859      3.97867967     10.54327029
C       1.97530096      3.40017898     10.18632364
