86
CIF: 2-NH2+H+NO-NH2NO+H_ts.cif | data_image0
Ce    -0.00708683     0.02072000     8.79181499
Ce     1.94691093     1.13448727     5.63221356
Ce     0.01236324     2.24544164     2.47973931
Ce     3.88051959     0.02324987     8.79562281
Ce     5.82720514     1.12067370     5.62764234
Ce     3.88442129     2.24520193     2.48243049
Ce     7.77566396     0.01028231     8.77338145
Ce     9.70396843     1.11780817     5.59913179
Ce     7.75559422     2.24547758     2.48300827
Ce     9.69920259     3.26812789     8.75041175
Ce     0.02448046     4.48476405     5.64668857
Ce    -1.92337363     5.59632867     2.48069424
Ce     1.97424716     3.27988239     8.85186200
Ce     3.88300488     4.48930115     5.66947843
Ce     1.94802612     5.59685103     2.48090573
Ce     5.84514345     3.34329579     8.79053936
Ce     7.76777860     4.48714198     5.63290696
Ce     5.81959488     5.59581573     2.48007616
Ce     7.67972014     6.76760945     8.77174519
Ce    -1.93743132     7.84008789     5.60161930
Ce    -3.85870230     8.95065673     2.47676802
Ce    -0.03437183     6.83977081     8.72107743
Ce     1.96330701     7.82252473     5.62154245
Ce     0.01254493     8.95128556     2.47991128
Ce     3.97157306     6.75513273     8.85506201
Ce     5.81018365     7.83157927     5.60933268
Ce     3.88303435     8.95150331     2.47743405
O      0.00896466     0.01203194     6.42205041
O     -0.12365556     2.18987270     9.61424498
O      1.95021322     1.12746684     3.27031303
O      0.01944545     2.24246856     4.80875883
O      0.01167287     0.01105737     1.69137056
O      1.94359992     1.07898584     7.99558163
O     -1.91583426    10.04827562     6.44975066
O      4.01918948     2.12397997     9.61893319
O      5.82087836     1.12944406     3.27291332
O      3.89649782     2.24449846     4.84451617
O      3.88572942     0.00848624     1.69224514
O      5.86321937     1.11634985     7.95215246
O      1.96138783    10.02158884     6.43443484
O      7.78208895     2.23196899     9.56795466
O      9.68939589     1.12843681     3.27098983
O      7.75735465     2.24213607     4.83259553
O      7.75549368     0.00878405     1.69211277
O      9.67458655     1.12613898     7.92425814
O     -1.87988331     3.34725838     6.42387091
O     -1.97391285     5.62966867     9.95355506
O      0.01278592     4.47995786     3.27575679
O     -1.92736634     5.59866003     4.82823124
O     -1.92271571     3.36428444     1.69253966
O     -0.04789561     4.61506972     8.06724086
O      1.92171518     3.36146227     6.42759653
O      3.88246157     4.47800176     3.27522749
O      1.94579349     5.59528869     4.83300652
O      1.94743193     3.36280081     1.69261058
O      3.89716506     4.48046886     8.03715123
O      5.84830736     3.38250720     6.47055415
O      6.01307889     5.54656487     9.63084542
O      7.75673314     4.47712041     3.27465350
O      5.82758724     5.58493999     4.81886053
O      5.81939131     3.36445147     1.69335548
O      7.88315433     4.51134593     7.98855224
O      7.72929664     6.72535724     6.42011332
O     -3.86704705     8.93706820     9.61963312
O     -1.92329976     7.83213281     3.27092072
O     -3.85509011     8.95681616     4.81198642
O     -3.85860192     6.71323883     1.69212811
O     -1.96599046     7.76687943     8.00079908
O      0.00185373     6.75649578     6.39129123
O     -0.02051121     8.96055183     9.57226723
O      1.94810334     7.83258316     3.27194753
O      0.00909815     8.96294456     4.80793792
O      0.01323294     6.71421952     1.69275133
O      1.90999512     7.75701118     8.04735207
O      3.89570072     6.73250145     6.38792445
O      3.86671411     9.10865383     9.62264431
O      5.82030414     7.83309314     3.26778157
O      3.88724166     8.95694333     4.79836795
O      3.88325339     6.71298188     1.69228028
O      5.83937217     7.87077437     7.98948599
O      4.01532866     5.28016585    12.33515122
N      1.42478947     5.70233184    10.42007426
N      3.85730254     5.24423355    11.16606652
H     -1.97359472     5.64447614    10.92872433
H      1.71879526     6.35750356    11.15866972
H      0.86551646     5.01544971    10.95079283
