84
CIF: 5-OH+2H-H2O+H_fs.cif | data_image0
Ce    11.59263509     0.00542509     8.80649350
Ce     1.93546661     1.11778712     5.61591411
Ce     0.00000000     2.23543938     2.47426506
Ce     3.89985667     0.03708751     8.80922634
Ce     5.81158994     1.11506273     5.61580483
Ce     3.87189458     2.23543938     2.47426506
Ce     7.74528136     0.00797884     8.78066101
Ce     9.68787348     1.11059800     5.59796574
Ce     7.74390532     2.23543938     2.47426506
Ce     9.69575366     3.25012691     8.75789152
Ce     0.00661696     4.47827350     5.65022539
Ce    -1.93600537     5.58869904     2.47426506
Ce     1.94073782     3.20302532     8.79681054
Ce     3.86528131     4.48280676     5.65561003
Ce     1.93588921     5.58869904     2.47426506
Ce     5.84371706     3.35449914     8.76219327
Ce     7.75574795     4.48820934     5.62466781
Ce     5.80789995     5.58869904     2.47426506
Ce     7.65414665     6.76663929     8.78027074
Ce    -1.94626907     7.83295412     5.60723710
Ce    -3.87195266     8.94185811     2.47426506
Ce    -0.11715279     6.84348929     8.76936867
Ce     1.93172789     7.81591025     5.63610672
Ce    -0.00005808     8.94185811     2.47426506
Ce     3.98110970     6.79534557     8.77581415
Ce     5.80219234     7.83262246     5.58829944
Ce     3.87195266     8.94185811     2.47426506
O     -0.00088222     0.00938064     6.41481209
O     -0.13048417     2.12872576     9.64520591
O      1.93594729     1.11771969     3.26466483
O     -0.00316403     2.23496996     4.80202241
O      0.00000000     0.00000000     1.68386529
O      1.95245499     1.04956411     7.99652468
O     -1.92137456    10.04939543     6.43684845
O      4.02641826     2.17925249     9.65638546
O      5.80795803     1.11771969     3.26466483
O      3.88390935     2.23856741     4.82912453
O      3.87189458     0.00000000     1.68386529
O      5.83785133     1.14400911     7.92897554
O      1.93703304    10.01357464     6.43632252
O      7.76894532     2.23877071     9.56695311
O      9.67985261     1.11771969     3.26466483
O      7.74702551     2.23602663     4.82742629
O      7.74390532     0.00000000     1.68386529
O      9.65642719     1.12295221     7.92184493
O     -1.89617728     3.35297380     6.43097698
O     -2.04079795     5.58917968    10.02997926
O      0.00000000     4.47087876     3.26466483
O     -1.94251619     5.58841865     4.81809857
O     -1.93594729     3.35315907     1.68386529
O     -0.02768731     4.52175554     8.13427277
O      1.90738594     3.33297483     6.40053970
O      3.87201074     4.47087876     3.26466483
O      1.92898046     5.58671990     4.83079864
O      1.93594729     3.35315907     1.68386529
O      3.84866490     4.48866611     8.02738192
O      5.82935051     3.39543474     6.45003099
O      5.92721589     5.52597785     9.67042643
O      7.74390532     4.47087876     3.26466483
O      5.81350971     5.58411141     4.80645895
O      5.80795803     3.35315907     1.68386529
O      7.85460904     4.52472309     7.99399798
O      7.71863181     6.71845797     6.41305421
O     -3.91432089     8.90972637     9.64914207
O     -1.93600537     7.82413842     3.26466483
O     -3.86782740     8.94854958     4.80307630
O     -3.87195266     6.70641873     1.68386529
O     -2.02287680     7.81086098     8.00734541
O     -0.02680026     6.73030393     6.38815550
O     -0.03840626     9.10916878     9.64273684
O      1.93600537     7.82413842     3.26466483
O     -0.00307615     8.95175157     4.80432817
O     -0.00005808     6.70641873     1.68386529
O      1.91980248     7.77275428     8.07983409
O      3.88605353     6.73366848     6.36700804
O      3.88155398     9.10273596     9.63547465
O      5.80789995     7.82413842     3.26466483
O      3.86826972     8.95346719     4.79595955
O      3.87195266     6.70641873     1.68386529
O      5.84047103     7.86057689     7.96492174
O      2.91032962     5.09676339    10.83110159
H     -2.19078805     5.55223774    10.99057498
H      3.80178843     4.68008077    10.86704053
H      2.66329029     5.25706038    11.75953209
