81
CIF: 3-O2.cif | data_VESTA_phase_1
O     -0.00101584     0.09961518     0.10145935
O      1.90267036     1.20671445     3.23693652
O     -0.05379957     2.30628865     6.40849928
O     -0.00101584     2.30864459     1.66347260
O     -0.00501609     0.09209011     4.85143582
O      3.82513533     0.09961518     0.10145935
O      5.74559157     1.19631654     3.25520742
O      3.89303045     2.33725376     6.47245882
O      3.82513533     2.30864459     1.66347260
O      3.81133248     0.08853136     4.83414576
O      7.65129798     0.09961518     0.10145935
O      9.56043646     1.20452751     3.22637544
O      7.44582198     2.16064830     6.63114873
O      7.65129798     2.30864459     1.66347260
O      7.70170566     0.08079754     4.85789108
O      9.56972253     1.16160381     8.07703572
O     -1.91409143     3.41315929     0.10145935
O     -0.02210752     4.51462222     3.28654850
O     -1.88875846     5.58230684     6.40888705
O     -1.91409717     5.62219864     1.66347260
O      9.46208897     3.35293888     4.93252575
O      1.91205974     3.41315929     0.10145935
O      3.81262380     4.50306125     3.25299484
O      1.90153973     5.53388598     6.50626340
O      1.91205400     5.62219864     1.66347260
O      1.90424865     3.37068293     4.89381700
O      5.73822240     3.41315929     0.10145935
O      7.66155399     4.51179908     3.23050407
O      5.74960329     5.62190042     6.44009128
O      5.73821666     5.62219864     1.66347260
O      5.76994313     3.43179800     4.84203806
O      7.69817603     4.52811167     8.05634696
O     -3.82717276     6.72671335     0.10145935
O     -1.89781497     7.81167481     3.24950489
O     -3.85010099     8.91119931     6.40060698
O     -3.82717276     8.93574276     1.66347260
O     -3.82398174     6.71142464     4.86738009
O     -1.90162582     7.69419630     8.09329933
O     -0.00102158     6.72671335     0.10145935
O      1.89545614     7.82170492     3.24247938
O      0.04736015     9.08525002     6.53025963
O     -0.00102158     8.93574276     1.66347260
O      0.01949617     6.77169475     4.94037243
O      1.83099882     7.87106021     8.13609109
O      3.82514107     6.72671335     0.10145935
O      5.74539644     7.82175462     3.22813182
O      3.86202138     8.91769055     6.41862697
O      3.82514107     8.93574276     1.66347260
O      3.81043142     6.71465535     4.83838844
O      5.87142998     7.88722369     8.13360479
O      1.75397832     1.23755032     8.09523819
O     -0.06491072     4.46090299     8.10103196
O      4.47720397     3.37324761     9.07668862
O      3.76129211     4.41725363     8.35525059
Ce     1.91205974     1.20412988     0.88247738
Ce    -0.01674134     2.28816686     4.05132574
Ce     0.00631889     0.07390868     7.26463099
Ce     5.73822240     1.20412988     0.88247738
Ce     3.82136465     2.30076166     4.08091044
Ce     3.69272550     0.05131360     7.25865474
Ce     9.56437357     1.20412988     0.88247738
Ce     7.63536587     2.29442947     4.04306848
Ce     2.05998272     9.90551206     7.18411132
Ce    -0.00101584     4.51767400     0.88247738
Ce    -1.92481806     5.61533960     4.06959663
Ce    -1.93304238     3.39184655     7.28155609
Ce     3.82514681     4.51767400     0.88247738
Ce     1.91965275     5.61549865     4.09548610
Ce     1.81595056     3.34381337     7.25819854
Ce     7.65129798     4.51767400     0.88247738
Ce     5.73150749     5.62548900     4.04119805
Ce     5.75804570     3.55389891     7.21312577
Ce    -1.91409717     7.83122805     0.88247738
Ce    -3.82338486     8.93148816     4.03820993
Ce    -3.80101907     6.72986453     7.26253246
Ce     1.91206548     7.83122805     0.88247738
Ce    -0.00292127     8.93879453     4.07762579
Ce    -0.00980835     6.70477435     7.28837631
Ce     5.73821666     7.83122805     0.88247738
Ce     3.83900132     8.90632840     4.02121640
Ce     3.84251946     6.75230056     7.36533761
