83
CIF: Rh-Cr-CeO2-Ov-O2.cif | data_image0
Ce     1.93038582     1.11050507     0.88387043
Ce    -0.02224294     2.23966928     4.02661329
Ce     0.01094384     0.00568777     7.23190788
Ce     5.81181033     1.12175166     0.90127712
Ce     3.81596488     2.21422027     3.98218959
Ce     3.89576529     0.01418369     7.31819482
Ce     9.66901012     1.12377363     0.90450652
Ce     7.75960247     2.23429995     4.06721591
Ce     1.97539152    10.02069258     7.25040108
Ce    -0.00709724     4.47602159     0.89067279
Ce    -1.94589753     5.58607428     4.07545307
Ce    -1.89992225     3.34422538     7.25176497
Ce     3.86254305     4.47635356     0.87798423
Ce     1.94578839     5.59176450     4.07801998
Ce     1.74196579     3.31019403     7.22962571
Ce     7.74213807     4.46545905     0.90125422
Ce     5.79948134     5.64081839     4.00900861
Ce    -1.94645625     7.83004003     0.90010904
Ce    -3.87334665     8.95353998     4.08549933
Ce    -3.79788136     6.77911366     7.26292997
Ce     1.92815559     7.82745473     0.89060408
Ce    -0.00361657     8.96035166     4.07964554
Ce    -0.00248928     6.72712208     7.24369861
Ce     5.81127600     7.83258510     0.88371011
Ce     3.86514274     8.93468764     4.05450831
Ce     3.84137350     6.84340028     7.34366176
Cr     5.18761781     3.73049369     6.59566689
Rh     6.58566500     2.94537362     8.09516031
O     11.61334069     0.00154917     0.10141687
O      1.91804482     1.11437359     3.21762576
O     -0.04931295     2.25166745     6.39392100
O     -0.00785227     2.23805103     1.69392277
O      0.00112356     0.01910526     4.87868739
O      1.83621917     1.23120571     8.02312226
O     -1.93899312    10.05733740     0.10496691
O      5.80967592     1.14416037     3.24412063
O      3.87072739     2.52422548     6.42617005
O      3.86763657     2.23577757     1.68132582
O      3.86911007     0.08738674     4.86726798
O      5.97581048     1.07391590     8.20077892
O      7.73821774     0.00761509     0.10924988
O      9.67023409     1.12444262     3.24582519
O      7.79531030     2.23132057     6.58270935
O      7.74357843     2.23531483     1.71563532
O      7.75179978     0.04387223     4.88130416
O      9.75667948     1.10950391     8.07996067
O      9.67032270     3.35425987     0.10911246
O     -0.01525637     4.47975884     3.24824801
O     -1.91774787     5.57724050     6.43152976
O     -1.94403436     5.59119430     1.70564938
O      9.65120729     3.33754688     4.88684656
O     -0.04644351     4.43767754     8.08581552
O      1.92738314     3.35244915     0.09928684
O      3.81309474     4.43407958     3.23656459
O      1.98167853     5.47351621     6.55019247
O      1.92862022     5.59252216     1.67404250
O      1.87751752     3.32125496     4.86071809
O      5.81155478     3.35101064     0.10766953
O      7.77103974     4.44122551     3.25582208
O      5.64073809     5.40777682     6.45213963
O      5.80528807     5.59217007     1.68114259
O      5.78623584     3.30128756     4.92608774
O      7.82480189     4.49499509     8.13200166
O     -3.87155109     6.71022987     0.10512724
O     -1.93950532     7.82926630     3.28831305
O     -3.85946462     8.96209690     6.42674265
O     -3.87509971     8.94378428     1.69355631
O     -3.87471702     6.71770599     4.95127330
O     -1.92220147     7.73316711     8.07571915
O     -0.01209783     6.71325780     0.10434852
O      1.91113313     7.83769665     3.24441971
O      0.03246119     8.92968451     6.40307186
O     -0.00628994     8.94736548     1.70514550
O      0.03454408     6.68315244     4.90509572
O      1.82239977     7.88134454     8.10373185
O      3.86815347     6.71410280     0.09951587
O      5.81365182     7.89356960     3.23224791
O      3.87722633     8.99799844     6.45156300
O      3.86556896     8.94715423     1.69389986
O      3.80273546     6.76126199     4.87045244
O      5.95146788     7.84194986     8.02354664
O      4.24576906     4.22135742     8.35705214
O      5.22553632     3.69005479     9.26576436
