84
CIF: Rh-Cr-CeO2-Ov-CO2.cif | data_image0
Ce     1.93038582     1.11050507     0.88387043
Ce    -0.00683227     2.23831748     4.01674694
Ce    -5.78894923    10.05510250     7.21588868
Ce     5.81181033     1.12175166     0.90127712
Ce     3.83291060     2.19863008     3.98074631
Ce     3.92400244     0.00056732     7.33629645
Ce     9.66901012     1.12377363     0.90450652
Ce     7.78446822     2.21142747     4.07577261
Ce     1.98254902    10.03280560     7.23158138
Ce    -0.00709724     4.47602159     0.89067279
Ce    -1.93732062     5.58745807     4.06542554
Ce    -1.91613378     3.33487176     7.21139463
Ce     3.86254305     4.47635356     0.87798423
Ce     1.95057266     5.58784162     4.07101502
Ce     1.75687163     3.31864796     7.20996945
Ce     7.74213807     4.46545905     0.90125422
Ce     5.80538847     5.64425331     3.98626759
Ce    -1.94645625     7.83004003     0.90010904
Ce    -3.86042795     8.94941518     4.09254974
Ce    -3.79750213     6.74492435     7.27496785
Ce     1.92815559     7.82745473     0.89060408
Ce     0.00356168     8.95176059     4.07734014
Ce     0.00703014     6.72417626     7.23048624
Ce     5.81127600     7.83258510     0.88371011
Ce     3.87034724     8.92797436     4.05250390
Ce     3.85291843     6.81644479     7.34533928
Cr     5.22252350     3.70685888     6.56997566
Rh     6.58047236     2.95503792     8.06609936
O     11.61334069     0.00154917     0.10141687
O      1.93148647     1.11139142     3.20889519
O     -0.04074425     2.24691647     6.35527824
O     -0.00785227     2.23805103     1.69392277
O     -5.79154610    10.05643435     4.84718159
O      1.84746716     1.23448208     7.98314286
O     -1.93899312    10.05733740     0.10496691
O      5.80936972     1.14719646     3.24280046
O      3.91608721     2.50809993     6.42896455
O      3.86763657     2.23577757     1.68132582
O      3.87263838     0.08973849     4.85937056
O      6.00148387     1.04313592     8.20169174
O      7.73821774     0.00761509     0.10924988
O      9.68377156     1.11317464     3.24126887
O      7.89501363     2.17096215     6.42199595
O      7.74357843     2.23531483     1.71563532
O      1.94370670    10.04947438     4.83114484
O      9.77647266     1.09582549     8.05933503
O      9.67032270     3.35425987     0.10911246
O      0.00822807     4.48406837     3.22937089
O     -1.92062497     5.58594716     6.38740206
O     -1.94403436     5.59119430     1.70564938
O     -1.93140739     3.37112255     4.81535396
O     -0.02838725     4.43602979     8.03331421
O      1.92738314     3.35244915     0.09928684
O      3.88335805     4.45795539     3.23300004
O      1.98229237     5.48281605     6.48865592
O      1.92862022     5.59252216     1.67404250
O      1.91478405     3.31741995     4.83586295
O      4.19143014     4.27945439     8.32513108
O      5.81155478     3.35101064     0.10766953
O      7.71016010     4.47322599     3.24958315
O      5.67540300     5.40351681     6.42162629
O      5.80528807     5.59217007     1.68114259
O      5.80871311     3.33762291     4.90074531
O      7.85930601     4.52148453     8.12103535
O     -3.87155109     6.71022987     0.10512724
O     -1.94709093     7.82524627     3.28560718
O     -3.84173691     8.93580111     6.40322264
O     -3.87509971     8.94378428     1.69355631
O      7.67988893     6.67956867     4.91081880
O     -1.90838948     7.71646628     8.06478287
O     -0.01209783     6.71325780     0.10434852
O      1.92939154     7.81303050     3.23640515
O      0.02860671     8.92755036     6.38079088
O     -0.00628994     8.94736548     1.70514550
O      0.03906231     6.68313358     4.87799789
O      1.82687794     7.86057214     8.06782538
O      3.86815347     6.71410280     0.09951587
O      5.82200006     7.82597887     3.22173640
O      3.88862850     8.97953632     6.41329432
O      3.86556896     8.94715423     1.69389986
O      3.88175634     6.71635514     4.82360248
O      5.95626276     7.83704078     8.00882944
O      5.05357889     3.83195758    10.40129089
C      5.13300814     3.76770705     9.19263326
