83
CIF: O2—Olatt+Osur.cif | data_image0
Ce     1.93038582     1.11050507     0.88387043
Ce    -0.00008682     2.22923847     4.03267902
Ce    -5.76131862    10.03206196     7.21748018
Ce     5.81181033     1.12175166     0.90127712
Ce     3.86074479     2.22489676     4.01751966
Ce     3.92123810     0.00709403     7.22257464
Ce     9.66901012     1.12377363     0.90450652
Ce     7.73343295     2.24157344     4.10287520
Ce     2.00045764    10.02092891     7.23030118
Ce    -0.00709724     4.47602159     0.89067279
Ce    -1.93595511     5.58041238     4.05933390
Ce    -1.87076510     3.31607018     7.23050433
Ce     3.86254305     4.47635356     0.87798423
Ce     1.93893530     5.58670281     4.04686809
Ce     1.88633771     3.30225795     7.19556510
Ce     7.74213807     4.46545905     0.90125422
Ce     5.81118794     5.60365181     4.01761750
Ce    -1.94645625     7.83004003     0.90010904
Ce    -3.86232739     8.93544779     4.06577646
Ce     7.76167324     6.65915769     7.22264000
Ce     1.92815559     7.82745473     0.89060408
Ce     0.00676169     8.94509138     4.05948887
Ce     0.01138253     6.69901339     7.20940157
Ce     5.81127600     7.83258510     0.88371011
Ce     3.87718136     8.94386332     4.03338765
Ce     3.89096105     6.77330579     7.19581884
Cu     4.94476755     3.85103901     6.51047004
Cu     6.68534303     2.84616860     7.98697654
O     11.61334069     0.00154917     0.10141687
O      1.93807063     1.10706413     3.22953720
O      0.02818888     2.21009746     6.38951958
O     -0.00785227     2.23805103     1.69392277
O     -5.78606247    10.04622795     4.85557237
O      1.96955694     1.09308056     7.98366922
O     -1.93899312    10.05733740     0.10496691
O      5.80922918     1.11709430     3.25024809
O      3.84964155     2.25169176     6.38783539
O      3.86763657     2.23577757     1.68132582
O      3.88148357     0.00731301     4.88016105
O      5.97734517     1.03248972     8.07438064
O      7.73821774     0.00761509     0.10924988
O      9.67824744     1.11823406     3.24969719
O      7.84204479     2.17843576     6.49973986
O      7.74357843     2.23531483     1.71563532
O      1.94670876    10.05889215     4.86487403
O      9.79640118     1.04990431     8.03666532
O      9.67032270     3.35425987     0.10911246
O     -0.00412792     4.47478057     3.23522732
O     -1.92240625     5.58267724     6.42371015
O     -1.94403436     5.59119430     1.70564938
O     -1.93052651     3.34396308     4.86459310
O      0.03794080     4.44535106     8.00176529
O      1.92738314     3.35244915     0.09928684
O      3.85593952     4.48025868     3.21650119
O      1.95971301     5.57427100     6.41425345
O      1.92862022     5.59252216     1.67404250
O      1.92227794     3.35006028     4.83976944
O      5.81155478     3.35101064     0.10766953
O      7.74466066     4.46945399     3.25060602
O      5.78258423     5.59875276     6.38833724
O      5.80528807     5.59217007     1.68114259
O      5.78094009     3.36851852     4.81175558
O      7.90175065     4.36510425     8.07500751
O     -3.87155109     6.71022987     0.10512724
O     -1.93775922     7.82513666     3.25587999
O     -3.82383781     8.91334832     6.41962557
O     -3.87509971     8.94378428     1.69355631
O      7.74230668     6.69362930     4.87968479
O     -1.90930309     7.80803611     8.00366142
O     -0.01209783     6.71325780     0.10434852
O      1.93074306     7.82512977     3.23425174
O      0.01179851     8.93199913     6.42408527
O     -0.00628994     8.94736548     1.70514550
O      0.00645505     6.70204448     4.87072936
O      1.97571597     7.80317878     8.00264926
O      3.86815347     6.71410280     0.09951587
O      5.81737252     7.82715987     3.22880211
O      3.90687487     8.92934248     6.39007221
O      3.86556896     8.94715423     1.69389986
O      3.86721029     6.71917399     4.83999484
O      5.84579243     7.80678342     7.98407329
O      3.81604709     4.50269676     8.01305748
O      5.27640251     3.65852682     8.85333944
