83
CIF: Ru-Cu-CeO2-Ov-O2.cif | data_image0
Ce     1.93038582     1.11050507     0.88387043
Ce    -0.00158016     2.23081928     4.03355015
Ce    -5.77426381    10.04843480     7.22287778
Ce     5.81181033     1.12175166     0.90127712
Ce     3.84062095     2.21335927     4.02446020
Ce    -1.96990568    10.03925267     7.28020265
Ce     9.66901012     1.12377363     0.90450652
Ce     7.71658019     2.24714567     4.08024858
Ce     2.03857949    10.01297850     7.22936783
Ce    -0.00709724     4.47602159     0.89067279
Ce    -1.94836483     5.57700494     4.05333848
Ce    -1.86956648     3.30066272     7.20128705
Ce     3.86254305     4.47635356     0.87798423
Ce     1.94161950     5.57696102     4.07167327
Ce     1.85833727     3.27509562     7.27391859
Ce     7.74213807     4.46545905     0.90125422
Ce     5.80139236     5.61666311     3.99230277
Ce    -1.94645625     7.83004003     0.90010904
Ce    -3.86254569     8.94254341     4.04685535
Ce    -3.86747806     6.72656896     7.17596627
Ce     1.92815559     7.82745473     0.89060408
Ce    -0.00298716     8.95249694     4.08896055
Ce    -0.01230113     6.69012528     7.24237591
Ce     5.81127600     7.83258510     0.88371011
Ce     3.87725203     8.95641333     4.01817348
Ce     3.89175573     6.81642392     7.19249574
Cu     4.99174329     3.83082217     6.44487072
Ru     6.50360922     2.99721024     8.23773813
O     11.61334069     0.00154917     0.10141687
O      1.92676435     1.10843897     3.21902480
O     -0.04738747     2.20775512     6.37800241
O     -0.00785227     2.23805103     1.69392277
O     -5.79300809    10.04972780     4.83682767
O      1.79174638     1.01170560     8.08108360
O     -1.93899312    10.05733740     0.10496691
O      5.81334842     1.10252936     3.25113800
O      3.91417237     2.27994565     6.40842876
O      3.86763657     2.23577757     1.68132582
O     -1.94417300    10.05183721     4.83210835
O      6.11546828     1.20705485     8.41818156
O      7.73821774     0.00761509     0.10924988
O      9.67067562     1.11683225     3.23471063
O      7.72437624     2.25615855     6.61162056
O      7.74357843     2.23531483     1.71563532
O      7.76986949     0.04765683     4.88829321
O      9.73012321     1.05690986     8.03143797
O      9.67032270     3.35425987     0.10911246
O     -0.01603265     4.48637573     3.24616491
O     -2.04308098     5.52205424     6.39633490
O     -1.94403436     5.59119430     1.70564938
O      9.64288912     3.31383697     4.85997809
O     -0.11887729     4.53339900     8.01621319
O      1.92738314     3.35244915     0.09928684
O      3.83918542     4.49655588     3.21467582
O      2.06131608     5.59475355     6.49989372
O      1.92862022     5.59252216     1.67404250
O      1.91133900     3.34862329     4.81338284
O      5.81155478     3.35101064     0.10766953
O      7.74869224     4.47660114     3.23414156
O      5.77540408     5.57440034     6.40438654
O      5.80528807     5.59217007     1.68114259
O      5.78163371     3.38120092     4.71288531
O      7.82609376     4.31134278     8.30158736
O     -3.87155109     6.71022987     0.10512724
O     -1.92038572     7.80799697     3.25943443
O     -3.87711012     8.86909452     6.39994076
O     -3.87509971     8.94378428     1.69355631
O      7.71840278     6.70228228     4.84121359
O     -1.93700932     7.65725713     8.01855855
O     -0.01209783     6.71325780     0.10434852
O      1.91665894     7.83097073     3.25965233
O      0.07695328     8.97538024     6.48030493
O     -0.00628994     8.94736548     1.70514550
O      0.00254680     6.68506812     4.93756503
O      2.01515261     7.85059993     8.05256441
O      3.86815347     6.71410280     0.09951587
O      5.80605010     7.83415387     3.21063214
O      3.89778484     8.93486777     6.38220690
O      3.86556896     8.94715423     1.69389986
O      3.87866316     6.73437814     4.83527054
O      5.81440255     7.79304074     8.00323000
O      4.07503760     4.41987274     8.31879180
O      5.13464903     3.88151668     9.16359712
