84
CIF: Ru-Cu-CeO2-Ov-CO2.cif | data_image0
Ce     1.93038582     1.11050507     0.88387043
Ce     0.00261969     2.23152825     4.03694586
Ce    -5.76629530    10.05245127     7.22045263
Ce     5.81181033     1.12175166     0.90127712
Ce     3.84576707     2.21484987     4.03208043
Ce    -1.94333565    10.04377581     7.30305034
Ce     9.66901012     1.12377363     0.90450652
Ce     7.71669508     2.24705684     4.04327298
Ce     2.00566223     9.98709820     7.24313236
Ce    -0.00709724     4.47602159     0.89067279
Ce    -1.94404197     5.57782548     4.04964163
Ce    -1.85192303     3.34855355     7.20826670
Ce     3.86254305     4.47635356     0.87798423
Ce     1.94776398     5.57487706     4.06964241
Ce     1.87331511     3.27443828     7.26412409
Ce     7.74213807     4.46545905     0.90125422
Ce     5.80490711     5.61236987     3.99669594
Ce    -1.94645625     7.83004003     0.90010904
Ce    -3.85871715     8.94040711     4.06243933
Ce    -3.85849527     6.70254280     7.20337544
Ce     1.92815559     7.82745473     0.89060408
Ce    -0.00271026     8.95014458     4.08409911
Ce    -0.00560080     6.69089476     7.23898863
Ce     5.81127600     7.83258510     0.88371011
Ce     3.87987102     8.96238061     4.02010141
Ce     3.90147910     6.82096480     7.16926853
Cu     5.21706829     3.69995169     6.43588669
Ru     6.68125705     2.88861454     8.29733819
O     11.61334069     0.00154917     0.10141687
O      1.92475834     1.10542998     3.22422066
O     -0.03226793     2.22133159     6.38484713
O     -0.00785227     2.23805103     1.69392277
O     -5.79479637    10.05538646     4.84944617
O      1.79623578     1.01081639     8.08593553
O     -1.93899312    10.05733740     0.10496691
O      5.81551364     1.07254037     3.23834132
O      3.96309192     2.30104861     6.43684991
O      3.86763657     2.23577757     1.68132582
O     -1.94038392    10.05904518     4.84375347
O      6.07036562     1.09082291     8.42468006
O      7.73821774     0.00761509     0.10924988
O      9.67583147     1.11672695     3.22768616
O      7.60189138     2.33317326     6.64583144
O      7.74357843     2.23531483     1.71563532
O      7.77604269     0.07286388     4.90867444
O      9.68473960     1.10089206     7.98655716
O      9.67032270     3.35425987     0.10911246
O     -0.01801474     4.47713489     3.24934543
O     -2.00520408     5.53137976     6.38379919
O     -1.94403436     5.59119430     1.70564938
O      9.62789535     3.29817985     4.88229987
O     -0.09965294     4.53484413     8.02255152
O      1.92738314     3.35244915     0.09928684
O      3.82385845     4.51087209     3.21245152
O      2.09095320     5.58991347     6.50310185
O      1.92862022     5.59252216     1.67404250
O      1.92015653     3.34428157     4.81608373
O      4.04673163     4.49438689     8.88051974
O      5.81155478     3.35101064     0.10766953
O      7.77730492     4.49147017     3.22122285
O      5.76023794     5.51744729     6.45046194
O      5.80528807     5.59217007     1.68114259
O      5.79910138     3.37184396     4.56662658
O      7.85777847     4.41596588     8.30854832
O     -3.87155109     6.71022987     0.10512724
O     -1.92372494     7.80717898     3.26744793
O     -3.87929755     8.86798070     6.40916495
O     -3.87509971     8.94378428     1.69355631
O      7.71044084     6.68795164     4.86187872
O     -1.92126717     7.64849868     8.02376711
O     -0.01209783     6.71325780     0.10434852
O      1.92610446     7.83851801     3.26376386
O      0.07836196     8.94744469     6.45949310
O     -0.00628994     8.94736548     1.70514550
O      0.01992971     6.67530124     4.92579989
O      2.01477366     7.84364033     8.04920139
O      3.86815347     6.71410280     0.09951587
O      5.80999106     7.83918208     3.21455691
O      3.89662968     8.93293902     6.39034247
O      3.86556896     8.94715423     1.69389986
O      3.89660075     6.74120079     4.83834788
O      5.80777692     7.78784501     8.00005981
O      5.71568089     3.48116596    10.15598451
C      5.08483167     3.86749763     9.15291721
