83
CIF: Sc-Sc-CeO2-Ov-O2.cif | data_image0
Ce     1.93596140     1.11772783     0.89035214
Ce     0.01768372     2.22087599     4.03077316
Ce    -5.64118948     9.92106211     7.15316480
Ce     5.80789581     1.11772783     0.89035214
Ce     3.86340331     2.22847626     4.05566617
Ce    -1.97226436     9.99280987     7.18093932
Ce     9.67981860     1.11772783     0.89035214
Ce     7.75658509     2.23859734     4.01117263
Ce     7.73662129     0.04518848     7.21015358
Ce     0.00000000     4.47091133     0.89035214
Ce    -1.94030864     5.58711666     4.04022964
Ce    -1.88769902     3.43118951     7.14802863
Ce     3.87193441     4.47091133     0.89035214
Ce     1.93714571     5.58370069     4.07007907
Ce     1.88002451     3.27955624     7.26958988
Ce     7.74385721     4.47091133     0.89035214
Ce     5.80034466     5.57912250     4.06130877
Ce    -1.93596721     7.82410489     0.89035214
Ce    -3.86556027     8.90354082     4.00694036
Ce     7.69447187     6.61436615     7.28920577
Ce     1.93596721     7.82410489     0.89035214
Ce     0.01659420     8.95752069     4.04184020
Ce     0.01014578     6.72455693     7.23206718
Ce     5.80789000     7.82410489     0.89035214
Ce     3.87672764     8.96229859     4.02671904
Ce     3.84310433     6.82093565     7.18343401
Sc     5.84853016     3.27991924     6.82734557
Sc     7.46417272     2.59807256     9.34976714
O      0.00000000     0.00000000     0.09999685
O      1.93861247     1.10710326     3.21352238
O     -0.13894263     2.07542605     6.55092413
O      0.00000000     2.23545567     1.68070743
O     -5.74649845    10.03060073     4.82931842
O      1.99547064     0.92930891     8.04132770
O      3.87192279     0.00000000     0.09999685
O      5.79251587     1.09415646     3.22707748
O      4.05598390     2.25650280     6.48476214
O      3.87192279     2.23545567     1.68070743
O      3.83781064     0.00906194     4.84952164
O      6.15379260     1.58548411     8.37383523
O      7.74385721     0.00000000     0.09999685
O      9.71222921     1.11226417     3.22711351
O      7.72150831     2.38586185     6.26884871
O      7.74385721     2.23545567     1.68070743
O      1.95308711    10.05085531     4.78555646
O      9.03920391     1.70955504     8.69363829
O     -1.93596140     3.35318350     0.09999685
O      0.02578109     4.49157038     3.23869482
O     -1.96519696     5.55820691     6.39088633
O     -1.93596721     5.58864923     1.68070743
O     -1.85919413     3.35676860     4.80358772
O     -0.08307166     4.54183693     8.01129816
O      1.93596140     3.35318350     0.09999685
O      3.83378138     4.49041731     3.26284890
O      2.04275921     5.56644011     6.42925487
O      1.93595559     5.58864923     1.68070743
O      1.89619126     3.27887611     4.88123654
O      5.80789581     3.35318350     0.09999685
O      7.76263375     4.47319052     3.22548029
O      5.67164522     5.37591324     6.48917929
O      5.80789000     5.58864923     1.68070743
O      5.79051518     3.34300512     4.72549360
O      7.77653008     4.23053403     8.34552440
O     -3.87192860     6.70637706     0.09999685
O     -1.92385449     7.81474135     3.24288896
O     -3.83234829     8.88597842     6.38412940
O     -3.87192860     8.94183273     1.68070743
O      7.68841646     6.66679196     4.83305678
O     -1.81400127     7.86896726     8.05333130
O     -0.00000581     6.70637706     0.09999685
O      1.93430053     7.80493267     3.23700729
O     -0.04142504     9.06015557     6.43032783
O     -0.00000581     8.94183273     1.68070743
O      0.01798906     6.72665660     4.90827469
O      1.94053968     7.75931850     8.00491851
O      3.87192860     6.70637706     0.09999685
O      5.80203300     7.82244848     3.21598967
O      3.94732140     9.08216504     6.46473830
O      3.87192860     8.94183273     1.68070743
O      3.89782378     6.78777416     4.87951092
O      5.72337648     7.84621383     8.04529757
O      3.74927827     4.71325521     8.69743150
O      4.87415873     3.97028757     8.82287794
