85
CIF: Sc-Sc-CeO2-O-CO.cif | data_image0
Ce     1.93596140     1.11772783     0.89035214
Ce     0.01681881     2.22375070     4.03378499
Ce    -5.65611328     9.97941880     7.17194254
Ce     5.80789581     1.11772783     0.89035214
Ce     3.86387032     2.23435515     4.05762210
Ce     3.87998550     0.05208444     7.28988248
Ce     9.67981860     1.11772783     0.89035214
Ce     7.76018277     2.23313313     3.99148601
Ce     1.93534942    10.01915351     7.10125595
Ce     0.00000000     4.47091133     0.89035214
Ce    -1.95147355     5.60066501     4.03043675
Ce    -1.87420349     3.39914858     7.10158010
Ce     3.87193441     4.47091133     0.89035214
Ce     1.92438708     5.60177409     4.04494000
Ce     1.96360365     3.41433211     7.26137365
Ce     7.74385721     4.47091133     0.89035214
Ce     5.80843257     5.59919223     4.06046185
Ce    -1.93596721     7.82410489     0.89035214
Ce    -3.85081801     8.93251562     4.04000796
Ce     7.70944494     6.67040861     7.28670439
Ce     1.93596721     7.82410489     0.89035214
Ce    -0.01451124     8.96048831     4.03170131
Ce    -0.02816090     6.73828123     7.20944009
Ce     5.80789000     7.82410489     0.89035214
Ce     3.89498846     8.94317971     4.03441841
Ce     3.83690734     6.66256645     7.26230864
Sc     5.85411340     3.31882609     6.77742123
Sc     7.50639184     2.41612234     9.28329008
O      0.00000000     0.00000000     0.09999685
O      1.93394580     1.12759833     3.22084642
O     -0.15589564     2.11563700     6.45877569
O      0.00000000     2.23545567     1.68070743
O     -5.74817850    10.03048579     4.83524689
O      1.86289716     1.20850761     8.04257527
O      3.87192279     0.00000000     0.09999685
O      5.80474087     1.10526147     3.21935611
O      4.04181135     2.38355306     6.46133181
O      3.87192279     2.23545567     1.68070743
O      3.85639183     0.03206680     4.83299467
O      6.12913889     1.44119268     8.33767195
O      7.74385721     0.00000000     0.09999685
O      9.71214810     1.10324106     3.22875612
O      7.70276657     2.27380679     6.26891549
O      7.74385721     2.23545567     1.68070743
O      1.95454937    10.04024210     4.78939794
O      9.05196065     1.50387566     8.55600647
O     -1.93596140     3.35318350     0.09999685
O      0.02315151     4.48269347     3.23929414
O     -1.97892199     5.51130217     6.39807717
O     -1.93596721     5.58864923     1.68070743
O     -1.89881458     3.35761757     4.78793963
O     -0.01731688     4.45642956     7.97845496
O      1.93596140     3.35318350     0.09999685
O      3.84082885     4.49488119     3.26388695
O      1.89705297     5.62078558     6.33778742
O      1.93595559     5.58864923     1.68070743
O      1.90892772     3.30213436     4.91436263
O      5.80789581     3.35318350     0.09999685
O      7.75557607     4.48537796     3.22099167
O      5.77208927     5.36276921     6.47148346
O      5.80789000     5.58864923     1.68070743
O      5.82397634     3.34421146     4.72673620
O      7.70867212     4.09152424     8.34614843
O     -3.87192860     6.70637706     0.09999685
O     -1.94060368     7.82894118     3.22693770
O     -3.85924610     8.93986963     6.45169848
O     -3.87192860     8.94183273     1.68070743
O      7.71227327     6.70664013     4.83665368
O     -1.75702834     7.73157674     8.08776049
O     -0.00000581     6.70637706     0.09999685
O      1.94403770     7.80653587     3.23996811
O      0.05210471     9.04967945     6.40439267
O     -0.00000581     8.94183273     1.68070743
O     -0.05065363     6.74864699     4.86220529
O      1.94804052     7.87322044     7.97285558
O      3.87192860     6.70637706     0.09999685
O      5.80131525     7.82360582     3.22180556
O      3.89968146     9.17036209     6.46033491
O      3.87192860     8.94183273     1.68070743
O      3.91262263     6.76787185     4.92120561
O      5.69326644     7.85047071     8.03291768
O      3.52327524     4.67798814     8.19971912
O      7.42458285     2.58219503    11.66560406
O      7.43287478     2.67318814    14.01206249
C      7.42939733     2.62802093    12.84529692
