82
CIF: Nb-Fe-CeO2.cif | data_image0
Ce     1.93038582     1.11050507     0.88387043
Ce    -0.00245158     2.23306916     4.05366286
Ce     5.80851909    10.02580398     7.21484191
Ce     5.81181033     1.12175166     0.90127712
Ce     3.85240558     2.21609347     3.97954075
Ce    -1.99927576     9.97249560     7.22605750
Ce     9.66901012     1.12377363     0.90450652
Ce     7.75999998     2.22988217     4.04259297
Ce     2.03496846     9.94571969     7.33959485
Ce    -0.00709724     4.47602159     0.89067279
Ce    -1.94589624     5.58104115     4.11099388
Ce    -1.76191647     3.32217236     7.34713547
Ce     3.86254305     4.47635356     0.87798423
Ce     1.93864080     5.59123912     4.04180101
Ce     1.90673562     3.35508158     7.21911278
Ce     7.74213807     4.46545905     0.90125422
Ce     5.82319081     5.61700015     3.98461744
Ce    -1.94645625     7.83004003     0.90010904
Ce    -3.87388822     8.92592873     4.04885661
Ce    -3.85994046     6.73700878     7.31956534
Ce     1.92815559     7.82745473     0.89060408
Ce     0.00411759     8.96117653     4.08533306
Ce     0.01436460     6.70388619     7.23333314
Ce     5.81127600     7.83258510     0.88371011
Ce     3.86550917     8.94698585     4.04088055
Ce     3.84315053     6.75185428     7.21100659
Fe     4.86988491     3.88379382     6.43684354
Nb     6.47224766     2.95247903     7.86661204
O     11.61334069     0.00154917     0.10141687
O      1.93000891     1.11087974     3.21409682
O      0.09785326     2.22219838     6.38635638
O     -0.00785227     2.23805103     1.69392277
O     -5.79841817    10.05042370     4.84019070
O      2.02831589     1.10406681     7.98615584
O     -1.93899312    10.05733740     0.10496691
O      5.80490620     1.13083894     3.24027830
O      4.05669825     2.27562184     6.46724447
O      3.86763657     2.23577757     1.68132582
O      3.84434742     0.03065031     4.87500980
O      6.06218632     1.31502987     8.59707172
O      7.73821774     0.00761509     0.10924988
O      9.68090733     1.12112783     3.23331791
O      7.63081390     2.29993472     6.56581128
O      7.74357843     2.23531483     1.71563532
O      7.75118369     0.05279747     4.84608141
O      9.87870721     0.99715118     8.07265742
O      9.67032270     3.35425987     0.10911246
O      0.00102436     4.47523210     3.26956795
O     -1.90681498     5.58216831     6.48101346
O     -1.94403436     5.59119430     1.70564938
O      9.65022131     3.30822560     4.86559357
O      0.18663896     4.51024340     8.09655642
O      1.92738314     3.35244915     0.09928684
O      3.85569986     4.47735172     3.18680994
O      1.92770883     5.58917644     6.33812890
O      1.92862022     5.59252216     1.67404250
O      1.99305357     3.32202923     4.85884742
O      3.86092722     4.46096653     7.92584743
O      5.81155478     3.35101064     0.10766953
O      7.73878529     4.45446501     3.24219753
O      5.79910793     5.41619837     6.45444349
O      5.80528807     5.59217007     1.68114259
O      5.74331258     3.38959500     4.82026911
O      7.67903333     4.12748785     8.60865490
O     -3.87155109     6.71022987     0.10512724
O     -1.93978222     7.83180102     3.26578033
O     -3.84480064     8.93332222     6.42340282
O     -3.87509971     8.94378428     1.69355631
O      7.71201533     6.68925369     4.84653405
O     -1.85557620     7.90660038     8.10581804
O     -0.01209783     6.71325780     0.10434852
O      1.93021130     7.82496657     3.25348577
O     -0.04085587     9.01403491     6.46575186
O     -0.00628994     8.94736548     1.70514550
O     -0.01739812     6.74390522     4.88331812
O      1.95156280     7.66752376     8.06525989
O      3.86815347     6.71410280     0.09951587
O      5.80899041     7.83252261     3.21128634
O      3.89512924     8.88399761     6.34558014
O      3.86556896     8.94715423     1.69389986
O      3.91582430     6.68102317     4.84156598
O      5.69325128     7.82950963     8.01822072
