81
CIF: Ti-Fe-CeO2-Ov.cif | data_image0
Ce     1.93038582     1.11050507     0.88387043
Ce    -0.00111940     2.23681023     4.03135233
Ce     5.81782552    10.03927615     7.23526031
Ce     5.81181033     1.12175166     0.90127712
Ce     3.81250735     2.18781323     3.97998466
Ce    -2.06734335     9.91827125     7.22674089
Ce     9.66901012     1.12377363     0.90450652
Ce     7.74561914     2.24352339     4.11376225
Ce     7.78505511     0.07800389     7.41460966
Ce    -0.00709724     4.47602159     0.89067279
Ce    -1.94657643     5.57338209     4.10932067
Ce    -1.71592188     3.37490867     7.27536629
Ce     3.86254305     4.47635356     0.87798423
Ce     1.95542219     5.58286462     4.07583852
Ce     1.87519776     3.27117961     7.23497287
Ce     7.74213807     4.46545905     0.90125422
Ce     5.81167479     5.62480296     3.92114332
Ce    -1.94645625     7.83004003     0.90010904
Ce    -3.89763343     8.89335792     4.08243678
Ce    -3.80725464     6.64978328     7.46235123
Ce     1.92815559     7.82745473     0.89060408
Ce     0.01531289     8.97015842     4.11940408
Ce     0.02726405     6.73017835     7.28347440
Ce     5.81127600     7.83258510     0.88371011
Ce     3.85542982     8.97782212     4.06097655
Ce     3.80597979     6.92362886     7.25133682
Fe     4.96175108     3.68508691     6.53323557
Ti     6.80402331     3.18943380     8.04605105
O     11.61334069     0.00154917     0.10141687
O      1.92177967     1.08519457     3.22828383
O      0.07440793     2.20169274     6.38044674
O     -0.00785227     2.23805103     1.69392277
O      5.82916416    10.02047840     4.87776356
O      1.95967132     0.95237801     8.07273563
O     -1.93899312    10.05733740     0.10496691
O      5.71959586     1.10535261     3.26406031
O      3.99085548     2.19243232     6.50143812
O      3.86763657     2.23577757     1.68132582
O     -1.99920922    10.04568419     4.89008425
O      6.42724926     1.63759128     8.79772667
O      7.73821774     0.00761509     0.10924988
O      9.73637414     1.08441038     3.25343606
O      7.76521586     2.47258425     6.64427236
O      7.74357843     2.23531483     1.71563532
O      1.90936745    10.02492446     4.90238946
O      9.90364431     1.17669554     8.06958515
O      9.67032270     3.35425987     0.10911246
O      0.01646118     4.51102450     3.25982659
O     -1.88255566     5.59385230     6.45473437
O     -1.94403436     5.59119430     1.70564938
O     -1.84659910     3.37998254     4.90189051
O      0.03210931     4.54602517     8.09141122
O      1.92738314     3.35244915     0.09928684
O      3.84783251     4.49098482     3.19276002
O      2.08110458     5.59458069     6.51378988
O      1.92862022     5.59252216     1.67404250
O      1.96418919     3.34564264     4.81740762
O      5.81155478     3.35101064     0.10766953
O      7.73958975     4.53417383     3.23425188
O      5.54667288     4.91840462     7.62028797
O      5.80528807     5.59217007     1.68114259
O      5.67485809     3.46566544     4.90999431
O      8.19784300     4.29856157     8.56108843
O     -3.87155109     6.71022987     0.10512724
O     -1.97092636     7.78685190     3.31814403
O     -3.85477001     8.87371230     6.44048720
O     -3.87509971     8.94378428     1.69355631
O      7.56470321     6.58849927     5.00682637
O     -1.86994066     7.83622403     8.15318980
O     -0.01209783     6.71325780     0.10434852
O      1.96528186     7.79562443     3.27600493
O     -0.07401943     9.05620119     6.54797147
O     -0.00628994     8.94736548     1.70514550
O      0.06313206     6.74231799     4.95187750
O      1.94881889     7.76736698     8.13776790
O      3.86815347     6.71410280     0.09951587
O      5.80754039     7.83187645     3.20661893
O      3.86510051     8.97270680     6.42420388
O      3.86556896     8.94715423     1.69389986
O      4.01429278     6.68420296     4.96256445
O      5.69179903     7.83123683     8.01966954
