84
CIF: Ti-Fe-CeO2-Ov-CO2.cif | data_image0
Ce     1.93038582     1.11050507     0.88387043
Ce    -0.00492081     2.22762148     4.01693106
Ce     5.80850034    10.04860848     7.19714057
Ce     5.81181033     1.12175166     0.90127712
Ce     3.86040771     2.22432496     3.99127344
Ce    -2.06174206     9.93786718     7.19483551
Ce     9.66901012     1.12377363     0.90450652
Ce     7.72108310     2.24444217     4.10141620
Ce     2.00085750    10.03580838     7.37496625
Ce    -0.00709724     4.47602159     0.89067279
Ce    -1.95614925     5.59004358     4.09170611
Ce    -1.69993606     3.38242289     7.25722912
Ce     3.86254305     4.47635356     0.87798423
Ce     1.95612461     5.59704018     4.04448321
Ce     1.91721418     3.30840676     7.16204369
Ce     7.74213807     4.46545905     0.90125422
Ce     5.81897688     5.60745831     4.01444303
Ce    -1.94645625     7.83004003     0.90010904
Ce    -3.88868193     8.91439737     4.04605141
Ce    -3.85868001     6.69141554     7.35909260
Ce     1.92815559     7.82745473     0.89060408
Ce     0.01603655     8.97536650     4.08983407
Ce     0.02614983     6.73989763     7.24640331
Ce     5.81127600     7.83258510     0.88371011
Ce     3.85365220     8.97407669     4.04203299
Ce     3.86445991     6.83406056     7.18918842
Fe     5.42952304     3.53853538     6.66545286
Ti     6.99489229     2.91750317     8.66921635
O     11.61334069     0.00154917     0.10141687
O      1.92597367     1.10578629     3.21921876
O      0.12297410     2.24465349     6.36199595
O     -0.00785227     2.23805103     1.69392277
O     -5.78197641    10.04955229     4.87345850
O      1.96340770     1.11550249     7.98286958
O     -1.93899312    10.05733740     0.10496691
O      5.71630190     1.07031636     3.24318679
O      4.06235868     2.27286177     6.58826550
O      3.86763657     2.23577757     1.68132582
O      3.80051341     0.02324212     4.91009743
O      7.01221625     1.26636557     9.23191032
O      7.73821774     0.00761509     0.10924988
O      9.75126114     1.09217249     3.23716838
O      7.25894201     2.53301483     6.83287129
O      7.74357843     2.23531483     1.71563532
O      1.92992044    10.02911718     4.88720159
O      9.86519815     1.21256455     7.91188125
O      9.67032270     3.35425987     0.10911246
O      0.00821900     4.48933317     3.27582828
O     -1.89322013     5.57003185     6.49099331
O     -1.94403436     5.59119430     1.70564938
O     -1.90351503     3.34600210     4.94659323
O      0.14606575     4.46048774     8.00968045
O      1.92738314     3.35244915     0.09928684
O      3.83231882     4.50632777     3.19677564
O      2.05202670     5.52270807     6.40438696
O      1.92862022     5.59252216     1.67404250
O      2.00541670     3.31813654     4.86305639
O      3.63679447     4.55508278     8.53637675
O      5.81155478     3.35101064     0.10766953
O      7.75529848     4.55872311     3.24550279
O      5.75069347     5.36703061     6.57673498
O      5.80528807     5.59217007     1.68114259
O      5.68595703     3.41119594     4.74912490
O      8.40281775     4.08770289     8.77659587
O     -3.87155109     6.71022987     0.10512724
O     -1.93969455     7.82113257     3.28709740
O     -3.87955453     8.91055187     6.45710153
O     -3.87509971     8.94378428     1.69355631
O      7.69724598     6.69048234     4.90945928
O     -1.85984465     7.87311211     8.09664821
O     -0.01209783     6.71325780     0.10434852
O      1.93261026     7.81001858     3.25206319
O     -0.07567555     9.07861626     6.52876644
O     -0.00628994     8.94736548     1.70514550
O      0.03057795     6.75283568     4.94639947
O      1.93661804     7.69635556     8.02445337
O      3.86815347     6.71410280     0.09951587
O      5.81164068     7.83456573     3.22744741
O      3.90949990     8.93842246     6.40303592
O      3.86556896     8.94715423     1.69389986
O      3.92438816     6.72117693     4.87546770
O      5.68523772     7.84757799     8.03966315
O      5.48820840     3.90111996     9.60251480
C      4.80205829     4.00714411     8.53698860
