82
CIF: Ti-Fe-CeO2.cif | data_image0
Ce     1.93038582     1.11050507     0.88387043
Ce    -0.00756817     2.22842979     4.03142395
Ce     5.81492760    10.02642623     7.22832092
Ce     5.81181033     1.12175166     0.90127712
Ce     3.83235539     2.19710127     3.98041267
Ce    -2.02753819     9.94774529     7.22300935
Ce     9.66901012     1.12377363     0.90450652
Ce     7.73989570     2.23080515     4.09826627
Ce     2.01025251    10.00136327     7.36160661
Ce    -0.00709724     4.47602159     0.89067279
Ce    -1.94861386     5.58606963     4.09504502
Ce    -1.74453352     3.33400132     7.26751716
Ce     3.86254305     4.47635356     0.87798423
Ce     1.94090678     5.58952269     4.04799970
Ce     1.88966544     3.31911084     7.21198594
Ce     7.74213807     4.46545905     0.90125422
Ce     5.82834529     5.63234534     3.99444500
Ce    -1.94645625     7.83004003     0.90010904
Ce    -3.88280822     8.91546910     4.06316441
Ce    -3.85535114     6.67961559     7.36601445
Ce     1.92815559     7.82745473     0.89060408
Ce     0.01003132     8.96187865     4.08841908
Ce     0.01519081     6.71873470     7.24410827
Ce     5.81127600     7.83258510     0.88371011
Ce     3.85223276     8.95886059     4.05583779
Ce     3.84776466     6.78854747     7.22789366
Fe     4.86784042     3.85391776     6.50884328
Ti     6.72439653     2.97660437     7.94074003
O     11.61334069     0.00154917     0.10141687
O      1.92721039     1.10201149     3.21833193
O      0.08321310     2.22789508     6.39627288
O     -0.00785227     2.23805103     1.69392277
O     -5.78172125    10.04647262     4.87890030
O      1.98554495     1.10724570     8.00254108
O     -1.93899312    10.05733740     0.10496691
O      5.72502058     1.09924698     3.25614085
O      3.99427900     2.26717720     6.48593549
O      3.86763657     2.23577757     1.68132582
O      3.81293098     0.01074964     4.90968553
O      6.34626871     1.43190816     8.69038161
O      7.73821774     0.00761509     0.10924988
O      9.73351800     1.09286602     3.24784175
O      7.74680144     2.33069074     6.59954349
O      7.74357843     2.23531483     1.71563532
O      1.93089949     9.99533439     4.88162487
O      9.89729299     1.16416732     8.04583440
O      9.67032270     3.35425987     0.10911246
O      0.01324293     4.49002493     3.25889269
O     -1.89112234     5.53914163     6.50690106
O     -1.94403436     5.59119430     1.70564938
O     -1.86339310     3.36409624     4.91944668
O      0.09743955     4.42756066     8.07697875
O      1.92738314     3.35244915     0.09928684
O      3.85596495     4.48165157     3.20480964
O      1.92744599     5.56026949     6.39829973
O      1.92862022     5.59252216     1.67404250
O      1.97586262     3.31903467     4.87030585
O      3.89867720     4.41793922     7.92530191
O      5.81155478     3.35101064     0.10766953
O      7.72828480     4.53241752     3.25764090
O      5.78649565     5.40265956     6.50590500
O      5.80528807     5.59217007     1.68114259
O      5.66357805     3.41540664     4.91431418
O      7.98555605     4.15887226     8.51222241
O     -3.87155109     6.71022987     0.10512724
O     -1.94468340     7.82555426     3.27523280
O     -3.86113728     8.91977913     6.46896906
O     -3.87509971     8.94378428     1.69355631
O      7.71229858     6.69576476     4.89755593
O     -1.85768327     7.87363644     8.11110753
O     -0.01209783     6.71325780     0.10434852
O      1.93065799     7.79810336     3.24776407
O     -0.06575920     9.03232706     6.51483184
O     -0.00628994     8.94736548     1.70514550
O     -0.00818662     6.74562347     4.91914517
O      1.94442126     7.67543672     8.07406803
O      3.86815347     6.71410280     0.09951587
O      5.80872830     7.82879720     3.22889874
O      3.92011157     8.91807513     6.41092756
O      3.86556896     8.94715423     1.69389986
O      3.90713122     6.69552725     4.88481507
O      5.68663195     7.82217555     8.06319669
