83
CIF: Sc-Cu-CeO2-O.cif | data_image0
Ce     1.93038582     1.11050507     0.88387043
Ce    -0.00541344     2.24137348     4.02712441
Ce    -5.70720843    10.01672490     7.16183614
Ce     5.81181033     1.12175166     0.90127712
Ce     3.83823409     2.22440899     3.97650501
Ce    -1.89393128    10.03105200     7.21662861
Ce     9.66901012     1.12377363     0.90450652
Ce     7.74044596     2.22262560     4.13798942
Ce     7.81920103     0.01073950     7.39750771
Ce    -0.00709724     4.47602159     0.89067279
Ce    -1.94507549     5.57836533     4.05659127
Ce    -1.86137309     3.31703026     7.24870555
Ce     3.86254305     4.47635356     0.87798423
Ce     1.92858531     5.60232118     4.03354144
Ce     1.88073760     3.34639992     7.16838359
Ce     7.74213807     4.46545905     0.90125422
Ce     5.81062693     5.62773877     3.98755683
Ce    -1.94645625     7.83004003     0.90010904
Ce    -3.85609628     8.92729269     4.05386937
Ce    -3.80697513     6.62587790     7.24847215
Ce     1.92815559     7.82745473     0.89060408
Ce     0.01772282     8.95881318     4.08120924
Ce     0.01444388     6.71633765     7.20256396
Ce     5.81127600     7.83258510     0.88371011
Ce     3.86055790     8.95976015     4.05829788
Ce     3.86893807     6.78188208     7.19481334
Cu     4.90161039     3.87712045     6.43322545
Sc     6.73269059     2.75901167     8.33901453
O     11.61334069     0.00154917     0.10141687
O      1.93300984     1.10808698     3.21978227
O      0.07900955     2.28531066     6.32354760
O     -0.00785227     2.23805103     1.69392277
O     -5.78171269    10.04498836     4.83696507
O      1.99415932     1.13581526     7.92561113
O     -1.93899312    10.05733740     0.10496691
O      5.81005157     1.13896555     3.25346845
O      3.87239585     2.35784693     6.33694694
O      3.86763657     2.23577757     1.68132582
O      3.87919567     0.03123451     4.86550779
O      5.61868416     0.99411393     8.03238231
O      7.73821774     0.00761509     0.10924988
O      9.67235787     1.12250937     3.25645579
O      7.72704324     2.24769800     6.54318447
O      7.74357843     2.23531483     1.71563532
O      7.75859890     0.03676143     4.89201028
O      9.99019861     1.04846254     7.82661283
O      9.67032270     3.35425987     0.10911246
O     -0.02068375     4.47678683     3.23286243
O     -1.90087555     5.56128231     6.38831190
O     -1.94403436     5.59119430     1.70564938
O      9.65727614     3.32717933     4.88329859
O      0.03278114     4.44491185     8.01443478
O      1.92738314     3.35244915     0.09928684
O      3.86188643     4.48987150     3.19604660
O      1.94632752     5.60234582     6.40721040
O      1.92862022     5.59252216     1.67404250
O      1.93714783     3.38204198     4.79669233
O      5.81155478     3.35101064     0.10766953
O      7.72612876     4.45644331     3.25410485
O      5.76707697     5.49435487     6.38655084
O      5.80528807     5.59217007     1.68114259
O      5.74080910     3.39202032     4.84646528
O      7.93769462     4.50793963     8.17510163
O     -3.87155109     6.71022987     0.10512724
O     -1.94255619     7.82571897     3.26124421
O     -3.80938482     8.88299238     6.39519403
O     -3.87509971     8.94378428     1.69355631
O      7.71926683     6.67408824     4.88137051
O     -1.90317166     7.75520522     8.01023554
O     -0.01209783     6.71325780     0.10434852
O      1.93158189     7.83919908     3.24513147
O      0.04736969     8.89909862     6.41096709
O     -0.00628994     8.94736548     1.70514550
O      0.00333085     6.70161769     4.84802796
O      1.98720393     7.80962665     8.06581932
O      3.86815347     6.71410280     0.09951587
O      5.81575774     7.83124665     3.22496144
O      3.87989788     8.89947857     6.39803676
O      3.86556896     8.94715423     1.69389986
O      3.88023108     6.71276803     4.83864950
O      5.85844580     7.73028479     7.94898220
O      3.95550464     4.42971895     7.91594502
O      7.89323488     1.56715135     9.12386796
