83
CIF: Mo-Cr-CeO2-Ov-O2.cif | data_image0
Ce     1.93038582     1.11050507     0.88387043
Ce    -0.00717541     2.23096035     4.06926139
Ce     5.79292717    10.03028547     7.22804631
Ce     5.81181033     1.12175166     0.90127712
Ce     3.80941025     2.20446343     3.93959191
Ce    -2.05600570     9.91614273     7.22934163
Ce     9.66901012     1.12377363     0.90450652
Ce     7.75966014     2.22837122     4.03541695
Ce     2.02755513     9.97431651     7.37394739
Ce    -0.00709724     4.47602159     0.89067279
Ce    -1.95142942     5.58238585     4.13138256
Ce    -1.77474551     3.32716163     7.35473221
Ce     3.86254305     4.47635356     0.87798423
Ce     1.95372441     5.58329557     4.11046533
Ce     1.83141301     3.31875871     7.32610776
Ce     7.74213807     4.46545905     0.90125422
Ce     5.80992487     5.65240299     3.95139776
Ce    -1.94645625     7.83004003     0.90010904
Ce    -3.88504341     8.92734452     4.03714717
Ce    -3.85038343     6.78209249     7.33936281
Ce     1.92815559     7.82745473     0.89060408
Ce     0.00068962     8.96707749     4.10928322
Ce     0.01572821     6.69193778     7.28311562
Ce     5.81127600     7.83258510     0.88371011
Ce     3.86136889     8.94989875     4.05996514
Ce     3.83076276     6.83500835     7.32367044
Cr     5.07293734     3.75212340     6.48264732
Mo     6.60784119     2.94932542     8.36096860
O     11.61334069     0.00154917     0.10141687
O      1.92150951     1.10599868     3.19252871
O      0.03360139     2.20273483     6.37047818
O     -0.00785227     2.23805103     1.69392277
O     -5.79468862    10.04374434     4.81656823
O      2.01140968     0.96929580     8.01730870
O     -1.93899312    10.05733740     0.10496691
O      5.79222414     1.14107906     3.23693033
O      4.18656374     2.27557787     6.62287620
O      3.86763657     2.23577757     1.68132582
O      3.82352129     0.08384890     4.87453971
O      6.42097388     1.31782693     9.03294915
O      7.73821774     0.00761509     0.10924988
O      9.67251121     1.12114503     3.23177030
O      7.48042003     2.41380276     6.80664578
O      7.74357843     2.23531483     1.71563532
O      7.72768520     0.11315597     4.87560592
O      9.85499071     1.01886463     8.09903615
O      9.67032270     3.35425987     0.10911246
O     -0.00455524     4.47167100     3.30485406
O     -1.95523715     5.58493677     6.44721376
O     -1.94403436     5.59119430     1.70564938
O      9.59187001     3.28886250     4.88152716
O      0.04477421     4.60085491     8.16217393
O      1.92738314     3.35244915     0.09928684
O      3.86617464     4.47107487     3.19542445
O      1.96147726     5.55836178     6.39273702
O      1.92862022     5.59252216     1.67404250
O      2.02623684     3.27691773     4.85199141
O      5.81155478     3.35101064     0.10766953
O      7.72137710     4.45406459     3.23970249
O      5.83339035     5.30053892     6.57703095
O      5.80528807     5.59217007     1.68114259
O      5.73547465     3.38180690     4.83064821
O      7.89134311     4.05737496     8.91907906
O     -3.87155109     6.71022987     0.10512724
O     -1.94530212     7.83557702     3.28804524
O     -3.82977283     8.90292195     6.35687147
O     -3.87509971     8.94378428     1.69355631
O      7.65506864     6.66862488     4.84828577
O     -1.89340954     7.89280166     8.12779835
O     -0.01209783     6.71325780     0.10434852
O      1.93074522     7.83711604     3.28526753
O     -0.07982160     9.07485986     6.47167163
O     -0.00628994     8.94736548     1.70514550
O     -0.00205620     6.74952357     4.90672688
O      1.81028438     7.74733766     8.13208162
O      3.86815347     6.71410280     0.09951587
O      5.80626117     7.83768166     3.19317710
O      3.87082642     8.95135363     6.34495437
O      3.86556896     8.94715423     1.69389986
O      3.96189322     6.67517839     4.83901626
O      5.81565891     7.94124370     8.06478480
O      4.02711538     4.36893896     8.14434744
O      5.01696514     3.82943023     9.06548977
