83
CIF: O2—Olatt+Osur.cif | data_image0
Ce     1.93038582     1.11050507     0.88387043
Ce    -0.00712359     2.22699991     4.05245340
Ce     5.79902555    10.02823305     7.22878310
Ce     5.81181033     1.12175166     0.90127712
Ce     3.82940747     2.20884659     3.96358810
Ce    -2.05550053     9.92650218     7.20348802
Ce     9.66901012     1.12377363     0.90450652
Ce     7.74084185     2.23780807     4.04669094
Ce     2.03786461     9.97705400     7.37763729
Ce    -0.00709724     4.47602159     0.89067279
Ce    -1.95004768     5.58627911     4.12347837
Ce    -1.74764597     3.32609380     7.32735431
Ce     3.86254305     4.47635356     0.87798423
Ce     1.95454510     5.58411530     4.10016118
Ce     1.85642969     3.29990100     7.28005748
Ce     7.74213807     4.46545905     0.90125422
Ce     5.81434780     5.63368686     3.97518731
Ce    -1.94645625     7.83004003     0.90010904
Ce    -3.88645184     8.92525985     4.02462975
Ce    -3.85057667     6.77832162     7.31996111
Ce     1.92815559     7.82745473     0.89060408
Ce     0.00209586     8.96735298     4.10520063
Ce     0.02604128     6.69314820     7.27142540
Ce     5.81127600     7.83258510     0.88371011
Ce     3.86237550     8.95701766     4.05459450
Ce     3.85726735     6.82211282     7.27856442
Cr     5.06634443     3.75672170     6.56526466
Mo     6.68897587     2.95666705     8.44492873
O     11.61334069     0.00154917     0.10141687
O      1.92357394     1.10915791     3.19449766
O      0.04599785     2.20474921     6.36643800
O     -0.00785227     2.23805103     1.69392277
O     -5.79869329    10.04818780     4.81139667
O      1.99915440     0.98221687     8.01182179
O     -1.93899312    10.05733740     0.10496691
O      5.79258560     1.13581244     3.23959883
O      4.16855463     2.22871903     6.58119640
O      3.86763657     2.23577757     1.68132582
O      3.82307741     0.05173747     4.85526426
O      6.56270500     1.32681997     9.12631319
O      7.73821774     0.00761509     0.10924988
O      9.66900535     1.12604986     3.23200503
O      7.49013059     2.43235075     6.83087586
O      7.74357843     2.23531483     1.71563532
O      7.73252992     0.12003860     4.88137999
O      9.86555969     1.04480201     8.08351610
O      9.67032270     3.35425987     0.10911246
O     -0.00656999     4.47283103     3.30084136
O     -1.94769857     5.57600384     6.45450582
O     -1.94403436     5.59119430     1.70564938
O      9.59497167     3.28607107     4.89076430
O      0.06829458     4.55650340     8.12067476
O      1.92738314     3.35244915     0.09928684
O      3.86571822     4.47264328     3.19769007
O      1.96324001     5.55541451     6.38150597
O      1.92862022     5.59252216     1.67404250
O      2.01882066     3.28323409     4.84715076
O      5.81155478     3.35101064     0.10766953
O      7.72592103     4.45650200     3.24337326
O      5.86572926     5.33352800     6.54929530
O      5.80528807     5.59217007     1.68114259
O      5.73097370     3.38459519     4.84334608
O      7.99901364     4.06489621     8.94476558
O     -3.87155109     6.71022987     0.10512724
O     -1.93572292     7.82785413     3.27657091
O     -3.84320979     8.90893977     6.35814716
O     -3.87509971     8.94378428     1.69355631
O      7.67896652     6.68111022     4.83783666
O     -1.87674914     7.89194145     8.10600759
O     -0.01209783     6.71325780     0.10434852
O      1.92979323     7.83927323     3.28411000
O     -0.06520997     9.08448317     6.47759426
O     -0.00628994     8.94736548     1.70514550
O     -0.00318716     6.75183577     4.91152134
O      1.85302116     7.72660293     8.10231940
O      3.86815347     6.71410280     0.09951587
O      5.80378535     7.83311838     3.19696549
O      3.88023141     8.94959076     6.35085808
O      3.86556896     8.94715423     1.69389986
O      3.95348482     6.68183075     4.84039824
O      5.79990718     7.93142976     8.05988793
O      4.01479526     4.37045866     8.02984760
O      5.13036520     3.81426581     9.10101046
