87
CIF: 3-NH2NO+H-NHNO+2H_fs.cif | data_image0
Ce    -5.80363889    10.05371250     8.79508587
Ce     1.94604033     1.10274399     5.61214424
Ce     0.00000000     2.23543938     2.47426506
Ce    -1.87770464    10.01182579     8.80963020
Ce     5.80683926     1.12116360     5.61367714
Ce     3.87189458     2.23543938     2.47426506
Ce     7.66159986     0.05047192     8.84469898
Ce     9.67048712     1.11318437     5.63669797
Ce     7.74390532     2.23543938     2.47426506
Ce     9.62057879     3.28484643     8.79408917
Ce    -0.00633668     4.43451037     5.59373032
Ce    -1.93600537     5.58869904     2.47426506
Ce     1.97124956     3.19682579     8.76066584
Ce     3.86303743     4.49264863     5.63545509
Ce     1.93588921     5.58869904     2.47426506
Ce     5.80003636     3.38725094     8.74958847
Ce     7.74895039     4.48307417     5.62381178
Ce     5.80789995     5.58869904     2.47426506
Ce    -3.85172952     6.78448597     8.77202469
Ce    -1.94796444     7.83692685     5.67586822
Ce    -3.87195266     8.94185811     2.47426506
Ce     1.96150674     7.84701157     5.60081433
Ce    -0.00005808     8.94185811     2.47426506
Ce     4.00927889     6.77164044     8.81104170
Ce     5.81217088     7.82980811     5.60229575
Ce     3.87195266     8.94185811     2.47426506
Pt     0.86616152     6.17897101     8.16855431
O     11.60088721     0.01273672     6.42417587
O      0.02584616     2.18950613     9.56426068
O      1.93594729     1.11771969     3.26466483
O      0.00065189     2.23641687     4.80578299
O      0.00000000     0.00000000     1.68386529
O      1.95511911     1.07211308     7.96051652
O      3.89418390     0.00330542     6.40427579
O      3.85367603     2.25625786     9.55517003
O      5.80795803     1.11771969     3.26466483
O      3.86744453     2.25116479     4.81849035
O      3.87189458     0.00000000     1.68386529
O      5.81317475     1.20661506     7.89069535
O      1.93801121    10.02137960     6.44430353
O      7.71691115     2.27429860     9.58540406
O      9.67985261     1.11771969     3.26466483
O      7.74470659     2.23486889     4.82694075
O      7.74390532     0.00000000     1.68386529
O      9.64581630     1.13831820     7.98870522
O     -1.91406722     3.34350991     6.42883476
O     -2.26836878     5.38642881     9.95986172
O      0.00000000     4.47087876     3.26466483
O     -1.91086641     5.58887644     4.82928525
O     -1.93594729     3.35315907     1.68386529
O     -0.06678925     4.44753457     8.07389203
O      1.91553803     3.32677673     6.44500519
O      1.89579661     5.50103260     9.77530530
O      3.87201074     4.47087876     3.26466483
O      1.93454094     5.58607653     4.81668573
O      1.93594729     3.35315907     1.68386529
O      3.83731698     4.49923948     8.00593571
O      5.79793876     3.41480161     6.42113333
O      5.83333810     5.61387783     9.50919501
O      7.74390532     4.47087876     3.26466483
O      5.79504245     5.59956395     4.80446179
O      5.80795803     3.35315907     1.68386529
O      7.78826674     4.47651524     7.96415289
O      7.72637404     6.69639474     6.39880384
O     -3.91275715     8.94109890     9.62358528
O     -1.93600537     7.82413842     3.26466483
O     -3.87251360     8.94538060     4.81936853
O     -3.87195266     6.70641873     1.68386529
O     -2.05560676     7.86697695     7.97330939
O      0.01760736     6.69883177     6.45717473
O      0.00421492     9.45454780     9.76909119
O      1.93600537     7.82413842     3.26466483
O      0.01207145     8.91887752     4.82115490
O     -0.00005808     6.70641873     1.68386529
O      1.92905011     7.82669468     8.09387088
O      3.88418309     6.74266425     6.43614196
O      3.92503452     8.95971835     9.52569148
O      5.80789995     7.82413842     3.26466483
O      3.86796844     8.94635562     4.80332175
O      3.87195266     6.70641873     1.68386529
O      5.84124695     7.84653550     7.95398183
O      4.59198016     7.26886107    12.34104639
H     -1.46119762     5.84144793    10.26712979
H      2.37108654     6.85346613    13.02269482
H      1.78221468     5.95141636    10.69123298
N      2.46176870     6.65605925    12.00539495
N      3.65780175     6.87412275    11.60993322
