82
CIF: O2.cif | data_image0
Ce    -5.78139483    10.05490553     8.78119828
Ce     1.94543427     1.10303543     5.61732409
Ce     0.00000000     2.23543938     2.47426506
Ce     3.97781581     0.00506012     8.83270796
Ce     5.80463518     1.12036141     5.61595177
Ce     3.87189458     2.23543938     2.47426506
Ce     1.90381736    10.05547144     8.81139606
Ce     9.67532286     1.11095754     5.62517106
Ce     7.74390532     2.23543938     2.47426506
Ce     9.64802066     3.29045166     8.77255775
Ce     0.01091858     4.44984547     5.60888660
Ce    -1.93600537     5.58869904     2.47426506
Ce     1.95752995     3.22356149     8.76950988
Ce     3.85926575     4.48573097     5.63402942
Ce     1.93588921     5.58869904     2.47426506
Ce     5.79928871     3.38694714     8.75448282
Ce     7.73909607     4.48089456     5.61528135
Ce     5.80789995     5.58869904     2.47426506
Ce     7.72204269     6.72642726     8.76672121
Ce    -1.93033042     7.83541411     5.60450812
Ce    -3.87195266     8.94185811     2.47426506
Ce     1.94723707     7.83344142     5.69714852
Ce    -0.00005808     8.94185811     2.47426506
Ce     3.95238436     6.84201009     8.74920783
Ce     5.81643373     7.83338231     5.58902073
Ce     3.87195266     8.94185811     2.47426506
Cu    -0.80370486     6.21229279     8.15489226
O      0.01412522     0.01511483     6.42047681
O      0.01933829     2.20492539     9.53485067
O      1.93594729     1.11771969     3.26466483
O     -0.00047736     2.23346540     4.80726789
O      0.00000000     0.00000000     1.68386529
O      1.97426249     1.10478548     7.97777757
O     -1.93015853    10.01726719     6.44595495
O      3.88402055     2.25188796     9.56507417
O      5.80795803     1.11771969     3.26466483
O      3.86314188     2.23166048     4.82242601
O      3.87189458     0.00000000     1.68386529
O      5.81879457     1.20913549     7.89065686
O      7.72756048     0.00403519     6.41733309
O      7.75173185     2.28813953     9.56354266
O      9.67985261     1.11771969     3.26466483
O      7.74462685     2.25191223     4.82724855
O      7.74390532     0.00000000     1.68386529
O      9.67060270     1.10073398     7.97155060
O     -1.90507821     3.35538947     6.45247202
O     -1.96369886     5.54369174     9.47015240
O      0.00000000     4.47087876     3.26466483
O     -1.92880399     5.58410606     4.81645052
O     -1.93594729     3.35315907     1.68386529
O      0.04283951     4.54694426     8.05949090
O      1.91130769     3.32702332     6.44153898
O      3.87201074     4.47087876     3.26466483
O      1.92041540     5.59160917     4.83997933
O      1.93594729     3.35315907     1.68386529
O      3.77959366     4.52872453     8.02087826
O      5.76494155     3.40996632     6.41846344
O      5.83540244     5.63436975     9.53748221
O      7.74390532     4.47087876     3.26466483
O      5.82030641     5.59831227     4.80137729
O      5.80795803     3.35315907     1.68386529
O      7.71699400     4.46052591     7.93815687
O     -3.85679555     6.72849021     6.42836266
O     -3.85362575     8.90745023     9.53240484
O     -1.93600537     7.82413842     3.26466483
O     -3.86550485     8.94504366     4.80185069
O     -3.87195266     6.70641873     1.68386529
O     -1.85159689     7.75047920     8.01840795
O     -0.01978505     6.67421807     6.48773258
O      0.02304930     9.45807805     9.75377822
O      1.93600537     7.82413842     3.26466483
O      0.00182348     8.91586496     4.82657458
O     -0.00005808     6.70641873     1.68386529
O      2.10916099     7.87670807     8.00098926
O      3.91247231     6.70397346     6.39842090
O      3.99775514     8.96582270     9.63127787
O      5.80789995     7.82413842     3.26466483
O      3.87169005     8.94766943     4.82486192
O      3.87195266     6.70641873     1.68386529
O      5.82252071     7.85095213     7.93261505
O      1.54351654     5.71981499    11.09554218
O      2.33892172     5.36150863    10.11770423
