82
CIF: Fe-Sc-CeO2.cif | data_image0
Ce     1.93038582     1.11050507     0.88387043
Ce    -0.00930463     2.22994761     4.04630320
Ce    -5.79043883    10.04943092     7.21961075
Ce     5.81181033     1.12175166     0.90127712
Ce     3.85581395     2.21630534     4.01278448
Ce    -1.97438453    10.03551536     7.23986129
Ce     9.66901012     1.12377363     0.90450652
Ce     7.72013920     2.24898985     4.12464665
Ce     1.98376534     9.97062486     7.23944747
Ce    -0.00709724     4.47602159     0.89067279
Ce    -1.95337157     5.59145890     4.06474528
Ce    -1.83507300     3.35594739     7.23947539
Ce     3.86254305     4.47635356     0.87798423
Ce     1.93437283     5.58952166     4.03328344
Ce     1.95475061     3.34739153     7.18797198
Ce     7.74213807     4.46545905     0.90125422
Ce     5.81633604     5.61224849     4.01279157
Ce    -1.94645625     7.83004003     0.90010904
Ce    -3.87187984     8.94156003     4.04786503
Ce    -3.87036822     6.75183326     7.23939065
Ce     1.92815559     7.82745473     0.89060408
Ce    -0.01109950     8.95510787     4.06449922
Ce     0.00115504     6.70540108     7.21781078
Ce     5.81127600     7.83258510     0.88371011
Ce     3.87200859     8.95224755     4.04629788
Ce     3.88632442     6.69277830     7.18764010
Sc     5.44882209     3.56054289     6.81790048
Fe     7.09709153     2.60822706     8.62162750
O     11.61334069     0.00154917     0.10141687
O      1.92396141     1.11067077     3.23375781
O      0.06041580     2.21754252     6.43425087
O     -0.00785227     2.23805103     1.69392277
O     -5.78715360    10.04741369     4.89471752
O      1.97369110     1.10012871     8.02272535
O     -1.93899312    10.05733740     0.10496691
O      5.73185037     1.06817311     3.25605428
O      3.95739928     2.17556305     6.45581944
O      3.86763657     2.23577757     1.68132582
O     -1.97398845    10.03646267     4.89733177
O      6.16021495     1.03454059     8.50360603
O      7.73821774     0.00761509     0.10924988
O      9.74220284     1.08155584     3.25669780
O      7.55494713     2.34406449     6.64845398
O      7.74357843     2.23531483     1.71563532
O      1.94675901     9.99573927     4.93785674
O      9.71786222     1.09561157     7.96710905
O      9.67032270     3.35425987     0.10911246
O      0.00402425     4.48196983     3.25394696
O     -2.00737528     5.58273393     6.49547099
O     -1.94403436     5.59119430     1.70564938
O     -1.87559463     3.37555835     4.93792744
O      0.04928911     4.48508235     7.99936208
O      1.92738314     3.35244915     0.09928684
O      3.82873568     4.49582913     3.19888035
O      1.91139127     5.60262114     6.37386370
O      1.92862022     5.59252216     1.67404250
O      1.96563126     3.33748692     4.87401641
O      3.85458441     4.48086107     7.84783717
O      5.81155478     3.35101064     0.10766953
O      7.74858380     4.56135641     3.25597547
O      5.90246280     5.54448608     6.45582559
O      5.80528807     5.59217007     1.68114259
O      5.66631915     3.43480400     4.80167404
O      7.99189029     4.20662711     8.50380813
O     -3.87155109     6.71022987     0.10512724
O     -1.94114346     7.82703639     3.24984511
O     -3.86109601     8.93561746     6.45784382
O     -3.87509971     8.94378428     1.69355631
O     -3.87108467     6.75078550     4.89723468
O     -1.95299873     7.83383600     8.03567981
O     -0.01209783     6.71325780     0.10434852
O      1.92828571     7.81476395     3.25368630
O     -0.03065696     9.00633321     6.49531728
O     -0.00628994     8.94736548     1.70514550
O     -0.04087076     6.72978368     4.90804472
O      1.94818509     7.77412889     7.99941289
O      3.86815347     6.71410280     0.09951587
O      5.80801351     7.83789853     3.23351643
O      3.91740437     8.89837128     6.43433630
O      3.86556896     8.94715423     1.69389986
O      3.90030388     6.68844118     4.87388353
O      5.84198830     7.80017607     8.02276983
