81
FORCE:  1.342363  ...  ENERGY:  -643.18098434
 O    0.5597892272500    0.4500043079294    0.5999968967040 
 O    2.4075478240275    1.5702223812723    3.7134764592646 
 O    0.6941075924475    2.5929782235824    7.0075839653211 
 O    0.5597892272500    2.6590205731014    2.1620326131840 
 O    0.5997233304975    0.3534673547023    5.2644568040930 
 O    2.5523482406400    0.9978325879674    8.7044355903474 
 O    4.3860324172500    0.4500043079294    0.5999968967040 
 O    6.3345429164600    1.5184930097897    3.7100403456500 
 O    4.2366831284800    2.5487689709217    7.0195667956794 
 O    4.3860324172500    2.6590205731014    2.1620326131840 
 O    4.3704372680100    0.4685760689211    5.3044661774490 
 O    6.2779981610775    1.4730600603319    8.5860751167635 
 O    8.2121608222500    0.4500043079294    0.5999968967040 
 O   10.1984505085100    1.5244685469030    3.7828990016581 
 O    8.1587960131150    2.3856713615062    7.0491592521107 
 O    8.2121608222500    2.6590205731014    2.1620326131840 
 O    8.2153636681050    0.4044493864188    5.4867154629238 
 O   10.2769860037625    1.4397244123947    8.6030367078671 
 O   -1.3532749752500    3.7635287056874    0.5999968967040 
 O    0.5375833802900    4.8461297828110    3.7123979976894 
 O   -1.3950765156625    5.8934646339717    6.7979217285654 
 O   -1.3533323677500    5.9726443775854    2.1620326131840 
 O   -1.3440188850275    3.6795788309199    5.4597495896227 
 O    0.0195020288925    5.0926518030403    8.9910043636347 
 O    2.4729682147500    3.7635287056874    0.5999968967040 
 O    4.4198558262375    4.8302669545095    3.7130747733860 
 O    2.3249697732525    5.6269170293829    7.0698124299602 
 O    2.4729108222500    5.9726443775854    2.1620326131840 
 O    2.5502356227150    3.8592162284408    5.3949276164998 
 O    4.3672663897775    4.6471726880919    8.3153062161359 
 O    6.2990966197500    3.7635287056874    0.5999968967040 
 O    8.1824165852000    4.8344721572395    3.7599258084360 
 O    6.2542052967075    6.0557950222759    7.0155065977014 
 O    6.2990392272500    5.9726443775854    2.1620326131840 
 O    6.3247330460050    3.6252690596438    5.5168019861429 
 O    8.1536441179600    4.8438535675990    8.4371256134355 
 O   -3.2663965702500    7.0771525101714    0.5999968967040 
 O   -1.3933312097375    8.1622609231449    3.7424534991710 
 O   -2.9686284399200    9.0286910404349    6.7865086945301 
 O   -3.2663965702500    9.2861687753434    2.1620326131840 
 O   -3.3173925039475    6.8849310163926    5.3316845585683 
 O   -1.2129100806075    8.0463262384398    8.7524579240837 
 O    0.5598466197500    7.0771525101714    0.5999968967040 
 O    2.3720469470500    8.1831917051513    3.6640782202360 
 O    0.5178935631375    9.2476159642055    7.0197682088712 
 O    0.5598466197500    9.2861687753434    2.1620326131840 
 O    0.5873198929675    7.0431143549016    5.4732337808288 
 O    2.4476438315175    8.0090407636517    8.7429451995627 
 O    4.3859750247500    7.0771525101714    0.5999968967040 
 O    6.2893518897825    8.0944084765521    3.8092631444950 
 O    4.4108242554750    9.1581134285371    6.8327484188732 
 O    4.3859750247500    9.2861687753434    2.1620326131840 
 O    4.2202537218600    7.0292261418054    5.3858640228675 
 O    6.3154859664050    8.0746101359684    8.5589498008563 
Ce    2.4728534297500    1.5545124405154    1.3810147549440 
Ce    0.5121098913425    2.6075969767080    4.5379179067783 
Ce    0.6546233890075    0.4256704360651    7.9645653295034 
Ce    6.2990966197500    1.5545124405154    1.3810147549440 
Ce    4.3793816021725    2.6792437780321    4.4946745173025 
Ce    4.4144209860575    0.2514581606156    7.9837588889898 
Ce   10.1252250247500    1.5545124405154    1.3810147549440 
Ce    8.1880778961850    2.6005421807705    4.5512483579038 
Ce    8.2552674681125    0.3079961336550    7.7799967129588 
Ce    0.5597892272500    4.8680368382734    1.3810147549440 
Ce   -1.3836716502400    5.9777558714363    4.5838321309802 
Ce   -1.1555003628575    3.6676714956527    7.8229139179903 
Ce    4.3860324172500    4.8680368382734    1.3810147549440 
Ce    2.4002109390050    5.8911185358314    4.4266331265246 
Ce    8.2121608222500    4.8680368382734    1.3810147549440 
Ce    6.3959652882400    5.8578300066823    4.5935517431173 
Ce    6.4426533982800    3.5871827642710    7.8643092330831 
Ce   -1.3533323677500    8.1816606427574    1.3810147549440 
Ce   -3.4173719607225    9.3064454610927    4.5830422171826 
Ce   -3.1594746297125    7.0518420666309    7.7749299052237 
Ce    2.4729108222500    8.1816606427574    1.3810147549440 
Ce    0.4329353879950    9.2309648405669    4.5550581009728 
Ce    0.5116727900625    6.8980660247259    7.8555298533092 
Ce    6.2990392272500    8.1816606427574    1.3810147549440 
Ce    4.3340911716850    9.1838351177031    4.5144704915564 
Ce    4.4291867562800    7.0937118814019    7.6886639280498 
Fe    3.0463035068125    3.9819182248319    7.2709505319721 
81
FORCE:  1.366095  ...  ENERGY:  -643.17180445
 O    0.5597892272500    0.4500043079294    0.5999968967040 
 O    2.4126656280375    1.5702649273510    3.7114764696090 
 O    0.6886095057325    2.5989314935891    7.0075342393009 
 O    0.5597892272500    2.6590205731014    2.1620326131840 
 O    0.5922786623600    0.3486682961912    5.2684490279700 
 O    2.5448550184475    1.0041933261440    8.7024622885099 
 O    4.3860324172500    0.4500043079294    0.5999968967040 
 O    6.3334467197100    1.5107611546414    3.7158580619101 
 O    4.2370766688525    2.5440098739145    7.0253076418991 
 O    4.3860324172500    2.6590205731014    2.1620326131840 
 O    4.3713794232900    0.4688563958884    5.3021794648237 
 O    6.2846393342150    1.4732142401639    8.5896510562972 
 O    8.2121608222500    0.4500043079294    0.5999968967040 
 O   10.1969069946150    1.5259069622282    3.7795358803667 
 O    8.1542355476725    2.3808450655522    7.0480502250001 
 O    8.2121608222500    2.6590205731014    2.1620326131840 
 O    8.2029349204825    0.4051679976411    5.4983670906157 
 O   10.2725010668500    1.4459312689594    8.6129182717213 
 O   -1.3532749752500    3.7635287056874    0.5999968967040 
 O    0.5433738817925    4.8395427949260    3.7125754602751 
 O   -1.3936831979400    5.8935840214496    6.8005861764632 
 O   -1.3533323677500    5.9726443775854    2.1620326131840 
 O   -1.3430109005500    3.6794445324330    5.4574697200277 
 O    0.0292883110300    5.0929340187354    8.9975189284803 
 O    2.4729682147500    3.7635287056874    0.5999968967040 
 O    4.4146103813075    4.8440767356989    3.7159061912232 
 O    2.3283570786025    5.6270029167942    7.0629842262258 
 O    2.4729108222500    5.9726443775854    2.1620326131840 
 O    2.5473544044300    3.8647166014039    5.3933710552076 
 O    4.3752444638100    4.6468849056201    8.3177959386601 
 O    6.2990966197500    3.7635287056874    0.5999968967040 
 O    8.1810893836375    4.8262547002347    3.7563391481548 
 O    6.2562233317925    6.0527211674945    7.0192004654573 
 O    6.2990392272500    5.9726443775854    2.1620326131840 
 O    6.3265996222825    3.6173440572269    5.5213250010701 
 O    8.1534834189600    4.8434605134044    8.4383270214552 
 O   -3.2663965702500    7.0771525101714    0.5999968967040 
 O   -1.3951945720350    8.1629415609978    3.7383980913142 
 O   -2.9680073382850    9.0289093376052    6.7875857874993 
 O   -3.2663965702500    9.2861687753434    2.1620326131840 
 O   -3.3191705235975    6.8851763521924    5.3259439404496 
 O   -1.2130641794700    8.0476377113759    8.7509025032965 
 O    0.5598466197500    7.0771525101714    0.5999968967040 
 O    2.3802848943225    8.1790385915457    3.6539945588870 
 O    0.5152748581475    9.2506023410680    7.0267118317166 
 O    0.5598466197500    9.2861687753434    2.1620326131840 
 O    0.5780002692475    7.0485161163924    5.4716822377588 
 O    2.4468084262875    8.0078544437836    8.7388578575645 
 O    4.3859750247500    7.0771525101714    0.5999968967040 
 O    6.2967733713500    8.0887185349626    3.8079155237279 
 O    4.4184004098300    9.1608220630072    6.8332272028932 
 O    4.3859750247500    9.2861687753434    2.1620326131840 
 O    4.2203228224300    7.0264763529508    5.3904237620574 
 O    6.3178749292175    8.0723364059246    8.5605788982697 
Ce    2.4728534297500    1.5545124405154    1.3810147549440 
Ce    0.5130457334475    2.6085747412649    4.5352438786381 
Ce    0.6546438781300    0.4262132961958    7.9659086163512 
Ce    6.2990966197500    1.5545124405154    1.3810147549440 
Ce    4.3794362972250    2.6798510537212    4.4922630334248 
Ce    4.4168192464550    0.2512900638419    7.9814781069908 
Ce   10.1252250247500    1.5545124405154    1.3810147549440 
Ce    8.1855952688125    2.5996046759376    4.5512244072977 
Ce    8.2574990032975    0.3092013408010    7.7794547449591 
Ce    0.5597892272500    4.8680368382734    1.3810147549440 
Ce   -1.3811736416775    5.9787794624939    4.5854124147775 
Ce   -1.1557033601300    3.6646044999354    7.8236639141112 
Ce    4.3860324172500    4.8680368382734    1.3810147549440 
Ce    2.4011132064975    5.8910102819068    4.4270311627871 
Ce    8.2121608222500    4.8680368382734    1.3810147549440 
Ce    6.3948226609575    5.8560954587203    4.5932579490165 
Ce    6.4411641776900    3.5878072373237    7.8664958093650 
Ce   -1.3533323677500    8.1816606427574    1.3810147549440 
Ce   -3.4157424154700    9.3044952005353    4.5844493723133 
Ce   -3.1600227280875    7.0530645705473    7.7769025227582 
Ce    2.4729108222500    8.1816606427574    1.3810147549440 
Ce    0.4323393094900    9.2317237115132    4.5547935038012 
Ce    0.5100266009850    6.8962537407042    7.8552659404406 
Ce    6.2990392272500    8.1816606427574    1.3810147549440 
Ce    4.3355215649625    9.1848430024980    4.5148197142027 
Ce    4.4276701594675    7.0950786244777    7.6873484695251 
Fe    3.0494618160875    3.9827910158861    7.2706576502753 
81
FORCE:  1.387013  ...  ENERGY:  -643.16174520
 O    0.5597892272500    0.4500043079294    0.5999968967040 
 O    2.4179709907375    1.5705621534617    3.7095912147613 
 O    0.6831129112225    2.6049448052583    7.0074557725535 
 O    0.5597892272500    2.6590205731014    2.1620326131840 
 O    0.5842784348225    0.3443648796159    5.2731467682709 
 O    2.5371243634825    1.0105756355801    8.7010304984701 
 O    4.3860324172500    0.4500043079294    0.5999968967040 
 O    6.3322735596175    1.5032697643633    3.7217136429378 
 O    4.2369545950050    2.5398100391477    7.0308128597754 
 O    4.3860324172500    2.6590205731014    2.1620326131840 
 O    4.3724053716200    0.4694073079639    5.2997930720571 
 O    6.2913646447575    1.4734376070772    8.5936939185985 
 O    8.2121608222500    0.4500043079294    0.5999968967040 
 O   10.1947820946950    1.5272702260686    3.7759195669542 
 O    8.1502427514475    2.3768212800972    7.0468330780108 
 O    8.2121608222500    2.6590205731014    2.1620326131840 
 O    8.1905108790450    0.4056400801829    5.5092463682876 
 O   10.2679034684600    1.4521064147785    8.6229540318583 
 O   -1.3532749752500    3.7635287056874    0.5999968967040 
 O    0.5491048098800    4.8328391035448    3.7128343549215 
 O   -1.3920557188175    5.8938505308820    6.8038849732699 
 O   -1.3533323677500    5.9726443775854    2.1620326131840 
 O   -1.3421153479800    3.6791920393490    5.4549455542510 
 O    0.0389452304725    5.0929444564417    9.0035738697907 
 O    2.4729682147500    3.7635287056874    0.5999968967040 
 O    4.4093839906875    4.8578139499783    3.7187658935855 
 O    2.3320154487300    5.6270986454713    7.0563088501682 
 O    2.4729108222500    5.9726443775854    2.1620326131840 
 O    2.5446094359400    3.8695082044105    5.3918726596729 
 O    4.3827828539000    4.6468107482025    8.3204432789821 
 O    6.2990966197500    3.7635287056874    0.5999968967040 
 O    8.1799763708850    4.8176197349807    3.7526012569039 
 O    6.2583622928750    6.0491871589785    7.0223881770721 
 O    6.2990392272500    5.9726443775854    2.1620326131840 
 O    6.3283619737800    3.6097007734714    5.5255444135531 
 O    8.1536526120500    4.8428070135877    8.4398546139191 
 O   -3.2663965702500    7.0771525101714    0.5999968967040 
 O   -1.3970364121450    8.1634485353004    3.7344081484473 
 O   -2.9678593230275    9.0292849956227    6.7891973211349 
 O   -3.2663965702500    9.2861687753434    2.1620326131840 
 O   -3.3207464642550    6.8858983432433    5.3204323357450 
 O   -1.2137484702475    8.0488664779160    8.7493089896407 
 O    0.5598466197500    7.0771525101714    0.5999968967040 
 O    2.3887273884650    8.1747894510428    3.6441878121640 
 O    0.5128151877750    9.2533305586631    7.0335336486227 
 O    0.5598466197500    9.2861687753434    2.1620326131840 
 O    0.5687538783575    7.0537920289681    5.4696614909112 
 O    2.4463430878975    8.0068333378941    8.7340670520515 
 O    4.3859750247500    7.0771525101714    0.5999968967040 
 O    6.3038724218525    8.0829707386586    3.8062394375064 
 O    4.4259856322000    9.1638519800156    6.8342721336200 
 O    4.3859750247500    9.2861687753434    2.1620326131840 
 O    4.2204092555350    7.0234156198572    5.3948555365807 
 O    6.3204131699225    8.0706614025915    8.5624157957033 
Ce    2.4728534297500    1.5545124405154    1.3810147549440 
Ce    0.5140050490850    2.6095553886169    4.5326389651039 
Ce    0.6546434189900    0.4267389589629    7.9671693306335 
Ce    6.2990966197500    1.5545124405154    1.3810147549440 
Ce    4.3795078082800    2.6803506719261    4.4899026441734 
Ce    4.4192693322800    0.2511554671349    7.9791195425474 
Ce   10.1252250247500    1.5545124405154    1.3810147549440 
Ce    8.1831482821825    2.5986233327385    4.5512613596613 
Ce    8.2596838783800    0.3103810004185    7.7789207604947 
Ce    0.5597892272500    4.8680368382734    1.3810147549440 
Ce   -1.3786518152275    5.9797798917844    4.5869737661910 
Ce   -1.1559364884650    3.6615545027683    7.8244177879492 
Ce    4.3860324172500    4.8680368382734    1.3810147549440 
Ce    2.4020431945675    5.8910162463103    4.4275117716151 
Ce    8.2121608222500    4.8680368382734    1.3810147549440 
Ce    6.3935709305325    5.8544127016626    4.5929871931176 
Ce    6.4396331753600    3.5884408557953    7.8686401869600 
Ce   -1.3533323677500    8.1816606427574    1.3810147549440 
Ce   -3.4139496459475    9.3024902662786    4.5858090824339 
Ce   -3.1606462976000    7.0542148057738    7.7788712625755 
Ce    2.4729108222500    8.1816606427574    1.3810147549440 
Ce    0.4317900058725    9.2325182694741    4.5545895814982 
Ce    0.5084103134000    6.8944892713177    7.8550442262589 
Ce    6.2990392272500    8.1816606427574    1.3810147549440 
Ce    4.3369490886150    9.1858715638919    4.5152106793339 
Ce    4.4261356561950    7.0964197206182    7.6860717881721 
Fe    3.0527936228900    3.9835871643547    7.2702901795482 
81
FORCE:  1.406193  ...  ENERGY:  -643.15112876
 O    0.5597892272500    0.4500043079294    0.5999968967040 
 O    2.4234383150725    1.5711082940144    3.7078446453278 
 O    0.6776281969600    2.6109969849573    7.0073387567353 
 O    0.5597892272500    2.6590205731014    2.1620326131840 
 O    0.5757934128375    0.3405591925177    5.2785030361878 
 O    2.5292026488850    1.0169598337440    8.7001224283493 
 O    4.3860324172500    0.4500043079294    0.5999968967040 
 O    6.3310209109125    1.4960548241902    3.7275648900463 
 O    4.2363046249425    2.5361911372876    7.0360616921165 
 O    4.3860324172500    2.6590205731014    2.1620326131840 
 O    4.3735018553325    0.4702243318449    5.2973170355936 
 O    6.2981402311300    1.4737239978548    8.5982032474652 
 O    8.2121608222500    0.4500043079294    0.5999968967040 
 O   10.1920804575425    1.5285405446201    3.7720740120266 
 O    8.1468462632975    2.3736410601190    7.0455046177285 
 O    8.2121608222500    2.6590205731014    2.1620326131840 
 O    8.1781418770150    0.4058204039838    5.5192782507074 
 O   10.2632231674775    1.4582359329104    8.6331125103386 
 O   -1.3532749752500    3.7635287056874    0.5999968967040 
 O    0.5547488457225    4.8260483318715    3.7131735411234 
 O   -1.3902079672800    5.8942574026116    6.8077989585004 
 O   -1.3533323677500    5.9726443775854    2.1620326131840 
 O   -1.3413376222125    3.6788285089520    5.4521798295048 
 O    0.0484562007875    5.0926899752231    9.0091301822933 
 O    2.4729682147500    3.7635287056874    0.5999968967040 
 O    4.4042029401425    4.8714052351839    3.7216427035237 
 O    2.3359421861875    5.6272174365089    7.0498084275852 
 O    2.4729108222500    5.9726443775854    2.1620326131840 
 O    2.5420330292225    3.8735302999512    5.3904449754513 
 O    4.3898219292400    4.6469491223651    8.3232226897890 
 O    6.2990966197500    3.7635287056874    0.5999968967040 
 O    8.1790674458625    4.8086092111159    3.7487415597137 
 O    6.2606143745750    6.0452075101098    7.0250517125659 
 O    6.2990392272500    5.9726443775854    2.1620326131840 
 O    6.3299846319325    3.6023676387011    5.5294248679352 
 O    8.1541600765350    4.8418962491641    8.4417074784234 
 O   -3.2663965702500    7.0771525101714    0.5999968967040 
 O   -1.3988530569475    8.1637854246948    3.7305026029541 
 O   -2.9681810653825    9.0298259670256    6.7913280126694 
 O   -3.2663965702500    9.2861687753434    2.1620326131840 
 O   -3.3220924905575    6.8870853589585    5.3151647991210 
 O   -1.2149707009275    8.0500100528919    8.7476860509545 
 O    0.5598466197500    7.0771525101714    0.5999968967040 
 O    2.3973482584975    8.1704725151528    3.6347312004914 
 O    0.5105034752675    9.2557822267464    7.0402115337915 
 O    0.5598466197500    9.2861687753434    2.1620326131840 
 O    0.5596064321375    7.0589343389041    5.4671662939628 
 O    2.4462590078850    8.0059652189560    8.7285723268216 
 O    4.3859750247500    7.0771525101714    0.5999968967040 
 O    6.3106085221850    8.0771986871134    3.8042465189820 
 O    4.4335580560425    9.1671989050733    6.8358731746092 
 O    4.3859750247500    9.2861687753434    2.1620326131840 
 O    4.2205204822000    7.0200882779246    5.3991488537909 
 O    6.3230969580075    8.0695874123238    8.5644545625306 
Ce    2.4728534297500    1.5545124405154    1.3810147549440 
Ce    0.5149856573400    2.6105381235101    4.5301040785798 
Ce    0.6546187976075    0.4272490148740    7.9683497533603 
Ce    6.2990966197500    1.5545124405154    1.3810147549440 
Ce    4.3795956188050    2.6807437261207    4.4875944900532 
Ce    4.4217695791500    0.2510572532897    7.9766863890737 
Ce   10.1252250247500    1.5545124405154    1.3810147549440 
Ce    8.1807381989300    2.5975979523598    4.5513610398027 
Ce    8.2618212324725    0.3115368024217    7.7784009182929 
Ce    0.5597892272500    4.8680368382734    1.3810147549440 
Ce   -1.3761085813750    5.9807549723597    4.5885157290186 
Ce   -1.1561994035075    3.6585230946589    7.8251794172216 
Ce    4.3860324172500    4.8680368382734    1.3810147549440 
Ce    2.4030007884300    5.8911390136169    4.4280731282007 
Ce    8.2121608222500    4.8680368382734    1.3810147549440 
Ce    6.3922129665900    5.8527805426284    4.5927399316228 
Ce    6.4380637774475    3.5890819297712    7.8707460154843 
Ce   -1.3533323677500    8.1816606427574    1.3810147549440 
Ce   -3.4119977270225    9.3004319506101    4.5871220318475 
Ce   -3.1613463713150    7.0552903865491    7.7808377213827 
Ce    2.4729108222500    8.1816606427574    1.3810147549440 
Ce    0.4312873049650    9.2333480174160    4.5544458778619 
Ce    0.5068243864475    6.8927702308050    7.8548676760772 
Ce    6.2990392272500    8.1816606427574    1.3810147549440 
Ce    4.3383752348475    9.1869194101907    4.5156436150508 
Ce    4.4245856569475    7.0977341757561    7.6848359368999 
Fe    3.0563032316575    3.9843095530325    7.2698540504171 
81
FORCE:  1.422903  ...  ENERGY:  -643.14037354
 O    0.5597892272500    0.4500043079294    0.5999968967040 
 O    2.4290420613800    1.5718952970641    3.7062591152072 
 O    0.6721652344550    2.6170665608335    7.0071724710990 
 O    0.5597892272500    2.6590205731014    2.1620326131840 
 O    0.5668999858225    0.3372493461688    5.2844671932962 
 O    2.5211370512900    1.0233288226788    8.6997205143697 
 O    4.3860324172500    0.4500043079294    0.5999968967040 
 O    6.3296866500725    1.4891504306292    3.7333714293569 
 O    4.2351195846025    2.5331691728172    7.0410365751446 
 O    4.3860324172500    2.6590205731014    2.1620326131840 
 O    4.3746542393400    0.4713006084673    5.2947632166856 
 O    6.3049336665700    1.4740685415672    8.6031767618872 
 O    8.2121608222500    0.4500043079294    0.5999968967040 
 O   10.1888106346400    1.5297013169596    3.7680236223920 
 O    8.1440711637450    2.3713385021247    7.0440623350423 
 O    8.2121608222500    2.6590205731014    2.1620326131840 
 O    8.1658749188500    0.4056659259316    5.5283945356731 
 O   10.2584865070600    1.4643066022605    8.6433656507381 
 O   -1.3532749752500    3.7635287056874    0.5999968967040 
 O    0.5602817696850    4.8192006995510    3.7135914221737 
 O   -1.3881530862100    5.8947973799472    6.8123044096500 
 O   -1.3533323677500    5.9726443775854    2.1620326131840 
 O   -1.3406830033575    3.6783632854743    5.4491748267991 
 O    0.0578093991200    5.0921799193120    9.0141522822305 
 O    2.4729682147500    3.7635287056874    0.5999968967040 
 O    4.3990931710825    4.8847800125403    3.7245249878860 
 O    2.3401334456775    5.6273743003225    7.0435028032648 
 O    2.4729108222500    5.9726443775854    2.1620326131840 
 O    2.5396561188350    3.8767269220392    5.3890989513913 
 O    4.3963081426275    4.6472993322608    8.3261115890806 
 O    6.2990966197500    3.7635287056874    0.5999968967040 
 O    8.1783493509025    4.7992687563275    3.7447878849073 
 O    6.2629719436900    6.0407976289310    7.0271753329690 
 O    6.2990392272500    5.9726443775854    2.1620326131840 
 O    6.3314313820725    3.5953709956984    5.5329337457721 
 O    8.1550113794875    4.8407316993690    8.4438867554729 
 O   -3.2663965702500    7.0771525101714    0.5999968967040 
 O   -1.4006423255275    8.1639570007039    3.7266999310164 
 O   -2.9689683756975    9.0305424907066    6.7939605264258 
 O   -3.2663965702500    9.2861687753434    2.1620326131840 
 O   -3.3231819723850    6.8887236812097    5.3101554728404 
 O   -1.2167364385825    8.0510667463892    8.7460418988745 
 O    0.5598466197500    7.0771525101714    0.5999968967040 
 O    2.4061223091125    8.1661139278446    3.6256965756874 
 O    0.5083276682000    9.2579402473612    7.0467251862330 
 O    0.5598466197500    9.2861687753434    2.1620326131840 
 O    0.5505835850350    7.0639353918824    5.4641943659035 
 O    2.4465666316850    8.0052385557889    8.7223739099759 
 O    4.3859750247500    7.0771525101714    0.5999968967040 
 O    6.3169458594275    8.0714369738677    3.8019495418113 
 O    4.4410934617225    9.1708560785229    6.8380184646083 
 O    4.3859750247500    9.2861687753434    2.1620326131840 
 O    4.2206653982625    7.0165389607727    5.4032955020517 
 O    6.3259216446800    8.0691119499533    8.5666890400246 
Ce    2.4728534297500    1.5545124405154    1.3810147549440 
Ce    0.5159856068675    2.6115217530639    4.5276403595708 
Ce    0.6545669721800    0.4277451538435    7.9694523936426 
Ce    6.2990966197500    1.5545124405154    1.3810147549440 
Ce    4.3796990974825    2.6810317074059    4.4853390272663 
Ce    4.4243187244300    0.2509984045079    7.9741820680849 
Ce   10.1252250247500    1.5545124405154    1.3810147549440 
Ce    8.1783659373350    2.5965279383611    4.5515248163279 
Ce    8.2639106638275    0.3126708343519    7.7779016051820 
Ce    0.5597892272500    4.8680368382734    1.3810147549440 
Ce   -1.3735457766800    5.9817023184585    4.5900383032603 
Ce   -1.1564918182950    3.6555109714544    7.8259522234435 
Ce    4.3860324172500    4.8680368382734    1.3810147549440 
Ce    2.4039861028700    5.8913807707746    4.4287138639378 
Ce    8.2121608222500    4.8680368382734    1.3810147549440 
Ce    6.3907515239700    5.8511977887370    4.5925163926330 
Ce    6.4364597144650    3.5897289681508    7.8728158040490 
Ce   -1.3533323677500    8.1816606427574    1.3810147549440 
Ce   -3.4098907909550    9.2983212475969    4.5883895891600 
Ce   -3.1621244988300    7.0562890265185    7.7828041801899 
Ce    2.4729108222500    8.1816606427574    1.3810147549440 
Ce    0.4308313789450    9.2342122594919    4.5543617085892 
Ce    0.5052685331650    6.8910939351845    7.8547399395116 
Ce    6.2990392272500    8.1816606427574    1.3810147549440 
Ce    4.3398014958650    9.1879853485136    4.5161180651516 
Ce    4.4230225148175    7.0990212940443    7.6836420562136 
Fe    3.0599947172575    3.9849612635282    7.2693542811041 
81
FORCE:  1.437961  ...  ENERGY:  -643.12984567
 O    0.5597892272500    0.4500043079294    0.5999968967040 
 O    2.4347566326050    1.5729126254980    3.7048551534907 
 O    0.6667340673950    2.6231343473885    7.0069464229981 
 O    0.5597892272500    2.6590205731014    2.1620326131840 
 O    0.5576763797550    0.3344292767590    5.2909867763641 
 O    2.5129754934350    1.0296660014613    8.6998078770565 
 O    4.3860324172500    0.4500043079294    0.5999968967040 
 O    6.3282692848925    1.4825901831535    3.7390928869907 
 O    4.2333960878275    2.5307561739503    7.0457231384961 
 O    4.3860324172500    2.6590205731014    2.1620326131840 
 O    4.3758470276675    0.4726273900392    5.2921457575959 
 O    6.3117149921925    1.4744666655048    8.6086108122484 
 O    8.2121608222500    0.4500043079294    0.5999968967040 
 O   10.1849831288150    1.5307371350445    3.7637925767575 
 O    8.1419394341175    2.3699415394042    7.0425039489420 
 O    8.2121608222500    2.6590205731014    2.1620326131840 
 O    8.1537517862900    0.4051378774031    5.5365359169220 
 O   10.2537163868150    1.4703065934284    8.6536876776426 
 O   -1.3532749752500    3.7635287056874    0.5999968967040 
 O    0.5656806247675    4.8123266250414    3.7140854889613 
 O   -1.3859041037050    5.8954636038248    6.8173753232033 
 O   -1.3533323677500    5.9726443775854    2.1620326131840 
 O   -1.3401554514975    3.6778068066222    5.4459332833459 
 O    0.0669962739875    5.0914283050567    9.0186098321679 
 O    2.4729682147500    3.7635287056874    0.5999968967040 
 O    4.3940814858050    4.8978723753881    3.7273986044100 
 O    2.3445840618750    5.6275841479211    7.0374097690856 
 O    2.4729108222500    5.9726443775854    2.1620326131840 
 O    2.5375065975325    3.8790491625653    5.3878457644424 
 O    4.4021921365125    4.6478609802627    8.3290887634631 
 O    6.2990966197500    3.7635287056874    0.5999968967040 
 O    8.1778073935250    4.7896454894036    3.7407710261213 
 O    6.2654263913450    6.0359742157720    7.0287471770289 
 O    6.2990392272500    5.9726443775854    2.1620326131840 
 O    6.3326677313075    3.5887350002975    5.5360427625384 
 O    8.1562094479250    4.8393168434378    8.4463908483607 
 O   -3.2663965702500    7.0771525101714    0.5999968967040 
 O   -1.4024035291750    8.1639696253581    3.7230188369170 
 O   -2.9702175808525    9.0314470919132    6.7970743333133 
 O   -3.2663965702500    9.2861687753434    2.1620326131840 
 O   -3.3239906327100    6.8907982995813    5.3054157619536 
 O   -1.2190483232675    8.0520353655274    8.7443845169358 
 O    0.5598466197500    7.0771525101714    0.5999968967040 
 O    2.4150266407025    8.1617380437661    3.6171528242568 
 O    0.5062762880725    9.2597887154311    7.0530559016646 
 O    0.5598466197500    9.2861687753434    2.1620326131840 
 O    0.5417088679750    7.0687878318054    5.4607454786323 
 O    2.4472757160225    8.0046430100934    8.7154720296153 
 O    4.3859750247500    7.0771525101714    0.5999968967040 
 O    6.3228534416300    8.0657205900891    3.7993626482569 
 O    4.4485640712700    9.1748141561320    6.8406963704657 
 O    4.3859750247500    9.2861687753434    2.1620326131840 
 O    4.2208536456625    7.0128127990553    5.4072906912419 
 O    6.3288816628675    8.0692281564160    8.5691107884478 
Ce    2.4728534297500    1.5545124405154    1.3810147549440 
Ce    0.5170024871825    2.6125054820244    4.5252478080769 
Ce    0.6544846713350    0.4282290657856    7.9704795324906 
Ce    6.2990966197500    1.5545124405154    1.3810147549440 
Ce    4.3798181295275    2.6812158086625    4.4831367120147 
Ce    4.4269149315600    0.2509817041779    7.9716090886922 
Ce   10.1252250247500    1.5545124405154    1.3810147549440 
Ce    8.1760321861075    2.5954126943022    4.5517542859439 
Ce    8.2659520576600    0.3137856807840    7.7774285236872 
Ce    0.5597892272500    4.8680368382734    1.3810147549440 
Ce   -1.3709652950950    5.9826196437260    4.5915421732193 
Ce   -1.1568139623975    3.6525185307816    7.8267400843321 
Ce    4.3860324172500    4.8680368382734    1.3810147549440 
Ce    2.4049991378875    5.8917435059177    4.4294328383213 
Ce    8.2121608222500    4.8680368382734    1.3810147549440 
Ce    6.3891894149050    5.8496629488876    4.5923168042492 
Ce    6.4348244873550    3.5903808774599    7.8748532022703 
Ce   -1.3533323677500    8.1816606427574    1.3810147549440 
Ce   -3.4076335439300    9.2961591513064    4.5896131229777 
Ce   -3.1629819427800    7.0572085387340    7.7847738324113 
Ce    2.4729108222500    8.1816606427574    1.3810147549440 
Ce    0.4304221130275    9.2351105980747    4.5543368455792 
Ce    0.5037428109450    6.8894573028476    7.8546637537742 
Ce    6.2990392272500    8.1816606427574    1.3810147549440 
Ce    4.3412294212650    9.1890688818270    4.5166342577373 
Ce    4.4214485255050    7.1002808766695    7.6824919709212 
Fe    3.0638711214925    3.9855459738905    7.2687956617307 
81
FORCE:  1.450405  ...  ENERGY:  -643.11993333
 O    0.5597892272500    0.4500043079294    0.5999968967040 
 O    2.4405546525250    1.5741478534753    3.7036523768650 
 O    0.6613441655425    2.6291813579378    7.0066496635841 
 O    0.5597892272500    2.6590205731014    2.1620326131840 
 O    0.5482036902375    0.3320901370894    5.2980054444418 
 O    2.5047664719825    1.0359575525566    8.7003676369351 
 O    4.3860324172500    0.4500043079294    0.5999968967040 
 O    6.3267667492425    1.4764054942887    3.7446891171700 
 O    4.2311360859625    2.5289583039039    7.0501090647164 
 O    4.3860324172500    2.6590205731014    2.1620326131840 
 O    4.3770638634525    0.4741930459737    5.2894792567890 
 O    6.3184561430650    1.4749125046709    8.6144987836196 
 O    8.2121608222500    0.4500043079294    0.5999968967040 
 O   10.1806113699125    1.5316326902391    3.7594057381332 
 O    8.1404699565475    2.3694703515229    7.0408280908215 
 O    8.2121608222500    2.6590205731014    2.1620326131840 
 O    8.1418116784125    0.4041997761298    5.5436497031209 
 O   10.2489319758375    1.4762249716743    8.6640528156380 
 O   -1.3532749752500    3.7635287056874    0.5999968967040 
 O    0.5709253809875    4.8054574214613    3.7146541447793 
 O   -1.3834733017600    5.8962497122140    6.8229820460291 
 O   -1.3533323677500    5.9726443775854    2.1620326131840 
 O   -1.3397576640800    3.6771711006094    5.4424565677515 
 O    0.0760130374850    5.0904524292276    9.0224743194793 
 O    2.4729682147500    3.7635287056874    0.5999968967040 
 O    4.3891954901025    4.9106180075757    3.7302484984289 
 O    2.3492872050725    5.6278633814144    7.0315441516135 
 O    2.4729108222500    5.9726443775854    2.1620326131840 
 O    2.5356098901925    3.8804545748575    5.3866938543419 
 O    4.4074317848000    4.6486350604381    8.3321375615628 
 O    6.2990966197500    3.7635287056874    0.5999968967040 
 O    8.1774255038300    4.7797897101476    3.7367231455978 
 O    6.2679678460300    6.0307555614705    7.0297578926042 
 O    6.2990392272500    5.9726443775854    2.1620326131840 
 O    6.3336597606700    3.5824822178254    5.5387270552240 
 O    8.1577530192125    4.8376552600127    8.4492170198746 
 O   -3.2663965702500    7.0771525101714    0.5999968967040 
 O   -1.4041372418150    8.1638302571282    3.7194773406357 
 O   -2.9719244338025    9.0325542840274    6.8006459389279 
 O   -3.2663965702500    9.2861687753434    2.1620326131840 
 O   -3.3244958588875    6.8932923149299    5.3009531937940 
 O   -1.2219067567300    8.0529158108996    8.7427214324719 
 O    0.5598466197500    7.0771525101714    0.5999968967040 
 O    2.4240396736875    8.1573677264642    3.6091670078967 
 O    0.5043371102825    9.2613136146080    7.0591883973184 
 O    0.5598466197500    9.2861687753434    2.1620326131840 
 O    0.5330053527425    7.0734850978291    5.4568230536644 
 O    2.4483960750150    8.0041681441633    8.7078682824469 
 O    4.3859750247500    7.0771525101714    0.5999968967040 
 O    6.3283059013075    8.0600853221989    3.7965020334905 
 O    4.4559407866875    9.1790605132465    6.8438948028279 
 O    4.3859750247500    9.2861687753434    2.1620326131840 
 O    4.2210958994050    7.0089569115605    5.4111298593412 
 O    6.3319701828625    8.0699247987518    8.5717106837597 
Ce    2.4728534297500    1.5545124405154    1.3810147549440 
Ce    0.5180341747625    2.6134882169176    4.5229275646032 
Ce    0.6543689680550    0.4287022418014    7.9714339071165 
Ce    6.2990966197500    1.5545124405154    1.3810147549440 
Ce    4.3799520262300    2.6812972227711    4.4809877723995 
Ce    4.4295567657275    0.2510100350948    7.9689701881075 
Ce   10.1252250247500    1.5545124405154    1.3810147549440 
Ce    8.1737377487425    2.5942516237425    4.5520505891559 
Ce    8.2679463896425    0.3148842245130    7.7769876044349 
Ce    0.5597892272500    4.8680368382734    1.3810147549440 
Ce   -1.3683686288250    5.9835043635874    4.5930280231984 
Ce   -1.1571666393100    3.6495457726406    7.8275459652004 
Ce    4.3860324172500    4.8680368382734    1.3810147549440 
Ce    2.4060398934825    5.8922288095541    4.4302291389472 
Ce    8.2121608222500    4.8680368382734    1.3810147549440 
Ce    6.3875294516275    5.8481743331657    4.5921416226735 
Ce    6.4331620562000    3.5910367630380    7.8768614035624 
Ce   -1.3533323677500    8.1816606427574    1.3810147549440 
Ce   -3.4052300608150    9.2939465563991    4.5907944581085 
Ce   -3.1639203101550    7.0580467362477    7.7867491871578 
Ce    2.4729108222500    8.1816606427574    1.3810147549440 
Ce    0.4300596793900    9.2360427349444    4.5543699202256 
Ce    0.5022467606475    6.8878569539657    7.8546425403803 
Ce    6.2990392272500    8.1816606427574    1.3810147549440 
Ce    4.3426609050000    9.1901693142838    4.5171917366057 
Ce    4.4198660421025    7.1015126254113    7.6813863653257 
Fe    3.0679345104925    3.9860674615751    7.2681822981148 
81
FORCE:  1.461735  ...  ENERGY:  -643.11105463
 O    0.5597892272500    0.4500043079294    0.5999968967040 
 O    2.4464105240850    1.5755864676139    3.7026676648048 
 O    0.6560049412675    2.6351904945245    7.0062710159075 
 O    0.5597892272500    2.6590205731014    2.1620326131840 
 O    0.5385630128725    0.3302216882675    5.3054673127819 
 O    2.4965581392400    1.0421916465642    8.7013842831367 
 O    4.3860324172500    0.4500043079294    0.5999968967040 
 O    6.3251772639550    1.4706272795265    3.7501208865211 
 O    4.2283454904350    2.5277772525923    7.0541854578661 
 O    4.3860324172500    2.6590205731014    2.1620326131840 
 O    4.3782873567675    0.4759843551762    5.2867812780427 
 O    6.3251320386650    1.4754021822032    8.6208304114552 
 O    8.2121608222500    0.4500043079294    0.5999968967040 
 O   10.1757125182900    1.5323727733141    3.7548886538322 
 O    8.1396789731125    2.3699383583889    7.0390338482768 
 O    8.2121608222500    2.6590205731014    2.1620326131840 
 O    8.1300908672775    0.4028184202653    5.5496918707748 
 O   10.2441492292425    1.4820511998851    8.6744364298153 
 O   -1.3532749752500    3.7635287056874    0.5999968967040 
 O    0.5759972709975    4.7986246007430    3.7152946524154 
 O   -1.3808735362950    5.8971493430843    6.8290917315819 
 O   -1.3533323677500    5.9726443775854    2.1620326131840 
 O   -1.3394915350575    3.6764695873440    5.4387469610259 
 O    0.0848585417625    5.0892705826622    9.0257204249526 
 O    2.4729682147500    3.7635287056874    0.5999968967040 
 O    4.3844645689350    4.9229560721866    3.7330582466701 
 O    2.3542351846750    5.6282273094383    7.0259203212119 
 O    2.4729108222500    5.9726443775854    2.1620326131840 
 O    2.5339895851325    3.8809078695280    5.3856516608272 
 O    4.4119886345150    4.6496219704138    8.3352442973190 
 O    6.2990966197500    3.7635287056874    0.5999968967040 
 O    8.1771847996850    4.7697547999714    3.7326761774784 
 O    6.2705867231975    6.0251596586438    7.0302001804626 
 O    6.2990392272500    5.9726443775854    2.1620326131840 
 O    6.3343736659775    3.5766330266608    5.5409654104352 
 O    8.1596380184825    4.8357500307022    8.4523625328025 
 O   -3.2663965702500    7.0771525101714    0.5999968967040 
 O   -1.4058445539050    8.1635475443995    3.7160941464554 
 O   -2.9740842857550    9.0338796739052    6.8046495678554 
 O   -3.2663965702500    9.2861687753434    2.1620326131840 
 O   -3.3246774487575    6.8961886292987    5.2967743832908 
 O   -1.2253100745875    8.0537081819125    8.7410592604120 
 O    0.5598466197500    7.0771525101714    0.5999968967040 
 O    2.4331417224400    8.1530245471986    3.6018029948899 
 O    0.5024997467875    9.2625017237971    7.0651071623259 
 O    0.5598466197500    9.2861687753434    2.1620326131840 
 O    0.5244955371975    7.0780194362288    5.4524325654239 
 O    2.4499365471075    8.0038054090202    8.6995654056829 
 O    4.3859750247500    7.0771525101714    0.5999968967040 
 O    6.3332804536375    8.0545670560252    3.7933850331889 
 O    4.4631925586325    9.1835825252123    6.8476028128465 
 O    4.3859750247500    9.2861687753434    2.1620326131840 
 O    4.2214047284475    7.0050177212293    5.4148118658446 
 O    6.3351803749575    8.0711868665451    8.5744780052131 
Ce    2.4728534297500    1.5545124405154    1.3810147549440 
Ce    0.5190780869450    2.6144690630831    4.5206798572506 
Ce    0.6542172222850    0.4291662723984    7.9723177985302 
Ce    6.2990966197500    1.5545124405154    1.3810147549440 
Ce    4.3801005580200    2.6812769437990    4.4788919803196 
Ce    4.4322423903725    0.2510857830200    7.9662678754420 
Ce   10.1252250247500    1.5545124405154    1.3810147549440 
Ce    8.1714833713425    2.5930436332081    4.5524146383679 
Ce    8.2698942337000    0.3159698453677    7.7765840937482 
Ce    0.5597892272500    4.8680368382734    1.3810147549440 
Ce   -1.3657575570375    5.9843539928746    4.5944963093998 
Ce   -1.1575505951350    3.6465921999977    7.8283735156647 
Ce    4.3860324172500    4.8680368382734    1.3810147549440 
Ce    2.4071081974775    5.8928379739710    4.4311018534115 
Ce    8.2121608222500    4.8680368382734    1.3810147549440 
Ce    6.3857742741925    5.8467303510639    4.5919906198049 
Ce    6.4314762662975    3.5916961278516    7.8788433732383 
Ce   -1.3533323677500    8.1816606427574    1.3810147549440 
Ce   -3.4026844164775    9.2916839599086    4.5919358755625 
Ce   -3.1649412079450    7.0588014321114    7.7887336659449 
Ce    2.4729108222500    8.1816606427574    1.3810147549440 
Ce    0.4297438484625    9.2370086701010    4.5544602482256 
Ce    0.5007796361700    6.8862892104900    7.8546788084409 
Ce    6.2990392272500    8.1816606427574    1.3810147549440 
Ce    4.3440977836300    9.1912864470706    4.5177902736560 
Ce    4.4182770733475    7.1027164408632    7.6803266080333 
Fe    3.0721867782100    3.9865298022577    7.2675178398726 
81
FORCE:  1.470879  ...  ENERGY:  -643.10357334
 O    0.5597892272500    0.4500043079294    0.5999968967040 
 O    2.4522960101750    1.5772127616513    3.7019172124819 
 O    0.6507258069400    2.6411440627514    7.0057995311198 
 O    0.5597892272500    2.6590205731014    2.1620326131840 
 O    0.5288362467575    0.3288121008929    5.3133148999299 
 O    2.4883982457675    1.0483577463713    8.7028443577017 
 O    4.3860324172500    0.4500043079294    0.5999968967040 
 O    6.3234991072550    1.4652847644443    3.7553496459734 
 O    4.2250345745025    2.5272089443397    7.0579454749149 
 O    4.3860324172500    2.6590205731014    2.1620326131840 
 O    4.3794995437600    0.4779851143504    5.2840709818419 
 O    6.3317193776375    1.4759323182729    8.6275945188057 
 O    8.2121608222500    0.4500043079294    0.5999968967040 
 O   10.1703058578275    1.5329434673281    3.7502677835716 
 O    8.1395800858350    2.3713516238125    7.0371212213080 
 O    8.2121608222500    2.6590205731014    2.1620326131840 
 O    8.1186236736000    0.4009633913515    5.5546272923281 
 O   10.2393818064450    1.4877743433211    8.6848161662753 
 O   -1.3532749752500    3.7635287056874    0.5999968967040 
 O    0.5808797083650    4.7918612653261    3.7160045027585 
 O   -1.3781164579875    5.8981554385582    6.8356685680033 
 O   -1.3533323677500    5.9726443775854    2.1620326131840 
 O   -1.3393577531400    3.6757167802080    5.4348060598761 
 O    0.0935343938100    5.0879036407729    9.0283267070929 
 O    2.4729682147500    3.7635287056874    0.5999968967040 
 O    4.3799183942250    4.9348294103535    3.7358105134568 
 O    2.3594193344150    5.6286915388487    7.0205499110325 
 O    2.4729108222500    5.9726443775854    2.1620326131840 
 O    2.5326663436525    3.8803806162533    5.3847260269286 
 O    4.4158296849700    4.6508226048504    8.3383968813782 
 O    6.2990966197500    3.7635287056874    0.5999968967040 
 O    8.1770654806775    4.7595953331674    3.7286620559044 
 O    6.2732740122250    6.0192064880438    7.0300690223818 
 O    6.2990392272500    5.9726443775854    2.1620326131840 
 O    6.3347771352525    3.5712066123019    5.5427393519899 
 O    8.1618572716725    4.8336044359282    8.4558246499323 
 O   -3.2663965702500    7.0771525101714    0.5999968967040 
 O   -1.4075271298275    8.1631307319974    3.7128872743558 
 O   -2.9766930044500    9.0354413535706    6.8090578479746 
 O   -3.2663965702500    9.2861687753434    2.1620326131840 
 O   -3.3245180123925    6.8994684548163    5.2928843486662 
 O   -1.2292543741500    8.0544140690738    8.7394041594835 
 O    0.5598466197500    7.0771525101714    0.5999968967040 
 O    2.4423133309025    8.1487282879076    3.5951226006100 
 O    0.5007536947600    9.2633420088520    7.0707994230304 
 O    0.5598466197500    9.2861687753434    2.1620326131840 
 O    0.5162013452750    7.0823838885339    5.4475822255472 
 O    2.4519049376800    8.0035474485662    8.6905670489394 
 O    4.3859750247500    7.0771525101714    0.5999968967040 
 O    6.3377583312725    8.0492016773960    3.7900321764429 
 O    4.4702856403150    9.1883636905127    6.8518085392688 
 O    4.3859750247500    9.2861687753434    2.1620326131840 
 O    4.2217935052425    7.0010414521893    5.4183373950551 
 O    6.3385052372675    8.0729958701448    8.5774022601613 
Ce    2.4728534297500    1.5545124405154    1.3810147549440 
Ce    0.5201319280300    2.6154470264535    4.5185055984233 
Ce    0.6540266791850    0.4296229468976    7.9731337158430 
Ce    6.2990966197500    1.5545124405154    1.3810147549440 
Ce    4.3802635527200    2.6811558664067    4.4768493357751 
Ce    4.4349699115425    0.2512114331217    7.9635039755038 
Ce   10.1252250247500    1.5545124405154    1.3810147549440 
Ce    8.1692699147950    2.5917880268520    4.5528473459839 
Ce    8.2717969672525    0.3170465196170    7.7762225536474 
Ce    0.5597892272500    4.8680368382734    1.3810147549440 
Ce   -1.3631333997600    5.9851658476058    4.5959481723284 
Ce   -1.1579671499000    3.6436573158192    7.8292257010380 
Ce    4.3860324172500    4.8680368382734    1.3810147549440 
Ce    2.4082039924800    5.8935720926425    4.4320509817141 
Ce    8.2121608222500    4.8680368382734    1.3810147549440 
Ce    6.3839264652625    5.8453293126676    4.5918640237444 
Ce    6.4297712499075    3.5923587730871    7.8808025328132 
Ce   -1.3533323677500    8.1816606427574    1.3810147549440 
Ce   -3.4000005710000    9.2893716600551    4.5930392001479 
Ce   -3.1660464727100    7.0594706381909    7.7907304621864 
Ce    2.4729108222500    8.1816606427574    1.3810147549440 
Ce    0.4294749072075    9.2380083041376    4.5546064609730 
Ce    0.4993409783725    6.8847504937782    7.8547755232691 
Ce    6.2990392272500    8.1816606427574    1.3810147549440 
Ce    4.3455417789300    9.1924204790008    4.5184298688880 
Ce    4.4166837427625    7.1038924224318    7.6793138395489 
Fe    3.0766281542150    3.9869381650881    7.2668054804184 
81
FORCE:  1.477789  ...  ENERGY:  -643.09781155
 O    0.5597892272500    0.4500043079294    0.5999968967040 
 O    2.4581835050025    1.5790085441565    3.7014147059569 
 O    0.6455170358175    2.6470248652548    7.0052244884736 
 O    0.5597892272500    2.6590205731014    2.1620326131840 
 O    0.5191050614200    0.3278491479381    5.3214895839263 
 O    2.4803352308350    1.0544461101186    8.7047344026705 
 O    4.3860324172500    0.4500043079294    0.5999968967040 
 O    6.3217304425825    1.4604065781793    3.7603361621530 
 O    4.2212180880375    2.5272443331342    7.0613843257417 
 O    4.3860324172500    2.6590205731014    2.1620326131840 
 O    4.3806824605775    0.4801777285058    5.2813695815804 
 O    6.3381981300000    1.4764996324582    8.6347749104995 
 O    8.2121608222500    0.4500043079294    0.5999968967040 
 O   10.1644134272450    1.5333314517797    3.7455686746646 
 O    8.1401837401500    2.3737087560994    7.0350915785210 
 O    8.2121608222500    2.6590205731014    2.1620326131840 
 O    8.1074427537125    0.3986081477923    5.5584281394578 
 O   10.2346392919925    1.4933837654626    8.6951685306142 
 O   -1.3532749752500    3.7635287056874    0.5999968967040 
 O    0.5855578858250    4.7852022075649    3.7167798180915 
 O   -1.3752144636175    5.8992616366051    6.8426735500204 
 O   -1.3533323677500    5.9726443775854    2.1620326131840 
 O   -1.3393561461500    3.6749282860574    5.4306370577164 
 O    0.1020443241400    5.0863733736329    9.0302737773142 
 O    2.4729682147500    3.7635287056874    0.5999968967040 
 O    4.3755864083250    4.9461832489703    3.7384875069101 
 O    2.3648282331850    5.6292724717555    7.0154415889135 
 O    2.4729108222500    5.9726443775854    2.1620326131840 
 O    2.5316592774550    3.8788516414007    5.3839226551714 
 O    4.4189287651850    4.6522379578152    8.3415855053970 
 O    6.2990966197500    3.7635287056874    0.5999968967040 
 O    8.1770469429000    4.7493688662302    3.7247129431183 
 O    6.2760198416025    6.0129171238965    7.0293623654528 
 O    6.2990392272500    5.9726443775854    2.1620326131840 
 O    6.3348387747975    3.5662213649930    5.5440349657268 
 O    8.1644006203100    4.8312213584858    8.4595999497488 
 O   -3.2663965702500    7.0771525101714    0.5999968967040 
 O   -1.4091870931050    8.1625902576281    3.7098740600137 
 O   -2.9797461132725    9.0372578126748    6.8138434071644 
 O   -3.2663965702500    9.2861687753434    2.1620326131840 
 O   -3.3240022259950    6.9031126059848    5.2892878800416 
 O   -1.2337337439900    8.0550353611113    8.7377616041104 
 O    0.5598466197500    7.0771525101714    0.5999968967040 
 O    2.4515341821300    8.1444974382423    3.5891842189156 
 O    0.4990895992225    9.2638248273202    7.0762546867856 
 O    0.5598466197500    9.2861687753434    2.1620326131840 
 O    0.5081471113950    7.0865699057657    5.4422836671859 
 O    2.4543081338325    8.0033884972113    8.6808780023377 
 O    4.3859750247500    7.0771525101714    0.5999968967040 
 O    6.3417233495275    8.0440263644270    3.7864642204444 
 O    4.4771845057775    9.1933868117842    6.8565014894486 
 O    4.3859750247500    9.2861687753434    2.1620326131840 
 O    4.2222765205225    6.9970749250085    5.4217080436799 
 O    6.3419365626650    8.0753294430377    8.5804715873518 
Ce    2.4728534297500    1.5545124405154    1.3810147549440 
Ce    0.5211929431775    2.6164211129615    4.5164057005253 
Ce    0.6537951578400    0.4300734581799    7.9738841681659 
Ce    6.2990966197500    1.5545124405154    1.3810147549440 
Ce    4.3804405511900    2.6809349846616    4.4748593825638 
Ce    4.4377369761450    0.2513892717545    7.9606809974041 
Ce   10.1252250247500    1.5545124405154    1.3810147549440 
Ce    8.1670980678100    2.5904836117934    4.5533500806099 
Ce    8.2736559677200    0.3181182235300    7.7759073180515 
Ce    0.5597892272500    4.8680368382734    1.3810147549440 
Ce   -1.3604977639825    5.9859369455794    4.5973842962874 
Ce   -1.1584180827725    3.6407404242582    7.8301059428356 
Ce    4.3860324172500    4.8680368382734    1.3810147549440 
Ce    2.4093272784900    5.8944315631955    4.4330760676531 
Ce    8.2121608222500    4.8680368382734    1.3810147549440 
Ce    6.3819887222850    5.8439697268761    4.5917618344919 
Ce    6.4280509097200    3.5930248975580    7.8827418476002 
Ce   -1.3533323677500    8.1816606427574    1.3810147549440 
Ce   -3.3971823122875    9.2870100544655    4.5941067128747 
Ce   -3.1672377688325    7.0600522669447    7.7927429973976 
Ce    2.4729108222500    8.1816606427574    1.3810147549440 
Ce    0.4292529130175    9.2390417364611    4.5548074179628 
Ce    0.4979299837600    6.8832366287480    7.8549354220771 
Ce    6.2990392272500    8.1816606427574    1.3810147549440 
Ce    4.3469946126750    9.1935714100744    4.5191098379988 
Ce    4.4150885182250    7.1050404707103    7.6783487441756 
Fe    3.0812576054425    3.9872977192161    7.2660477288632 
81
FORCE:  1.483119  ...  ENERGY:  -643.09401544
 O    0.5597892272500    0.4500043079294    0.5999968967040 
 O    2.4640442549250    1.5809544308179    3.7011699535731 
 O    0.6403882124475    2.6528168975519    7.0045344829184 
 O    0.5597892272500    2.6590205731014    2.1620326131840 
 O    0.5094498637525    0.3273206023760    5.3299325147104 
 O    2.4724165006475    1.0604485864547    8.7070427848917 
 O    4.3860324172500    0.4500043079294    0.5999968967040 
 O    6.3198704664425    1.4560201569879    3.7650427983933 
 O    4.2169156592750    2.5278687067802    7.0644997293363 
 O    4.3860324172500    2.6590205731014    2.1620326131840 
 O    4.3818186599000    0.4825423162972    5.2786994311574 
 O    6.3445495857975    1.4771015401841    8.6423556194658 
 O    8.2121608222500    0.4500043079294    0.5999968967040 
 O   10.1580588722525    1.5335240026079    3.7408168744243 
 O    8.1414978562225    2.3770002122040    7.0329469728250 
 O    8.2121608222500    2.6590205731014    2.1620326131840 
 O    8.0965803622000    0.3957296272276    5.5610766202849 
 O   10.2299290321250    1.4988679351293    8.7054702565288 
 O   -1.3532749752500    3.7635287056874    0.5999968967040 
 O    0.5900191196350    4.7786829156603    3.7176183174042 
 O   -1.3721794334325    5.9004612769745    6.8500665318555 
 O   -1.3533323677500    5.9726443775854    2.1620326131840 
 O   -1.3394859105925    3.6741212028490    5.4262426917587 
 O    0.1103937276475    5.0847032412294    9.0315452123440 
 O    2.4729682147500    3.7635287056874    0.5999968967040 
 O    4.3714988570825    4.9569652006925    3.7410698384443 
 O    2.3704505746625    5.6299867090818    7.0106017416834 
 O    2.4729108222500    5.9726443775854    2.1620326131840 
 O    2.5309850303650    3.8763074256555    5.3832465637778 
 O    4.4212648121125    4.6538687251553    8.3448028701431 
 O    6.2990966197500    3.7635287056874    0.5999968967040 
 O    8.1771069754550    4.7391335520943    3.7208603170594 
 O    6.2788150285300    6.0063120439874    7.0280797534736 
 O    6.2990392272500    5.9726443775854    2.1620326131840 
 O    6.3345280518025    3.5616941838775    5.5448413027971 
 O    8.1672548641200    4.8286037805768    8.4636856950399 
 O   -3.2663965702500    7.0771525101714    0.5999968967040 
 O   -1.4108266820450    8.1619373542517    3.7070720672069 
 O   -2.9832391356075    9.0393487337495    6.8189765922935 
 O   -3.2663965702500    9.2861687753434    2.1620326131840 
 O   -3.3231170040750    6.9071006050184    5.2859877146289 
 O   -1.2387396326250    8.0555751396335    8.7361375249192 
 O    0.5598466197500    7.0771525101714    0.5999968967040 
 O    2.4607837296075    8.1403494937865    3.5840444188573 
 O    0.4974986791225    9.2639417296300    7.0814626890459 
 O    0.5598466197500    9.2861687753434    2.1620326131840 
 O    0.5003572847625    7.0905685413191    5.4365524012087 
 O    2.4571516452450    8.0033247774999    8.6705041965039 
 O    4.3859750247500    7.0771525101714    0.5999968967040 
 O    6.3451625376975    8.0390778976067    3.7827044314966 
 O    4.4838511037925    9.1986329023421    6.8616702583352 
 O    4.3859750247500    9.2861687753434    2.1620326131840 
 O    4.2228685241600    6.9931635685605    5.4249267770320 
 O    6.3454649387800    8.0781613418480    8.5836723007241 
Ce    2.4728534297500    1.5545124405154    1.3810147549440 
Ce    0.5222586071175    2.6173899309131    4.5143808478595 
Ce    0.6535204199425    0.4305194961594    7.9745712084080 
Ce    6.2990966197500    1.5545124405154    1.3810147549440 
Ce    4.3806313812525    2.6806149944106    4.4729218925849 
Ce    4.4405408293400    0.2516214858664    7.9578007659508 
Ce   10.1252250247500    1.5545124405154    1.3810147549440 
Ce    8.1649689782375    2.5891293939651    4.5539230703470 
Ce    8.2754726699150    0.3191896292228    7.7756420365769 
Ce    0.5597892272500    4.8680368382734    1.3810147549440 
Ce   -1.3578523140875    5.9866644040003    4.5988058217817 
Ce   -1.1589050007425    3.6378409288742    7.8310167501686 
Ce    4.3860324172500    4.8680368382734    1.3810147549440 
Ce    2.4104777111525    5.8954167832569    4.4341780236324 
Ce    8.2121608222500    4.8680368382734    1.3810147549440 
Ce    6.3799639148850    5.8426502019952    4.5916842801485 
Ce    6.4263198371350    3.5936947000778    7.8846638267104 
Ce   -1.3533323677500    8.1816606427574    1.3810147549440 
Ce   -3.3942329117125    9.2845992425466    4.5951404666520 
Ce   -3.1685166459100    7.0605440320182    7.7947744649927 
Ce    2.4729108222500    8.1816606427574    1.3810147549440 
Ce    0.4290780380700    9.2401092652917    4.5550610662859 
Ce    0.4965457340525    6.8817440367571    7.8551610139760 
Ce    6.2990392272500    8.1816606427574    1.3810147549440 
Ce    4.3484579492475    9.1947397373251    4.5198299528874 
Ce    4.4134935232575    7.1061604862922    7.6774324624184 
Fe    3.0860725492300    3.9876145284518    7.2652461819140 
81
FORCE:  1.485892  ...  ENERGY:  -643.09174614
 O    0.5597892272500    0.4500043079294    0.5999968967040 
 O    2.4698472679925    1.5830283533425    3.7011907107650 
 O    0.6353495526950    2.6585024652455    7.0037183375046 
 O    0.5597892272500    2.6590205731014    2.1620326131840 
 O    0.4999491666950    0.3272147342128    5.3385843860197 
 O    2.4646906666525    1.0663561293674    8.7097574150117 
 O    4.3860324172500    0.4500043079294    0.5999968967040 
 O    6.3179183753400    1.4521515454321    3.7694328304318 
 O    4.2121542626900    2.5290611898653    7.0672898608906 
 O    4.3860324172500    2.6590205731014    2.1620326131840 
 O    4.3828904648375    0.4850570082448    5.2760856216838 
 O    6.3507565272800    1.4777368485700    8.6503179414219 
 O    8.2121608222500    0.4500043079294    0.5999968967040 
 O   10.1512690525400    1.5335087933789    3.7360379301638 
 O    8.1435271976300    2.3812087947627    7.0306912819371 
 O    8.2121608222500    2.6590205731014    2.1620326131840 
 O    8.0860696719275    0.3923101352599    5.5625636107690 
 O   10.2252568808775    1.5042147247006    8.7156980777162 
 O   -1.3532749752500    3.7635287056874    0.5999968967040 
 O    0.5942514147625    4.7723408659483    3.7185163510806 
 O   -1.3690243381375    5.9017474011955    6.8578066834278 
 O   -1.3533323677500    5.9726443775854    2.1620326131840 
 O   -1.3397448655525    3.6733126285397    5.4216270678214 
 O    0.1185885157600    5.0829177970237    9.0321266418185 
 O    2.4729682147500    3.7635287056874    0.5999968967040 
 O    4.3676850680650    4.9671246674964    3.7435388037766 
 O    2.3762731011800    5.6308496588702    7.0060344751601 
 O    2.4729108222500    5.9726443775854    2.1620326131840 
 O    2.5306582374700    3.8727430980880    5.3827014023638 
 O    4.4228219854225    4.6557159009378    8.3480441854951 
 O    6.2990966197500    3.7635287056874    0.5999968967040 
 O    8.1772229656975    4.7289512217434    3.7171347432630 
 O    6.2816503902075    5.9994137142367    7.0262234674542 
 O    6.2990392272500    5.9726443775854    2.1620326131840 
 O    6.3338163274100    3.5576414710652    5.5451517482717 
 O    8.1704030723150    4.8257551814366    8.4680770956844 
 O   -3.2663965702500    7.0771525101714    0.5999968967040 
 O   -1.4124485367025    8.1611841494888    3.7044979473090 
 O   -2.9871671930925    9.0417342963600    6.8244252411194 
 O   -3.2663965702500    9.2861687753434    2.1620326131840 
 O   -3.3218519585900    6.9114106818443    5.2829875020444 
 O   -1.2442609633025    8.0560364862489    8.7345378525361 
 O    0.5598466197500    7.0771525101714    0.5999968967040 
 O    2.4700411972500    8.1363003596163    3.5797549793643 
 O    0.4959734734350    9.2636863537509    7.0864149900740 
 O    0.5598466197500    9.2861687753434    2.1620326131840 
 O    0.4928582085350    7.0943685622339    5.4304071318983 
 O    2.4604398337475    8.0033539036707    8.6594536149734 
 O    4.3859750247500    7.0771525101714    0.5999968967040 
 O    6.3480649338150    8.0343935544574    3.7787774445085 
 O    4.4902460631050    9.2040800927068    6.8673048094842 
 O    4.3859750247500    9.2861687753434    2.1620326131840 
 O    4.2235851269150    6.9893523146857    5.4279970166266 
 O    6.3490814697750    8.0814632356588    8.5869913985206 
Ce    2.4728534297500    1.5545124405154    1.3810147549440 
Ce    0.5233262797950    2.6183522874275    4.5124328652341 
Ce    0.6532009732875    0.4309624525305    7.9751971175794 
Ce    6.2990966197500    1.5545124405154    1.3810147549440 
Ce    4.3808358133375    2.6801966909075    4.4710368658383 
Ce    4.4433784867175    0.2519098647786    7.9548653340531 
Ce   10.1252250247500    1.5545124405154    1.3810147549440 
Ce    8.1628836791425    2.5877243792999    4.5545669994982 
Ce    8.2772483364725    0.3202655082183    7.7754296745366 
Ce    0.5597892272500    4.8680368382734    1.3810147549440 
Ce   -1.3551991162050    5.9873448430397    4.6002134331144 
Ce   -1.1594298551550    3.6349584320404    7.8319608602489 
Ce    4.3860324172500    4.8680368382734    1.3810147549440 
Ce    2.4116548887200    5.8965272557930    4.4353566215510 
Ce    8.2121608222500    4.8680368382734    1.3810147549440 
Ce    6.3778548552950    5.8413696445509    4.5916309045121 
Ce    6.4245825087675    3.5943689759003    7.8865707511540 
Ce   -1.3533323677500    8.1816606427574    1.3810147549440 
Ce   -3.3911559850025    9.2821395225184    4.5961425143889 
Ce   -3.1698849978950    7.0609442434971    7.7968280583857 
Ce    2.4729108222500    8.1816606427574    1.3810147549440 
Ce    0.4289505119350    9.2412110894426    4.5553660373363 
Ce    0.4951878275025    6.8802686421298    7.8554550361779 
Ce    6.2990392272500    8.1816606427574    1.3810147549440 
Ce    4.3499333382450    9.1959259577864    4.5205895292507 
Ce    4.4119009961675    7.1072525685840    7.6765659066814 
Fe    3.0910690828875    3.9878955512662    7.2644024362780 
81
FORCE:  1.486936  ...  ENERGY:  -643.09116035
 O    0.5597892272500    0.4500043079294    0.5999968967040 
 O    2.4755618392175    1.5852073487764    3.7014808552498 
 O    0.6304114446025    2.6640637745316    7.0027653314848 
 O    0.5597892272500    2.6590205731014    2.1620326131840 
 O    0.4906796466275    0.3275198134549    5.3473852072886 
 O    2.4572068568300    1.0721605875052    8.7128666598790 
 O    4.3860324172500    0.4500043079294    0.5999968967040 
 O    6.3158731362100    1.4488255951936    3.7734686216017 
 O    4.2069652345875    2.5307943461331    7.0697558609097 
 O    4.3860324172500    2.6590205731014    2.1620326131840 
 O    4.3838804280700    0.4876975491075    5.2735548409778 
 O    6.3568033436875    1.4784039671082    8.6586361009536 
 O    8.2121608222500    0.4500043079294    0.5999968967040 
 O   10.1440730087125    1.5332738952853    3.7312580734992 
 O    8.1462726252600    2.3863089562468    7.0283283835745 
 O    8.2121608222500    2.6590205731014    2.1620326131840 
 O    8.0759439131525    0.3883372460486    5.5628893390113 
 O   10.2206259374450    1.5094112113023    8.7258280435703 
 O   -1.3532749752500    3.7635287056874    0.5999968967040 
 O    0.5982438092400    4.7662153240854    3.7194700414034 
 O   -1.3657622632225    5.9031132496107    6.8658486126364 
 O   -1.3533323677500    5.9726443775854    2.1620326131840 
 O   -1.3401299692275    3.6725205557470    5.4167952041265 
 O    0.1266356329700    5.0810421909175    9.0320068887882 
 O    2.4729682147500    3.7635287056874    0.5999968967040 
 O    4.3641744262325    4.9766125424595    3.7458747862200 
 O    2.3822804889400    5.6318759339094    7.0017416141519 
 O    2.4729108222500    5.9726443775854    2.1620326131840 
 O    2.5306916399050    3.8681632314077    5.3822908205459 
 O    4.4235905857825    4.6577791869426    8.3513053456351 
 O    6.2990966197500    3.7635287056874    0.5999968967040 
 O    8.1773718992350    4.7188865889561    3.7135676996686 
 O    6.2845174325450    5.9922447993777    7.0237989818189 
 O    6.2990392272500    5.9726443775854    2.1620326131840 
 O    6.3326763975750    3.5540785351919    5.5449628806354 
 O    8.1738246983800    4.8226795373341    8.4727698177631 
 O   -3.2663965702500    7.0771525101714    0.5999968967040 
 O   -1.4140548953850    8.1603440632474    3.7021678954919 
 O   -2.9915239151600    9.0444346800718    6.8301574195007 
 O   -3.2663965702500    9.2861687753434    2.1620326131840 
 O   -3.3202003746175    6.9160212652029    5.2802890670961 
 O   -1.2502846505325    8.0564241724803    8.7329678332843 
 O    0.5598466197500    7.0771525101714    0.5999968967040 
 O    2.4792859237575    8.1323643503004    3.5763626611435 
 O    0.4945078985550    9.2630545246004    7.0911038344356 
 O    0.5598466197500    9.2861687753434    2.1620326131840 
 O    0.4856770293650    7.0979579402963    5.4238690726487 
 O    2.4641760854975    8.0034751798764    8.6477376627968 
 O    4.3859750247500    7.0771525101714    0.5999968967040 
 O    6.3504215846500    8.0300101154677    3.7747108597022 
 O    4.4963262245550    9.2097061157715    6.8733937378451 
 O    4.3859750247500    9.2861687753434    2.1620326131840 
 O    4.2244428578275    6.9856858964106    5.4309228682819 
 O    6.3527753084675    8.0852030160976    8.5904142822767 
Ce    2.4728534297500    1.5545124405154    1.3810147549440 
Ce    0.5243932063700    2.6193065919971    4.5105631212551 
Ce    0.6528352108850    0.4314037189872    7.9757637204883 
Ce    6.2990966197500    1.5545124405154    1.3810147549440 
Ce    4.3810536178750    2.6796808694063    4.4692040742229 
Ce    4.4462461029800    0.2522562972187    7.9518776670241 
Ce   10.1252250247500    1.5545124405154    1.3810147549440 
Ce    8.1608437201225    2.5862678719505    4.5552823242656 
Ce    8.2789843448125    0.3213508308528    7.7752727410417 
Ce    0.5597892272500    4.8680368382734    1.3810147549440 
Ce   -1.3525405808200    5.9879750816826    4.6016073583865 
Ce   -1.1599948843175    3.6320928343500    7.8329407821879 
Ce    4.3860324172500    4.8680368382734    1.3810147549440 
Ce    2.4128583520525    5.8977621855501    4.4366127738131 
Ce    8.2121608222500    4.8680368382734    1.3810147549440 
Ce    6.3756647001025    5.8401269610691    4.5916019356839 
Ce    6.4228438029800    3.5950484208725    7.8884649019411 
Ce   -1.3533323677500    8.1816606427574    1.3810147549440 
Ce   -3.3879548609225    9.2796312920080    4.5971146808935 
Ce   -3.1713439726375    7.0612509132468    7.7989065147888 
Ce    2.4729108222500    8.1816606427574    1.3810147549440 
Ce    0.4288705641825    9.2423474077275    4.5557205063058 
Ce    0.4938555180075    6.8788067668172    7.8558193134909 
Ce    6.2990392272500    8.1816606427574    1.3810147549440 
Ce    4.3514220996950    9.1971303696787    4.5213874265837 
Ce    4.4103138065800    7.1083163199589    7.6757502174696 
Fe    3.0962403767075    3.9881482431637    7.2635171762582 
81
FORCE:  1.485778  ...  ENERGY:  -643.09224113
 O    0.5597892272500    0.4500043079294    0.5999968967040 
 O    2.4811547383425    1.5874664660315    3.7020419837344 
 O    0.6255847353525    2.6694826339793    7.0016652003136 
 O    0.5597892272500    2.6590205731014    2.1620326131840 
 O    0.4817167172950    0.3282233148548    5.3562722507392 
 O    2.4500148878700    1.0778532130764    8.7163593425442 
 O    4.3860324172500    0.4500043079294    0.5999968967040 
 O    6.3137348638375    1.4460649710059    3.7771175534587 
 O    4.2013882905775    2.5330333832295    7.0719000104037 
 O    4.3860324172500    2.6590205731014    2.1620326131840 
 O    4.3847710448850    0.4904369996626    5.2711360578678 
 O    6.3626773512775    1.4791025975785    8.6672854631518 
 O    8.2121608222500    0.4500043079294    0.5999968967040 
 O   10.1365033971025    1.5328082741807    3.7265044484508 
 O    8.1497298346750    2.3922671965898    7.0258635240605 
 O    8.2121608222500    2.6590205731014    2.1620326131840 
 O    8.0662388987950    0.3838034046824    5.5620645257592 
 O   10.2160396453775    1.5144418874850    8.7358341505759 
 O   -1.3532749752500    3.7635287056874    0.5999968967040 
 O    0.6019875220150    4.7603459533555    3.7204755106555 
 O   -1.3624071550650    5.9045515655292    6.8741444182690 
 O   -1.3533323677500    5.9726443775854    2.1620326131840 
 O   -1.3406370319650    3.6717635735285    5.4117537156035 
 O    0.1345421959475    5.0791018710327    9.0311770573138 
 O    2.4729682147500    3.7635287056874    0.5999968967040 
 O    4.3609940782375    4.9853818062003    3.7480588533907 
 O    2.3884560941175    5.6330786558873    6.9977231586588 
 O    2.4729108222500    5.9726443775854    2.1620326131840 
 O    2.5310954535350    3.8625811461159    5.3820177836369 
 O    4.4235676287825    4.6600581855429    8.3545842976539 
 O    6.2990966197500    3.7635287056874    0.5999968967040 
 O    8.1775307042825    4.7090064550522    3.7101876989025 
 O    6.2874073170975    5.9848291570248    7.0208147363051 
 O    6.2990392272500    5.9726443775854    2.1620326131840 
 O    6.3310829522050    3.5510195914195    5.5442760684943 
 O    8.1774959818200    4.8193806257251    8.4777583868518 
 O   -3.2663965702500    7.0771525101714    0.5999968967040 
 O   -1.4156477094375    8.1594308136556    3.7000971945231 
 O   -2.9963020703550    9.0474695674166    6.8361398246899 
 O   -3.2663965702500    9.2861687753434    2.1620326131840 
 O   -3.3181582920750    6.9209085968867    5.2778951469961 
 O   -1.2567941078825    8.0567432680707    8.7314329415880 
 O    0.5598466197500    7.0771525101714    0.5999968967040 
 O    2.4884950669150    8.1285551839668    3.5739087504780 
 O    0.4930970761200    9.2620439558239    7.0955226072013 
 O    0.5598466197500    9.2861687753434    2.1620326131840 
 O    0.4788410660825    7.1013241502588    5.4169626302679 
 O    2.4683610892050    8.0036892025575    8.6353691136305 
 O    4.3859750247500    7.0771525101714    0.5999968967040 
 O    6.3522251439625    8.0259641623128    3.7705341021081 
 O    4.5020464776375    9.2154865174816    6.8799242697614 
 O    4.3859750247500    9.2861687753434    2.1620326131840 
 O    4.2254585902925    6.9822090467621    5.4337093502200 
 O    6.3565357798525    8.0893452943701    8.5939258973257 
Ce    2.4728534297500    1.5545124405154    1.3810147549440 
Ce    0.5254563450400    2.6202509558941    4.5087741250337 
Ce    0.6524225588100    0.4318446872237    7.9762730700436 
Ce    6.2990966197500    1.5545124405154    1.3810147549440 
Ce    4.3812845079025    2.6790684245674    4.4674239739409 
Ce    4.4491390293350    0.2526620754742    7.9488398177729 
Ce   10.1252250247500    1.5545124405154    1.3810147549440 
Ce    8.1588507081675    2.5847592754767    4.5560692727501 
Ce    8.2806820149625    0.3224506668692    7.7751728327993 
Ce    0.5597892272500    4.8680368382734    1.3810147549440 
Ce   -1.3498794627725    5.9885513424732    4.6029880538000 
Ce   -1.1606020969675    3.6292446328367    7.8339585688945 
Ce    4.3860324172500    4.8680368382734    1.3810147549440 
Ce    2.4140877567950    5.8991199820206    4.4379473928226 
Ce    8.2121608222500    4.8680368382734    1.3810147549440 
Ce    6.3733968928575    5.8389217539231    4.5915973736637 
Ce    6.4211087129200    3.5957341284684    7.8903471914756 
Ce   -1.3533323677500    8.1816606427574    1.3810147549440 
Ce   -3.3846333273775    9.2770751474556    4.5980587909739 
Ce   -3.1728950049500    7.0614623513530    7.8010123433131 
Ce    2.4729108222500    8.1816606427574    1.3810147549440 
Ce    0.4288385965600    9.2435183195531    4.5561219640834 
Ce    0.4925484612125    6.8773548321773    7.8562561269250 
Ce    6.2990392272500    8.1816606427574    1.3810147549440 
Ce    4.3529249223075    9.1983537682555    4.5222227324823 
Ce    4.4087344223725    7.1093514421968    7.6749860790861 
Fe    3.1015766739650    3.9883815507496    7.2625904018546 
81
FORCE:  1.482789  ...  ENERGY:  -643.09497264
 O    0.5597892272500    0.4500043079294    0.5999968967040 
 O    2.4865913002975    1.5897792629186    3.7028713590067 
 O    0.6208798129875    2.6747398580905    7.0004085918495 
 O    0.5597892272500    2.6590205731014    2.1620326131840 
 O    0.4731318897525    0.3293137072323    5.3651832447959 
 O    2.4431621659775    1.0834258547292    8.7202240579566 
 O    4.3860324172500    0.4500043079294    0.5999968967040 
 O    6.3115052226050    1.4438904488746    3.7803454108512 
 O    4.1954699759775    2.5357360532960    7.0737264151908 
 O    4.3860324172500    2.6590205731014    2.1620326131840 
 O    4.3855464749525    0.4932469295865    5.2688589254850 
 O    6.3683654071675    1.4798330382012    8.6762309004609 
 O    8.2121608222500    0.4500043079294    0.5999968967040 
 O   10.1285952271350    1.5321000012580    3.7218048833418 
 O    8.1538911352800    2.3990423614071    7.0233030902232 
 O    8.2121608222500    2.6590205731014    2.1620326131840 
 O    8.0569899252425    0.3787075176875    5.5601094720025 
 O   10.2114996690575    1.5192915440196    8.7456908514201 
 O   -1.3532749752500    3.7635287056874    0.5999968967040 
 O    0.6054754364175    4.7547747033968    3.7215300216247 
 O   -1.3589739357150    5.9060547940398    6.8826434619017 
 O   -1.3533323677500    5.9726443775854    2.1620326131840 
 O   -1.3412613475800    3.6710607679757    5.4065105857877 
 O    0.1423140013350    5.0771235777786    9.0296319010721 
 O    2.4729682147500    3.7635287056874    0.5999968967040 
 O    4.3581697359200    4.9933881233190    3.7500720729050 
 O    2.3947805754400    5.6344696542042    6.9939768276705 
 O    2.4729108222500    5.9726443775854    2.1620326131840 
 O    2.5318772541700    3.8560206998268    5.3818845726470 
 O    4.4227571892900    4.6625510080108    8.3578799010464 
 O    6.2990966197500    3.7635287056874    0.5999968967040 
 O    8.1776764812325    4.6993797088929    3.7070246221968 
 O    6.2903118941300    5.9771928317403    7.0172825921653 
 O    6.2990392272500    5.9726443775854    2.1620326131840 
 O    6.3290145838975    3.5484766679617    5.5430965581716 
 O    8.1813892594500    4.8158630193188    8.4830359599202 
 O   -3.2663965702500    7.0771525101714    0.5999968967040 
 O   -1.4172284136725    8.1584588146888    3.6983004428673 
 O   -3.0014928202325    9.0508564539782    6.8423368729296 
 O   -3.2663965702500    9.2861687753434    2.1620326131840 
 O   -3.3157256535700    6.9260477258075    5.2758084789566 
 O   -1.2637683296975    8.0570001350507    8.7299384237705 
 O    0.5598466197500    7.0771525101714    0.5999968967040 
 O    2.4976445218725    8.1248851870496    3.5724279187211 
 O    0.4917386530375    9.2606547468281    7.0996644653409 
 O    0.5598466197500    9.2861687753434    2.1620326131840 
 O    0.4723789575450    7.1044549650942    5.4097167735842 
 O    2.4729928935250    8.0039983574753    8.6223682684646 
 O    4.3859750247500    7.0771525101714    0.5999968967040 
 O    6.3534713647075    8.0222904873468    3.7662777372615 
 O    4.5073603918200    9.2213953526818    6.8868822629705 
 O    4.3859750247500    9.2861687753434    2.1620326131840 
 O    4.2266489681350    6.9789645106322    5.4363607963603 
 O    6.3603504297575    8.0938508048193    8.5975095922938 
Ce    2.4728534297500    1.5545124405154    1.3810147549440 
Ce    0.5265128261800    2.6211833909840    4.5070681575799 
Ce    0.6519626153150    0.4322866495275    7.9767269910535 
Ce    6.2990966197500    1.5545124405154    1.3810147549440 
Ce    4.3815283112425    2.6783602510514    4.4656965649922 
Ce    4.4520516987100    0.2531284918326    7.9457554359157 
Ce   10.1252250247500    1.5545124405154    1.3810147549440 
Ce    8.1569067668000    2.5831982916584    4.5569273887497 
Ce    8.2823422652025    0.3235699866040    7.7751313184155 
Ce    0.5597892272500    4.8680368382734    1.3810147549440 
Ce   -1.3472191482200    5.9890697485493    4.6043552912540 
Ce   -1.1612535592350    3.6264148215676    7.8350158170759 
Ce    4.3860324172500    4.8680368382734    1.3810147549440 
Ce    2.4153421272750    5.9005985576631    4.4393604785796 
Ce    8.2121608222500    4.8680368382734    1.3810147549440 
Ce    6.3710552788575    5.8377537248926    4.5916169903505 
Ce    6.4193826908750    3.5964271921621    7.8922189883637 
Ce   -1.3533323677500    8.1816606427574    1.3810147549440 
Ce   -3.3811952870575    9.2744720829286    4.5989759851351 
Ce   -3.1745389557200    7.0615770667148    7.8031471406657 
Ce    2.4729108222500    8.1816606427574    1.3810147549440 
Ce    0.4288547238525    9.2447238249193    4.5565681296590 
Ce    0.4912664275475    6.8759096571947    7.8567673012885 
Ce    6.2990392272500    8.1816606427574    1.3810147549440 
Ce    4.3544427817550    9.1995962529238    4.5230943064415 
Ce    4.4071658279550    7.1103573388572    7.6742744039349 
Fe    3.1070658074500    3.9886056135101    7.2616223411682 
81
FORCE:  1.477509  ...  ENERGY:  -643.09916788
 O    0.5597892272500    0.4500043079294    0.5999968967040 
 O    2.4918353104150    1.5921172097074    3.7039625942386 
 O    0.6163079838300    2.6798154661133    6.9989872944562 
 O    0.5597892272500    2.6590205731014    2.1620326131840 
 O    0.4649930593275    0.3307791611870    5.3740550054788 
 O    2.4366947199375    1.0888703611122    8.7244480324598 
 O    4.3860324172500    0.4500043079294    0.5999968967040 
 O    6.3091870247450    1.4423194249769    3.7831186629308 
 O    4.1892657319425    2.5388514600889    7.0752407777962 
 O    4.3860324172500    2.6590205731014    2.1620326131840 
 O    4.3861918536150    0.4960962245738    5.2667562903748 
 O    6.3738559180725    1.4805958854165    8.6854327233053 
 O    8.2121608222500    0.4500043079294    0.5999968967040 
 O   10.1203867796075    1.5311388376243    3.7171878907984 
 O    8.1587420641650    2.4065841508952    7.0206541531941 
 O    8.2121608222500    2.6590205731014    2.1620326131840 
 O    8.0482345271900    0.3730553506539    5.5570554275796 
 O   10.2070061232700    1.5239442758300    8.7553691772744 
 O   -1.3532749752500    3.7635287056874    0.5999968967040 
 O    0.6087019853750    4.7495438220679    3.7226290122909 
 O   -1.3554793637825    5.9076137897236    6.8912921397968 
 O   -1.3533323677500    5.9726443775854    2.1620326131840 
 O   -1.3419960289725    3.6704310263664    5.4010758511234 
 O    0.1499571901300    5.0751326598703    9.0273693671539 
 O    2.4729682147500    3.7635287056874    0.5999968967040 
 O    4.3557249875975    5.0005900412110    3.7518957404800 
 O    2.4012325255050    5.6360587701261    6.9904987434701 
 O    2.4729108222500    5.9726443775854    2.1620326131840 
 O    2.5330408871075    3.8485163866744    5.3818930123844 
 O    4.4211705736275    4.6652547715513    8.3611926120146 
 O    6.2990966197500    3.7635287056874    0.5999968967040 
 O    8.1777871913650    4.6900779233209    3.7041053854708 
 O    6.2932233008700    5.9693621663063    7.0132192007731 
 O    6.2990392272500    5.9726443775854    2.1620326131840 
 O    6.3264532714075    3.5464599043046    5.5414341580107 
 O    8.1854738262825    4.8121335771795    8.4885947815339 
 O   -3.2663965702500    7.0771525101714    0.5999968967040 
 O   -1.4187976968000    8.1574433749827    3.6967899579791 
 O   -3.0070854897875    9.0546108472057    6.8487125242601 
 O   -3.2663965702500    9.2861687753434    2.1620326131840 
 O   -3.3129063617925    6.9314128062164    5.2740318001897 
 O   -1.2711840720150    8.0572012348574    8.7284897542560 
 O    0.5598466197500    7.0771525101714    0.5999968967040 
 O    2.5067086915750    8.1213654931021    3.5719479941960 
 O    0.4904317684200    9.2588889851541    7.1035241625311 
 O    0.5598466197500    9.2861687753434    2.1620326131840 
 O    0.4663222696275    7.1073368654877    5.4021648053451 
 O    2.4780651852825    8.0044066208990    8.6087634118241 
 O    4.3859750247500    7.0771525101714    0.5999968967040 
 O    6.3541576642225    8.0190233858900    3.7619771208189 
 O    4.5122194130475    9.2274043898618    6.8942503817955 
 O    4.3859750247500    9.2861687753434    2.1620326131840 
 O    4.2280310943200    6.9759936412189    5.4388819968238 
 O    6.3642066318325    8.0986779954338    8.6011489439083 
Ce    2.4728534297500    1.5545124405154    1.3810147549440 
Ce    0.5275593210250    2.6221017103188    4.5054486404089 
Ce    0.6514556673625    0.4327310969995    7.9771273083261 
Ce    6.2990966197500    1.5545124405154    1.3810147549440 
Ce    4.3817845113625    2.6775578399592    4.4640229878818 
Ce    4.4549775683600    0.2536563415477    7.9426283991696 
Ce   10.1252250247500    1.5545124405154    1.3810147549440 
Ce    8.1550142491125    2.5815852187155    4.5578564441635 
Ce    8.2839658416350    0.3247138598001    7.7751486540923 
Ce    0.5597892272500    4.8680368382734    1.3810147549440 
Ce   -1.3445639416000    5.9895264230485    4.6057081583443 
Ce   -1.1619515094275    3.6236050904572    7.8361136672370 
Ce    4.3860324172500    4.8680368382734    1.3810147549440 
Ce    2.4166206026050    5.9021950296827    4.4408527153870 
Ce    8.2121608222500    4.8680368382734    1.3810147549440 
Ce    6.3686442773250    5.8366229733844    4.5916605576434 
Ce    6.4176714760950    3.5971292024611    7.8940800645043 
Ce   -1.3533323677500    8.1816606427574    1.3810147549440 
Ce   -3.3776453313625    9.2718236889345    4.5998676319832 
Ce   -3.1762759397325    7.0615938664515    7.8053122754527 
Ce    2.4729108222500    8.1816606427574    1.3810147549440 
Ce    0.4289191182375    9.2459636256060    4.5570560377194 
Ce    0.4900095891900    6.8744683590744    7.8573542051872 
Ce    6.2990392272500    8.1816606427574    1.3810147549440 
Ce    4.3559759650000    9.2008581219037    4.5240005517542 
Ce    4.4056116390550    7.1113329164661    7.6736165606221 
Fe    3.1126913629075    3.9888321614386    7.2606125379969 
81
FORCE:  1.470139  ...  ENERGY:  -643.10461644
 O    0.5597892272500    0.4500043079294    0.5999968967040 
 O    2.4968488322525    1.5944507826002    3.7053063372885 
 O    0.6118805542025    2.6846890796689    6.9973937808003 
 O    0.5597892272500    2.6590205731014    2.1620326131840 
 O    0.4573641038725    0.3326068532512    5.3828225240002 
 O    2.4306561680500    1.0941779844335    8.7290173518921 
 O    4.3860324172500    0.4500043079294    0.5999968967040 
 O    6.3067841155550    1.4413659156611    3.7854051474550 
 O    4.1828385180450    2.5423196613523    7.0764513098562 
 O    4.3860324172500    2.6590205731014    2.1620326131840 
 O    4.3866942675600    0.4989519809983    5.2648619114867 
 O    6.3791382089875    1.4813919344783    8.6948462238870 
 O    8.2121608222500    0.4500043079294    0.5999968967040 
 O   10.1119210988950    1.5299150414205    3.7126838082549 
 O    8.1642627061325    2.4148342133061    7.0179249246094 
 O    8.2121608222500    2.6590205731014    2.1620326131840 
 O    8.0400112723975    0.3668586335752    5.5529443630763 
 O   10.2025583193050    1.5283833825863    8.7648394750076 
 O   -1.3532749752500    3.7635287056874    0.5999968967040 
 O    0.6116632661975    4.7446964518880    3.7237688330379 
 O   -1.3519418622600    5.9092199041956    6.9000338829040 
 O   -1.3533323677500    5.9726443775854    2.1620326131840 
 O   -1.3428337872950    3.6698941306393    5.3954622852673 
 O    0.1574759519850    5.0731558577170    9.0243921927714 
 O    2.4729682147500    3.7635287056874    0.5999968967040 
 O    4.3536811258875    5.0069490894732    3.7535127485398 
 O    2.4077885855650    5.6378534591573    6.9872829754311 
 O    2.4729108222500    5.9726443775854    2.1620326131840 
 O    2.5345868114875    3.8401127408718    5.3820437871520 
 O    4.4188268934975    4.6681644064213    8.3645244834677 
 O    6.2990966197500    3.7635287056874    0.5999968967040 
 O    8.1778421159875    4.6811719753319    3.7014566765427 
 O    6.2961340762925    5.9613665851140    7.0086441788156 
 O    6.2990392272500    5.9726443775854    2.1620326131840 
 O    6.3233851257500    3.5449770541728    5.5393043788804 
 O    8.1897149598550    4.8081997548115    8.4944252714505 
 O   -3.2663965702500    7.0771525101714    0.5999968967040 
 O   -1.4203557309975    8.1564008966472    3.6955773730099 
 O   -3.0130669935300    9.0587450735333    6.8552284577118 
 O   -3.2663965702500    9.2861687753434    2.1620326131840 
 O   -3.3097093699725    6.9369756066034    5.2725685322106 
 O   -1.2790137290425    8.0573550170625    8.7270930917717 
 O    0.5598466197500    7.0771525101714    0.5999968967040 
 O    2.5156589945575    8.1180076333045    3.5724876811857 
 O    0.4891764222675    9.2567524363922    7.1070966805497 
 O    0.5598466197500    9.2861687753434    2.1620326131840 
 O    0.4607039456250    7.1099559344976    5.3943443622173 
 O    2.4835679781825    8.0049191619783    8.5945889869617 
 O    4.3859750247500    7.0771525101714    0.5999968967040 
 O    6.3542842146850    8.0161951651286    3.7576680646390 
 O    4.5165747576950    9.2334840058172    6.9020092376506 
 O    4.3859750247500    9.2861687753434    2.1620326131840 
 O    4.2296213831025    6.9733367976531    5.4412770574288 
 O    6.3680907266625    8.1037811391198    8.6048263883915 
Ce    2.4728534297500    1.5545124405154    1.3810147549440 
Ce    0.5285927877725    2.6230032299169    4.5039187669348 
Ce    0.6509030349800    0.4331791231135    7.9774758466694 
Ce    6.2990966197500    1.5545124405154    1.3810147549440 
Ce    4.3820530508700    2.6766626823915    4.4624039269128 
Ce    4.4579091198675    0.2542461216530    7.9394630414539 
Ce   10.1252250247500    1.5545124405154    1.3810147549440 
Ce    8.1531757951600    2.5799206530887    4.5588550703852 
Ce    8.2855533755775    0.3258867597601    7.7752246117286 
Ce    0.5597892272500    4.8680368382734    1.3810147549440 
Ce   -1.3419183769200    5.9899172902952    4.6070457426669 
Ce   -1.1626976119275    3.6208177258602    7.8372528036809 
Ce    4.3860324172500    4.8680368382734    1.3810147549440 
Ce    2.4179222071125    5.9039053224035    4.4424243313459 
Ce    8.2121608222500    4.8680368382734    1.3810147549440 
Ce    6.3661688814075    5.8355297976185    4.5917273912394 
Ce    6.4159810947925    3.5978414516529    7.8959306479984 
Ce   -1.3533323677500    8.1816606427574    1.3810147549440 
Ce   -3.3739885682250    9.2691320530146    4.6007348720233 
Ce   -3.1781059569875    7.0615117564958    7.8075082038759 
Ce    2.4729108222500    8.1816606427574    1.3810147549440 
Ce    0.4290318371075    9.2472372245795    4.5575827229515 
Ce    0.4887782904950    6.8730281544281    7.8580179791263 
Ce    6.2990392272500    8.1816606427574    1.3810147549440 
Ce    4.3575241850800    9.2021394746018    4.5249394155114 
Ce    4.4040751844375    7.1122773797699    7.6730130053496 
Fe    3.1184339990650    3.9890736203761    7.2595607642398 
81
FORCE:  1.461099  ...  ENERGY:  -643.11106484
 O    0.5597892272500    0.4500043079294    0.5999968967040 
 O    2.5015934128350    1.5967487678852    3.7068889020959 
 O    0.6076071086525    2.6893405191919    6.9956237169627 
 O    0.5597892272500    2.6590205731014    2.1620326131840 
 O    0.4503058594375    0.3347840593640    5.3914217039761 
 O    2.4250886938025    1.0993390822407    8.7339151367788 
 O    4.3860324172500    0.4500043079294    0.5999968967040 
 O    6.3043014307900    1.4410396627864    3.7871763517977 
 O    4.1762601896950    2.5460712711915    7.0773675916134 
 O    4.3860324172500    2.6590205731014    2.1620326131840 
 O    4.3870434435300    0.5017795059127    5.2632100039723 
 O    6.3842027527575    1.4822227758942    8.7044221323878 
 O    8.2121608222500    0.4500043079294    0.5999968967040 
 O   10.1032430085400    1.5284209583287    3.7083227450447 
 O    8.1704252258200    2.4237264431670    7.0151252128127 
 O    8.2121608222500    2.6590205731014    2.1620326131840 
 O    8.0323599338675    0.3601369495765    5.5478287417251 
 O   10.1981546501725    1.5325903746373    8.7740700385792 
 O   -1.3532749752500    3.7635287056874    0.5999968967040 
 O    0.6143574997175    4.7402754371559    3.7249451499464 
 O   -1.3483814037375    5.9108631967831    6.9088089287588 
 O   -1.3533323677500    5.9726443775854    2.1620326131840 
 O   -1.3437656693175    3.6694693656991    5.3896842585830 
 O    0.1648733287025    5.0712197129147    9.0207085895609 
 O    2.4729682147500    3.7635287056874    0.5999968967040 
 O    4.3520554259325    5.0124307739718    3.7549075862160 
 O    2.4144226420325    5.6398597851081    6.9843208557152 
 O    2.4729108222500    5.9726443775854    2.1620326131840 
 O    2.5365121002925    3.8308661260327    5.3823380374549 
 O    4.4157540416550    4.6712731529635    8.3678771121126 
 O    6.2990966197500    3.7635287056874    0.5999968967040 
 O    8.1778192737725    4.6727343324290    3.6991040427256 
 O    6.2990365298025    5.9532359101810    7.0035819331006 
 O    6.2990392272500    5.9726443775854    2.1620326131840 
 O    6.3198010215175    3.5440327896826    5.5367266093664 
 O    8.1940736332675    4.8040714928875    8.5005151122155 
 O   -3.2663965702500    7.0771525101714    0.5999968967040 
 O   -1.4219013684150    8.1553486764525    3.6946720401013 
 O   -3.0194217780925    9.0632685766000    6.8618456680119 
 O   -3.2663965702500    9.2861687753434    2.1620326131840 
 O   -3.3061467879275    6.9427062055438    5.2714214122313 
 O   -1.2872244148775    8.0574709253051    8.7257534545400 
 O    0.5598466197500    7.0771525101714    0.5999968967040 
 O    2.5244658736825    8.1148208524824    3.5740561037304 
 O    0.4879745085325    9.2542537489275    7.1103772292755 
 O    0.5598466197500    9.2861687753434    2.1620326131840 
 O    0.4555570436175    7.1122984539958    5.3862974147865 
 O    2.4894876128100    8.0055435356243    8.5798862801602 
 O    4.3859750247500    7.0771525101714    0.5999968967040 
 O    6.3538543448600    8.0138358458937    3.7533870648833 
 O    4.5203786178100    9.2396042791236    6.9101357923339 
 O    4.3859750247500    9.2861687753434    2.1620326131840 
 O    4.2314356174200    6.9710318538974    5.4435491715894 
 O    6.3719870460950    8.1091118248015    8.6085241338647 
Ce    2.4728534297500    1.5545124405154    1.3810147549440 
Ce    0.5296096680875    2.6238851663900    4.5024821867738 
Ce    0.6503065547275    0.4336321195639    7.9777739746894 
Ce    6.2990966197500    1.5545124405154    1.3810147549440 
Ce    4.3823330688775    2.6756770647032    4.4608405225903 
Ce    4.4608374573950    0.2548979315554    7.9362646090916 
Ce   10.1252250247500    1.5545124405154    1.3810147549440 
Ce    8.1513943319600    2.5782062846921    4.5599214426070 
Ce    8.2871048096375    0.3270931597869    7.7753585070215 
Ce    0.5597892272500    4.8680368382734    1.3810147549440 
Ce   -1.3392883656075    5.9902380758000    4.6083666756158 
Ce   -1.1634933589400    3.6180559087917    7.8384336826097 
Ce    4.3860324172500    4.8680368382734    1.3810147549440 
Ce    2.4192454485925    5.9057248631162    4.4440750983553 
Ce    8.2121608222500    4.8680368382734    1.3810147549440 
Ce    6.3636346007850    5.8344751916624    4.5918172630373 
Ce    6.4143179749275    3.5985653314316    7.8977691421390 
Ce   -1.3533323677500    8.1816606427574    1.3810147549440 
Ce   -3.3702309090725    9.2664000579640    4.6015781614572 
Ce   -3.1800279744200    7.0613307368478    7.8097344697335 
Ce    2.4729108222500    8.1816606427574    1.3810147549440 
Ce    0.4291925935000    9.2485437271793    4.5581443076381 
Ce    0.4875731627800    6.8715869557146    7.8587595355098 
Ce    6.2990392272500    8.1816606427574    1.3810147549440 
Ce    4.3590870976400    9.2034399133913    4.5259086167029 
Ce    4.4025606537550    7.1131890388540    7.6724646505216 
Fe    3.1242709884925    3.9893439072641    7.2584661074928 
81
FORCE:  1.449637  ...  ENERGY:  -643.11820769
 O    0.5597892272500    0.4500043079294    0.5999968967040 
 O    2.5060296235150    1.5989792560032    3.7086929529839 
 O    0.6034978056525    2.6937492074900    6.9936741376303 
 O    0.5597892272500    2.6590205731014    2.1620326131840 
 O    0.4438732506450    0.3372969619906    5.3997879928209 
 O    2.4200309797400    1.1043433162343    8.7391233671402 
 O    4.3860324172500    0.4500043079294    0.5999968967040 
 O    6.3017462019050    1.4413454378756    3.7884062724436 
 O    4.1696113833550    2.5500268636325    7.0780008000172 
 O    4.3860324172500    2.6590205731014    2.1620326131840 
 O    4.3872310596125    0.5045419194215    5.2618354672861 
 O    6.3890407683300    1.4830899007651    8.7141047921613 
 O    8.2121608222500    0.4500043079294    0.5999968967040 
 O   10.0944034156900    1.5266503257252    3.7041370915112 
 O    8.1771948433725    2.4331866830603    7.0122650542483 
 O    8.2121608222500    2.6590205731014    2.1620326131840 
 O    8.0253213176675    0.3529182319479    5.5417717475055 
 O   10.1937935088825    1.5365459670783    8.7830275652419 
 O   -1.3532749752500    3.7635287056874    0.5999968967040 
 O    0.6167845711500    4.7363237215772    3.7261543134005 
 O   -1.3448199121500    5.9125333291867    6.9175543214821 
 O   -1.3533323677500    5.9726443775854    2.1620326131840 
 O   -1.3447816887450    3.6691750223834    5.3837584224442 
 O    0.1721513864125    5.0693500712121    9.0163324716841 
 O    2.4729682147500    3.7635287056874    0.5999968967040 
 O    4.3508611454000    5.0170051732821    3.7560658831448 
 O    2.4211061708350    5.6420816248409    6.9816023478780 
 O    2.4729108222500    5.9726443775854    2.1620326131840 
 O    2.5388093498900    3.8208444369510    5.3827759913941 
 O    4.4119877162350    4.6745730586398    8.3712546037677 
 O    6.2990966197500    3.7635287056874    0.5999968967040 
 O    8.1776989790925    4.6648352751676    3.6970707503224 
 O    6.3019244056175    5.9450020510664    6.9980596076485 
 O    6.2990392272500    5.9726443775854    2.1620326131840 
 O    6.3156977447300    3.5436287013414    5.5337261686808 
 O    8.1985078352100    4.7997601237741    8.5068497053642 
 O   -3.2663965702500    7.0771525101714    0.5999968967040 
 O   -1.4234329446700    8.1543045082026    3.6940810303843 
 O   -3.0261317648375    9.0681860285217    6.8685242374837 
 O   -3.2663965702500    9.2861687753434    2.1620326131840 
 O   -3.3022358334075    6.9485731905124    5.2705936336660 
 O   -1.2957787670025    8.0575586020374    8.7244770012880 
 O    0.5598466197500    7.0771525101714    0.5999968967040 
 O    2.5330960986925    8.1118143954613    3.5766521213252 
 O    0.4868295281575    9.2514045533469    7.1133619309914 
 O    0.5598466197500    9.2861687753434    2.1620326131840 
 O    0.4509160564975    7.1143508052608    5.3780686708507 
 O    2.4958046331075    8.0062893842894    8.5647045612376 
 O    4.3859750247500    7.0771525101714    0.5999968967040 
 O    6.3528746548850    8.0119733614754    3.7491735830266 
 O    4.5235846776450    9.2457354871698    6.9186051828352 
 O    4.3859750247500    9.2861687753434    2.1620326131840 
 O    4.2334887767150    6.9691140993394    5.4457008484168 
 O    6.3758799793700    8.1146187586085    8.6122237041458 
Ce    2.4728534297500    1.5545124405154    1.3810147549440 
Ce    0.5306066905975    2.6247444381295    4.5011434619462 
Ce    0.6496688092675    0.4340913786380    7.9780239733964 
Ce    6.2990966197500    1.5545124405154    1.3810147549440 
Ce    4.3826241062450    2.6746035714692    4.4593339154192 
Ce    4.4637527668250    0.2556112742212    7.9330394889113 
Ce   10.1252250247500    1.5545124405154    1.3810147549440 
Ce    8.1496731882775    2.5764441016603    4.5610537360206 
Ce    8.2886204307775    0.3283367379291    7.7755491994658 
Ce    0.5597892272500    4.8680368382734    1.3810147549440 
Ce   -1.3366798764825    5.9904846044804    4.6096686761809 
Ce   -1.1643400131000    3.6153236155209    7.8396556197203 
Ce    4.3860324172500    4.8680368382734    1.3810147549440 
Ce    2.4205890070175    5.9076479856374    4.4458038759100 
Ce    8.2121608222500    4.8680368382734    1.3810147549440 
Ce    6.3610479782025    5.8334601495832    4.5919292606332 
Ce    6.4126887166375    3.5993023328982    7.8995946345220 
Ce   -1.3533323677500    8.1816606427574    1.3810147549440 
Ce   -3.3663796427525    9.2636315806449    4.6023979564872 
Ce   -3.1820404424325    7.0610509069141    7.8119901606214 
Ce    2.4729108222500    8.1816606427574    1.3810147549440 
Ce    0.4294011004525    9.2498818411180    4.5587373702641 
Ce    0.4863953538950    6.8701431724262    7.8595786462367 
Ce    6.2990392272500    8.1816606427574    1.3810147549440 
Ce    4.3606634974375    9.2047589412386    4.5269056462176 
Ce    4.4010724088375    7.1140663032110    7.6719721804410 
Fe    3.1301752419300    3.9896589271787    7.2573281115539 
81
FORCE:  1.436734  ...  ENERGY:  -643.12570943
 O    0.5597892272500    0.4500043079294    0.5999968967040 
 O    2.5101177486825    1.6011094427346    3.7106968203568 
 O    0.5995617132175    2.6978948655911    6.9915443584999 
 O    0.5597892272500    2.6590205731014    2.1620326131840 
 O    0.4381146593725    0.3401305507152    5.4078572941507 
 O    2.4155186666050    1.1091788570138    8.7446196890771 
 O    4.3860324172500    0.4500043079294    0.5999968967040 
 O    6.2991274969150    1.4422820480479    3.7890727835948 
 O    4.1629803686900    2.5540997560102    7.0783650773301 
 O    4.3860324172500    2.6590205731014    2.1620326131840 
 O    4.3872520652675    0.5072014469689    5.2607732008825 
 O    6.3936449094650    1.4839954960390    8.7238342126419 
 O    8.2121608222500    0.4500043079294    0.5999968967040 
 O   10.0854552362300    1.5245999625947    3.7001590098968 
 O    8.1845290883400    2.4431358052320    7.0093558539667 
 O    8.2121608222500    2.6590205731014    2.1620326131840 
 O    8.0189357707250    0.3452389629576    5.5348479694480 
 O   10.1894745510800    1.5402298809372    8.7916782960462 
 O   -1.3532749752500    3.7635287056874    0.5999968967040 
 O    0.6189467188025    4.7328827577567    3.7273915332787 
 O   -1.3412806888525    5.9142197642932    6.9262071051955 
 O   -1.3533323677500    5.9726443775854    2.1620326131840 
 O   -1.3458711131800    3.6690286956828    5.3777041654368 
 O    0.1793113877500    5.0675707902234    9.0112839120297 
 O    2.4729682147500    3.7635287056874    0.5999968967040 
 O    4.3501062618475    5.0206481315698    3.7569755499727 
 O    2.4278088687325    5.6445191771692    6.9791135377579 
 O    2.4729108222500    5.9726443775854    2.1620326131840 
 O    2.5414676557050    3.8101270001941    5.3833583332726 
 O    4.4075718225000    4.6780532881171    8.3746603799480 
 O    6.2990966197500    3.7635287056874    0.5999968967040 
 O    8.1774625219925    4.6575425989348    3.6953784689292 
 O    6.3047907592450    5.9366983090234    6.9921093647017 
 O    6.2990392272500    5.9726443775854    2.1620326131840 
 O    6.3110786815450    3.5437619063542    5.5303324818540 
 O    8.2029727421400    4.7952810555140    8.5134123995229 
 O   -3.2663965702500    7.0771525101714    0.5999968967040 
 O   -1.4249470736050    8.1532863845149    3.6938084496774 
 O   -3.0331752020075    9.0734969322650    6.8752233360463 
 O   -3.2663965702500    9.2861687753434    2.1620326131840 
 O   -3.2979984303475    6.9545435584759    5.2700883899289 
 O   -1.3046357497800    8.0576276897120    8.7232701188441 
 O    0.5598466197500    7.0771525101714    0.5999968967040 
 O    2.5415134549200    8.1089961153725    3.5802627322125 
 O    0.4857467612525    9.2482197606593    7.1160475922831 
 O    0.5598466197500    9.2861687753434    2.1620326131840 
 O    0.4468154771575    7.1161005624518    5.3697076283292 
 O    2.5024928680950    8.0071666486464    8.5491015397496 
 O    4.3859750247500    7.0771525101714    0.5999968967040 
 O    6.3513551884475    8.0106314700811    3.7450679929476 
 O    4.5261509258900    9.2518486031919    6.9273863874172 
 O    4.3859750247500    9.2861687753434    2.1620326131840 
 O    4.2357941760475    6.9676149465046    5.4477341408199 
 O    6.3797519069900    8.1202475650615    8.6159059387503 
Ce    2.4728534297500    1.5545124405154    1.3810147549440 
Ce    0.5315804117525    2.6255778641203    4.4999064701689 
Ce    0.6489934717200    0.4345580932166    7.9782274394973 
Ce    6.2990966197500    1.5545124405154    1.3810147549440 
Ce    4.3829257612250    2.6734452842978    4.4578857021067 
Ce    4.4666441435825    0.2563853543965    7.9297942958420 
Ce   10.1252250247500    1.5545124405154    1.3810147549440 
Ce    8.1480156928775    2.5746372850085    4.5622483010100 
Ce    8.2900998372500    0.3296207746089    7.7757948642536 
Ce    0.5597892272500    4.8680368382734    1.3810147549440 
Ce   -1.3341000262150    5.9906529000676    4.6109492352511 
Ce   -1.1652382057250    3.6126255181638    7.8409179307096 
Ce    4.3860324172500    4.8680368382734    1.3810147549440 
Ce    2.4219512180050    5.9096680297164    4.4476097516062 
Ce    8.2121608222500    4.8680368382734    1.3810147549440 
Ce    6.3584157859750    5.8324862618886    4.5920624716231 
Ce    6.4111003792000    3.6000539471535    7.9014043879354 
Ce   -1.3533323677500    8.1816606427574    1.3810147549440 
Ce   -3.3624425172525    9.2608310943600    4.6031944852141 
Ce   -3.1841406635775    7.0606733601687    7.8142732236305 
Ce    2.4729108222500    8.1816606427574    1.3810147549440 
Ce    0.4296567266475    9.2512496776677    4.5593571207082 
Ce    0.4852459542975    6.8686957110889    7.8604746270040 
Ce    6.2990392272500    8.1816606427574    1.3810147549440 
Ce    4.3622521218375    9.2060955640764    4.5279277668434 
Ce    4.3996150984775    7.1149072841129    7.6715360513099 
Fe    3.1361157674275    3.9900359768905    7.2561460921201 
81
FORCE:  1.421746  ...  ENERGY:  -643.13322554
 O    0.5597892272500    0.4500043079294    0.5999968967040 
 O    2.5138188188300    1.6031058280129    3.7128758693053 
 O    0.5958057184475    2.7017586062173    6.9892366605817 
 O    0.5597892272500    2.6590205731014    2.1620326131840 
 O    0.4330720969300    0.3432683240214    5.4155696173998 
 O    2.4115819428525    1.1138325828915    8.7503794676806 
 O    4.3860324172500    0.4500043079294    0.5999968967040 
 O    6.2964558760400    1.4438425348327    3.7891587776756 
 O    4.1564631633525    2.5581954125281    7.0784763906230 
 O    4.3860324172500    2.6590205731014    2.1620326131840 
 O    4.3871050256825    0.5097196181519    5.2600569637111 
 O    6.3980078299225    1.4849407545965    8.7335467536477 
 O    8.2121608222500    0.4500043079294    0.5999968967040 
 O   10.0764529356425    1.5222693719037    3.6964199781409 
 O    8.1923783736025    2.4534883198978    7.0064090170186 
 O    8.2121608222500    2.6590205731014    2.1620326131840 
 O    8.0132440417150    0.3371440744460    5.5271406644211 
 O   10.1851962845600    1.5436226324956    8.7999880158405 
 O   -1.3532749752500    3.7635287056874    0.5999968967040 
 O    0.6208482471125    4.7299910160974    3.7286527037630 
 O   -1.3377893882925    5.9159106727025    6.9347024992119 
 O   -1.3533323677500    5.9726443775854    2.1620326131840 
 O   -1.3470218901975    3.6690464894867    5.3715422447526 
 O    0.1863538492475    5.0659038388352    9.0055891422141 
 O    2.4729682147500    3.7635287056874    0.5999968967040 
 O    4.3497935875075    5.0233422526579    3.7576276907602 
 O    2.4344982515700    5.6471704539583    6.9768389144862 
 O    2.4729108222500    5.9726443775854    2.1620326131840 
 O    2.5444700869500    3.7988031824085    5.3840859754945 
 O    4.4025586450175    4.6817010179276    8.3780990026738 
 O    6.2990966197500    3.7635287056874    0.5999968967040 
 O    8.1770927995075    4.6509211169159    3.6940456747278 
 O    6.3076293349025    5.9283597746264    6.9857724905428 
 O    6.2990392272500    5.9726443775854    2.1620326131840 
 O    6.3059542200050    3.5444253468435    5.5265809045426 
 O    8.2074204887125    4.7906503919967    8.5201835780048 
 O   -3.2663965702500    7.0771525101714    0.5999968967040 
 O   -1.4264396229600    8.1523127950404    3.6938556665865 
 O   -3.0405265499400    9.0791968145271    6.8819032741242 
 O   -3.2663965702500    9.2861687753434    2.1620326131840 
 O   -3.2934603479800    6.9605830141140    5.2699088744340 
 O   -1.3137502527050    8.0576889242552    8.7221394221376 
 O    0.5598466197500    7.0771525101714    0.5999968967040 
 O    2.5496812685575    8.1063716783993    3.5848633014832 
 O    0.4847323488150    9.2447179599225    7.1184321602417 
 O    0.5598466197500    9.2861687753434    2.1620326131840 
 O    0.4432890523875    7.1175353991349    5.3612651537471 
 O    2.5095192596925    8.0081852693677    8.5331431368879 
 O    4.3859750247500    7.0771525101714    0.5999968967040 
 O    6.3493102362800    8.0098299536494    3.7411104404241 
 O    4.5280386800000    9.2579149980528    6.9364449628273 
 O    4.3859750247500    9.2861687753434    2.1620326131840 
 O    4.2383631791325    6.9665616328359    5.4496497331019 
 O    6.3835848077100    8.1259421787671    8.6195514490921 
Ce    2.4728534297500    1.5545124405154    1.3810147549440 
Ce    0.5325274453950    2.6263821639404    4.4987755453613 
Ce    0.6482850760925    0.4350335555871    7.9783861978003 
Ce    6.2990966197500    1.5545124405154    1.3810147549440 
Ce    4.3832370007525    2.6722059806448    4.4564970231578 
Ce    4.4694995926350    0.2572188797940    7.9265370134192 
Ce   10.1252250247500    1.5545124405154    1.3810147549440 
Ce    8.1464252319175    2.5727895127856    4.5635021722620 
Ce    8.2915429142700    0.3309478544010    7.7760932203747 
Ce    0.5597892272500    4.8680368382734    1.3810147549440 
Ce   -1.3315563332225    5.9907390856990    4.6122056156141 
Ce   -1.1661882811700    3.6099667858702    7.8422183345676 
Ce    4.3860324172500    4.8680368382734    1.3810147549440 
Ce    2.4233305319575    5.9117773410354    4.4494902163327 
Ce    8.2121608222500    4.8680368382734    1.3810147549440 
Ce    6.3557460016600    5.8315552184929    4.5922152992998 
Ce    6.4095597923225    3.6008214664849    7.9031958932679 
Ce   -1.3533323677500    8.1816606427574    1.3810147549440 
Ce   -3.3584286579800    9.2580040664793    4.6039679757390 
Ce   -3.1863254812675    7.0601997865261    7.8165806934477 
Ce    2.4729108222500    8.1816606427574    1.3810147549440 
Ce    0.4299582668425    9.2526451492873    4.5599994531524 
Ce    0.4841263988000    6.8672438758556    7.8614465654076 
Ce    6.2990392272500    8.1816606427574    1.3810147549440 
Ce    4.3638512490650    9.2074485890240    4.5289717851662 
Ce    4.3981937732150    7.1157097946119    7.6711564912292 
Fe    3.1420589903725    3.9904932478301    7.2549193648883 
81
FORCE:  1.405015  ...  ENERGY:  -643.14048360
 O    0.5597892272500    0.4500043079294    0.5999968967040 
 O    2.5170943235900    1.6049351105847    3.7152009029002 
 O    0.5922355605925    2.7053231325982    6.9867551496939 
 O    0.5597892272500    2.6590205731014    2.1620326131840 
 O    0.4287800562100    0.3466910964111    5.4228672530127 
 O    2.4082461759675    1.1182913721795    8.7563748746275 
 O    4.3860324172500    0.4500043079294    0.5999968967040 
 O    6.2937433917050    1.4460125836613    3.7886528496354 
 O    4.1501616390300    2.5622119412921    7.0783534441786 
 O    4.3860324172500    2.6590205731014    2.1620326131840 
 O    4.3867918348100    0.5120573661273    5.2597196023173 
 O    6.4021240200225    1.4859276645722    8.7431753534818 
 O    8.2121608222500    0.4500043079294    0.5999968967040 
 O   10.0674532751100    1.5196596471260    3.6929498774758 
 O    8.2006847327350    2.4641547610043    7.0034352641512 
 O    8.2121608222500    2.6590205731014    2.1620326131840 
 O    8.0082856166775    0.3286860531643    5.5187419852329 
 O   10.1809571023325    1.5467057321024    8.8079234218774 
 O   -1.3532749752500    3.7635287056874    0.5999968967040 
 O    0.6224959283950    4.7276832889533    3.7299341752372 
 O   -1.3343739032250    5.9175937279804    6.9429757228446 
 O   -1.3533323677500    5.9726443775854    2.1620326131840 
 O   -1.3482205899525    3.6692433148042    5.3652954704928 
 O    0.1932795170075    5.0643691977992    8.9992803244795 
 O    2.4729682147500    3.7635287056874    0.5999968967040 
 O    4.3499201379700    5.0250771982468    3.7580161467803 
 O    2.4411404003800    5.6500301866519    6.9747600018811 
 O    2.4729108222500    5.9726443775854    2.1620326131840 
 O    2.5477950066525    3.7869718932867    5.3849593742618 
 O    4.3970091920150    4.6855016352828    8.3815757182682 
 O    6.2990966197500    3.7635287056874    0.5999968967040 
 O    8.1765739139150    4.6450305725533    3.6930883347888 
 O    6.3104344507325    5.9200207431957    6.9790971144852 
 O    6.2990392272500    5.9726443775854    2.1620326131840 
 O    6.3003426683175    3.5456065969686    5.5225106701201 
 O    8.2118033817600    4.7858861258397    8.5271424836179 
 O   -3.2663965702500    7.0771525101714    0.5999968967040 
 O   -1.4279047387000    8.1514018318034    3.6942204001015 
 O   -3.0481572271700    9.0852749393817    6.8885234497374 
 O   -3.2663965702500    9.2861687753434    2.1620326131840 
 O   -3.2886518321525    6.9666562680390    5.2700571400905 
 O   -1.3230733199750    8.0577535386271    8.7210910698956 
 O    0.5598466197500    7.0771525101714    0.5999968967040 
 O    2.5575620049100    8.1039446631841    3.5904164205717 
 O    0.4837931779450    9.2409216170565    7.1205154067660 
 O    0.5598466197500    9.2861687753434    2.1620326131840 
 O    0.4403686924175    7.1186449770105    5.3527950789427 
 O    2.5168438053275    8.0093560817865    8.5169030292790 
 O    4.3859750247500    7.0771525101714    0.5999968967040 
 O    6.3467578196275    8.0095833255622    3.7373408431329 
 O    4.5292147671100    9.2639082295633    6.9457414475909 
 O    4.3859750247500    9.2861687753434    2.1620326131840 
 O    4.2412051983400    6.9659768230668    5.4514483095657 
 O    6.3873596272200    8.1316449438243    8.6231413027875 
Ce    2.4728534297500    1.5545124405154    1.3810147549440 
Ce    0.5334445775450    2.6271539577610    4.4977550214426 
Ce    0.6475487303175    0.4355190580369    7.9785023012143 
Ce    6.2990966197500    1.5545124405154    1.3810147549440 
Ce    4.3835570787250    2.6708899349993    4.4551694752796 
Ce    4.4723067172025    0.2581098622792    7.9232753970772 
Ce   10.1252250247500    1.5545124405154    1.3810147549440 
Ce    8.1449053637325    2.5709057553279    4.5648103315543 
Ce    8.2929490879125    0.3323199654400    7.7764415306170 
Ce    0.5597892272500    4.8680368382734    1.3810147549440 
Ce   -1.3290566602775    5.9907394833259    4.6134346238560 
Ce   -1.1671897802950    3.6073531842302    7.8435550064862 
Ce    4.3860324172500    4.8680368382734    1.3810147549440 
Ce    2.4247249401375    5.9139678676496    4.4514425328773 
Ce    8.2121608222500    4.8680368382734    1.3810147549440 
Ce    6.3530466028150    5.8306687093104    4.5923863750573 
Ce    6.4080739004975    3.6016061831800    7.9049657290045 
Ce   -1.3533323677500    8.1816606427574    1.3810147549440 
Ce   -3.3543481660150    9.2551566602197    4.6047179718599 
Ce   -3.1885907058500    7.0596328699677    7.8189086923557 
Ce    2.4729108222500    8.1816606427574    1.3810147549440 
Ce    0.4303043436175    9.2540656714019    4.5606588931723 
Ce    0.4830385813550    6.8657877661332    7.8624926366395 
Ce    6.2990392272500    8.1816606427574    1.3810147549440 
Ce    4.3654586982050    9.2088164255738    4.5300340515697 
Ce    4.3968139427300    7.1164716477600    7.6708330439971 
Fe    3.1479682369575    3.9910499254957    7.2536477017576 
81
FORCE:  1.386494  ...  ENERGY:  -643.14717724
 O    0.5597892272500    0.4500043079294    0.5999968967040 
 O    2.5199080482950    1.6065653808911    3.7176411275052 
 O    0.5888545684175    2.7085725396577    6.9841066688668 
 O    0.5597892272500    2.6590205731014    2.1620326131840 
 O    0.4252648229775    0.3503777936582    5.4296972815552 
 O    2.4055314533250    1.1225411091228    8.7625755724833 
 O    4.3860324172500    0.4500043079294    0.5999968967040 
 O    6.2910034163625    1.4487716173414    3.7875499812521 
 O    4.1441802500725    2.5660451640534    7.0780163108858 
 O    4.3860324172500    2.6590205731014    2.1620326131840 
 O    4.3863187484325    0.5141762204920    5.2597909979334 
 O    6.4059896344675    1.4869575182536    8.7526515818412 
 O    8.2121608222500    0.4500043079294    0.5999968967040 
 O   10.0585118679650    1.5167772496989    3.6897779048307 
 O    8.2093835417825    2.4750420838560    7.0004453161121 
 O    8.2121608222500    2.6590205731014    2.1620326131840 
 O    8.0040961937475    0.3199235490809    5.5097495591157 
 O   10.1767555121925    1.5494624794279    8.8154523519144 
 O   -1.3532749752500    3.7635287056874    0.5999968967040 
 O    0.6238978549925    4.7259894977490    3.7312318418831 
 O   -1.3310618968350    5.9192568025064    6.9509642764169 
 O   -1.3533323677500    5.9726443775854    2.1620326131840 
 O   -1.3494534382450    3.6696314980692    5.3589880213643 
 O    0.2000887927775    5.0629836668522    8.9923955516947 
 O    2.4729682147500    3.7635287056874    0.5999968967040 
 O    4.3504763286875    5.0258504831683    3.7581379527196 
 O    2.4477006500925    5.6530906215253    6.9728571832556 
 O    2.4729108222500    5.9726443775854    2.1620326131840 
 O    2.5514167029725    3.7747379075179    5.3859796700796 
 O    4.3909903257550    4.6894383404459    8.3850955449535 
 O    6.2990966197500    3.7635287056874    0.5999968967040 
 O    8.1758927223325    4.6399231543782    3.6925194508699 
 O    6.3132009414100    5.9117154106451    6.9721343311550 
 O    6.2990392272500    5.9726443775854    2.1620326131840 
 O    6.2942697957150    3.5472886581792    5.5181651177786 
 O    8.2160729820125    4.7810081383882    8.5342667624632 
 O   -3.2663965702500    7.0771525101714    0.5999968967040 
 O   -1.4293354189400    8.1505709903874    3.6948974038991 
 O   -3.0560341756175    9.0917146064987    6.8950448576133 
 O   -3.2663965702500    9.2861687753434    2.1620326131840 
 O   -3.2836072609725    6.9727282296765    5.2705354679085 
 O   -1.3325541018350    8.0578318711272    8.7201307646435 
 O    0.5598466197500    7.0771525101714    0.5999968967040 
 O    2.5651183014600    8.1017175548947    3.5968723634577 
 O    0.4829357913875    9.2368563789968    7.1222977880582 
 O    0.5598466197500    9.2861687753434    2.1620326131840 
 O    0.4380841839550    7.1194216417608    5.3443519200576 
 O    2.5244188118325    8.0106901200495    8.5004605960741 
 O    4.3859750247500    7.0771525101714    0.5999968967040 
 O    6.3437214694150    8.0099011288652    3.7337986625486 
 O    4.5296538197350    9.2698038436689    6.9552338711220 
 O    4.3859750247500    9.2861687753434    2.1620326131840 
 O    4.2443277520875    6.9658773169341    5.4531300983125 
 O    6.3910575981725    8.1372985025521    8.6266579360586 
Ce    2.4728534297500    1.5545124405154    1.3810147549440 
Ce    0.5343288811850    2.6278899651603    4.4968487761299 
Ce    0.6467906327850    0.4360155946332    7.9785780307497 
Ce    6.2990966197500    1.5545124405154    1.3810147549440 
Ce    4.3838849046850    2.6695020182908    4.4539044270782 
Ce    4.4750523170100    0.2590561149040    7.9200185708564 
Ce   10.1252250247500    1.5545124405154    1.3810147549440 
Ce    8.1434591875175    2.5689911817852    4.5661682168669 
Ce    8.2943178990375    0.3337383006065    7.7768372858693 
Ce    0.5597892272500    4.8680368382734    1.3810147549440 
Ce   -1.3266090997225    5.9906510113398    4.6146326103605 
Ce   -1.1682418996050    3.6047906776474    7.8449247530513 
Ce    4.3860324172500    4.8680368382734    1.3810147549440 
Ce    2.4261328929475    5.9162305635468    4.4534637359269 
Ce    8.2121608222500    4.8680368382734    1.3810147549440 
Ce    6.3503261409225    5.8298288218824    4.5925738740875 
Ce    6.4066494760400    3.6024090913059    7.9067109298320 
Ce   -1.3533323677500    8.1816606427574    1.3810147549440 
Ce   -3.3502115441850    9.2522957346454    4.6054449297787 
Ce   -3.1909311720000    7.0589757915088    7.8212531145365 
Ce    2.4729108222500    8.1816606427574    1.3810147549440 
Ce    0.4306932351975    9.2555080629961    4.5613308787478 
Ce    0.4819843959150    6.8643278789552    7.8636101034874 
Ce    6.2990392272500    8.1816606427574    1.3810147549440 
Ce    4.3670724605200    9.2101971849979    4.5311109164379 
Ce    4.3954808871325    7.1171904577957    7.6705654815123 
Fe    3.1538051689925    3.9917256924190    7.2523304184248 
81
FORCE:  1.366066  ...  ENERGY:  -643.15308768
 O    0.5597892272500    0.4500043079294    0.5999968967040 
 O    2.5222270496500    1.6079656240336    3.7201620998678 
 O    0.5856631436700    2.7114928110474    6.9813003421408 
 O    0.5597892272500    2.6590205731014    2.1620326131840 
 O    0.4225434428050    0.3543056516227    5.4360136266231 
 O    2.4034506882375    1.1265679761863    8.7689484866017 
 O    4.3860324172500    0.4500043079294    0.5999968967040 
 O    6.2882515607725    1.4520918019898    3.7858510849296 
 O    4.1386245412875    2.5695896102757    7.0774882570477 
 O    4.3860324172500    2.6590205731014    2.1620326131840 
 O    4.3856952937050    0.5160392019439    5.2602980664787 
 O    6.4096027793050    1.4880324031818    8.7619051836149 
 O    8.2121608222500    0.4500043079294    0.5999968967040 
 O   10.0496850162500    1.5136296351268    3.6869314323269 
 O    8.2184032322975    2.4860553550295    6.9974498936488 
 O    8.2121608222500    2.6590205731014    2.1620326131840 
 O    8.0007075683700    0.3109217730079    5.5002671720290 
 O   10.1725907106450    1.5518777646495    8.8225440123153 
 O   -1.3532749752500    3.7635287056874    0.5999968967040 
 O    0.6250649314800    4.7249338977256    3.7325427383875 
 O   -1.3278821227650    5.9208878680666    6.9586083974640 
 O   -1.3533323677500    5.9726443775854    2.1620326131840 
 O   -1.3507060869500    3.6702213775813    5.3526445322762 
 O    0.2067815617725    5.0617607653089    8.9849795316575 
 O    2.4729682147500    3.7635287056874    0.5999968967040 
 O    4.3514465489000    5.0256680718261    3.7579940209823 
 O    2.4541436469275    5.6563406250251    6.9711090171150 
 O    2.4729108222500    5.9726443775854    2.1620326131840 
 O    2.5553041839600    3.7622113677544    5.3871468629477 
 O    4.3845739590400    4.6934925443590    8.3886644133559 
 O    6.2990966197500    3.7635287056874    0.5999968967040 
 O    8.1750373445125    4.6356432971970    3.6923486032134 
 O    6.3159255929550    5.9034763823808    6.9649409377036 
 O    6.2990392272500    5.9726443775854    2.1620326131840 
 O    6.2877682585300    3.5494491639621    5.5135910082251 
 O    8.2201817684800    4.7760373050546    8.5415326920357 
 O   -3.2663965702500    7.0771525101714    0.5999968967040 
 O   -1.4307233991600    8.1498371699361    3.6958777820401 
 O   -3.0641226154275    9.0984943440253    6.9014291767822 
 O   -3.2663965702500    9.2861687753434    2.1620326131840 
 O   -3.2783630212850    6.9787633114187    5.2713447702919 
 O   -1.3421393954375    8.0579339618348    8.7192635246035 
 O    0.5598466197500    7.0771525101714    0.5999968967040 
 O    2.5723115330550    8.0996892600574    3.6041702271716 
 O    0.4821677075600    9.2325505766601    7.1237818132292 
 O    0.5598466197500    9.2861687753434    2.1620326131840 
 O    0.4364624440825    7.1198597272022    5.3359895089300 
 O    2.5321907893975    8.0121977224560    8.4838990941421 
 O    4.3859750247500    7.0771525101714    0.5999968967040 
 O    6.3402280453325    8.0107869422006    3.7305206229339 
 O    4.5293383331625    9.2755810643639    6.9648775256228 
 O    4.3859750247500    9.2861687753434    2.1620326131840 
 O    4.2477360630925    6.9662739497708    5.4546944150390 
 O    6.3946596088650    8.1428447020158    8.6300831008248 
Ce    2.4728534297500    1.5545124405154    1.3810147549440 
Ce    0.5351774866900    2.6285870051230    4.4960602309383 
Ce    0.6460172688475    0.4365246564771    7.9786154393153 
Ce    6.2990966197500    1.5545124405154    1.3810147549440 
Ce    4.3842193881750    2.6680474990760    4.4527025628565 
Ce    4.4777230196050    0.2600549536868    7.9167749744942 
Ce   10.1252250247500    1.5545124405154    1.3810147549440 
Ce    8.1420898024675    2.5670521541878    4.5675701256743 
Ce    8.2956490606825    0.3352033569343    7.7772772927176 
Ce    0.5597892272500    4.8680368382734    1.3810147549440 
Ce   -1.3242216291150    5.9904709857590    4.6157959255115 
Ce   -1.1693433190725    3.6022853299320    7.8463241527476 
Ce    4.3860324172500    4.8680368382734    1.3810147549440 
Ce    2.4275527260050    5.9185561839015    4.4555494915623 
Ce    8.2121608222500    4.8680368382734    1.3810147549440 
Ce    6.3475937987825    5.8290373455300    4.5927755153803 
Ce    6.4052927747325    3.6032312843366    7.9084273899323 
Ce   -1.3533323677500    8.1816606427574    1.3810147549440 
Ce   -3.3460305579525    9.2494287452609    4.6061481651926 
Ce   -3.1933415422150    7.0582326268253    7.8236087136668 
Ce    2.4729108222500    8.1816606427574    1.3810147549440 
Ce    0.4311227606675    9.2569687454280    4.5620097073535 
Ce    0.4809656216475    6.8628653077955    7.8647957725374 
Ce    6.2990392272500    8.1816606427574    1.3810147549440 
Ce    4.3686899533475    9.2115889785686    4.5321989582556 
Ce    4.3942004604575    7.1178638389576    7.6703528913710 
Fe    3.1595309891475    3.9925392370646    7.2509672867890 
81
FORCE:  1.343971  ...  ENERGY:  -643.15807668
 O    0.5597892272500    0.4500043079294    0.5999968967040 
 O    2.5240230905450    1.6091070120615    3.7227296048363 
 O    0.5826590480425    2.7140729126207    6.9783473464653 
 O    0.5597892272500    2.6590205731014    2.1620326131840 
 O    0.4206237784650    0.3584497192161    5.4417747738326 
 O    2.4020111121600    1.1303582552419    8.7754591737301 
 O    4.3860324172500    0.4500043079294    0.5999968967040 
 O    6.2855053296475    1.4559388422860    3.7835641442033 
 O    4.1335976469975    2.5727437856917    7.0767946018763 
 O    4.3860324172500    2.6590205731014    2.1620326131840 
 O    4.3849353022200    0.5176106234685    5.2612640742560 
 O    6.4129631675725    1.4891544068982    8.7708688690049 
 O    8.2121608222500    0.4500043079294    0.5999968967040 
 O   10.0410275298025    1.5102282351833    3.6844350948735 
 O    8.2276683331425    2.4970996411016    6.9944592613067 
 O    8.2121608222500    2.6590205731014    2.1620326131840 
 O    7.9981453376000    0.3017511049075    5.4904020314475 
 O   10.1684618368025    1.5539395595535    8.8291705747568 
 O   -1.3532749752500    3.7635287056874    0.5999968967040 
 O    0.6260099563850    4.7245336862467    3.7338638994374 
 O   -1.3248633346575    5.9224744988203    6.9658528855416 
 O   -1.3533323677500    5.9726443775854    2.1620326131840 
 O   -1.3519641305500    3.6710204088449    5.3462900943396 
 O    0.2133571926750    5.0607091415546    8.9770826746913 
 O    2.4729682147500    3.7635287056874    0.5999968967040 
 O    4.3528093338125    5.0245442787887    3.7575882292855 
 O    2.4604352997400    5.6597658825829    6.9694917809541 
 O    2.4729108222500    5.9726443775854    2.1620326131840 
 O    2.5594220384425    3.7495058958842    5.3884623214724 
 O    4.3778362517175    4.6976446638973    8.3922891665059 
 O    6.2990966197500    3.7635287056874    0.5999968967040 
 O    8.1739988846175    4.6322272844647    3.6925812662436 
 O    6.3186053061725    5.8953344744878    6.9575760122927 
 O    6.2990392272500    5.9726443775854    2.1620326131840 
 O    6.2808777149800    3.5520611750945    5.5088362426716 
 O    8.2240833106300    4.7709961911657    8.5489160936284 
 O   -3.2663965702500    7.0771525101714    0.5999968967040 
 O   -1.4320588078500    8.1492160767121    3.6971494451709 
 O   -3.0723863319325    9.1055874115523    6.9076415077896 
 O   -3.2663965702500    9.2861687753434    2.1620326131840 
 O   -3.2729577956350    6.9847267209115    5.2724857315440 
 O   -1.3517749648700    8.0580702484561    8.7184934555937 
 O    0.5598466197500    7.0771525101714    0.5999968967040 
 O    2.5791053702425    8.0978574923174    3.6122386160974 
 O    0.4814966744500    9.2280351255382    7.1249704475923 
 O    0.5598466197500    9.2861687753434    2.1620326131840 
 O    0.4355255689125    7.1199559529130    5.3277614492973 
 O    2.5400990167575    8.0138902213729    8.4673065704726 
 O    4.3859750247500    7.0771525101714    0.5999968967040 
 O    6.3363083097600    8.0122385786204    3.7275413956423 
 O    4.5282605594050    9.2812222966576    6.9746256503862 
 O    4.3859750247500    9.2861687753434    2.1620326131840 
 O    4.2514323122700    6.9671714930999    5.4561405754424 
 O    6.3981475232675    8.1482282720758    8.6333999176112 
Ce    2.4728534297500    1.5545124405154    1.3810147549440 
Ce    0.5359879261825    2.6292421948541    4.4953923511810 
Ce    0.6452360421375    0.4370471382289    7.9786165798204 
Ce    6.2990966197500    1.5545124405154    1.3810147549440 
Ce    4.3845595535225    2.6665316459112    4.4515650231196 
Ce    4.4803060264600    0.2611032970192    7.9135537320310 
Ce   10.1252250247500    1.5545124405154    1.3810147549440 
Ce    8.1407997338525    2.5650952333798    4.5690101273504 
Ce    8.2969424006700    0.3367150350166    7.7777579015457 
Ce    0.5597892272500    4.8680368382734    1.3810147549440 
Ce   -1.3219024555825    5.9901973190423    4.6169216039959 
Ce   -1.1704918577825    3.5998431054876    7.8477495559591 
Ce    4.3860324172500    4.8680368382734    1.3810147549440 
Ce    2.4289827175350    5.9209351856682    4.4576954658644 
Ce    8.2121608222500    4.8680368382734    1.3810147549440 
Ce    6.3448578983075    5.8282963677944    4.5929892460267 
Ce    6.4040097080025    3.6040736569328    7.9101116877901 
Ce   -1.3533323677500    8.1816606427574    1.3810147549440 
Ce   -3.3418167432100    9.2465633463839    4.6068279062024 
Ce   -3.1958158476750    7.0574083462533    7.8259702434233 
Ce    2.4729108222500    8.1816606427574    1.3810147549440 
Ce    0.4315905095425    9.2584441400553    4.5626903607674 
Ce    0.4799842098975    6.8614018419753    7.8660462222742 
Ce    6.2990392272500    8.1816606427574    1.3810147549440 
Ce    4.3703090531650    9.2129895199312    4.5332942993056 
Ce    4.3929781149925    7.1184895048911    7.6701943611691 
Fe    3.1651073018400    3.9935079556095    7.2495578506483 
