81
FORCE:  1.664069  ...  ENERGY:  -641.57346125
 O    0.5597892272500    0.4500043079294    0.5999968967040 
 O    2.3954092528850    1.5130162956274    3.7141694301330 
 O    0.5902726223075    2.5116036788654    6.9996731941933 
 O    0.5597892272500    2.6590205731014    2.1620326131840 
 O    0.5758132706425    0.2224864679498    5.4190638967720 
 O    2.5774534993075    0.9727458095604    8.9149155692239 
 O    4.3860324172500    0.4500043079294    0.5999968967040 
 O    6.2890820876400    1.6001942050083    3.7239850727954 
 O    4.2611087451625    2.7005132387540    6.8250947175837 
 O    4.3860324172500    2.6590205731014    2.1620326131840 
 O    4.3616383664425    0.4855675611895    5.3096928839921 
 O    6.3938017631675    1.6668510869075    8.5449222730443 
 O    8.2121608222500    0.4500043079294    0.5999968967040 
 O   10.2246103543650    1.4382548827642    3.7710968272997 
 O    8.3149559550750    2.7640280728577    6.9944350825996 
 O    8.2121608222500    2.6590205731014    2.1620326131840 
 O    8.2320464626125    0.4005453860686    5.4836294843596 
 O   10.1584578075200    1.4955342311661    8.6761912108852 
 O   -1.3532749752500    3.7635287056874    0.5999968967040 
 O    0.6412259707700    4.8274152737608    3.9283711050887 
 O   -1.5110190649950    5.8836801293382    6.9012241139742 
 O   -1.3533323677500    5.9726443775854    2.1620326131840 
 O   -1.3241864475125    3.6173778555137    5.3097437505174 
 O    0.1906076665625    5.1028419865226    8.7524907706292 
 O    2.4729682147500    3.7635287056874    0.5999968967040 
 O    4.4135816781375    4.8239116837029    3.6426695718415 
 O    2.2606066097725    5.5560018615621    6.9903586894499 
 O    2.4729108222500    5.9726443775854    2.1620326131840 
 O    2.5155476531075    3.7034185519492    5.3962275641558 
 O    4.2314721764425    4.7555637939878    8.4566305308006 
 O    6.2990966197500    3.7635287056874    0.5999968967040 
 O    8.2489572775225    4.7842738481507    3.7623007961521 
 O    6.3322480199550    6.0521246277318    7.1298358421356 
 O    6.2990392272500    5.9726443775854    2.1620326131840 
 O    6.2472445621300    3.8118421638445    5.5271812664009 
 O    8.2606853775050    4.7280443341821    8.6862367793656 
 O   -3.2663965702500    7.0771525101714    0.5999968967040 
 O   -1.2441577141950    8.1265064113439    3.6032306791115 
 O   -3.2477449834225    9.1485625297097    6.9730982860232 
 O   -3.2663965702500    9.2861687753434    2.1620326131840 
 O   -3.4184662635200    7.0495220130528    5.3704421135814 
 O   -1.4629371207000    8.2076211068792    8.8255597357685 
 O    0.5598466197500    7.0771525101714    0.5999968967040 
 O    2.4602605969700    8.0700097915025    3.8005015565999 
 O    0.5899367613975    9.2035553246002    7.0300423345637 
 O    0.5598466197500    9.2861687753434    2.1620326131840 
 O    0.5620481386575    7.0284906314397    5.5427183666970 
 O    2.4768031242075    8.0357414102553    8.6825289974480 
 O    4.3859750247500    7.0771525101714    0.5999968967040 
 O    6.2050420777125    8.0972131379195    3.6803863019460 
 O    4.3671712904050    9.2182807411428    7.0511254828169 
 O    4.3859750247500    9.2861687753434    2.1620326131840 
 O    4.3549382512075    7.0349156857680    5.5179751096373 
 O    6.3335581185525    8.2616847471017    8.6413953142137 
Ce    2.4728534297500    1.5545124405154    1.3810147549440 
Ce    0.4807462675125    2.5372178099538    4.7290134056230 
Ce    0.5857759773250    0.5057160122623    7.9113514167794 
Ce    6.2990966197500    1.5545124405154    1.3810147549440 
Ce    4.2756190039750    2.6270790050896    4.4588569562073 
Ce    4.2661208321875    0.3428300397665    7.9513370676304 
Ce   10.1252250247500    1.5545124405154    1.3810147549440 
Ce    8.1304375179775    2.7082176576459    4.5223837717953 
Ce    8.1996270463525    0.4173781257957    7.7421034326726 
Ce    0.5597892272500    4.8680368382734    1.3810147549440 
Ce   -1.2763692548200    5.8937331315386    4.5009192386533 
Ce   -1.3279419257500    3.6091637783376    7.9373544757174 
Ce    4.3860324172500    4.8680368382734    1.3810147549440 
Ce    2.4291356111550    5.9700323664530    4.6042599450318 
Ce    8.2121608222500    4.8680368382734    1.3810147549440 
Ce    6.2191934612225    5.9577595126543    4.6486951622848 
Ce    6.4303926958975    3.6981486037770    7.8072518183407 
Ce   -1.3533323677500    8.1816606427574    1.3810147549440 
Ce   -3.3074703737625    9.2075095253470    4.5718677768037 
Ce   -3.2275048869800    7.0630924228460    7.7269333469015 
Ce    2.4729108222500    8.1816606427574    1.3810147549440 
Ce    0.5219030031875    9.2465137424277    4.5998051323065 
Ce    0.4042076869050    6.9248522605206    7.8644675351840 
Ce    6.2990392272500    8.1816606427574    1.3810147549440 
Ce    4.3844426450000    9.2002853403484    4.6560140112917 
Ce    4.4229636875050    7.0627168642351    7.8746905662502 
Fe    3.0983836996200    3.9820660426334    7.2317135086360 
81
FORCE:  1.711113  ...  ENERGY:  -641.55828440
 O    0.5597892272500    0.4500043079294    0.5999968967040 
 O    2.3912356702850    1.5200825233384    3.7229239468968 
 O    0.5908430463650    2.5173077362100    7.0034368608583 
 O    0.5597892272500    2.6590205731014    2.1620326131840 
 O    0.5800933737225    0.2253406338667    5.4196156731152 
 O    2.5760041665050    0.9807115687350    8.9160672512234 
 O    4.3860324172500    0.4500043079294    0.5999968967040 
 O    6.2920823953625    1.5992427832338    3.7275459576625 
 O    4.2646697776100    2.6987305779366    6.8202487116262 
 O    4.3860324172500    2.6590205731014    2.1620326131840 
 O    4.3663866775375    0.4829241375317    5.3031689670051 
 O    6.3978558545825    1.6618254804678    8.5483202937903 
 O    8.2121608222500    0.4500043079294    0.5999968967040 
 O   10.2322032673300    1.4383898770981    3.7704620221889 
 O    8.3204135226850    2.7609428857096    6.9927240969236 
 O    8.2121608222500    2.6590205731014    2.1620326131840 
 O    8.2272523523025    0.3958016971039    5.4824358317742 
 O   10.1588237994925    1.4926670429681    8.6840075481949 
 O   -1.3532749752500    3.7635287056874    0.5999968967040 
 O    0.6390128011850    4.8291085679314    3.9330702139957 
 O   -1.5204668461675    5.8875346251389    6.9020984251456 
 O   -1.3533323677500    5.9726443775854    2.1620326131840 
 O   -1.3271379716100    3.6122921080048    5.3144412627173 
 O    0.1836234010600    5.1038182599786    8.7489563454792 
 O    2.4729682147500    3.7635287056874    0.5999968967040 
 O    4.4131413054850    4.8207484622748    3.6338619075423 
 O    2.2545980741625    5.5630108309989    6.9923917537520 
 O    2.4729108222500    5.9726443775854    2.1620326131840 
 O    2.5097078514475    3.7042764319946    5.3953245122572 
 O    4.2317323366450    4.7524119049265    8.4584797456887 
 O    6.2990966197500    3.7635287056874    0.5999968967040 
 O    8.2472604108675    4.7855104678222    3.7648758284540 
 O    6.3338532307875    6.0452855443897    7.1302555479940 
 O    6.2990392272500    5.9726443775854    2.1620326131840 
 O    6.2475471927825    3.8212797390042    5.5270916227040 
 O    8.2661584984825    4.7288058891100    8.6846957289420 
 O   -3.2663965702500    7.0771525101714    0.5999968967040 
 O   -1.2410487050775    8.1321045011186    3.6058463133931 
 O   -3.2458472430175    9.1493247804847    6.9723197772761 
 O   -3.2663965702500    9.2861687753434    2.1620326131840 
 O   -3.4250659418800    7.0458240828456    5.3624168357466 
 O   -1.4605444847675    8.1990318687192    8.8265058987580 
 O    0.5598466197500    7.0771525101714    0.5999968967040 
 O    2.4597907819650    8.0683709722177    3.8021749056092 
 O    0.5862007392175    9.2062953715957    7.0282241414129 
 O    0.5598466197500    9.2861687753434    2.1620326131840 
 O    0.5612232936475    7.0274065016859    5.5520627526727 
 O    2.4797771461650    8.0401983108155    8.6755142070875 
 O    4.3859750247500    7.0771525101714    0.5999968967040 
 O    6.2101105241725    8.0916861239539    3.6846554404491 
 O    4.3653225058025    9.2210588609143    7.0535773405734 
 O    4.3859750247500    9.2861687753434    2.1620326131840 
 O    4.3538252958475    7.0332772641101    5.5161523544664 
 O    6.3363619717475    8.2556978776217    8.6405385668202 
Ce    2.4728534297500    1.5545124405154    1.3810147549440 
Ce    0.4820603835850    2.5381233058209    4.7323947749953 
Ce    0.5829275875500    0.5069562105759    7.9123525521123 
Ce    6.2990966197500    1.5545124405154    1.3810147549440 
Ce    4.2748931036350    2.6262439885912    4.4558033679864 
Ce    4.2671931536575    0.3404530261344    7.9500644920956 
Ce   10.1252250247500    1.5545124405154    1.3810147549440 
Ce    8.1311749542100    2.7102957552529    4.5204579149679 
Ce    8.1978711802075    0.4160939897092    7.7402583236027 
Ce    0.5597892272500    4.8680368382734    1.3810147549440 
Ce   -1.2814527955075    5.8932421617189    4.5029739725514 
Ce   -1.3290357120150    3.6109373931429    7.9358364634959 
Ce    4.3860324172500    4.8680368382734    1.3810147549440 
Ce    2.4291771633250    5.9704077262504    4.6047613110518 
Ce    8.2121608222500    4.8680368382734    1.3810147549440 
Ce    6.2225310646675    5.9568161428246    4.6481440702447 
Ce    6.4304499162200    3.6991888951646    7.8090072837136 
Ce   -1.3533323677500    8.1816606427574    1.3810147549440 
Ce   -3.3086880130425    9.2108497901541    4.5744986938531 
Ce   -3.2286991675125    7.0635442264156    7.7257342198919 
Ce    2.4729108222500    8.1816606427574    1.3810147549440 
Ce    0.5212048808175    9.2482106152405    4.6022804844670 
Ce    0.4034798926125    6.9281683694932    7.8624860217102 
Ce    6.2990392272500    8.1816606427574    1.3810147549440 
Ce    4.3866274626900    9.1979315878902    4.6579597129070 
Ce    4.4229468715025    7.0623692389143    7.8735881540689 
Fe    3.1004831172700    3.9844834153963    7.2304940806365 
81
FORCE:  1.767187  ...  ENERGY:  -641.54222664
 O    0.5597892272500    0.4500043079294    0.5999968967040 
 O    2.3871206854275    1.5272045182227    3.7319788726908 
 O    0.5914131260675    2.5232941086564    7.0073588296242 
 O    0.5597892272500    2.6590205731014    2.1620326131840 
 O    0.5843489702050    0.2286529653838    5.4203752494785 
 O    2.5743411614250    0.9891285350389    8.9172960313643 
 O    4.3860324172500    0.4500043079294    0.5999968967040 
 O    6.2951945610675    1.5981357899331    3.7313470328931 
 O    4.2683234415525    2.6966705723537    6.8161355942139 
 O    4.3860324172500    2.6590205731014    2.1620326131840 
 O    4.3711659805825    0.4797836802439    5.2967689088665 
 O    6.4017101053125    1.6563919088246    8.5518166260716 
 O    8.2121608222500    0.4500043079294    0.5999968967040 
 O   10.2393158050700    1.4385713937798    3.7698963316841 
 O    8.3255713292675    2.7570764611018    6.9905473289852 
 O    8.2121608222500    2.6590205731014    2.1620326131840 
 O    8.2222008940225    0.3912399224478    5.4808122087850 
 O   10.1589656163600    1.4897720208868    8.6920157184539 
 O   -1.3532749752500    3.7635287056874    0.5999968967040 
 O    0.6364017293975    4.8308731367247    3.9371999827817 
 O   -1.5297004959225    5.8915385292487    6.9025838240948 
 O   -1.3533323677500    5.9726443775854    2.1620326131840 
 O   -1.3303571743275    3.6076355987388    5.3193805619878 
 O    0.1763921756300    5.1041981924854    8.7457836885311 
 O    2.4729682147500    3.7635287056874    0.5999968967040 
 O    4.4124699854125    4.8177951878521    3.6257903252025 
 O    2.2490436854050    5.5703234879837    6.9945406933672 
 O    2.4729108222500    5.9726443775854    2.1620326131840 
 O    2.5039372077500    3.7052529042641    5.3947357835504 
 O    4.2319311442650    4.7488958890279    8.4600700659304 
 O    6.2990966197500    3.7635287056874    0.5999968967040 
 O    8.2453630148175    4.7871620111679    3.7674978495640 
 O    6.3350612855200    6.0379019110026    7.1304578735899 
 O    6.2990392272500    5.9726443775854    2.1620326131840 
 O    6.2479970925900    3.8306429579328    5.5265683589870 
 O    8.2714035416650    4.7296247023121    8.6832199154073 
 O   -3.2663965702500    7.0771525101714    0.5999968967040 
 O   -1.2382517389825    8.1376005001857    3.6096010841187 
 O   -3.2436320073025    9.1505311805115    6.9710072840645 
 O   -3.2663965702500    9.2861687753434    2.1620326131840 
 O   -3.4311679698725    7.0421155161187    5.3540249995887 
 O   -1.4579020766750    8.1901263183570    8.8268927580710 
 O    0.5598466197500    7.0771525101714    0.5999968967040 
 O    2.4592228257850    8.0671484683013    3.8038890846994 
 O    0.5820011004225    9.2093252886042    7.0263651181814 
 O    0.5598466197500    9.2861687753434    2.1620326131840 
 O    0.5602585257225    7.0263971257901    5.5608056362850 
 O    2.4830769853450    8.0445934797988    8.6680190359999 
 O    4.3859750247500    7.0771525101714    0.5999968967040 
 O    6.2153221649200    8.0862283964763    3.6893969761440 
 O    4.3634058258725    9.2239770447627    7.0559057956835 
 O    4.3859750247500    9.2861687753434    2.1620326131840 
 O    4.3525633495575    7.0312563253705    5.5143875369520 
 O    6.3388215273350    8.2493832641660    8.6397208246993 
Ce    2.4728534297500    1.5545124405154    1.3810147549440 
Ce    0.4834319495500    2.5390320821100    4.7357277869534 
Ce    0.5800859126975    0.5080770214115    7.9133712512230 
Ce    6.2990966197500    1.5545124405154    1.3810147549440 
Ce    4.2742334916325    2.6253663266074    4.4527201266343 
Ce    4.2683281477375    0.3380290925276    7.9487581576114 
Ce   10.1252250247500    1.5545124405154    1.3810147549440 
Ce    8.1319895833550    2.7123276287324    4.5185569211506 
Ce    8.1961042947025    0.4147434499298    7.7384440081691 
Ce    0.5597892272500    4.8680368382734    1.3810147549440 
Ce   -1.2866310912125    5.8927459233427    4.5051206311565 
Ce   -1.3301259973375    3.6128498791444    7.9342856047289 
Ce    4.3860324172500    4.8680368382734    1.3810147549440 
Ce    2.4292276687250    5.9707614153815    4.6052426041829 
Ce    8.2121608222500    4.8680368382734    1.3810147549440 
Ce    6.2259385147850    5.9558515993622    4.6475281975177 
Ce    6.4305220012000    3.7002911169425    7.8108033510664 
Ce   -1.3533323677500    8.1816606427574    1.3810147549440 
Ce   -3.3098973304100    9.2142426411192    4.5771314357105 
Ce   -3.2299432647350    7.0639966264257    7.7246263332864 
Ce    2.4729108222500    8.1816606427574    1.3810147549440 
Ce    0.5205184091250    9.2499477477773    4.6047957543043 
Ce    0.4027947409475    6.9315931300174    7.8605286869434 
Ce    6.2990392272500    8.1816606427574    1.3810147549440 
Ce    4.3888244475900    9.1956074586363    4.6598734803809 
Ce    4.4229001540075    7.0621171434572    7.8725176760290 
Fe    3.1025444836925    3.9870676920521    7.2292249266169 
81
FORCE:  1.816826  ...  ENERGY:  -641.52572505
 O    0.5597892272500    0.4500043079294    0.5999968967040 
 O    2.3830905840775    1.5343464938589    3.7412833409897 
 O    0.5919801639675    2.5295273080035    7.0114420658042 
 O    0.5597892272500    2.6590205731014    2.1620326131840 
 O    0.5885432714975    0.2324080544584    5.4213597334376 
 O    2.5725029944350    0.9979536653597    8.9185549208385 
 O    4.3860324172500    0.4500043079294    0.5999968967040 
 O    6.2984046383775    1.5968941999253    3.7353648040832 
 O    4.2720379989375    2.6943734817293    6.8127720167205 
 O    4.3860324172500    2.6590205731014    2.1620326131840 
 O    4.3759400035175    0.4761706433807    5.2905166601824 
 O    6.4053451166925    1.6505939121240    8.5553932499084 
 O    8.2121608222500    0.4500043079294    0.5999968967040 
 O   10.2459131877300    1.4387797502775    3.7694024929975 
 O    8.3303590116175    2.7524345646245    6.9879161838348 
 O    8.2121608222500    2.6590205731014    2.1620326131840 
 O    8.2169294502900    0.3868697045526    5.4787510880587 
 O   10.1588968027525    1.4868589067814    8.7001835594200 
 O   -1.3532749752500    3.7635287056874    0.5999968967040 
 O    0.6333790386000    4.8327130558162    3.9407439881741 
 O   -1.5386816186775    5.8956816027750    6.9026429022564 
 O   -1.3533323677500    5.9726443775854    2.1620326131840 
 O   -1.3338383738075    3.6034434182899    5.3245427159452 
 O    0.1689273627250    5.1039977885258    8.7429743964920 
 O    2.4729682147500    3.7635287056874    0.5999968967040 
 O    4.4115618638850    4.8150538485692    3.6185104814683 
 O    2.2440237930000    5.5778537462916    6.9968098422147 
 O    2.4729108222500    5.9726443775854    2.1620326131840 
 O    2.4982965580650    3.7063620845128    5.3944903468637 
 O    4.2320668201350    4.7450273768789    8.4613907707783 
 O    6.2990966197500    3.7635287056874    0.5999968967040 
 O    8.2432811592725    4.7892215197172    3.7701417683709 
 O    6.3358538759450    6.0299974857780    7.1304562768828 
 O    6.2990392272500    5.9726443775854    2.1620326131840 
 O    6.2486001155875    3.8398723754083    5.5256240208056 
 O    8.2763756261175    4.7304878509139    8.6818157255898 
 O   -3.2663965702500    7.0771525101714    0.5999968967040 
 O   -1.2357936182075    8.1429511666194    3.6144728654903 
 O   -3.2410939387750    9.1521860042792    6.9691653684088 
 O   -3.2663965702500    9.2861687753434    2.1620326131840 
 O   -3.4367140367175    7.0384360755625    5.3453218055521 
 O   -1.4550203418575    8.1809533639019    8.8267070838488 
 O    0.5598466197500    7.0771525101714    0.5999968967040 
 O    2.4585674034350    8.0663462560225    3.8056361103349 
 O    0.5773206846550    9.2126445785920    7.0244853377580 
 O    0.5598466197500    9.2861687753434    2.1620326131840 
 O    0.5591454555775    7.0254648895137    5.5688925013925 
 O    2.4866958694325    8.0489151872117    8.6600587669529 
 O    4.3859750247500    7.0771525101714    0.5999968967040 
 O    6.2206398670075    8.0808963191004    3.6945821683033 
 O    4.3614578096375    9.2270188905783    7.0580807388139 
 O    4.3859750247500    9.2861687753434    2.1620326131840 
 O    4.3511598733625    7.0288640031026    5.5127027828921 
 O    6.3409198545275    8.2427569112175    8.6389302265987 
Ce    2.4728534297500    1.5545124405154    1.3810147549440 
Ce    0.4848596453800    2.5399464251758    4.7390122133964 
Ce    0.5772526171500    0.5090817251912    7.9144100232225 
Ce    6.2990966197500    1.5545124405154    1.3810147549440 
Ce    4.2736406845000    2.6244491007466    4.4496106536659 
Ce    4.2695211656350    0.3355607241143    7.9474223980968 
Ce   10.1252250247500    1.5545124405154    1.3810147549440 
Ce    8.1328812332350    2.7143096000353    4.5166846680605 
Ce    8.1943288003225    0.4133288922188    7.7366636797861 
Ce    0.5597892272500    4.8680368382734    1.3810147549440 
Ce   -1.2918997227125    5.8922463051378    4.5073592144687 
Ce   -1.3312109451575    3.6148982541403    7.9327048647296 
Ce    4.3860324172500    4.8680368382734    1.3810147549440 
Ce    2.4292846020850    5.9710930362194    4.6057033682231 
Ce    8.2121608222500    4.8680368382734    1.3810147549440 
Ce    6.2294107036425    5.9548643911663    4.6468454911948 
Ce    6.4306133700600    3.7014507958080    7.8126379674898 
Ce   -1.3533323677500    8.1816606427574    1.3810147549440 
Ce   -3.3110951118850    9.2176843007868    4.5797623527598 
Ce   -3.2312384412825    7.0644474359281    7.7236121961959 
Ce    2.4729108222500    8.1816606427574    1.3810147549440 
Ce    0.5198457116325    9.2517228536835    4.6073493451112 
Ce    0.4021506249200    6.9351233610778    7.8585991804998 
Ce    6.2990392272500    8.1816606427574    1.3810147549440 
Ce    4.3910311892150    9.1933155371617    4.6617528046023 
Ce    4.4228237645900    7.0619609754906    7.8714795883325 
Fe    3.1045603378625    3.9898176797202    7.2278989754457 
81
FORCE:  1.859641  ...  ENERGY:  -641.50937484
 O    0.5597892272500    0.4500043079294    0.5999968967040 
 O    2.3791741772700    1.5414706756911    3.7507821513491 
 O    0.5925411756550    2.5359681680012    7.0156881661054 
 O    0.5597892272500    2.6590205731014    2.1620326131840 
 O    0.5926373654850    0.2365884055069    5.4225862325684 
 O    2.5705281759025    1.0071391450623    8.9197960184339 
 O    4.3860324172500    0.4500043079294    0.5999968967040 
 O    6.3016959834675    1.5955404791307    3.7395730396167 
 O    4.2757801621150    2.6918810568883    6.8101696122974 
 O    4.3860324172500    2.6590205731014    2.1620326131840 
 O    4.3806697194425    0.4721162406541    5.2844366277609 
 O    6.4087425805150    1.6444769192396    8.5590326015229 
 O    8.2121608222500    0.4500043079294    0.5999968967040 
 O   10.2519625294075    1.4389961587200    3.7689834714421 
 O    8.3347071248100    2.7470281310175    6.9848466285433 
 O    8.2121608222500    2.6590205731014    2.1620326131840 
 O    8.2114790567425    0.3827000894306    5.4762504166861 
 O   10.1586331416075    1.4839373431043    8.7084759435376 
 O   -1.3532749752500    3.7635287056874    0.5999968967040 
 O    0.6299368086275    4.8346301145271    3.9436880879102 
 O   -1.5473695805425    5.8999517180970    6.9022434973879 
 O   -1.3533323677500    5.9726443775854    2.1620326131840 
 O   -1.3375711820075    3.5997478738441    5.3299067392963 
 O    0.1612454913850    5.1032407069006    8.7405266445537 
 O    2.4729682147500    3.7635287056874    0.5999968967040 
 O    4.4104110294750    4.8125255379001    3.6120741552691 
 O    2.2396142124400    5.5855174084259    6.9992033061127 
 O    2.4729108222500    5.9726443775854    2.1620326131840 
 O    2.4928463940875    3.7076180884958    5.3946153462172 
 O    4.2321389625075    4.7408227705892    8.4624341047980 
 O    6.2990966197500    3.7635287056874    0.5999968967040 
 O    8.2410315454500    4.7916779593234    3.7727793003495 
 O    6.3362167687225    6.0216040788682    7.1302662687415 
 O    6.2990392272500    5.9726443775854    2.1620326131840 
 O    6.2493607957825    3.8489030788385    5.5242759438365 
 O    8.2810281491300    4.7313822132277    8.6804897744186 
 O   -3.2663965702500    7.0771525101714    0.5999968967040 
 O   -1.2337018911525    8.1481129602736    3.6204274423564 
 O   -3.2382309139125    9.1542881583139    6.9668054353593 
 O   -3.2663965702500    9.2861687753434    2.1620326131840 
 O   -3.4416427898325    7.0348272137818    5.3363697533137 
 O   -1.4519107588150    8.1715627087169    8.8259370148391 
 O    0.5598466197500    7.0771525101714    0.5999968967040 
 O    2.4578372560500    8.0659651306350    3.8074068584756 
 O    0.5721461768550    9.2162478735961    7.0226073821427 
 O    0.5598466197500    9.2861687753434    2.1620326131840 
 O    0.5578778274300    7.0246110851441    5.5762720252680 
 O    2.4906227790675    8.0531491184855    8.6516552976435 
 O    4.3859750247500    7.0771525101714    0.5999968967040 
 O    6.2260231113300    8.0757499334887    3.7001761174726 
 O    4.3595161065775    9.2301673004042    7.0600706920251 
 O    4.3859750247500    9.2861687753434    2.1620326131840 
 O    4.3496234187450    7.0261153077219    5.5111209023878 
 O    6.3426432365175    8.2358366125803    8.6381546831647 
Ce    2.4728534297500    1.5545124405154    1.3810147549440 
Ce    0.4863406588425    2.5408686213729    4.7422471419202 
Ce    0.5744300540000    0.5099741987772    7.9154713772221 
Ce    6.2990966197500    1.5545124405154    1.3810147549440 
Ce    4.2731156005175    2.6234956908375    4.4464795111017 
Ce    4.2707673863800    0.3330514995366    7.9460622317742 
Ce   10.1252250247500    1.5545124405154    1.3810147549440 
Ce    8.1338495594950    2.7162372952659    4.5148457177179 
Ce    8.1925473371225    0.4118534975915    7.7349200756656 
Ce    0.5597892272500    4.8680368382734    1.3810147549440 
Ce   -1.2972530081500    5.8917459910859    4.5096892662858 
Ce   -1.3322884893450    3.6170787406752    7.9310965245081 
Ce    4.3860324172500    4.8680368382734    1.3810147549440 
Ce    2.4293451511725    5.9714020917306    4.6061433750714 
Ce    8.2121608222500    4.8680368382734    1.3810147549440 
Ce    6.2329412606725    5.9538532259494    4.6460941264678 
Ce    6.4307280976675    3.7026630608316    7.8145079395698 
Ce   -1.3533323677500    8.1816606427574    1.3810147549440 
Ce   -3.3122777991325    9.2211701964474    4.5823880234859 
Ce   -3.2325860745750    7.0648944679749    7.7226936334286 
Ce    2.4729108222500    8.1816606427574    1.3810147549440 
Ce    0.5191891414325    9.2535332489774    4.6099380634737 
Ce    0.4015461671100    6.9387538935248    7.8567020643996 
Ce    6.2990392272500    8.1816606427574    1.3810147549440 
Ce    4.3932449327250    9.1910586068546    4.6635956326621 
Ce    4.4227181049975    7.0619006356079    7.8704736628784 
Fe    3.1065231613625    3.9927297003516    7.2265105245979 
81
FORCE:  1.895451  ...  ENERGY:  -641.49379617
 O    0.5597892272500    0.4500043079294    0.5999968967040 
 O    2.3754005056100    1.5485378974693    3.7604169099105 
 O    0.5930917993000    2.5425753354515    7.0200937090125 
 O    0.5597892272500    2.6590205731014    2.1620326131840 
 O    0.5965906182775    0.2411753300647    5.4240704858405 
 O    2.5684545848775    1.0166306980742    8.9209714229384 
 O    4.3860324172500    0.4500043079294    0.5999968967040 
 O    6.3050493124575    1.5940984851633    3.7439418582613 
 O    4.2795166434350    2.6892344522153    6.8083343115709 
 O    4.3860324172500    2.6590205731014    2.1620326131840 
 O    4.3853117396275    0.4676594395006    5.2785548151170 
 O    6.4118836720400    1.6380882477730    8.5627162047334 
 O    8.2121608222500    0.4500043079294    0.5999968967040 
 O   10.2574328955450    1.4392036205572    3.7686422323311 
 O    8.3385506431425    2.7408739600176    6.9813605608074 
 O    8.2121608222500    2.6590205731014    2.1620326131840 
 O    8.2058941351750    0.3787402225004    5.4733127037783 
 O   10.1581901289000    1.4810176681549    8.7168550060389 
 O   -1.3532749752500    3.7635287056874    0.5999968967040 
 O    0.6260722272475    4.8366244122641    3.9460201926364 
 O   -1.5557228867400    5.9043370458145    6.9013584654691 
 O   -1.3533323677500    5.9726443775854    2.1620326131840 
 O   -1.3415405047000    3.5965790856394    5.3354484533343 
 O    0.1533655585275    5.1019576642881    8.7384356425950 
 O    2.4729682147500    3.7635287056874    0.5999968967040 
 O    4.4090120872875    4.8102112499121    3.6065285635140 
 O    2.2358863399950    5.5932339549384    7.0017222255661 
 O    2.4729108222500    5.9726443775854    2.1620326131840 
 O    2.4876460596625    3.7090342367144    5.3951338198129 
 O    4.2321486618400    4.7363022497244    8.4631961902724 
 O    6.2990966197500    3.7635287056874    0.5999968967040 
 O    8.2386325963425    4.7945161207574    3.7753807923686 
 O    6.3361418715100    6.0127573772878    7.1299047286406 
 O    6.2990392272500    5.9726443775854    2.1620326131840 
 O    6.2502824045475    3.8576665769892    5.5225428323625 
 O    8.2853163445525    4.7322962580733    8.6792475363182 
 O   -3.2663965702500    7.0771525101714    0.5999968967040 
 O   -1.2320046227500    8.1530408499016    3.6274185102118 
 O   -3.2350454005925    9.1568303859246    6.9639436800879 
 O   -3.2663965702500    9.2861687753434    2.1620326131840 
 O   -3.4458953445125    7.0313326697360    5.3272372731763 
 O   -1.4485876756725    8.1620054478591    8.8245752518094 
 O    0.5598466197500    7.0771525101714    0.5999968967040 
 O    2.4570470761100    8.0660025075640    3.8091903802728 
 O    0.5664688533625    9.2201272210782    7.0207547457395 
 O    0.5598466197500    9.2861687753434    2.1620326131840 
 O    0.5564527716550    7.0238373031889    5.5828990439116 
 O    2.4948425052375    8.0572806608315    8.6428328067787 
 O    4.3859750247500    7.0771525101714    0.5999968967040 
 O    6.2314300013625    8.0708508718112    3.7061402745810 
 O    4.3576192844525    9.2334043810297    7.0618446335799 
 O    4.3859750247500    9.2861687753434    2.1620326131840 
 O    4.3479635702525    7.0230292259133    5.5096633369339 
 O    6.3439796208800    8.2286424484130    8.6373814207408 
Ce    2.4728534297500    1.5545124405154    1.3810147549440 
Ce    0.4878717185650    2.5418011558695    4.7454314320198 
Ce    0.5716214372275    0.5107586172521    7.9165573661307 
Ce    6.2990966197500    1.5545124405154    1.3810147549440 
Ce    4.2726593301425    2.6225095761156    4.4433321733657 
Ce    4.2720618742175    0.3305063891308    7.9446824487647 
Ce   10.1252250247500    1.5545124405154    1.3810147549440 
Ce    8.1348939308175    2.7181060423080    4.5130448602439 
Ce    8.1907629469050    0.4103209440967    7.7332170735250 
Ce    0.5597892272500    4.8680368382734    1.3810147549440 
Ce   -1.3026841178175    5.8912476651684    4.5121098742039 
Ce   -1.3333564489850    3.6193861695991    7.9294642336805 
Ce    4.3860324172500    4.8680368382734    1.3810147549440 
Ce    2.4294061020075    5.9716883831015    4.6065619404247 
Ce    8.2121608222500    4.8680368382734    1.3810147549440 
Ce    6.2365224952800    5.9528169108309    4.6452725066298 
Ce    6.4308700867125    3.7039219476096    7.8164098457912 
Ce   -1.3533323677500    8.1816606427574    1.3810147549440 
Ce   -3.3134410877150    9.2246948607312    4.5850038858686 
Ce   -3.2339867385375    7.0653353368047    7.7218726978936 
Ce    2.4729108222500    8.1816606427574    1.3810147549440 
Ce    0.5185509368325    9.2553754544237    4.6125587159776 
Ce    0.4009799327050    6.9424782659211    7.8548414444610 
Ce    6.2990392272500    8.1816606427574    1.3810147549440 
Ce    4.3954617180375    9.1888401469504    4.6653987711461 
Ce    4.4225835769775    7.0619356267755    7.8695003558687 
Fe    3.1084258375225    3.9957973919160    7.2250543277500 
81
FORCE:  1.924764  ...  ENERGY:  -641.47956655
 O    0.5597892272500    0.4500043079294    0.5999968967040 
 O    2.3718008480100    1.5555077006561    3.7701246607951 
 O    0.5936276730725    2.5493044749547    7.0246532201014 
 O    0.5597892272500    2.6590205731014    2.1620326131840 
 O    0.6003617072750    0.2461465610253    5.4258268636175 
 O    2.5663186655975    1.0263703702742    8.9220343736450 
 O    4.3860324172500    0.4500043079294    0.5999968967040 
 O    6.3084422422725    1.5925932685182    3.7484375010673 
 O    4.2832144996025    2.6864746232814    6.8072663426421 
 O    4.3860324172500    2.6590205731014    2.1620326131840 
 O    4.3898209535675    0.4628469610815    5.2728956290589 
 O    6.4147507717700    1.6314769052402    8.5664255833580 
 O    8.2121608222500    0.4500043079294    0.5999968967040 
 O   10.2622965081725    1.4393862307128    3.7683815128767 
 O    8.3418280418550    2.7339953127986    6.9774844403445 
 O    8.2121608222500    2.6590205731014    2.1620326131840 
 O    8.2002215752600    0.3749977580799    5.4699454766687 
 O   10.1575862450150    1.4781100214194    8.7252803730453 
 O   -1.3532749752500    3.7635287056874    0.5999968967040 
 O    0.6217895988975    4.8386934638591    3.9477293535044 
 O   -1.5637006738100    5.9088240666127    6.8999665931061 
 O   -1.3533323677500    5.9726443775854    2.1620326131840 
 O   -1.3457264840800    3.5939632970515    5.3411404859378 
 O    0.1453089715550    5.1001865346510    8.7366938632826 
 O    2.4729682147500    3.7635287056874    0.5999968967040 
 O    4.4073608476700    4.8081108851985    3.6019147643848 
 O    2.2329069805350    5.6009272402769    7.0043672848781 
 O    2.4729108222500    5.9726443775854    2.1620326131840 
 O    2.4827548986350    3.7106230544160    5.3960656124387 
 O    4.2320989025425    4.7314902683389    8.4636765709995 
 O    6.2990966197500    3.7635287056874    0.5999968967040 
 O    8.2361031366900    4.7977163214875    3.7779140821856 
 O    6.3356270033925    6.0035027105039    7.1293892203580 
 O    6.2990392272500    5.9726443775854    2.1620326131840 
 O    6.2513662619100    3.8660902035437    5.5204468121816 
 O    8.2891955036275    4.7332189513040    8.6780931171066 
 O   -3.2663965702500    7.0771525101714    0.5999968967040 
 O   -1.2307302796800    8.1576901024767    3.6353872189962 
 O   -3.2315439989525    9.1597992672033    6.9606035969984 
 O   -3.2663965702500    9.2861687753434    2.1620326131840 
 O   -3.4494127012675    7.0279971764518    5.3180003227763 
 O   -1.4450682527875    8.1523337698596    8.8226188294466 
 O    0.5598466197500    7.0771525101714    0.5999968967040 
 O    2.4562126465525    8.0664517265588    3.8109757268780 
 O    0.5602852132350    9.2242705928246    7.0189532039625 
 O    0.5598466197500    9.2861687753434    2.1620326131840 
 O    0.5548701734675    7.0231445377154    5.5887327272423 
 O    2.4993340422875    8.0612939091736    8.6336207193889 
 O    4.3859750247500    7.0771525101714    0.5999968967040 
 O    6.2368154839925    8.0662638478467    3.7124297037298 
 O    4.3558071736575    9.2367104499230    7.0633713136398 
 O    4.3859750247500    9.2861687753434    2.1620326131840 
 O    4.3461899698250    7.0196294164773    5.5083512999244 
 O    6.3449194230675    8.2211971828557    8.6365976656704 
Ce    2.4728534297500    1.5545124405154    1.3810147549440 
Ce    0.4894481757550    2.5427465138337    4.7485632588871 
Ce    0.5688302677750    0.5114396527319    7.9176698147564 
Ce    6.2990966197500    1.5545124405154    1.3810147549440 
Ce    4.2722731934025    2.6214942358162    4.4401761677913 
Ce    4.2733994064300    0.3279316555207    7.9432885234926 
Ce   10.1252250247500    1.5545124405154    1.3810147549440 
Ce    8.1360127976050    2.7199111690454    4.5112875700629 
Ce    8.1889789010425    0.4087359038507    7.7315574105762 
Ce    0.5597892272500    4.8680368382734    1.3810147549440 
Ce   -1.3081849593725    5.8907546078075    4.5146187572129 
Ce   -1.3344125857700    3.6218146759153    7.9278111856610 
Ce    4.3860324172500    4.8680368382734    1.3810147549440 
Ce    2.4294643553950    5.9719517115186    4.6069586080811 
Ce    8.2121608222500    4.8680368382734    1.3810147549440 
Ce    6.2401456838050    5.9517548493703    4.6443794911757 
Ce    6.4310423216050    3.7052212929252    7.8183391241338 
Ce   -1.3533323677500    8.1816606427574    1.3810147549440 
Ce   -3.3145803288400    9.2282516333875    4.5876046935846 
Ce   -3.2354411218800    7.0657676566561    7.7211505300960 
Ce    2.4729108222500    8.1816606427574    1.3810147549440 
Ce    0.5179340822425    9.2572452949397    4.6152067406027 
Ce    0.4004508312475    6.9462880286951    7.8530221108053 
Ce    6.2990392272500    8.1816606427574    1.3810147549440 
Ce    4.3976773555000    9.1866640343116    4.6671592547413 
Ce    4.4224204674925    7.0620650543327    7.8685592111014 
Fe    3.1102613070650    3.9990117084012    7.2235262790840 
81
FORCE:  1.945903  ...  ENERGY:  -641.46745702
 O    0.5597892272500    0.4500043079294    0.5999968967040 
 O    2.3684051059625    1.5623390302736    3.7798422200231 
 O    0.5941434020775    2.5561100582301    7.0293571191296 
 O    0.5597892272500    2.6590205731014    2.1620326131840 
 O    0.6039097116250    0.2514785389944    5.4278669990509 
 O    2.5641541648525    1.0362969271191    8.9229390222507 
 O    4.3860324172500    0.4500043079294    0.5999968967040 
 O    6.3118510124175    1.5910504761307    3.7530246123785 
 O    4.2868412464625    2.6836417304038    6.8069593186826 
 O    4.3860324172500    2.6590205731014    2.1620326131840 
 O    4.3941500124500    0.4577317891817    5.2674846168997 
 O    6.4173274654500    1.6246929926310    8.5701429455180 
 O    8.2121608222500    0.4500043079294    0.5999968967040 
 O   10.2665292624400    1.4395308674992    3.7682045064929 
 O    8.3444840519700    2.7264205202774    6.9732508855989 
 O    8.2121608222500    2.6590205731014    2.1620326131840 
 O    8.1945118823975    0.3714802510804    5.4661631057208 
 O   10.1568408886175    1.4752243435704    8.7337093896678 
 O   -1.3532749752500    3.7635287056874    0.5999968967040 
 O    0.6170991394425    4.8408332930430    3.9488082712817 
 O   -1.5712627670025    5.9133982671096    6.8980528256322 
 O   -1.3533323677500    5.9726443775854    2.1620326131840 
 O   -1.3501038674475    3.5919223775600    5.3469543244807 
 O    0.1371013275225    5.0979716533889    8.7352914982732 
 O    2.4729682147500    3.7635287056874    0.5999968967040 
 O    4.4054550723150    4.8062241455390    3.5982665168308 
 O    2.2307346170175    5.6085259898191    7.0071380278465 
 O    2.4729108222500    5.9726443775854    2.1620326131840 
 O    2.4782289834775    3.7123955757473    5.3974253225594 
 O    4.2319941612300    4.7264158531968    8.4638777560903 
 O    6.2990966197500    3.7635287056874    0.5999968967040 
 O    8.2334626225500    4.8012540080524    3.7803458670532 
 O    6.3346761818450    5.9938899806930    7.1287384481765 
 O    6.2990392272500    5.9726443775854    2.1620326131840 
 O    6.2526126548325    3.8741002981181    5.5180125182029 
 O    8.2926232706900    4.7341405510608    8.6770301664000 
 O   -3.2663965702500    7.0771525101714    0.5999968967040 
 O   -1.2299057790250    8.1620168796325    3.6442633135983 
 O   -3.2277387614175    9.1631753184317    6.9568157516264 
 O   -3.2663965702500    9.2861687753434    2.1620326131840 
 O   -3.4521394189425    7.0248644728887    5.3087380531643 
 O   -1.4413732088525    8.1425994656228    8.8200698006599 
 O    0.5598466197500    7.0771525101714    0.5999968967040 
 O    2.4553510703425    8.0673024493199    3.8127512651399 
 O    0.5535968634625    9.2286610896919    7.0172289884279 
 O    0.5598466197500    9.2861687753434    2.1620326131840 
 O    0.5531330746700    7.0225328881303    5.5937393163108 
 O    2.5040729984050    8.0651724614019    8.6240516539184 
 O    4.3859750247500    7.0771525101714    0.5999968967040 
 O    6.2421330139025    8.0620521836795    3.7189976442117 
 O    4.3541194898025    9.2400664209927    7.0646208509726 
 O    4.3859750247500    9.2861687753434    2.1620326131840 
 O    4.3443136368225    7.0159419239764    5.5072046361471 
 O    6.3454570760075    8.2135251705565    8.6357911004990 
Ce    2.4728534297500    1.5545124405154    1.3810147549440 
Ce    0.4910644059475    2.5437070810271    4.7516405696130 
Ce    0.5660608500800    0.5120223749597    7.9188098636044 
Ce    6.2990966197500    1.5545124405154    1.3810147549440 
Ce    4.2719587398950    2.6204537456152    4.4370199341160 
Ce    4.2747747029075    0.3253346548039    7.9418852460791 
Ce   10.1252250247500    1.5545124405154    1.3810147549440 
Ce    8.1372047250450    2.7216474069218    4.5095793215990 
Ce    8.1871987004775    0.4071036454098    7.7299447364355 
Ce    0.5597892272500    4.8680368382734    1.3810147549440 
Ce   -1.3137457186975    5.8902699006115    4.5172129499996 
Ce   -1.3354547761775    3.6243570029327    7.9261410300658 
Ce    4.3860324172500    4.8680368382734    1.3810147549440 
Ce    2.4295164103925    5.9721919775754    4.6073320094345 
Ce    8.2121608222500    4.8680368382734    1.3810147549440 
Ce    6.2438008973450    5.9506663457206    4.6434141677013 
Ce    6.4312479589325    3.7065538400872    7.8202909844763 
Ce   -1.3533323677500    8.1816606427574    1.3810147549440 
Ce   -3.3156904719675    9.2318329595051    4.5901852003108 
Ce   -3.2369492819950    7.0661889423609    7.7205275862377 
Ce    2.4729108222500    8.1816606427574    1.3810147549440 
Ce    0.5173409881475    9.2591379990028    4.6178766629248 
Ce    0.3999573705325    6.9501736388010    7.8512488535535 
Ce    6.2990392272500    8.1816606427574    1.3810147549440 
Ce    4.3998866223950    9.1845343446137    4.6688738900335 
Ce    4.4222290635050    7.0622874271788    7.8676506847786 
Fe    3.1120231420300    4.0023609198136    7.2219238694888 
81
FORCE:  1.987221  ...  ENERGY:  -641.45803962
 O    0.5597892272500    0.4500043079294    0.5999968967040 
 O    2.3652439844550    1.5689910301573    3.7895034383017 
 O    0.5946338209900    2.5629457617435    7.0341930886426 
 O    0.5597892272500    2.6590205731014    2.1620326131840 
 O    0.6071941696150    0.2571447223764    5.4302004723832 
 O    2.5619927059100    1.0463454560169    8.9236413452605 
 O    4.3860324172500    0.4500043079294    0.5999968967040 
 O    6.3152487058100    1.5894970472235    3.7576635026188 
 O    4.2903648590000    2.6807755362730    6.8074004660360 
 O    4.3860324172500    2.6590205731014    2.1620326131840 
 O    4.3982496735100    0.4523739654638    5.2623468697505 
 O    6.4195990032075    1.6177873067825    8.5738507274356 
 O    8.2121608222500    0.4500043079294    0.5999968967040 
 O   10.2701106118325    1.4396263973629    3.7681141784930 
 O    8.3464700620400    2.7181852694686    6.9686973051363 
 O    8.2121608222500    2.6590205731014    2.1620326131840 
 O    8.1888175707250    0.3681935664987    5.4619858919247 
 O   10.1559739749050    1.4723702770602    8.7420959795025 
 O   -1.3532749752500    3.7635287056874    0.5999968967040 
 O    0.6120173205300    4.8430374383786    3.9492539806552 
 O   -1.5783707707350    5.9180438416357    6.8956112324212 
 O   -1.3533323677500    5.9726443775854    2.1620326131840 
 O   -1.3546438437675    3.5904740215621    5.3528584910235 
 O    0.1287710357175    5.0953638173391    8.7342155458090 
 O    2.4729682147500    3.7635287056874    0.5999968967040 
 O    4.4032936707650    4.8045491422059    3.5956082276603 
 O    2.2294199844125    5.6159653903795    7.0100321734614 
 O    2.4729108222500    5.9726443775854    2.1620326131840 
 O    2.4741206561500    3.7143613437540    5.3992234428212 
 O    4.2318409232550    4.7211115102974    8.4638070447772 
 O    6.2990966197500    3.7635287056874    0.5999968967040 
 O    8.2307319447925    4.8050997560612    3.7826417037189 
 O    6.3332995079475    5.9839756508754    7.1279718006819 
 O    6.2990392272500    5.9726443775854    2.1620326131840 
 O    6.2540192876150    3.8816213116005    5.5152670944466 
 O    8.2955597579525    4.7350524089584    8.6760605090065 
 O   -3.2663965702500    7.0771525101714    0.5999968967040 
 O   -1.2295563160925    8.1659773430031    3.6539660462607 
 O   -3.2236457004950    9.1669327932678    6.9526161839313 
 O   -3.2663965702500    9.2861687753434    2.1620326131840 
 O   -3.4540259678100    7.0219772045320    5.2995337212088 
 O   -1.4375256156525    8.1328530337654    8.8169352365804 
 O    0.5598466197500    7.0771525101714    0.5999968967040 
 O    2.4544809426500    8.0685395660250    3.8145037651997 
 O    0.5464120685650    9.2332774386406    7.0156094712569 
 O    0.5598466197500    9.2861687753434    2.1620326131840 
 O    0.5512478458300    7.0220012609597    5.5978937200059 
 O    2.5090297016675    8.0689001142202    8.6141609660238 
 O    4.3859750247500    7.0771525101714    0.5999968967040 
 O    6.2473359883825    8.0582789031740    3.7257941419057 
 O    4.3525956615350    9.2434525123005    7.0655635924469 
 O    4.3859750247500    9.2861687753434    2.1620326131840 
 O    4.3423465088850    7.0119969680551    5.5062418217839 
 O    6.3455901692150    8.2056526548910    8.6349489515701 
Ce    2.4728534297500    1.5545124405154    1.3810147549440 
Ce    0.4927139237900    2.5446853426176    4.7546613112884 
Ce    0.5633174885800    0.5125124501189    7.9199786531797 
Ce    6.2990966197500    1.5545124405154    1.3810147549440 
Ce    4.2717176340025    2.6193917835613    4.4338728244810 
Ce    4.2761824261475    0.3227238365523    7.9404778628474 
Ce   10.1252250247500    1.5545124405154    1.3810147549440 
Ce    8.1384674748300    2.7233096861939    4.5079255892765 
Ce    8.1854259609375    0.4054302325843    7.7283817883150 
Ce    0.5597892272500    4.8680368382734    1.3810147549440 
Ce   -1.3193560651425    5.8897975198496    4.5198881186449 
Ce   -1.3364809540775    3.6270051981133    7.9244576446120 
Ce    4.3860324172500    4.8680368382734    1.3810147549440 
Ce    2.4295590530200    5.9724091812717    4.6076814601818 
Ce    8.2121608222500    4.8680368382734    1.3810147549440 
Ce    6.2474775756800    5.9495512010683    4.6423763081058 
Ce    6.4314887204700    3.7079122329980    7.8222597242936 
Ce   -1.3533323677500    8.1816606427574    1.3810147549440 
Ce   -3.3167661222025    9.2354304889190    4.5927392473197 
Ce   -3.2385109893125    7.0665968081576    7.7200047787228 
Ce    2.4729108222500    8.1816606427574    1.3810147549440 
Ce    0.5167745241725    9.2610481986496    4.6205627804185 
Ce    0.3994988044575    6.9541236644653    7.8495257785240 
Ce    6.2990392272500    8.1816606427574    1.3810147549440 
Ce    4.4020840090425    9.1824556505664    4.6705390274065 
Ce    4.4220098815475    7.0626004589590    7.8667747769002 
Fe    3.1137053162050    4.0058308109913    7.2202457303582 
81
FORCE:  2.037416  ...  ENERGY:  -641.45198224
 O    0.5597892272500    0.4500043079294    0.5999968967040 
 O    2.3623462945225    1.5754235399900    3.7990423944389 
 O    0.5950929609900    2.5697636714529    7.0391456177717 
 O    0.5597892272500    2.6590205731014    2.1620326131840 
 O    0.6101762265225    0.2631169790678    5.4328348109477 
 O    2.5598621815250    1.0564499509013    8.9241002844926 
 O    4.3860324172500    0.4500043079294    0.5999968967040 
 O    6.3186064540225    1.5879603186462    3.7623133417077 
 O    4.2937554931150    2.6779138154450    6.8085703961163 
 O    4.3860324172500    2.6590205731014    2.1620326131840 
 O    4.4020697183100    0.4468395954005    5.2575063382173 
 O    6.4215535047950    1.6108084575837    8.5775325058380 
 O    8.2121608222500    0.4500043079294    0.5999968967040 
 O   10.2730252325525    1.4396643707322    3.7681137222910 
 O    8.3477464138475    2.7093288260291    6.9638643009364 
 O    8.2121608222500    2.6590205731014    2.1620326131840 
 O    8.1831924170150    0.3651431717046    5.4574409793004 
 O   10.1550062799625    1.4695565696807    8.7503938380442 
 O   -1.3532749752500    3.7635287056874    0.5999968967040 
 O    0.6065671565525    4.8452974502942    3.9490667097260 
 O   -1.5849891590500    5.9227445868948    6.8926434101800 
 O   -1.3533323677500    5.9726443775854    2.1620326131840 
 O   -1.3593134123525    3.5896312513391    5.3588203671219 
 O    0.1203477680625    5.0924187936746    8.7334514074255 
 O    2.4729682147500    3.7635287056874    0.5999968967040 
 O    4.4008769299825    4.8030841852848    3.5939549515398 
 O    2.2290034296475    5.6231874878368    7.0130458440055 
 O    2.4729108222500    5.9726443775854    2.1620326131840 
 O    2.4704771506800    3.7165270186866    5.4014647633454 
 O    4.2316471087825    4.7156142189429    8.4634760702117 
 O    6.2990966197500    3.7635287056874    0.5999968967040 
 O    8.2279312481850    4.8092194690068    3.7847664646270 
 O    6.3315122481050    5.9738201603405    7.1271084383590 
 O    6.2990392272500    5.9726443775854    2.1620326131840 
 O    6.2555835202025    3.8885790865734    5.5122390535388 
 O    8.2979692098875    4.7359470694924    8.6751852854311 
 O   -3.2663965702500    7.0771525101714    0.5999968967040 
 O   -1.2297045035275    8.1695331215921    3.6644062294884 
 O   -3.2192855922700    9.1710400803727    6.9480468644990 
 O   -3.2663965702500    9.2861687753434    2.1620326131840 
 O   -3.4550289017475    7.0193756311059    5.2904728647885 
 O   -1.4335497502150    8.1231426865495    8.8132269984609 
 O    0.5598466197500    7.0771525101714    0.5999968967040 
 O    2.4536217195325    8.0701440899894    3.8162199971989 
 O    0.5387452914525    9.2380947879893    7.0141227088737 
 O    0.5598466197500    9.2861687753434    2.1620326131840 
 O    0.5492244732425    7.0215482645093    5.6011795150550 
 O    2.5141705774625    8.0724598690782    8.6039913105939 
 O    4.3859750247500    7.0771525101714    0.5999968967040 
 O    6.2523767142650    8.0550033521456    3.7327662773773 
 O    4.3512737400825    9.2468489419077    7.0661719378406 
 O    4.3859750247500    9.2861687753434    2.1620326131840 
 O    4.3403021880350    7.0078272535263    5.5054795082085 
 O    6.3453211705675    8.1976083644029    8.6340593576311 
Ce    2.4728534297500    1.5545124405154    1.3810147549440 
Ce    0.4943896700050    2.5456835849601    4.7576225186002 
Ce    0.5606054059925    0.5129157432063    7.9211768677852 
Ce    6.2990966197500    1.5545124405154    1.3810147549440 
Ce    4.2715513679300    2.6183127235506    4.4307453315329 
Ce    4.2776174108250    0.3201087438114    7.9390713920197 
Ce   10.1252250247500    1.5545124405154    1.3810147549440 
Ce    8.1397982347275    2.7248929371189    4.5063325318226 
Ce    8.1836642981500    0.4037223256249    7.7268715315278 
Ce    0.5597892272500    4.8680368382734    1.3810147549440 
Ce   -1.3250041184600    5.8893411435705    4.5226392449265 
Ce   -1.3374893403025    3.6297502154451    7.9227642227138 
Ce    4.3860324172500    4.8680368382734    1.3810147549440 
Ce    2.4295886101575    5.9726035214210    4.6080055917170 
Ce    8.2121608222500    4.8680368382734    1.3810147549440 
Ce    6.2511644698800    5.9484094154135    4.6412663685912 
Ce    6.4317662132075    3.7092883203060    7.8242391848584 
Ce   -1.3533323677500    8.1816606427574    1.3810147549440 
Ce   -3.3178018272575    9.2390353744307    4.5952606758843 
Ce   -3.2401254403375    7.0669886694715    7.7195809670462 
Ce    2.4729108222500    8.1816606427574    1.3810147549440 
Ce    0.5162372155875    9.2629701282901    4.6232582500537 
Ce    0.3990738703875    6.9581257792541    7.8478569915348 
Ce    6.2990392272500    8.1816606427574    1.3810147549440 
Ce    4.4042634318375    9.1804325248788    4.6721510172442 
Ce    4.4217636103300    7.0630013662849    7.8659310312642 
Fe    3.1153026068725    4.0094053774516    7.2184916335913 
81
FORCE:  2.069218  ...  ENERGY:  -641.44977212
 O    0.5597892272500    0.4500043079294    0.5999968967040 
 O    2.3597398715275    1.5815976917419    3.8083927110408 
 O    0.5955140497625    2.5765170661972    7.0441964584362 
 O    0.5597892272500    2.6590205731014    2.1620326131840 
 O    0.6128200694275    0.2693646917969    5.4357750329666 
 O    2.5577877296125    1.0665428151988    8.9242779751794 
 O    4.3860324172500    0.4500043079294    0.5999968967040 
 O    6.3218947573100    1.5864675278419    3.7669317028571 
 O    4.2969852560525    2.6750925531544    6.8104426492064 
 O    4.3860324172500    2.6590205731014    2.1620326131840 
 O    4.4055607893000    0.4411994565807    5.2529853761991 
 O    6.4231798360675    1.6038055519572    8.5811736822606 
 O    8.2121608222500    0.4500043079294    0.5999968967040 
 O   10.2752637696225    1.4396389226103    3.7682065594020 
 O    8.3482818858725    2.6998981099335    6.9587977213023 
 O    8.2121608222500    2.6590205731014    2.1620326131840 
 O    8.1776908867500    0.3623327447472    5.4525614424945 
 O   10.1539583503050    1.4667921680374    8.7585552921820 
 O   -1.3532749752500    3.7635287056874    0.5999968967040 
 O    0.6007784916100    4.8476015987961    3.9482503362112 
 O   -1.5910864808575    5.9274838025569    6.8891596234543 
 O   -1.3533323677500    5.9726443775854    2.1620326131840 
 O   -1.3640772768150    3.5894007271415    5.3648077905334 
 O    0.1118641808900    5.0891973199051    8.7329831160520 
 O    2.4729682147500    3.7635287056874    0.5999968967040 
 O    4.3982073178450    4.8018263919807    3.5933112504896 
 O    2.2295151411775    5.6301421812013    7.0161740212567 
 O    2.4729108222500    5.9726443775854    2.1620326131840 
 O    2.4673391009575    3.7188971732546    5.4041472312230 
 O    4.2314225319300    4.7099634436034    8.4629007994645 
 O    6.2990966197500    3.7635287056874    0.5999968967040 
 O    8.2250818827375    4.8135749747065    3.7866850222221 
 O    6.3293353505800    5.9634902110015    7.1261670654908 
 O    6.2990392272500    5.9726443775854    2.1620326131840 
 O    6.2573007611950    3.8949012549403    5.5089587329140 
 O    8.2998199458350    4.7368181706323    8.6744035832698 
 O   -3.2663965702500    7.0771525101714    0.5999968967040 
 O   -1.2303697973875    8.1726481307581    3.6754880608572 
 O   -3.2146839190125    9.1754588087501    6.9431559226425 
 O   -3.2663965702500    9.2861687753434    2.1620326131840 
 O   -3.4551133261150    7.0170971295392    5.2816403374793 
 O   -1.4294722426600    8.1135151451364    8.8089633343820 
 O    0.5598466197500    7.0771525101714    0.5999968967040 
 O    2.4527937753275    8.0720926606324    3.8178855907740 
 O    0.5306184560600    9.2430847074143    7.0127963015006 
 O    0.5598466197500    9.2861687753434    2.1620326131840 
 O    0.5470765589300    7.0211722088649    5.6035916832357 
 O    2.5194572302075    8.0758345286125    8.5935892202349 
 O    4.3859750247500    7.0771525101714    0.5999968967040 
 O    6.2572092201575    8.0522812977675    3.7398609030913 
 O    4.3501900548975    9.2502365243164    7.0664217084465 
 O    4.3859750247500    9.2861687753434    2.1620326131840 
 O    4.3381946780425    7.0034675727441    5.5049318376835 
 O    6.3446561636700    8.1894219222966    8.6331111417326 
Ce    2.4728534297500    1.5545124405154    1.3810147549440 
Ce    0.4960838392125    2.5467041938160    4.7605223667404 
Ce    0.5579295954650    0.5132387156591    7.9224049636230 
Ce    6.2990966197500    1.5545124405154    1.3810147549440 
Ce    4.2714619504150    2.6172204424453    4.4276486322211 
Ce    4.2790742046525    0.3174994166606    7.9376706237173 
Ce   10.1252250247500    1.5545124405154    1.3810147549440 
Ce    8.1411939629350    2.7263922887672    4.5048056236617 
Ce    8.1819175000200    0.4019870818158    7.7254164751850 
Ce    0.5597892272500    4.8680368382734    1.3810147549440 
Ce   -1.3306778262250    5.8889049468568    4.5254613106222 
Ce   -1.3384781556850    3.6325820148487    7.9210648701893 
Ce    4.3860324172500    4.8680368382734    1.3810147549440 
Ce    2.4296015234700    5.9727753956503    4.6083037197371 
Ce    8.2121608222500    4.8680368382734    1.3810147549440 
Ce    6.2548496996975    5.9472416846032    4.6400854896624 
Ce    6.4320813554250    3.7106737518463    7.8262236636454 
Ce   -1.3533323677500    8.1816606427574    1.3810147549440 
Ce   -3.3187917904900    9.2426381724011    4.5977435553781 
Ce   -3.2417911428650    7.0673617429142    7.7192554669049 
Ce    2.4729108222500    8.1816606427574    1.3810147549440 
Ce    0.5157315302700    9.2648973264870    4.6259557725980 
Ce    0.3986817648275    6.9621666626660    7.8462461422022 
Ce    6.2990392272500    8.1816606427574    1.3810147549440 
Ce    4.4064184628200    9.1784697390739    4.6737062099303 
Ce    4.4214905942075    7.0634865705145    7.8651194478706 
Fe    3.1168107095950    4.0130664277634    7.2166627196931 
81
FORCE:  2.082619  ...  ENERGY:  -641.45177032
 O    0.5597892272500    0.4500043079294    0.5999968967040 
 O    2.3574486481425    1.5874770031444    3.8174896074206 
 O    0.5958905445625    2.5831602188823    7.0493250815450 
 O    0.5597892272500    2.6590205731014    2.1620326131840 
 O    0.6150935585300    0.2758572432921    5.4390227351470 
 O    2.5557893227625    1.0765554582684    8.9241413426744 
 O    4.3860324172500    0.4500043079294    0.5999968967040 
 O    6.3250831402550    1.5850452164063    3.7714761592794 
 O    4.3000285507575    2.6723451500612    6.8129850630638 
 O    4.3860324172500    2.6590205731014    2.1620326131840 
 O    4.4086758820225    0.4355274082018    5.2488042846858 
 O    6.4244704212150    1.5968251122508    8.5847607987439 
 O    8.2121608222500    0.4500043079294    0.5999968967040 
 O   10.2768223203525    1.4395472696090    3.7683958832403 
 O    8.3480564481325    2.6899443156457    6.9535459236480 
 O    8.2121608222500    2.6590205731014    2.1620326131840 
 O    8.1723653218900    0.3597650690146    5.4473853743756 
 O   10.1528501585225    1.4640858199221    8.7665326688048 
 O   -1.3532749752500    3.7635287056874    0.5999968967040 
 O    0.5946861055575    4.8499363645697    3.9468144403532 
 O   -1.5966348434025    5.9322447882919    6.8851790327288 
 O   -1.3533323677500    5.9726443775854    2.1620326131840 
 O   -1.3688980746375    3.5897841388837    5.3707863180055 
 O    0.1033542505600    5.0857628175218    8.7327919674056 
 O    2.4729682147500    3.7635287056874    0.5999968967040 
 O    4.3952898848925    4.8007725812784    3.5936711938834 
 O    2.2309738863500    5.6367876202411    7.0194096340835 
 O    2.4729108222500    5.9726443775854    2.1620326131840 
 O    2.4647390485300    3.7214738949993    5.4072633191207 
 O    4.2311781546650    4.7042016309510    8.4621017616265 
 O    6.2990966197500    3.7635287056874    0.5999968967040 
 O    8.2222033045075    4.8181246217421    3.7883645299588 
 O    6.3267955028850    5.9530560834136    7.1251661582589 
 O    6.2990392272500    5.9726443775854    2.1620326131840 
 O    6.2591649843800    3.9005207171611    5.5054560138044 
 O    8.3010853930675    4.7376612390755    8.6737133496136 
 O   -3.2663965702500    7.0771525101714    0.5999968967040 
 O   -1.2315671197225    8.1752903615351    3.6871102635188 
 O   -3.2098694343650    9.1801463329146    6.9379967339984 
 O   -3.2663965702500    9.2861687753434    2.1620326131840 
 O   -3.4542555378100    7.0151748022718    5.2731189399477 
 O   -1.4253205839950    8.1040134526384    8.8041670544447 
 O    0.5598466197500    7.0771525101714    0.5999968967040 
 O    2.4520177713350    8.0743584381381    3.8194882284702 
 O    0.5220602012450    9.2482154861701    7.0116555683496 
 O    0.5598466197500    9.2861687753434    2.1620326131840 
 O    0.5448206893250    7.0208714041120    5.6051343303664 
 O    2.5248467877050    8.0790096788477    8.5830035085628 
 O    4.3859750247500    7.0771525101714    0.5999968967040 
 O    6.2617880512000    8.0501634374701    3.7470235029064 
 O    4.3493780084150    9.2535967698753    7.0662912346688 
 O    4.3859750247500    9.2861687753434    2.1620326131840 
 O    4.3360394174900    6.9989544079770    5.5046095309563 
 O    6.3436054217800    8.1811250393177    8.6320942674300 
Ce    2.4728534297500    1.5545124405154    1.3810147549440 
Ce    0.4977880521075    2.5477493561331    4.7633581184967 
Ce    0.5552952223225    0.5134883259481    7.9236631687942 
Ce    6.2990966197500    1.5545124405154    1.3810147549440 
Ce    4.2714509884475    2.6161191153280    4.4245945877982 
Ce    4.2805479292675    0.3149068892465    7.9362803480613 
Ce   10.1252250247500    1.5545124405154    1.3810147549440 
Ce    8.1426513880800    2.7278028702091    4.5033503392179 
Ce    8.1801889527050    0.4002321554750    7.7240186721957 
Ce    0.5597892272500    4.8680368382734    1.3810147549440 
Ce   -1.3363641603400    5.8884930053843    4.5283472446008 
Ce   -1.3394461949825    3.6354901586178    7.9193627804527 
Ce    4.3860324172500    4.8680368382734    1.3810147549440 
Ce    2.4295944068000    5.9729253009931    4.6085740194339 
Ce    8.2121608222500    4.8680368382734    1.3810147549440 
Ce    6.2585212701000    5.9460487044845    4.6388350399256 
Ce    6.4324340323375    3.7120597798269    7.8282063176243 
Ce   -1.3533323677500    8.1816606427574    1.3810147549440 
Ce   -3.3197303874350    9.2462293397846    4.6001812708720 
Ce   -3.2435066620825    7.0677137421310    7.7190262253899 
Ce    2.4729108222500    8.1816606427574    1.3810147549440 
Ce    0.5152599360975    9.2668231329898    4.6286480488190 
Ce    0.3983215694975    6.9662323977594    7.8446957396372 
Ce    6.2990392272500    8.1816606427574    1.3810147549440 
Ce    4.4085426740300    9.1765718658611    4.6752014120509 
Ce    4.4211916940675    7.0640519959720    7.8643391143154 
Fe    3.1182259512525    4.0167948758355    7.2147617258758 
81
FORCE:  2.076751  ...  ENERGY:  -641.45811997
 O    0.5597892272500    0.4500043079294    0.5999968967040 
 O    2.3554948926575    1.5930276759108    3.8262703558006 
 O    0.5962154435050    2.5896499869892    7.0545091331993 
 O    0.5597892272500    2.6590205731014    2.1620326131840 
 O    0.6169678254025    0.2825629228079    5.4425783736909 
 O    2.5538830308750    1.0864214764172    8.9236614181493 
 O    4.3860324172500    0.4500043079294    0.5999968967040 
 O    6.3281403813375    1.5837192300882    3.7759045122875 
 O    4.3028631089400    2.6697016269966    6.8161584043149 
 O    4.3860324172500    2.6590205731014    2.1620326131840 
 O    4.4113699433650    0.4298998940363    5.2449808555562 
 O    6.4254200949125    1.5899104797969    8.5882819940352 
 O    8.2121608222500    0.4500043079294    0.5999968967040 
 O   10.2777028934800    1.4393901075752    3.7686848872200 
 O    8.3470583351650    2.6795234091524    6.9481602307009 
 O    8.2121608222500    2.6590205731014    2.1620326131840 
 O    8.1672665147975    0.3574402439136    5.4419549736305 
 O   10.1517012754575    1.4614447820257    8.7742794353064 
 O   -1.3532749752500    3.7635287056874    0.5999968967040 
 O    0.5883304027150    4.8522866377925    3.9447713396067 
 O   -1.6016125523200    5.9370104461431    6.8807294663267 
 O   -1.3533323677500    5.9726443775854    2.1620326131840 
 O   -1.3737365493500    3.5907775102966    5.3767233310938 
 O    0.0948521830025    5.0821808949638    8.7328597134055 
 O    2.4729682147500    3.7635287056874    0.5999968967040 
 O    4.3921307721225    4.7999186775021    3.5950172179434 
 O    2.2333866670500    5.6430911995502    7.0227446989507 
 O    2.4729108222500    5.9726443775854    2.1620326131840 
 O    2.4627016147800    3.7242566868869    5.4107986566746 
 O    4.2309271772625    4.6983733151989    8.4611040478087 
 O    6.2990966197500    3.7635287056874    0.5999968967040 
 O    8.2193153713000    4.8228238759003    3.7897719131905 
 O    6.3239250743900    5.9425903444869    7.1241219118351 
 O    6.2990392272500    5.9726443775854    2.1620326131840 
 O    6.2611698191900    3.9053753440320    5.5017607774424 
 O    8.3017446607150    4.7384736902471    8.6731109348462 
 O   -3.2663965702500    7.0771525101714    0.5999968967040 
 O   -1.2333077768550    8.1774322782603    3.6991681391094 
 O   -3.2048758277250    9.1850544406042    6.9326256395159 
 O   -3.2663965702500    9.2861687753434    2.1620326131840 
 O   -3.4524425087350    7.0136367814072    5.2649875951432 
 O   -1.4211234130775    8.0946774711527    8.7988650745682 
 O    0.5598466197500    7.0771525101714    0.5999968967040 
 O    2.4513133931825    8.0769115010820    3.8210149085302 
 O    0.5131050199000    9.2534520336823    7.0107240038247 
 O    0.5598466197500    9.2861687753434    2.1620326131840 
 O    0.5424764926625    7.0206432656758    5.6058231954166 
 O    2.5302940820575    8.0819713034354    8.5722832172948 
 O    4.3859750247500    7.0771525101714    0.5999968967040 
 O    6.2660707369425    8.0486941066531    3.7542004730850 
 O    4.3488679612675    9.2569122824076    7.0657634089317 
 O    4.3859750247500    9.2861687753434    2.1620326131840 
 O    4.3338535667350    6.9943258320009    5.5045212558655 
 O    6.3421839817325    8.1727501220589    8.6309996106830 
Ce    2.4728534297500    1.5545124405154    1.3810147549440 
Ce    0.4994938719925    2.5488211594529    4.7661277209601 
Ce    0.5527073371050    0.5136715325441    7.9249507989956 
Ce    6.2990966197500    1.5545124405154    1.3810147549440 
Ce    4.2715199168400    2.6150128178743    4.4215946033147 
Ce    4.2820335915225    0.3123421957157    7.9349048989710 
Ce   10.1252250247500    1.5545124405154    1.3810147549440 
Ce    8.1441664926875    2.7291205063623    4.5019719248145 
Ce    8.1784823867175    0.3984652009204    7.7226799473680 
Ce    0.5597892272500    4.8680368382734    1.3810147549440 
Ce   -1.3420500927075    5.8881095936421    4.5312904319328 
Ce   -1.3403923677375    3.6384636126059    7.9176613750191 
Ce    4.3860324172500    4.8680368382734    1.3810147549440 
Ce    2.4295638165975    5.9730540327032    4.6088160346055 
Ce    8.2121608222500    4.8680368382734    1.3810147549440 
Ce    6.2621678173725    5.9448316679380    4.6375168441888 
Ce    6.4328238995900    3.7134376564560    7.8301812161689 
Ce   -1.3533323677500    8.1816606427574    1.3810147549440 
Ce   -3.3206124527675    9.2497995323489    4.6025676636386 
Ce   -3.2452695875050    7.0680420825470    7.7188905052889 
Ce    2.4729108222500    8.1816606427574    1.3810147549440 
Ce    0.5148242696300    9.2687407881411    4.6313268670804 
Ce    0.3979926530800    6.9703085705590    7.8432078367490 
Ce    6.2990392272500    8.1816606427574    1.3810147549440 
Ce    4.4106295227225    9.1747432791364    4.6766334301917 
Ce    4.4208674264425    7.0646927717278    7.8635895743966 
Fe    3.1195459213600    4.0205706415092    7.2127923017554 
81
FORCE:  2.052000  ...  ENERGY:  -641.46861598
 O    0.5597892272500    0.4500043079294    0.5999968967040 
 O    2.3538965115325    1.5982182975156    3.8346763342211 
 O    0.5964811707800    2.5959460113871    7.0597246627929 
 O    0.5597892272500    2.6590205731014    2.1620326131840 
 O    0.6184196834750    0.2894493237516    5.4464389832851 
 O    2.5520799880950    1.0960774481539    8.9228140228972 
 O    4.3860324172500    0.4500043079294    0.5999968967040 
 O    6.3310358329625    1.5825128300614    3.7801752474977 
 O    4.3054690154025    2.6671885255566    6.8199202461719 
 O    4.3860324172500    2.6590205731014    2.1620326131840 
 O    4.4136025690075    0.4243930596360    5.2415308277799 
 O    6.4260275371325    1.5831021131332    8.5917272316903 
 O    8.2121608222500    0.4500043079294    0.5999968967040 
 O   10.2779131222075    1.4391711145578    3.7690767647552 
 O    8.3452868582600    2.6686958297430    6.9426928775922 
 O    8.2121608222500    2.6590205731014    2.1620326131840 
 O    8.1624417568925    0.3553574741905    5.4363167728654 
 O   10.1505298371400    1.4588760128191    8.7817511119900 
 O   -1.3532749752500    3.7635287056874    0.5999968967040 
 O    0.5817568953350    4.8546360163548    3.9421383696482 
 O   -1.6060032507475    5.9417645728140    6.8758481047127 
 O   -1.3533323677500    5.9726443775854    2.1620326131840 
 O   -1.3785532723050    3.5923713977413    5.3825875799599 
 O    0.0863916102225    5.0785173594838    8.7331655968600 
 O    2.4729682147500    3.7635287056874    0.5999968967040 
 O    4.3887386458025    4.7992600085356    3.5973230910535 
 O    2.2367488344850    5.6490299561749    7.0261705480199 
 O    2.4729108222500    5.9726443775854    2.1620326131840 
 O    2.4612432713550    3.7272418708687    5.4147331709961 
 O    4.2306839478475    4.6925234281873    8.4599352582335 
 O    6.2990966197500    3.7635287056874    0.5999968967040 
 O    8.2164373669950    4.8276264136468    3.7908770625839 
 O    6.3207590745200    5.9321655611313    7.1230500651891 
 O    6.2990392272500    5.9726443775854    2.1620326131840 
 O    6.2633074028525    3.9094119529547    5.4979006240502 
 O    8.3017839171850    4.7392544306731    8.6725913207454 
 O   -3.2663965702500    7.0771525101714    0.5999968967040 
 O   -1.2355969341100    8.1790520114537    3.7115560768615 
 O   -3.1997397729000    9.1901323349817    6.9271030859628 
 O   -3.2663965702500    9.2861687753434    2.1620326131840 
 O   -3.4496755015250    7.0125059304922    5.2573195234901 
 O   -1.4169104018300    8.0855448758284    8.7930900131971 
 O    0.5598466197500    7.0771525101714    0.5999968967040 
 O    2.4506998673575    8.0797197410915    3.8224539978023 
 O    0.5037937180925    9.2587574700556    7.0100225932190 
 O    0.5598466197500    9.2861687753434    2.1620326131840 
 O    0.5400661798400    7.0204847119478    5.6056833694974 
 O    2.5357533714425    8.0847083682291    8.5614785286532 
 O    4.3859750247500    7.0771525101714    0.5999968967040 
 O    6.2700175617750    8.0479086941109    3.7613407190010 
 O    4.3486861992200    9.2601669580236    7.0648250013765 
 O    4.3859750247500    9.2861687753434    2.1620326131840 
 O    4.3316544009200    6.9896193211517    5.5046733992391 
 O    6.3404100369500    8.1643306705869    8.6298198722593 
Ce    2.4728534297500    1.5545124405154    1.3810147549440 
Ce    0.5011926326000    2.5499216913164    4.7688293493226 
Ce    0.5501708755675    0.5137956915448    7.9262676261264 
Ce    6.2990966197500    1.5545124405154    1.3810147549440 
Ce    4.2716706295450    2.6139054269467    4.4186607681241 
Ce    4.2835263130550    0.3098169666552    7.9335481541635 
Ce   10.1252250247500    1.5545124405154    1.3810147549440 
Ce    8.1457353166750    2.7303411215508    4.5006749424716 
Ce    8.1768008438600    0.3966942700967    7.7214012131060 
Ce    0.5597892272500    4.8680368382734    1.3810147549440 
Ce   -1.3477229395850    5.8877589861195    4.5342831171840 
Ce   -1.3413162148100    3.6414912432597    7.9159636192016 
Ce    4.3860324172500    4.8680368382734    1.3810147549440 
Ce    2.4295065962750    5.9731624854413    4.6090279404438 
Ce    8.2121608222500    4.8680368382734    1.3810147549440 
Ce    6.2657780351925    5.9435922648783    4.6361340958662 
Ce    6.4332495223700    3.7147985345349    7.8321417443499 
Ce   -1.3533323677500    8.1816606427574    1.3810147549440 
Ce   -3.3214326489850    9.2533393064550    4.6048972592537 
Ce   -3.2470773938625    7.0683441795873    7.7188455693899 
Ce    2.4729108222500    8.1816606427574    1.3810147549440 
Ce    0.5144263100350    9.2706432340633    4.6339844719479 
Ce    0.3976944990425    6.9743807670896    7.8417831178406 
Ce    6.2990392272500    8.1816606427574    1.3810147549440 
Ce    4.4126724087600    9.1729880545754    4.6779990709385 
Ce    4.4205189965750    7.0654034304120    7.8628699157100 
Fe    3.1207697590300    4.0243725511518    7.2107592374533 
81
FORCE:  2.009356  ...  ENERGY:  -641.48286175
 O    0.5597892272500    0.4500043079294    0.5999968967040 
 O    2.3526667624350    1.6030217299227    3.8426534827428 
 O    0.5966803227550    2.6020126050615    7.0649456668108 
 O    0.5597892272500    2.6590205731014    2.1620326131840 
 O    0.6194304801850    0.2964857294448    5.4505988614045 
 O    2.5503877128400    1.1054638288498    8.9215804526351 
 O    4.3860324172500    0.4500043079294    0.5999968967040 
 O    6.3337401675625    1.5814477863991    3.7842486753343 
 O    4.3078298558900    2.6648291069150    6.8242222312204 
 O    4.3860324172500    2.6590205731014    2.1620326131840 
 O    4.4153367981800    0.4190828517398    5.2384653783065 
 O    6.4262943548650    1.5764363951212    8.5950878438706 
 O    8.2121608222500    0.4500043079294    0.5999968967040 
 O   10.2774661494175    1.4388967519940    3.7695753935630 
 O    8.3427502245450    2.6575245018751    6.9371965556553 
 O    8.2121608222500    2.6590205731014    2.1620326131840 
 O    8.1579342073350    0.3535135788299    5.4305186732922 
 O   10.1493528891425    1.4563853772992    8.7889055001686 
 O   -1.3532749752500    3.7635287056874    0.5999968967040 
 O    0.5750141948650    4.8569659111988    3.9389356033668 
 O   -1.6097962062875    5.9464903685681    6.8705803399878 
 O   -1.3533323677500    5.9726443775854    2.1620326131840 
 O   -1.3833096757425    3.5945510890223    5.3883489552704 
 O    0.0780066233650    5.0748384159613    8.7336897729809 
 O    2.4729682147500    3.7635287056874    0.5999968967040 
 O    4.3851244105075    4.7987916040427    3.6005518608500 
 O    2.2410442613625    5.6545898737668    7.0296794258567 
 O    2.4729108222500    5.9726443775854    2.1620326131840 
 O    2.4603714218875    3.7304221902536    5.4190394899639 
 O    4.2304635606475    4.6866973987899    8.4586268708401 
 O    6.2990966197500    3.7635287056874    0.5999968967040 
 O    8.2135861649875    4.8324849173800    3.7916512374119 
 O    6.3173351527550    5.9218546978837    7.1219633919775 
 O    6.2990392272500    5.9726443775854    2.1620326131840 
 O    6.2655694708475    3.9125860097159    5.4939033819510 
 O    8.3011952997050    4.7400043550141    8.6721481204829 
 O   -3.2663965702500    7.0771525101714    0.5999968967040 
 O   -1.2384350506275    8.1801338548528    3.7241691503104 
 O   -3.1944998950425    9.1953262370085    6.9214911168137 
 O   -3.2663965702500    9.2861687753434    2.1620326131840 
 O   -3.4459694382300    7.0117983534165    5.2501808742811 
 O   -1.4127124848100    8.0766505584262    8.7868776821897 
 O    0.5598466197500    7.0771525101714    0.5999968967040 
 O    2.4501949855350    8.0827485646260    3.8237947755390 
 O    0.4941728411400    9.2640931260737    7.0095693565121 
 O    0.5598466197500    9.2861687753434    2.1620326131840 
 O    0.5376150609500    7.0203922636927    5.6047495239625 
 O    2.5411751261325    8.0872118272166    8.5506409934660 
 O    4.3859750247500    7.0771525101714    0.5999968967040 
 O    6.2735929997400    8.0478343378799    3.7683951989373 
 O    4.3488552775250    9.2633461839345    7.0634673441650 
 O    4.3859750247500    9.2861687753434    2.1620326131840 
 O    4.3294597117200    6.9848724511718    5.5050691544915 
 O    6.3383053965825    8.1558998867481    8.6285493496336 
Ce    2.4728534297500    1.5545124405154    1.3810147549440 
Ce    0.5028759546250    2.5510527410448    4.7714609506749 
Ce    0.5476902569325    0.5138682584548    7.9276129658834 
Ce    6.2990966197500    1.5545124405154    1.3810147549440 
Ce    4.2719043891975    2.6128007200006    4.4158042591759 
Ce    4.2850219042125    0.3073424350248    7.9322139913561 
Ce   10.1252250247500    1.5545124405154    1.3810147549440 
Ce    8.1473537277825    2.7314615347596    4.4994637261085 
Ce    8.1751472511500    0.3949272161353    7.7201836099146 
Ce    0.5597892272500    4.8680368382734    1.3810147549440 
Ce   -1.3533699024450    5.8874454573057    4.5373177730210 
Ce   -1.3422171622750    3.6445617182124    7.9142724783135 
Ce    4.3860324172500    4.8680368382734    1.3810147549440 
Ce    2.4294194744600    5.9732517526813    4.6092092807468 
Ce    8.2121608222500    4.8680368382734    1.3810147549440 
Ce    6.2693417650875    5.9423321852195    4.6346893040688 
Ce    6.4337090067250    3.7161337656786    7.8340819715409 
Ce   -1.3533323677500    8.1816606427574    1.3810147549440 
Ce   -3.3221862699025    9.2568401131245    4.6071645832931 
Ce   -3.2489273837075    7.0686179457107    7.7188873118748 
Ce    2.4729108222500    8.1816606427574    1.3810147549440 
Ce    0.5140671477700    9.2725238105057    4.6366128798862 
Ce    0.3974268204225    6.9784347721893    7.8404220391139 
Ce    6.2990392272500    8.1816606427574    1.3810147549440 
Ce    4.4146653633225    9.1713099696338    4.6792962813824 
Ce    4.4201469209975    7.0661783058412    7.8621785415487 
Fe    3.1218979234025    4.0281789340970    7.2086682354946 
81
FORCE:  1.949986  ...  ENERGY:  -641.50011030
 O    0.5597892272500    0.4500043079294    0.5999968967040 
 O    2.3518141394550    1.6074163024657    3.8501523034466 
 O    0.5968055531900    2.6078175602330    7.0701459136368 
 O    0.5597892272500    2.6590205731014    2.1620326131840 
 O    0.6199870726500    0.3036422184629    5.4550497964126 
 O    2.5488103373700    1.1145253483650    8.9199463369995 
 O    4.3860324172500    0.4500043079294    0.5999968967040 
 O    6.3362252054200    1.5805436822261    3.7880880715346 
 O    4.3099323727350    2.6626427553834    6.8290125805315 
 O    4.3860324172500    2.6590205731014    2.1620326131840 
 O    4.4165415815400    0.4140431295451    5.2357929468733 
 O    6.4262245081925    1.5699448376933    8.5983578999500 
 O    8.2121608222500    0.4500043079294    0.5999968967040 
 O   10.2763804554950    1.4385763641161    3.7701835108557 
 O    8.3394646760975    2.6460745369542    6.9317232719203 
 O    8.2121608222500    2.6590205731014    2.1620326131840 
 O    8.1537841556600    0.3519031898687    5.4246104009311 
 O   10.1481855256925    1.4539775475820    8.7957042788727 
 O   -1.3532749752500    3.7635287056874    0.5999968967040 
 O    0.5681530936675    4.8592563415725    3.9351860789644 
 O   -1.6129870571100    5.9511727235829    6.8649788634852 
 O   -1.3533323677500    5.9726443775854    2.1620326131840 
 O   -1.3879692006400    3.5972968022012    5.3939809973083 
 O    0.0697296491925    5.0712081817345    8.7344126250816 
 O    2.4729682147500    3.7635287056874    0.5999968967040 
 O    4.3813005204100    4.7985077978400    3.6046581352320 
 O    2.2462453418900    5.6597664790232    7.0332610679158 
 O    2.4729108222500    5.9726443775854    2.1620326131840 
 O    2.4600847463500    3.7337874061489    5.4236856794366 
 O    4.2302823725250    4.6809398606267    8.4572124164771 
 O    6.2990966197500    3.7635287056874    0.5999968967040 
 O    8.2107762281875    4.8373516718715    3.7920702589672 
 O    6.3136940577700    5.9117283335195    7.1208705600386 
 O    6.2990392272500    5.9726443775854    2.1620326131840 
 O    6.2679478734400    3.9148619267077    5.4897934579528 
 O    8.2999778899950    4.7407260478448    8.6717733505235 
 O   -3.2663965702500    7.0771525101714    0.5999968967040 
 O   -1.2418178219700    8.1806691600723    3.7369063107088 
 O   -3.1891973445750    9.2005803795112    6.9158531441496 
 O   -3.2663965702500    9.2861687753434    2.1620326131840 
 O   -3.4413528429225    7.0115240902595    5.2436304975769 
 O   -1.4085601948275    8.0680247385910    8.7802679992229 
 O    0.5598466197500    7.0771525101714    0.5999968967040 
 O    2.4498158506800    8.0859619864507    3.8250269771951 
 O    0.4842924926950    9.2694195372662    7.0093788921688 
 O    0.5598466197500    9.2861687753434    2.1620326131840 
 O    0.5351499956825    7.0203625410816    5.6030659104077 
 O    2.5465087833350    8.0894760142148    8.5398203377537 
 O    4.3859750247500    7.0771525101714    0.5999968967040 
 O    6.2767657719250    8.0484890305773    3.7753198893989 
 O    4.3493929878575    9.2664374348929    7.0616858752769 
 O    4.3859750247500    9.2861687753434    2.1620326131840 
 O    4.3272883812675    6.9801217043295    5.5057078373195 
 O    6.3358954281150    8.1474895806949    8.6271850774928 
Ce    2.4728534297500    1.5545124405154    1.3810147549440 
Ce    0.5045356883325    2.5522160979592    4.7740218407142 
Ce    0.5452694986750    0.5138965893717    7.9289856777615 
Ce    6.2990966197500    1.5545124405154    1.3810147549440 
Ce    4.2722225732175    2.6117020768649    4.4130367096215 
Ce    4.2865161179500    0.3049299331915    7.9309058320637 
Ce   10.1252250247500    1.5545124405154    1.3810147549440 
Ce    8.1490176511425    2.7324784655665    4.4983412410383 
Ce    8.1735240190725    0.3931717927609    7.7190271377939 
Ce    0.5597892272500    4.8680368382734    1.3810147549440 
Ce   -1.3589791010400    5.8871730828764    4.5403866440096 
Ce   -1.3430954970950    3.6476640033174    7.9125902333647 
Ce    4.3860324172500    4.8680368382734    1.3810147549440 
Ce    2.4292997537050    5.9733229278971    4.6093589150093 
Ce    8.2121608222500    4.8680368382734    1.3810147549440 
Ce    6.2728494225100    5.9410535165030    4.6331863465139 
Ce    6.4341998847775    3.7174347015017    7.8359968795199 
Ce   -1.3533323677500    8.1816606427574    1.3810147549440 
Ce   -3.3228691258675    9.2602937015992    4.6093648456356 
Ce   -3.2508165726300    7.0688609951557    7.7190113988242 
Ce    2.4729108222500    8.1816606427574    1.3810147549440 
Ce    0.5137475863300    9.2743759566246    4.6392045635618 
Ce    0.3971889859025    6.9824571659502    7.8391230038619 
Ce    6.2990392272500    8.1816606427574    1.3810147549440 
Ce    4.4166023028050    9.1697124041402    4.6805225524122 
Ce    4.4197524049525    7.0670109365782    7.8615140833066 
Fe    3.1229327101775    4.0319689149325    7.2065270513138 
81
FORCE:  1.946332  ...  ENERGY:  -641.51933904
 O    0.5597892272500    0.4500043079294    0.5999968967040 
 O    2.3513415122175    1.6113855136281    3.8571308257465 
 O    0.5968491714900    2.6133342358991    7.0752989435537 
 O    0.5597892272500    2.6590205731014    2.1620326131840 
 O    0.6200815980975    0.3108906587027    5.4597803832590 
 O    2.5473489521425    1.1232100169820    8.9179011833438 
 O    4.3860324172500    0.4500043079294    0.5999968967040 
 O    6.3384648329475    1.5798171184658    3.7916596771492 
 O    4.3117673257450    2.6606450778177    6.8342376903675 
 O    4.3860324172500    2.6590205731014    2.1620326131840 
 O    4.4171935029475    0.4093434777600    5.2335187798036 
 O    6.4258252285700    1.5636538830384    8.6015326098071 
 O    8.2121608222500    0.4500043079294    0.5999968967040 
 O   10.2746786530850    1.4382214821043    3.7709043100473 
 O    8.3354556951875    2.6344105493523    6.9263227524076 
 O    8.2121608222500    2.6590205731014    2.1620326131840 
 O    8.1500256930125    0.3505195476495    5.4186419099035 
 O   10.1470411192425    1.4516577922241    8.8021130048496 
 O   -1.3532749752500    3.7635287056874    0.5999968967040 
 O    0.5612256467400    4.8614871279107    3.9309162561583 
 O   -1.6155770658500    5.9557973232898    6.8591020690636 
 O   -1.3533323677500    5.9726443775854    2.1620326131840 
 O   -1.3924977558525    3.6005850772905    5.3994602116696 
 O    0.0615915648700    5.0676880901601    8.7353149926772 
 O    2.4729682147500    3.7635287056874    0.5999968967040 
 O    4.3772821845225    4.7984035201844    3.6095892228662 
 O    2.2523155170450    5.6645636488066    7.0369056658535 
 O    2.4729108222500    5.9726443775854    2.1620326131840 
 O    2.4603732010550    3.7373246950869    5.4286343308486 
 O    4.2301567977350    4.6752939562168    8.4557274789020 
 O    6.2990966197500    3.7635287056874    0.5999968967040 
 O    8.2080202977300    4.8421797571466    3.7921129138561 
 O    6.3098773991275    5.9018553568999    7.1197793248067 
 O    6.2990392272500    5.9726443775854    2.1620326131840 
 O    6.2704333130450    3.9162154486889    5.4855938902577 
 O    8.2981366238100    4.7414234854345    8.6714590273317 
 O   -3.2663965702500    7.0771525101714    0.5999968967040 
 O   -1.2457355488050    8.1806568336383    3.7496710713294 
 O   -3.1838740754150    9.2058393929435    6.9102512114450 
 O   -3.2663965702500    9.2861687753434    2.1620326131840 
 O   -3.4358700226125    7.0116873161036    5.2377199442058 
 O   -1.4044831464125    8.0596934608850    8.7733036191856 
 O    0.5598466197500    7.0771525101714    0.5999968967040 
 O    2.4495776718050    8.0893237231105    3.8261426192350 
 O    0.4742071382400    9.2746970403495    7.0094612366334 
 O    0.5598466197500    9.2861687753434    2.1620326131840 
 O    0.5326996228950    7.0203922636927    5.6006831672572 
 O    2.5517032063325    8.0914982452418    8.5290656032332 
 O    4.3859750247500    7.0771525101714    0.5999968967040 
 O    6.2795091908175    8.0498812217750    3.7820753289110 
 O    4.3503121861375    9.2694295773455    7.0594808228132 
 O    4.3859750247500    9.2861687753434    2.1620326131840 
 O    4.3251584308075    6.9754018729790    5.5065857981070 
 O    6.3332074503775    8.1391305685123    8.6257247748267 
Ce    2.4728534297500    1.5545124405154    1.3810147549440 
Ce    0.5061639709500    2.5534134519739    4.7765111070363 
Ce    0.5429121017375    0.5138879409866    7.9303850774579 
Ce    6.2990966197500    1.5545124405154    1.3810147549440 
Ce    4.2726264442400    2.6106128773681    4.4103679278045 
Ce    4.2880049367925    0.3025903958951    7.9296261853976 
Ce   10.1252250247500    1.5545124405154    1.3810147549440 
Ce    8.1507227249250    2.7333897270238    4.4973109087761 
Ce    8.1719334433275    0.3914351572576    7.7179315686429 
Ce    0.5597892272500    4.8680368382734    1.3810147549440 
Ce   -1.3645395160100    5.8869456402873    4.5434817466143 
Ce   -1.3439518505875    3.6507874620550    7.9109184810625 
Ce    4.3860324172500    4.8680368382734    1.3810147549440 
Ce    2.4291446791700    5.9733776015964    4.6094757027265 
Ce    8.2121608222500    4.8680368382734    1.3810147549440 
Ce    6.2762928577250    5.9397586444901    4.6316288728177 
Ce    6.4347192295100    3.7186932900596    7.8378809938625 
Ce   -1.3533323677500    8.1816606427574    1.3810147549440 
Ce   -3.3234774863675    9.2636930140015    4.6114939404629 
Ce   -3.2527416892575    7.0690714391947    7.7192128120160 
Ce    2.4729108222500    8.1816606427574    1.3810147549440 
Ce    0.5134678552850    9.2761935092028    4.6417524518435 
Ce    0.3969811102675    6.9864350254978    7.8378841872766 
Ce    6.2990392272500    8.1816606427574    1.3810147549440 
Ce    4.4184782914525    9.1681983402965    4.6816760592197 
Ce    4.4193364815050    7.0678947617790    7.8608749442765 
Fe    3.1238777350825    4.0357213200255    7.2043436684461 
81
FORCE:  2.016586  ...  ENERGY:  -641.53936032
 O    0.5597892272500    0.4500043079294    0.5999968967040 
 O    2.3512466998075    1.6149188262971    3.8635532377840 
 O    0.5968033148825    2.6185416572406    7.0803801216525 
 O    0.5597892272500    2.6590205731014    2.1620326131840 
 O    0.6197120477900    0.3182043097547    5.4647776201861 
 O    2.5460012614575    1.1314715111664    8.9154392891429 
 O    4.3860324172500    0.4500043079294    0.5999968967040 
 O    6.3404355766125    1.5792817138395    3.7949320142387 
 O    4.3133278278200    2.6588482018385    6.8398425883852 
 O    4.3860324172500    2.6590205731014    2.1620326131840 
 O    4.4172760907550    0.4050484113497    5.2316442457035 
 O    6.4251063875075    1.5575850030093    8.6046094643310 
 O    8.2121608222500    0.4500043079294    0.5999968967040 
 O   10.2723872001300    1.4378461223069    3.7717409845520 
 O    8.3307552494375    2.6225978492883    6.9210417578240 
 O    8.2121608222500    2.6590205731014    2.1620326131840 
 O    8.1466870565025    0.3493537055670    5.4126631543304 
 O   10.1459314926475    1.4494288946137    8.8081006563621 
 O   -1.3532749752500    3.7635287056874    0.5999968967040 
 O    0.5542858604250    4.8636374942075    3.9261546475745 
 O   -1.6175739231025    5.9603514436281    6.8530142812077 
 O   -1.3533323677500    5.9726443775854    2.1620326131840 
 O   -1.3968637755050    3.6043880804071    5.4047667535662 
 O    0.0536210092550    5.0643362941729    8.7363783995858 
 O    2.4729682147500    3.7635287056874    0.5999968967040 
 O    4.3730849562125    4.7984729060791    3.6152871860960 
 O    2.2592082415100    5.6689940077709    7.0406034113267 
 O    2.4729108222500    5.9726443775854    2.1620326131840 
 O    2.4612181334400    3.7410178537712    5.4338423331089 
 O    4.2301035948875    4.6698004423178    8.4542085542764 
 O    6.2990966197500    3.7635287056874    0.5999968967040 
 O    8.2053279581625    4.8469245395853    3.7917604977956 
 O    6.3059275324925    5.8923003823968    7.1186928796961 
 O    6.2990392272500    5.9726443775854    2.1620326131840 
 O    6.2730178694975    3.9166324599044    5.4813240674515 
 O    8.2956831518275    4.7421023339663    8.6711955706652 
 O   -3.2663965702500    7.0771525101714    0.5999968967040 
 O   -1.2501734238675    8.1801020447004    3.7623719636672 
 O   -3.1785725580125    9.2110486036061    6.9047455373666 
 O   -3.2663965702500    9.2861687753434    2.1620326131840 
 O   -3.4295775663050    7.0122856451874    5.2324916409556 
 O   -1.4005105523475    8.0516786941945    8.7660285655727 
 O    0.5598466197500    7.0771525101714    0.5999968967040 
 O    2.4494935344000    8.0927979881842    3.8271337181234 
 O    0.4639732519950    9.2798856738198    7.0098211800272 
 O    0.5598466197500    9.2861687753434    2.1620326131840 
 O    0.5302942458275    7.0204784493241    5.5976587759656 
 O    2.5567077749400    8.0932779238573    8.5184219539046 
 O    4.3859750247500    7.0771525101714    0.5999968967040 
 O    6.2818027099025    8.0520095197786    3.7886275304233 
 O    4.3516209647075    9.2723129688399    7.0568569768952 
 O    4.3859750247500    9.2861687753434    2.1620326131840 
 O    4.3230882833325    6.9707460595601    5.5076971062277 
 O    6.3302710779000    8.1308512805239    8.6241686697365 
Ce    2.4728534297500    1.5545124405154    1.3810147549440 
Ce    0.5077538579850    2.5546460953763    4.7789285215403 
Ce    0.5406213374925    0.5138493711769    7.9318100244674 
Ce    6.2990966197500    1.5545124405154    1.3810147549440 
Ce    4.2731170927225    2.6095358054919    4.4078077220683 
Ce    4.2894850319750    0.3003341614351    7.9283777885699 
Ce   10.1252250247500    1.5545124405154    1.3810147549440 
Ce    8.1524650464400    2.7341933309968    4.4963745541301 
Ce    8.1703772456900    0.3897242680965    7.7168966743605 
Ce    0.5597892272500    4.8680368382734    1.3810147549440 
Ce   -1.3700409314900    5.8867669069940    4.5465953254008 
Ce   -1.3447866818925    3.6539219549393    7.9092590462147 
Ce    4.3860324172500    4.8680368382734    1.3810147549440 
Ce    2.4289520125475    5.9734172648800    4.6095591876961 
Ce    8.2121608222500    4.8680368382734    1.3810147549440 
Ce    6.2796654132025    5.9384499549423    4.6300209887982 
Ce    6.4352632530175    3.7199017776276    7.8397302087506 
Ce   -1.3533323677500    8.1816606427574    1.3810147549440 
Ce   -3.3240081374225    9.2670314894875    4.6135482181590 
Ce   -3.2546996917875    7.0692471902862    7.7194863051270 
Ce    2.4729108222500    8.1816606427574    1.3810147549440 
Ce    0.5132274381025    9.2779710008704    4.6442494735999 
Ce    0.3968030787325    6.9903566208385    7.8367030802468 
Ce    6.2990392272500    8.1816606427574    1.3810147549440 
Ce    4.4202884509025    9.1667700644574    4.6827558894011 
Ce    4.4189000115425    7.0688231211931    7.8602586153475 
Fe    3.1247382208350    4.0394161686242    7.2021274390329 
81
FORCE:  2.085968  ...  ENERGY:  -641.55877933
 O    0.5597892272500    0.4500043079294    0.5999968967040 
 O    2.3515224133775    1.6180103754757    3.8693896583269 
 O    0.5966609240900    2.6234230245208    7.0853643568220 
 O    0.5597892272500    2.6590205731014    2.1620326131840 
 O    0.6188820374550    0.3255594134114    5.4700262244262 
 O    2.5447613538875    1.1392685771270    8.9125590576896 
 O    4.3860324172500    0.4500043079294    0.5999968967040 
 O    6.3421167751150    1.5789480054604    3.7978783949849 
 O    4.3146096319150    2.6572608752377    6.8457720741402 
 O    4.3860324172500    2.6590205731014    2.1620326131840 
 O    4.4167807360875    0.4012159838422    5.2301670635627 
 O    6.4240800948225    1.5517555937832    8.6075870949156 
 O    8.2121608222500    0.4500043079294    0.5999968967040 
 O   10.2695359981225    1.4374662892069    3.7726962715819 
 O    8.3254006439725    2.6106998582533    6.9159236273617 
 O    8.2121608222500    2.6590205731014    2.1620326131840 
 O    8.1437907439900    0.3483947288812    5.4067222635249 
 O   10.1448658861000    1.4472931411056    8.8136407736930 
 O   -1.3532749752500    3.7635287056874    0.5999968967040 
 O    0.5473861340750    4.8656856703900    3.9209306782435 
 O   -1.6189895665075    5.9648239510443    6.8467839302206 
 O   -1.3533323677500    5.9726443775854    2.1620326131840 
 O   -1.4010390798800    3.6086756913129    5.4098844278266 
 O    0.0458441533275    5.0612064734047    8.7375861944338 
 O    2.4729682147500    3.7635287056874    0.5999968967040 
 O    4.3687262254075    4.7987106869677    3.6216886128406 
 O    2.2668710585400    5.6730788289557    7.0443456364967 
 O    2.4729108222500    5.9726443775854    2.1620326131840 
 O    2.4625937742725    3.7448482931442    5.4392615569045 
 O    4.2301389486675    4.6644984851799    8.4526921387619 
 O    6.2990966197500    3.7635287056874    0.5999968967040 
 O    8.2027059244075    4.8515439701426    3.7909995528263 
 O    6.3018861822125    5.8831231534525    7.1176112247067 
 O    6.2990392272500    5.9726443775854    2.1620326131840 
 O    6.2756928191375    3.9161097793391    5.4769997285039 
 O    8.2926342900500    4.7427690548776    8.6709738564835 
 O   -3.2663965702500    7.0771525101714    0.5999968967040 
 O   -1.2551117041375    8.1790165232525    3.7749236779445 
 O   -3.1733348036775    9.2161539342400    6.8993945157730 
 O   -3.2663965702500    9.2861687753434    2.1620326131840 
 O   -3.4225446319625    7.0133110255660    5.2279809434829 
 O   -1.3966714532375    8.0439979341034    8.7584891428892 
 O    0.5598466197500    7.0771525101714    0.5999968967040 
 O    2.4495744578250    8.0963489952504    3.8279943432341 
 O    0.4536499482350    9.2849458738001    7.0104587223501 
 O    0.5598466197500    9.2861687753434    2.1620326131840 
 O    0.5279637659725    7.0206184139943    5.5940536395026 
 O    2.5614718689725    8.0948182310767    8.5079311322526 
 O    4.3859750247500    7.0771525101714    0.5999968967040 
 O    6.2836308332050    8.0548635862888    3.7949475251074 
 O    4.3533220784075    9.2750800544648    7.0538225491592 
 O    4.3859750247500    9.2861687753434    2.1620326131840 
 O    4.3210955583400    6.9661845831241    5.5090333219443 
 O    6.3271179339500    8.1226784571391    8.6225183589292 
Ce    2.4728534297500    1.5545124405154    1.3810147549440 
Ce    0.5092992084400    2.5559155192673    4.7812743123271 
Ce    0.5383991572850    0.5137878384135    7.9332596063859 
Ce    6.2990966197500    1.5545124405154    1.3810147549440 
Ce    4.2736956665150    2.6084736446246    4.4053645321502 
Ce    4.2909529025550    0.2981710710774    7.9271626944896 
Ce   10.1252250247500    1.5545124405154    1.3810147549440 
Ce    8.1542407703900    2.7348877863846    4.4955337738072 
Ce    8.1688567461875    0.3880453879010    7.7159213144417 
Ce    0.5597892272500    4.8680368382734    1.3810147549440 
Ce   -1.3754744516425    5.8866401634183    4.5497203092378 
Ce   -1.3456014258225    3.6570584359580    7.9076126131245 
Ce    4.3860324172500    4.8680368382734    1.3810147549440 
Ce    2.4287195155300    5.9734434088490    4.6096086856153 
Ce    8.2121608222500    4.8680368382734    1.3810147549440 
Ce    6.2829615218700    5.9371299330277    4.6283670283747 
Ce    6.4358282821800    3.7210526092945    7.8415406464669 
Ce   -1.3533323677500    8.1816606427574    1.3810147549440 
Ce   -3.3244587259400    9.2703042571276    4.6155251696127 
Ce   -3.2566875384175    7.0693865585161    7.7198268599350 
Ce    2.4729108222500    8.1816606427574    1.3810147549440 
Ce    0.5130255312875    9.2797032624776    4.6466901544069 
Ce    0.3966548339050    6.9942113154526    7.8355758050554 
Ce    6.2990392272500    8.1816606427574    1.3810147549440 
Ce    4.4220286488950    9.1654295647573    4.6837609024511 
Ce    4.4184442577000    7.0697888575362    7.8596634998124 
Fe    3.1255208249650    4.0430345734506    7.1998881714177 
81
FORCE:  2.151989  ...  ENERGY:  -641.57610075
 O    0.5597892272500    0.4500043079294    0.5999968967040 
 O    2.3521563135400    1.6206588688765    3.8746165929711 
 O    0.5964144806950    2.6279677012201    7.0902286108602 
 O    0.5597892272500    2.6590205731014    2.1620326131840 
 O    0.6176001185750    0.3329345972268    5.4755093165046 
 O    2.5436215388375    1.1465654284423    8.9092620856911 
 O    4.3860324172500    0.4500043079294    0.5999968967040 
 O    6.3434904072100    1.5788227529856    3.8004748687817 
 O    4.3156115327875    2.6558877701315    6.8519730000971 
 O    4.3860324172500    2.6590205731014    2.1620326131840 
 O    4.4157065780575    0.3978975885149    5.2290815308561 
 O    6.4227603542850    1.5461775841672    8.6104666420658 
 O    8.2121608222500    0.4500043079294    0.5999968967040 
 O   10.2661572442550    1.4370993789812    3.7737726802481 
 O    8.3194336605325    2.5987768167234    6.9110073662931 
 O    8.2121608222500    2.6590205731014    2.1620326131840 
 O    8.1413528827675    0.3476309870054    5.4008653138912 
 O   10.1438515310550    1.4452523210208    8.8187105467413 
 O   -1.3532749752500    3.7635287056874    0.5999968967040 
 O    0.5405781783325    4.8676102840121    3.9152755980036 
 O   -1.6198394346475    5.9692052030860    6.8404826398193 
 O   -1.3533323677500    5.9726443775854    2.1620326131840 
 O   -1.4049994493425    3.6134145093481    5.4148011450971 
 O    0.0382843558350    5.0583476353717    8.7389228663524 
 O    2.4729682147500    3.7635287056874    0.5999968967040 
 O    4.3642242429225    4.7991118925139    3.6287275819082 
 O    2.2752439355800    5.6768469403115    7.0481234454243 
 O    2.4729108222500    5.9726443775854    2.1620326131840 
 O    2.4644678115750    3.7487956348269    5.4448413638111 
 O    4.2302795602925    4.6594239706310    8.4512149566212 
 O    6.2990966197500    3.7635287056874    0.5999968967040 
 O    8.2001582139400    4.8559986837548    3.7898193582005 
 O    6.2977940395700    5.8743778467326    7.1165313945254 
 O    6.2990392272500    5.9726443775854    2.1620326131840 
 O    6.2784502991925    3.9146536696167    5.4726341032735 
 O    8.2890120771975    4.7434314018929    8.6707843045442 
 O   -3.2663965702500    7.0771525101714    0.5999968967040 
 O   -1.2605263421575    8.1774172678446    3.7872477474138 
 O   -3.1682025941500    9.2211052838553    6.8942515223005 
 O   -3.2663965702500    9.2861687753434    2.1620326131840 
 O   -3.4148516264775    7.0147502361451    5.2242136272017 
 O   -1.3929935122675    8.0366652963667    8.7507318837411 
 O    0.5598466197500    7.0771525101714    0.5999968967040 
 O    2.4498296248800    8.0999429460222    3.8287190201429 
 O    0.4432973743000    9.2898396669211    7.0113702139861 
 O    0.5598466197500    9.2861687753434    2.1620326131840 
 O    0.5257385439625    7.0208098713486    5.5899323104539 
 O    2.5659465326275    8.0961260259640    8.4976291782370 
 O    4.3859750247500    7.0771525101714    0.5999968967040 
 O    6.2849840909625    8.0584246334343    3.8010131871653 
 O    4.3554138628550    9.2777245715966    7.0503903132617 
 O    4.3859750247500    9.2861687753434    2.1620326131840 
 O    4.3191981048975    6.9617453769612    5.5105828121052 
 O    6.3237807896450    8.1146362541923    8.6207774920208 
Ce    2.4728534297500    1.5545124405154    1.3810147549440 
Ce    0.5107943404575    2.5572230159344    4.7835493918009 
Ce    0.5362477420300    0.5137097047269    7.9347326827085 
Ce    6.2990966197500    1.5545124405154    1.3810147549440 
Ce    4.2743630838975    2.6074283829007    4.4030465696866 
Ce    4.2924055067300    0.2961103696474    7.9259824998639 
Ce   10.1252250247500    1.5545124405154    1.3810147549440 
Ce    8.1560465680100    2.7354720991200    4.4947897083126 
Ce    8.1673729204925    0.3864041828548    7.7150043483815 
Ce    0.5597892272500    4.8680368382734    1.3810147549440 
Ce   -1.3808323858725    5.8865685905756    4.5528493988929 
Ce   -1.3463971728350    3.6601884555396    7.9059800941960 
Ce    4.3860324172500    4.8680368382734    1.3810147549440 
Ce    2.4284454089500    5.9734579222310    4.6096235121809 
Ce    8.2121608222500    4.8680368382734    1.3810147549440 
Ce    6.2861769366825    5.9358009645078    4.6266710973653 
Ce    6.4364098403825    3.7221392242164    7.8433093416985 
Ce   -1.3533323677500    8.1816606427574    1.3810147549440 
Ce   -3.3248271283975    9.2735070424326    4.6174227419149 
Ce   -3.2587024169150    7.0694880527833    7.7202283177126 
Ce    2.4729108222500    8.1816606427574    1.3810147549440 
Ce    0.5128605278500    9.2813861189421    4.6490690198402 
Ce    0.3965367201400    6.9979897651078    7.8344977996822 
Ce    6.2990392272500    8.1816606427574    1.3810147549440 
Ce    4.4236953844875    9.1641783322971    4.6846910983699 
Ce    4.4179700808650    7.0707853105576    7.8590866323581 
Fe    3.1262338119925    4.0465586412941    7.1976374987521 
81
FORCE:  2.212141  ...  ENERGY:  -641.58986410
 O    0.5597892272500    0.4500043079294    0.5999968967040 
 O    2.3531331338900    1.6228672887013    3.8792157936357 
 O    0.5960562367100    2.6321690270877    7.0949505298682 
 O    0.5597892272500    2.6590205731014    2.1620326131840 
 O    0.6158800079575    0.3403108745162    5.4812075078354 
 O    2.5425718300125    1.1533310502138    8.9055527070664 
 O    4.3860324172500    0.4500043079294    0.5999968967040 
 O    6.3445412638850    1.5789094356507    3.8027018189423 
 O    4.3163349652500    2.6547321669418    6.8583940435286 
 O    4.3860324172500    2.6590205731014    2.1620326131840 
 O    4.4140613646525    0.3951364672935    5.2283798921494 
 O    6.4211624323000    1.5408597219531    8.6132497024888 
 O    8.2121608222500    0.4500043079294    0.5999968967040 
 O   10.2622846279250    1.4367637818742    3.7749722634596 
 O    8.3128986635200    2.5868868776333    6.9063278740730 
 O    8.2121608222500    2.6590205731014    2.1620326131840 
 O    8.1393829999900    0.3470495570650    5.3951354165200 
 O   10.1428931336975    1.4433088201208    8.8232910431231 
 O   -1.3532749752500    3.7635287056874    0.5999968967040 
 O    0.5339106046450    4.8693907578815    3.9092208847941 
 O   -1.6201419505150    5.9734863525546    6.8341836304282 
 O   -1.3533323677500    5.9726443775854    2.1620326131840 
 O   -1.4087245669475    3.6185701397853    5.4195086937415 
 O    0.0309607858725    5.0558035190332    8.7403751854830 
 O    2.4729682147500    3.7635287056874    0.5999968967040 
 O    4.3595982352450    4.7996720494149    3.6363377159049 
 O    2.2842623060675    5.6803328359721    7.0519263454631 
 O    2.4729108222500    5.9726443775854    2.1620326131840 
 O    2.4668021941200    3.7528379099330    5.4505274657884 
 O    4.2305412127000    4.6546090070438    8.4498123635107 
 O    6.2990966197500    3.7635287056874    0.5999968967040 
 O    8.1976870650675    4.8602525957805    3.7882137551911 
 O    6.2936907627825    5.8661126744993    7.1154467742228 
 O    6.2990392272500    5.9726443775854    2.1620326131840 
 O    6.2812829060300    3.9122803340334    5.4682365439017 
 O    8.2848426268575    4.7440978245840    8.6706173346048 
 O   -3.2663965702500    7.0771525101714    0.5999968967040 
 O   -1.2663888712475    8.1753275396507    3.7992732326610 
 O   -3.1632168502825    9.2258540425631    6.8893676515754 
 O   -3.2663965702500    9.2861687753434    2.1620326131840 
 O   -3.4065858438425    7.0165852843070    5.2212070277889 
 O   -1.3895033021650    8.0296918151311    8.7428040050375 
 O    0.5598466197500    7.0771525101714    0.5999968967040 
 O    2.4502659226650    8.1035478315339    3.8293043273346 
 O    0.4329769975575    9.2945287815933    7.0125458465916 
 O    0.5598466197500    9.2861687753434    2.1620326131840 
 O    0.5236494569625    7.0210508332524    5.5853602538095 
 O    2.5700844744850    8.0972106527514    8.4875496227061 
 O    4.3859750247500    7.0771525101714    0.5999968967040 
 O    6.2858596135500    8.0626654237722    3.8068062685162 
 O    4.3578901196600    9.2802413510855    7.0465764643745 
 O    4.3859750247500    9.2861687753434    2.1620326131840 
 O    4.3174126816150    6.9574532927527    5.5123321187509 
 O    6.3202928752425    8.1067468393833    8.6189510872338 
Ce    2.4728534297500    1.5545124405154    1.3810147549440 
Ce    0.5122348348150    2.5585696788515    4.7857549004666 
Ce    0.5341681247925    0.5136209345205    7.9362283410310 
Ce    6.2990966197500    1.5545124405154    1.3810147549440 
Ce    4.2751203779350    2.6064018096413    4.4008602215057 
Ce    4.2938400896600    0.2941604073102    7.9248390295007 
Ce   10.1252250247500    1.5545124405154    1.3810147549440 
Ce    8.1578793974975    2.7359453745425    4.4941421295452 
Ce    8.1659264573150    0.3848056232940    7.7141441794728 
Ce    0.5597892272500    4.8680368382734    1.3810147549440 
Ce   -1.3861082488275    5.8865550712609    4.5559759794370 
Ce   -1.3471756447050    3.6633048563997    7.9043612613280 
Ce    4.3860324172500    4.8680368382734    1.3810147549440 
Ce    2.4281280858175    5.9734625943471    4.6096032111910 
Ce    8.2121608222500    4.8680368382734    1.3810147549440 
Ce    6.2893091897625    5.9344651369239    4.6249373015883 
Ce    6.4370034510100    3.7231550615494    7.8450340134351 
Ce   -1.3533323677500    8.1816606427574    1.3810147549440 
Ce   -3.3251120821600    9.2766368632007    4.6192395664595 
Ce   -3.2607419741875    7.0695501819871    7.7206854321366 
Ce    2.4729108222500    8.1816606427574    1.3810147549440 
Ce    0.5127305912300    9.2830157928081    4.6513812797786 
Ce    0.3964489096150    7.0016839178595    7.8334645021069 
Ce    6.2990392272500    8.1816606427574    1.3810147549440 
Ce    4.4252858454475    9.1630172617374    4.6855462490564 
Ce    4.4174788010650    7.0718054223799    7.8585255038735 
Fe    3.1268865368950    4.0499723676716    7.1953872822884 
81
FORCE:  2.267260  ...  ENERGY:  -641.59873741
 O    0.5597892272500    0.4500043079294    0.5999968967040 
 O    2.3544325000900    1.6246422952008    3.8831751709673 
 O    0.5955786163250    2.6360254116162    7.0995091285531 
 O    0.5597892272500    2.6590205731014    2.1620326131840 
 O    0.6137400712025    0.3476727378303    5.4871007255297 
 O    2.5416012080525    1.1595390002525    8.9014386772501 
 O    4.3860324172500    0.4500043079294    0.5999968967040 
 O    6.3452567187900    1.5792082522690    3.8045423659920 
 O    4.3167834302450    2.6537931710080    6.8649847941115 
 O    4.3860324172500    2.6590205731014    2.1620326131840 
 O    4.4118593292125    0.3929692018533    5.2280502861899 
 O    6.4193030874775    1.5358055857831    8.6159399258008 
 O    8.2121608222500    0.4500043079294    0.5999968967040 
 O   10.2579532159500    1.4364790810110    3.7762968460247 
 O    8.3058424852150    2.5750849134957    6.9019150319335 
 O    8.2121608222500    2.6590205731014    2.1620326131840 
 O    8.1378848261700    0.3466362238983    5.3895727171891 
 O   10.1419934488675    1.4414642289131    8.8273676643738 
 O   -1.3532749752500    3.7635287056874    0.5999968967040 
 O    0.5274282939475    4.8710060177723    3.9027968760495 
 O   -1.6199172588775    5.9776601427592    6.8279621753804 
 O   -1.3533323677500    5.9726443775854    2.1620326131840 
 O   -1.4121977314775    3.6241068956101    5.4240031960425 
 O    0.0238899150875    5.0536135888594    8.7419312905733 
 O    2.4729682147500    3.7635287056874    0.5999968967040 
 O    4.3548688636750    4.8003869825883    3.6444512688306 
 O    2.2938595373100    5.6835765768482    7.0557443001684 
 O    2.4729108222500    5.9726443775854    2.1620326131840 
 O    2.4695535905700    3.7569511614414    5.4562635218868 
 O    4.2309375079125    4.6500835158426    8.4485185745820 
 O    6.2990966197500    3.7635287056874    0.5999968967040 
 O    8.1952919612575    4.8642749895414    3.7861795503840 
 O    6.2896136569750    5.8583705804583    7.1143473273546 
 O    6.2990392272500    5.9726443775854    2.1620326131840 
 O    6.2841846134375    3.9090145248642    5.4638136653178 
 O    8.2801565292325    4.7447773689630    8.6704631383221 
 O   -3.2663965702500    7.0771525101714    0.5999968967040 
 O   -1.2726680124950    8.1727758684010    3.8109369497063 
 O   -3.1584167711525    9.2303543838625    6.8847889800017 
 O   -3.2663965702500    9.2861687753434    2.1620326131840 
 O   -3.3978426703925    7.0187944993857    5.2189720940929 
 O   -1.3862252147425    8.0230847470875    8.7347506707784 
 O    0.5598466197500    7.0771525101714    0.5999968967040 
 O    2.4508875982250    8.1071336309541    3.8297468432940 
 O    0.4227508593000    9.2989773319885    7.0139723903081 
 O    0.5598466197500    9.2861687753434    2.1620326131840 
 O    0.5217264638575    7.0213409020789    5.5804031626601 
 O    2.5738397231525    8.0980827479586    8.4777225749933 
 O    4.3859750247500    7.0771525101714    0.5999968967040 
 O    6.2862591227425    8.0675523578291    3.8123144517057 
 O    4.3607398868550    9.2826265160691    7.0424003910834 
 O    4.3859750247500    9.2861687753434    2.1620326131840 
 O    4.3157555305700    6.9533306970120    5.5142650467096 
 O    6.3166873636075    8.0990304916842    8.6170466719013 
Ce    2.4728534297500    1.5545124405154    1.3810147549440 
Ce    0.5136166740375    2.5599567008994    4.7878922069303 
Ce    0.5321608221050    0.5135273927914    7.9377463532526 
Ce    6.2990966197500    1.5545124405154    1.3810147549440 
Ce    4.2759684095150    2.6053954159472    4.3988114182339 
Ce    4.2952539538975    0.2923290371971    7.9237329677033 
Ce   10.1252250247500    1.5545124405154    1.3810147549440 
Ce    8.1597366187975    2.7363070162117    4.4935914937071 
Ce    8.1645172418700    0.3832540831146    7.7133392110085 
Ce    0.5597892272500    4.8680368382734    1.3810147549440 
Ce   -1.3912965882200    5.8866020906423    4.5590938921427 
Ce   -1.3479382188525    3.6664012765079    7.9027561145206 
Ce    4.3860324172500    4.8680368382734    1.3810147549440 
Ce    2.4277661687125    5.9734592145184    4.6095477826456 
Ce    8.2121608222500    4.8680368382734    1.3810147549440 
Ce    6.2923566167275    5.9331247366305    4.6231695187608 
Ce    6.4376040635225    3.7240945545168    7.8467128368687 
Ce   -1.3533323677500    8.1816606427574    1.3810147549440 
Ce   -3.3253126689475    9.2796919301109    4.6209751870446 
Ce   -3.2628040293200    7.0695717532466    7.7211925006818 
Ce    2.4729108222500    8.1816606427574    1.3810147549440 
Ce    0.5126331961575    9.2845895006874    4.6536235127069 
Ce    0.3963919188625    7.0052871134568    7.8324706660063 
Ce    6.2990392272500    8.1816606427574    1.3810147549440 
Ce    4.4267973917200    9.1619473471455    4.6863268107126 
Ce    4.4169710496175    7.0728427315657    7.8579776052475 
Fe    3.1274899042475    4.0532608415744    7.1931505237843 
81
FORCE:  2.312778  ...  ENERGY:  -641.60168006
 O    0.5597892272500    0.4500043079294    0.5999968967040 
 O    2.3560307664300    1.6259938290475    3.8864869695315 
 O    0.5949738715525    2.6395395387870    7.1038859307330 
 O    0.5597892272500    2.6590205731014    2.1620326131840 
 O    0.6112017157125    0.3550073637015    5.4931682123957 
 O    2.5406968744300    1.1651687013661    8.8969293483834 
 O    4.3860324172500    0.4500043079294    0.5999968967040 
 O    6.3456269578075    1.5797159224187    3.8059828238702 
 O    4.3169619209200    2.6530680983485    6.8716978068358 
 O    4.3860324172500    2.6590205731014    2.1620326131840 
 O    4.4091221087100    0.3914247195514    5.2280799393212 
 O    6.4172002262775    1.5310155732841    8.6185414178198 
 O    8.2121608222500    0.4500043079294    0.5999968967040 
 O   10.2531983621100    1.4362659529904    3.7777475684483 
 O    8.2983119578975    2.5634230134350    6.8977939309859 
 O    8.2121608222500    2.6590205731014    2.1620326131840 
 O    8.1368562951775    0.3463758776829    5.3842123434541 
 O   10.1411525339575    1.4397198396853    8.8309290054429 
 O   -1.3532749752500    3.7635287056874    0.5999968967040 
 O    0.5211732575500    4.8724379716603    3.8960350497091 
 O   -1.6191865949600    5.9817200128557    6.8218924075043 
 O   -1.3533323677500    5.9726443775854    2.1620326131840 
 O   -1.4154067183300    3.6299888909942    5.4282839676972 
 O    0.0170848289700    5.0518114443238    8.7435813732796 
 O    2.4729682147500    3.7635287056874    0.5999968967040 
 O    4.3500577077925    4.8012531133919    3.6530016351904 
 O    2.3039669304850    5.6866227965598    7.0595686417021 
 O    2.4729108222500    5.9726443775854    2.1620326131840 
 O    2.4726755130000    3.7611113329245    5.4619915944499 
 O    4.2314826218775    4.6458728457427    8.4473652958754 
 O    6.2990966197500    3.7635287056874    0.5999968967040 
 O    8.1929705494175    4.8680395222550    3.7837169718800 
 O    6.2855980185350    5.8511872516241    7.1132205083652 
 O    6.2990392272500    5.9726443775854    2.1620326131840 
 O    6.2871491082400    3.9048888475150    5.4593698014410 
 O    8.2749868424025    4.7454793792620    8.6703128197565 
 O   -3.2663965702500    7.0771525101714    0.5999968967040 
 O   -1.2793296173625    8.1697949589084    3.8221848386104 
 O   -3.1538402932025    9.2345634634548    6.8805574781652 
 O   -3.2663965702500    9.2861687753434    2.1620326131840 
 O   -3.3887226003950    7.0213527314793    5.2175133881340 
 O   -1.3831835844200    8.0168494601992    8.7266170449639 
 O    0.5598466197500    7.0771525101714    0.5999968967040 
 O    2.4516969472600    8.1106723115863    3.8300449713140 
 O    0.4126796234000    9.3031510227863    7.0156309127518 
 O    0.5598466197500    9.2861687753434    2.1620326131840 
 O    0.5199980887200    7.0216795807944    5.5751237647837 
 O    2.5771694064325    8.0987557314936    8.4681742667147 
 O    4.3859750247500    7.0771525101714    0.5999968967040 
 O    6.2861896778175    8.0730449770675    3.8175290688953 
 O    4.3639484719600    9.2848780784130    7.0378842191864 
 O    4.3859750247500    9.2861687753434    2.1620326131840 
 O    4.3142415738125    6.9493962782036    5.5163654008097 
 O    6.3129980589225    8.0915059989664    8.6150722295587 
Ce    2.4728534297500    1.5545124405154    1.3810147549440 
Ce    0.5149369885000    2.5613850761453    4.7899633641011 
Ce    0.5302260635375    0.5134340498757    7.9392858069691 
Ce    6.2990966197500    1.5545124405154    1.3810147549440 
Ce    4.2769083264875    2.6044103946993    4.3969049499923 
Ce    4.2966447463500    0.2906231183722    7.9226654549764 
Ce   10.1252250247500    1.5545124405154    1.3810147549440 
Ce    8.1616160509950    2.7365568253141    4.4931368883941 
Ce    8.1631453315500    0.3817530415520    7.7125876181806 
Ce    0.5597892272500    4.8680368382734    1.3810147549440 
Ce   -1.3963937309300    5.8867118356678    4.5621976625858 
Ce   -1.3486869040150    3.6694728449345    7.9011641975718 
Ce    4.3860324172500    4.8680368382734    1.3810147549440 
Ce    2.4273586819625    5.9734496714727    4.6094563141406 
Ce    8.2121608222500    4.8680368382734    1.3810147549440 
Ce    6.2953188158300    5.9317814535420    4.6213720828020 
Ce    6.4382068569500    3.7249523351555    7.8483444433932 
Ce   -1.3533323677500    8.1816606427574    1.3810147549440 
Ce   -3.3254286017975    9.2826713485025    4.6226298317711 
Ce   -3.2648866883600    7.0695516730880    7.7217442770250 
Ce    2.4729108222500    8.1816606427574    1.3810147549440 
Ce    0.5125658173625    9.2861050556320    4.6557925252110 
Ce    0.3963662070225    7.0087941827501    7.8315101326532 
Ce    6.2990392272500    8.1816606427574    1.3810147549440 
Ce    4.4282282441375    9.1609686879280    4.6870336957426 
Ce    4.4164478595875    7.0738906772712    7.8574397430659 
Fe    3.1280558516900    4.0564109413147    7.1909409093005 
81
FORCE:  2.348693  ...  ENERGY:  -641.59793288
 O    0.5597892272500    0.4500043079294    0.5999968967040 
 O    2.3579011880050    1.6269356083696    3.8891489083182 
 O    0.5942340822275    2.6427181682576    7.1080638288321 
 O    0.5597892272500    2.6590205731014    2.1620326131840 
 O    0.6082896202625    0.3623056067110    5.4993892112415 
 O    2.5398453419075    1.1702043478851    8.8920354412138 
 O    4.3860324172500    0.4500043079294    0.5999968967040 
 O    6.3456453808000    1.5804261834760    3.8070133842333 
 O    4.3168774965525    2.6525520780339    6.8784886020045 
 O    4.3860324172500    2.6590205731014    2.1620326131840 
 O    4.4058775959000    0.3905250886811    5.2284540249776 
 O    6.4148712386275    1.5264875969148    8.6210582843641 
 O    8.2121608222500    0.4500043079294    0.5999968967040 
 O   10.2480546166900    1.4361454720385    3.7793255712355 
 O    8.2903544877725    2.5519486938663    6.8939853284219 
 O    8.2121608222500    2.6590205731014    2.1620326131840 
 O    8.1362891424925    0.3462532097830    5.3790857732543 
 O   10.1403687819775    1.4380762488776    8.8339661703911 
 O   -1.3532749752500    3.7635287056874    0.5999968967040 
 O    0.5151845223525    4.8736693227753    3.8889646027021 
 O   -1.6179725140150    5.9856602966609    6.8160489158301 
 O   -1.3533323677500    5.9726443775854    2.1620326131840 
 O   -1.4183431482000    3.6361793454492    5.4323535178166 
 O    0.0105553990300    5.0504261121902    8.7453165376627 
 O    2.4729682147500    3.7635287056874    0.5999968967040 
 O    4.3451864619625    4.8022670619971    3.6619233499946 
 O    2.3145160737325    5.6895194091487    7.0633907022256 
 O    2.4729108222500    5.9726443775854    2.1620326131840 
 O    2.4761184890750    3.7652937715143    5.4676530615182 
 O    4.2321899844400    4.6419994626641    8.4463830929264 
 O    6.2990966197500    3.7635287056874    0.5999968967040 
 O    8.1907179511850    4.8715240262215    3.7808298973964 
 O    6.2816771925050    5.8445934046750    7.1120501220829 
 O    6.2990392272500    5.9726443775854    2.1620326131840 
 O    6.2901713972900    3.8999415735754    5.4549060927763 
 O    8.2693686905775    4.7462135973402    8.6701577110697 
 O   -3.2663965702500    7.0771525101714    0.5999968967040 
 O   -1.2863378155375    8.1664226851356    3.8329712791713 
 O   -3.1495217945400    9.2384420156832    6.8767098703285 
 O   -3.2663965702500    9.2861687753434    2.1620326131840 
 O   -3.3793294568825    7.0242314508575    5.2168311380131 
 O   -1.3803989577125    8.0109875449737    8.7184450981796 
 O    0.5598466197500    7.0771525101714    0.5999968967040 
 O    2.4526936828075    8.1141393199690    3.8301964303847 
 O    0.4028235519825    9.3070172485807    7.0174990600238 
 O    0.5598466197500    9.2861687753434    2.1620326131840 
 O    0.5184921095200    7.0220674658392    5.5695836474528 
 O    2.5800320295475    8.0992460054662    8.4589263674662 
 O    4.3859750247500    7.0771525101714    0.5999968967040 
 O    6.2856631016300    8.0790977532069    3.8224453299639 
 O    4.3674978537300    9.2869942487961    7.0330518992896 
 O    4.3859750247500    9.2861687753434    2.1620326131840 
 O    4.3128845855425    6.9456669354710    5.5186151610713 
 O    6.3092572157725    8.0841898627462    8.6130368842465 
Ce    2.4728534297500    1.5545124405154    1.3810147549440 
Ce    0.5161935398950    2.5628560968766    4.7919708810901 
Ce    0.5283635047350    0.5133454784828    7.9408464740795 
Ce    6.2990966197500    1.5545124405154    1.3810147549440 
Ce    4.2779413340950    2.6034474417446    4.3951449225992 
Ce    4.2980098843550    0.2890493110861    7.9216369475224 
Ce   10.1252250247500    1.5545124405154    1.3810147549440 
Ce    8.1635161444925    2.7366943048162    4.4927771731014 
Ce    8.1618102098225    0.3803053814012    7.7118873480799 
Ce    0.5597892272500    4.8680368382734    1.3810147549440 
Ce   -1.4013966925475    5.8868864932854    4.5652825006450 
Ce   -1.3494233645750    3.6725154860039    7.8995839137745 
Ce    4.3860324172500    4.8680368382734    1.3810147549440 
Ce    2.4269045351100    5.9734358539378    4.6093290337770 
Ce    8.2121608222500    4.8680368382734    1.3810147549440 
Ce    6.2981964757800    5.9304368781662    4.6195479590250 
Ce    6.4388066659675    3.7257238307560    7.8499286049076 
Ce   -1.3533323677500    8.1816606427574    1.3810147549440 
Ce   -3.3254599381025    9.2855754165959    4.6242044130432 
Ce   -3.2669890904200    7.0694890468506    7.7223355148429 
Ce    2.4729108222500    8.1816606427574    1.3810147549440 
Ce    0.5125251260800    9.2875610659478    4.6578858081798 
Ce    0.3963724054125    7.0122008512501    7.8305778838253 
Ce    6.2990392272500    8.1816606427574    1.3810147549440 
Ce    4.4295771974575    9.1600815823052    4.6876680446514 
Ce    4.4159102640400    7.0749430962793    7.8569094082177 
Fe    3.1285975221050    4.0594110363053    7.1887732654024 
81
FORCE:  2.373839  ...  ENERGY:  -641.58701852
 O    0.5597892272500    0.4500043079294    0.5999968967040 
 O    2.3600147816025    1.6274836376500    3.8911618997314 
 O    0.5933510412225    2.6455719365476    7.1120277681839 
 O    0.5597892272500    2.6590205731014    2.1620326131840 
 O    0.6050309315050    0.3695625959291    5.5057425086730 
 O    2.5390320901825    1.1746337127822    8.8867695012970 
 O    4.3860324172500    0.4500043079294    0.5999968967040 
 O    6.3453081998625    1.5813296912086    3.8076265197482 
 O    4.3165391677650    2.6522384498133    6.8853158933348 
 O    4.3860324172500    2.6590205731014    2.1620326131840 
 O    4.4021590210400    0.3902853196580    5.2291563479874 
 O    6.4123338588100    1.5222161893053    8.6234959998580 
 O    8.2121608222500    0.4500043079294    0.5999968967040 
 O   10.2425550377700    1.4361391100081    3.7810319948913 
 O    8.2820170792975    2.5407059919691    6.8905054194133 
 O    8.2121608222500    2.6590205731014    2.1620326131840 
 O    8.1361701678400    0.3462521163090    5.3742208349131 
 O   10.1396388641625    1.4365346493708    8.8364741409960 
 O   -1.3532749752500    3.7635287056874    0.5999968967040 
 O    0.5094968108175    4.8746850607016    3.8816154162609 
 O   -1.6162968251925    5.9894758250250    6.8105042364790 
 O   -1.3533323677500    5.9726443775854    2.1620326131840 
 O   -1.4210024296875    3.6426422737400    5.4362180051280 
 O    0.0043084549750    5.0494819471067    8.7471294844901 
 O    2.4729682147500    3.7635287056874    0.5999968967040 
 O    4.3402767057650    4.8034258462021    3.6711545978693 
 O    2.3254394160800    5.6923168138250    7.0672024982038 
 O    2.4729108222500    5.9726443775854    2.1620326131840 
 O    2.4798300046575    3.7694729296820    5.4731881606268 
 O    4.2330710741000    4.6384822538848    8.4455986535530 
 O    6.2990966197500    3.7635287056874    0.5999968967040 
 O    8.1885278533850    4.8747108070436    3.7775247137615 
 O    6.2778819986575    5.8386127978187    7.1108176923259 
 O    6.2990392272500    5.9726443775854    2.1620326131840 
 O    6.2932479222525    3.8942164420049    5.4504216269197 
 O    8.2633388623500    4.7469898644636    8.6699896006253 
 O   -3.2663965702500    7.0771525101714    0.5999968967040 
 O   -1.2936552445025    8.1627003008738    3.8432568099143 
 O   -3.1454946202075    9.2419553476002    6.8732787749361 
 O   -3.2663965702500    9.2861687753434    2.1620326131840 
 O   -3.3697695881575    7.0274009349093    5.2169212379120 
 O   -1.3778909054625    8.0054992996312    8.7102763448095 
 O    0.5598466197500    7.0771525101714    0.5999968967040 
 O    2.4538759109150    8.1175124884023    3.8302003081018 
 O    0.3932423906400    9.3105444974393    7.0195515129117 
 O    0.5598466197500    9.2861687753434    2.1620326131840 
 O    0.5172348694150    7.0225060483143    5.5638405202230 
 O    2.5823890247375    8.0995718607140    8.4499968972278 
 O    4.3859750247500    7.0771525101714    0.5999968967040 
 O    6.2846946605850    8.0856623745785    3.8270616382042 
 O    4.3713669691175    9.2889735361175    7.0279308035141 
 O    4.3859750247500    9.2861687753434    2.1620326131840 
 O    4.3116977086425    6.9421568839760    5.5209947108077 
 O    6.3054970313500    8.0770974910663    8.6109513567121 
Ce    2.4728534297500    1.5545124405154    1.3810147549440 
Ce    0.5173850655875    2.5643707571607    4.7939168108064 
Ce    0.5265723995950    0.5132659531020    7.9424281264828 
Ce    6.2990966197500    1.5545124405154    1.3810147549440 
Ce    4.2790685801875    2.6025071535233    4.3935345294685 
Ce    4.2993475313525    0.2876131821156    7.9206481296440 
Ce   10.1252250247500    1.5545124405154    1.3810147549440 
Ce    8.1654357514400    2.7367190570910    4.4925112073237 
Ce    8.1605110731925    0.3789130907969    7.7112368039994 
Ce    0.5597892272500    4.8680368382734    1.3810147549440 
Ce   -1.4063038660825    5.8871276540027    4.5683438443002 
Ce   -1.3501492075225    3.6755266151412    7.8980145788257 
Ce    4.3860324172500    4.8680368382734    1.3810147549440 
Ce    2.4264028672675    5.9734198494549    4.6091650291508 
Ce    8.2121608222500    4.8680368382734    1.3810147549440 
Ce    6.3009909739975    5.9290922033836    4.6177003408440 
Ce    6.4393983826425    3.7264045680156    7.8514650933110 
Ce   -1.3533323677500    8.1816606427574    1.3810147549440 
Ce   -3.3254072517875    9.2884053272717    4.6257002994667 
Ce   -3.2691104320050    7.0693830792807    7.7229614240144 
Ce    2.4729108222500    8.1816606427574    1.3810147549440 
Ce    0.5125080231150    9.2889567363808    4.6599022211082 
Ce    0.3964113749200    7.0155044349752    7.8296675326944 
Ce    6.2990392272500    8.1816606427574    1.3810147549440 
Ce    4.4308430464375    9.1592857320568    4.6882305417421 
Ce    4.4153587795075    7.0759943224068    7.8563829510866 
Fe    3.1291294931875    4.0622507882470    7.1866633310600 
