81
FORCE:  1.521495  ...  ENERGY:  -642.73280059
 O    0.5597892272500    0.4500043079294    0.5999968967040 
 O    2.5882755438925    1.6121113815414    3.8121080202917 
 O    0.5692238081475    2.6201625833147    7.1493847829956 
 O    0.5597892272500    2.6590205731014    2.1620326131840 
 O    0.5922988071275    0.3733902519138    5.3904586615119 
 O    2.5071293212075    0.8165585581096    9.0588315675642 
 O    4.3860324172500    0.4500043079294    0.5999968967040 
 O    6.3240610372225    1.5565625054257    3.7208393317664 
 O    3.9942882004300    2.6363025575683    7.0736730395544 
 O    4.3860324172500    2.6590205731014    2.1620326131840 
 O    4.4631202440825    0.3953581442925    5.4261728928496 
 O    6.3551797098625    1.5370517485002    8.6103824727931 
 O    8.2121608222500    0.4500043079294    0.5999968967040 
 O   10.0891537811075    1.5342832711811    3.8375529160582 
 O    8.2495388931175    2.7053380436071    6.9801000746262 
 O    8.2121608222500    2.6590205731014    2.1620326131840 
 O    8.1002086012650    0.5187605604749    5.2862899484671 
 O   10.0163942670550    1.3816938473644    8.5469081204374 
 O   -1.3532749752500    3.7635287056874    0.5999968967040 
 O    0.5402717597750    4.8436310953462    3.8085133764751 
 O   -1.3870758863775    5.9245033900979    6.9854310233309 
 O   -1.3533323677500    5.9726443775854    2.1620326131840 
 O   -1.2593673580125    3.8122486379471    5.4917199990832 
 O    0.0119010235850    4.9979735567760    9.0071648639912 
 O    2.4729682147500    3.7635287056874    0.5999968967040 
 O    4.3059129463900    4.9599025700390    3.7504258575715 
 O    2.3326068210500    5.8561935731589    7.1651803217361 
 O    2.4729108222500    5.9726443775854    2.1620326131840 
 O    2.3911722515725    3.9038624730690    5.6274444339524 
 O    4.3156476900625    4.6926705501417    8.3616611314891 
 O    6.2990966197500    3.7635287056874    0.5999968967040 
 O    8.1567361388975    4.8091543576013    3.8769001121822 
 O    6.3790940167625    5.9811606512085    7.0364376025810 
 O    6.2990392272500    5.9726443775854    2.1620326131840 
 O    6.1856478319350    3.7631811797733    5.4240020555375 
 O    8.1113139352300    4.7492720440791    8.6605443940032 
 O   -3.2663965702500    7.0771525101714    0.5999968967040 
 O   -1.2876488324150    8.2224533856522    3.8453521457921 
 O   -3.2247448816550    9.1878201345349    7.0380742273278 
 O   -3.2663965702500    9.2861687753434    2.1620326131840 
 O   -3.1912837341275    7.1288069289826    5.3525218139328 
 O   -1.3845559538800    8.0932842858878    8.7583703022629 
 O    0.5598466197500    7.0771525101714    0.5999968967040 
 O    2.5308230113375    8.1516480622637    3.8478765396698 
 O    0.5984187989725    9.1852935137802    7.2717520789213 
 O    0.5598466197500    9.2861687753434    2.1620326131840 
 O    0.5879464468900    6.8836539381837    5.4318838578370 
 O    2.5215045928600    8.1508811393726    8.6451655958080 
 O    4.3859750247500    7.0771525101714    0.5999968967040 
 O    6.2939666485300    8.1272851636354    3.7955335166020 
 O    4.4915317698900    9.2676978127719    6.8754199591170 
 O    4.3859750247500    9.2861687753434    2.1620326131840 
 O    4.3188197161450    6.7641897182652    5.6519609586083 
 O    6.3556631268900    8.0926582223275    8.6319085932078 
Ce    2.4728534297500    1.5545124405154    1.3810147549440 
Ce    0.5900638857850    2.5981995618656    4.7757928169558 
Ce    0.7123591535500    0.3637709612589    7.8985928148861 
Ce    6.2990966197500    1.5545124405154    1.3810147549440 
Ce    4.4236373032775    2.6042328542867    4.5384486978286 
Ce    4.2930234517775    0.2924206901984    8.0161428455815 
Ce   10.1252250247500    1.5545124405154    1.3810147549440 
Ce    8.1770205997425    2.6116464090983    4.6676613050643 
Ce    8.2304368325575    0.3492544976544    7.8881973394564 
Ce    0.5597892272500    4.8680368382734    1.3810147549440 
Ce   -1.4040026564025    5.9061336235735    4.5785559265179 
Ce   -1.2861303416500    3.6905009461257    7.9387249065855 
Ce    4.3860324172500    4.8680368382734    1.3810147549440 
Ce    2.3879458747925    5.8983633974290    4.5050460421262 
Ce    8.2121608222500    4.8680368382734    1.3810147549440 
Ce    6.2289298692775    5.9976196216458    4.7072459543397 
Ce    6.4775758736425    3.6561055230826    7.7968987696988 
Ce   -1.3533323677500    8.1816606427574    1.3810147549440 
Ce   -3.2063973602925    9.2456721650853    4.5986685049737 
Ce   -3.3076845051800    7.0683778784674    7.9347582300216 
Ce    2.4729108222500    8.1816606427574    1.3810147549440 
Ce    0.5224376143250    9.2018386698489    4.7013431564029 
Ce    0.4517841754525    6.9619346473675    7.9897476810074 
Ce    6.2990392272500    8.1816606427574    1.3810147549440 
Ce    4.3599059738300    9.2871183083902    4.5076057916605 
Ce    4.4281823875300    7.1044257395168    7.7650207411473 
Fe    3.0316262932175    4.1635295417110    7.3338571409140 
81
FORCE:  1.535212  ...  ENERGY:  -642.72329514
 O    0.5597892272500    0.4500043079294    0.5999968967040 
 O    2.5922262140225    1.6108918598268    3.8078972756471 
 O    0.5733615778275    2.6160411804548    7.1430764214631 
 O    0.5597892272500    2.6590205731014    2.1620326131840 
 O    0.5953633944500    0.3734555621327    5.4026125676278 
 O    2.5092203595525    0.8233856132378    9.0653844533795 
 O    4.3860324172500    0.4500043079294    0.5999968967040 
 O    6.3171847844050    1.5551726999895    3.7117476817099 
 O    3.9883419930750    2.6339826033969    7.0789145726632 
 O    4.3860324172500    2.6590205731014    2.1620326131840 
 O    4.4638758737375    0.4028997349672    5.4268811464857 
 O    6.3529210280250    1.5383423460239    8.6061863266132 
 O    8.2121608222500    0.4500043079294    0.5999968967040 
 O   10.0898443850600    1.5299021185461    3.8355698058772 
 O    8.2519906433250    2.7104609692315    6.9835968631095 
 O    8.2121608222500    2.6590205731014    2.1620326131840 
 O    8.1061913676425    0.5081221520651    5.2854186026090 
 O   10.0103045210575    1.3826472572735    8.5396093443194 
 O   -1.3532749752500    3.7635287056874    0.5999968967040 
 O    0.5409790649450    4.8429940970460    3.8021942941951 
 O   -1.3879118655325    5.9238729526416    6.9912257013889 
 O   -1.3533323677500    5.9726443775854    2.1620326131840 
 O   -1.2611663833175    3.8135365514891    5.4856171565607 
 O    0.0102597128700    5.0020416776308    9.0099025323132 
 O    2.4729682147500    3.7635287056874    0.5999968967040 
 O    4.3099708257100    4.9572567606198    3.7501151839959 
 O    2.3287445353700    5.8587759610869    7.1610309362632 
 O    2.4729108222500    5.9726443775854    2.1620326131840 
 O    2.3965270866075    3.9069703249507    5.6252373285797 
 O    4.3143398297725    4.6941916718630    8.3626946571654 
 O    6.2990966197500    3.7635287056874    0.5999968967040 
 O    8.1595242665475    4.8097162044166    3.8761934552532 
 O    6.3728932162775    5.9820879171487    7.0441820880725 
 O    6.2990392272500    5.9726443775854    2.1620326131840 
 O    6.1858286757025    3.7660646706744    5.4263343883647 
 O    8.1058959110525    4.7400988908105    8.6643726132541 
 O   -3.2663965702500    7.0771525101714    0.5999968967040 
 O   -1.2886216352900    8.2280438211090    3.8466598488824 
 O   -3.2193917683950    9.1855570410108    7.0315290969468 
 O   -3.2663965702500    9.2861687753434    2.1620326131840 
 O   -3.1867996007100    7.1275779636291    5.3589179943542 
 O   -1.3852988997925    8.0890822641731    8.7592811095959 
 O    0.5598466197500    7.0771525101714    0.5999968967040 
 O    2.5240869683975    8.1557438181883    3.8443368681966 
 O    0.5938560952225    9.1739434526190    7.2663303460146 
 O    0.5598466197500    9.2861687753434    2.1620326131840 
 O    0.5854381650700    6.8865810686375    5.4285164026264 
 O    2.5160904713725    8.1568454435258    8.6549800979653 
 O    4.3859750247500    7.0771525101714    0.5999968967040 
 O    6.2959192561650    8.1292057015817    3.7987545309643 
 O    4.4955003464800    9.2659112750922    6.8683235085949 
 O    4.3859750247500    9.2861687753434    2.1620326131840 
 O    4.3154902624350    6.7650640998271    5.6427098659457 
 O    6.3570520253900    8.0941149284903    8.6378152688618 
Ce    2.4728534297500    1.5545124405154    1.3810147549440 
Ce    0.5892117793375    2.5978720167034    4.7773012489350 
Ce    0.7129820343525    0.3613588570525    7.8972116632705 
Ce    6.2990966197500    1.5545124405154    1.3810147549440 
Ce    4.4259180238350    2.6019352666286    4.5380741559702 
Ce    4.2958750555325    0.2907202387435    8.0164644680056 
Ce   10.1252250247500    1.5545124405154    1.3810147549440 
Ce    8.1793755861950    2.6115069414617    4.6671348479332 
Ce    8.2302695908125    0.3468850389335    7.8876813749717 
Ce    0.5597892272500    4.8680368382734    1.3810147549440 
Ce   -1.4043128054725    5.9063213034722    4.5779633200940 
Ce   -1.2862451840425    3.6917020775959    7.9398131765042 
Ce    4.3860324172500    4.8680368382734    1.3810147549440 
Ce    2.3893573285450    5.8973201238396    4.5057930729340 
Ce    8.2121608222500    4.8680368382734    1.3810147549440 
Ce    6.2288687462650    5.9995460245890    4.7084829461170 
Ce    6.4762733508550    3.6555411910991    7.7967810695776 
Ce   -1.3533323677500    8.1816606427574    1.3810147549440 
Ce   -3.2044654713500    9.2469017268792    4.5985813703878 
Ce   -3.3064027584775    7.0672606462739    7.9380234959797 
Ce    2.4729108222500    8.1816606427574    1.3810147549440 
Ce    0.5195675301850    9.2028824404719    4.7027393626852 
Ce    0.4547409222675    6.9633834009922    7.9879290316546 
Ce    6.2990392272500    8.1816606427574    1.3810147549440 
Ce    4.3599938417475    9.2865239555754    4.5085816077812 
Ce    4.4257647284675    7.1053260662341    7.7643959724809 
Fe    3.0301791987225    4.1594107234259    7.3312168717232 
81
FORCE:  1.541556  ...  ENERGY:  -642.71437443
 O    0.5597892272500    0.4500043079294    0.5999968967040 
 O    2.5956519149550    1.6095567280899    3.8037727531843 
 O    0.5776959168200    2.6115300038222    7.1365791922942 
 O    0.5597892272500    2.6590205731014    2.1620326131840 
 O    0.5987668844850    0.3738603463210    5.4146779705517 
 O    2.5112650821500    0.8302905038325    9.0718949124069 
 O    4.3860324172500    0.4500043079294    0.5999968967040 
 O    6.3099587816925    1.5538381646929    3.7029336305824 
 O    3.9825848366150    2.6314546903547    7.0839754497721 
 O    4.3860324172500    2.6590205731014    2.1620326131840 
 O    4.4645444389700    0.4106698617050    5.4279529931317 
 O    6.3505201275725    1.5397709200832    8.6020104814231 
 O    8.2121608222500    0.4500043079294    0.5999968967040 
 O   10.0908447937275    1.5255776277449    3.8335036669287 
 O    8.2544397534775    2.7151355705217    6.9867731696737 
 O    8.2121608222500    2.6590205731014    2.1620326131840 
 O    8.1123231249500    0.4968163268970    5.2853839312554 
 O   10.0045975256425    1.3837039507708    8.5328732933931 
 O   -1.3532749752500    3.7635287056874    0.5999968967040 
 O    0.5417678100725    4.8419325326191    3.7953882162587 
 O   -1.3890058239750    5.9235712532282    6.9971378514671 
 O   -1.3533323677500    5.9726443775854    2.1620326131840 
 O   -1.2630461598700    3.8142026759601    5.4793877179776 
 O    0.0088438972875    5.0064025512937    9.0126313046958 
 O    2.4729682147500    3.7635287056874    0.5999968967040 
 O    4.3143370749325    4.9539985063617    3.7497230783597 
 O    2.3252844563300    5.8609875619270    7.1571422702447 
 O    2.4729108222500    5.9726443775854    2.1620326131840 
 O    2.4020607566725    3.9095449591541    5.6223742047022 
 O    4.3134751543675    4.6964006881282    8.3643415464576 
 O    6.2990966197500    3.7635287056874    0.5999968967040 
 O    8.1622840996950    4.8103942576947    3.8752555039001 
 O    6.3666905792325    5.9829320790659    7.0517883443520 
 O    6.2990392272500    5.9726443775854    2.1620326131840 
 O    6.1860288033500    3.7686411936056    5.4289712360403 
 O    8.1006861642575    4.7312558672790    8.6685370533936 
 O   -3.2663965702500    7.0771525101714    0.5999968967040 
 O   -1.2897594989950    8.2332970689512    3.8474928737710 
 O   -3.2140662035350    9.1833702918523    7.0245469250307 
 O   -3.2663965702500    9.2861687753434    2.1620326131840 
 O   -3.1828163316400    7.1261435245729    5.3655290459270 
 O   -1.3862438673050    8.0848927677058    8.7603470256156 
 O    0.5598466197500    7.0771525101714    0.5999968967040 
 O    2.5172507181525    8.1597664107626    3.8406046794710 
 O    0.5888642103575    9.1625681421493    7.2600995388254 
 O    0.5598466197500    9.2861687753434    2.1620326131840 
 O    0.5827326252275    6.8903357600853    5.4253010907894 
 O    2.5111930545625    8.1626044727899    8.6648256218599 
 O    4.3859750247500    7.0771525101714    0.5999968967040 
 O    6.2975567789750    8.1311992040649    3.8019753172255 
 O    4.4991022423875    9.2636103076055    6.8613890097898 
 O    4.3859750247500    9.2861687753434    2.1620326131840 
 O    4.3121003744225    6.7665767719767    5.6328757471015 
 O    6.3580655769400    8.0957245221977    8.6440091236873 
Ce    2.4728534297500    1.5545124405154    1.3810147549440 
Ce    0.5883056665475    2.5975791644886    4.7788039783888 
Ce    0.7135307066525    0.3590224013646    7.8958163693924 
Ce    6.2990966197500    1.5545124405154    1.3810147549440 
Ce    4.4281922590400    2.5996620336185    4.5377164935865 
Ce    4.2987740654925    0.2890810218317    8.0167815284095 
Ce   10.1252250247500    1.5545124405154    1.3810147549440 
Ce    8.1817643768300    2.6114294042154    4.6665322050648 
Ce    8.2300954045750    0.3445341692703    7.8871380383659 
Ce    0.5597892272500    4.8680368382734    1.3810147549440 
Ce   -1.4045830667550    5.9065120649794    4.5774341257508 
Ce   -1.2863494662150    3.6929417788759    7.9408706527866 
Ce    4.3860324172500    4.8680368382734    1.3810147549440 
Ce    2.3907649370000    5.8963435521634    4.5065804776205 
Ce    8.2121608222500    4.8680368382734    1.3810147549440 
Ce    6.2288758055425    6.0014282909458    4.7096423835508 
Ce    6.4748836488600    3.6549872968218    7.7966932506888 
Ce   -1.3533323677500    8.1816606427574    1.3810147549440 
Ce   -3.2025675587675    9.2481362590094    4.5984992540242 
Ce   -3.3050371613325    7.0660588189565    7.9412278589682 
Ce    2.4729108222500    8.1816606427574    1.3810147549440 
Ce    0.5167570194600    9.2039323743119    4.7041024943209 
Ce    0.4576859036200    6.9647777791378    7.9861060483827 
Ce    6.2990392272500    8.1816606427574    1.3810147549440 
Ce    4.3601070197575    9.2859603194390    4.5096121681444 
Ce    4.4233026476100    7.1062397134528    7.7638389498145 
Fe    3.0286624871250    4.1551776868127    7.3284858183305 
81
FORCE:  1.645470  ...  ENERGY:  -642.70622692
 O    0.5597892272500    0.4500043079294    0.5999968967040 
 O    2.5985314688575    1.6081048928567    3.7997540695901 
 O    0.5821992193325    2.6066655356853    7.1299140807821 
 O    0.5597892272500    2.6590205731014    2.1620326131840 
 O    0.6025080719900    0.3746120599830    5.4266133559000 
 O    2.5132658420925    0.8372252164450    9.0782931457374 
 O    4.3860324172500    0.4500043079294    0.5999968967040 
 O    6.3024522444400    1.5525690390221    3.6944674334953 
 O    3.9770173623675    2.6287205083561    7.0888540741740 
 O    4.3860324172500    2.6590205731014    2.1620326131840 
 O    4.4651312772825    0.4186547069710    5.4293971006260 
 O    6.3479832642875    1.5412896560431    8.5978471817886 
 O    8.2121608222500    0.4500043079294    0.5999968967040 
 O   10.0921505878875    1.5213359427465    3.8313752564044 
 O    8.2568885766675    2.7193380892701    6.9895760748846 
 O    8.2121608222500    2.6590205731014    2.1620326131840 
 O    8.1185729960225    0.4849544205036    5.2861790913763 
 O    9.9992961804175    1.3848558759117    8.5267070387898 
 O   -1.3532749752500    3.7635287056874    0.5999968967040 
 O    0.5426403482500    4.8404544540102    3.7881414471710 
 O   -1.3903602295825    5.9235717502619    7.0031471725756 
 O   -1.3533323677500    5.9726443775854    2.1620326131840 
 O   -1.2650015223450    3.8142380647545    5.4730558620410 
 O    0.0076426722625    5.0110188008357    9.0153425133007 
 O    2.4729682147500    3.7635287056874    0.5999968967040 
 O    4.3189959111200    4.9501442093745    3.7492536464811 
 O    2.3222533862275    5.8628159498383    7.1535175170948 
 O    2.4729108222500    5.9726443775854    2.1620326131840 
 O    2.4077560440175    3.9115635121323    5.6188491316936 
 O    4.3129966730950    4.6992800039468    8.3665518452445 
 O    6.2990966197500    3.7635287056874    0.5999968967040 
 O    8.1649995110475    4.8111733082063    3.8740969788703 
 O    6.3604924761950    5.9837135153390    7.0592351580255 
 O    6.2990392272500    5.9726443775854    2.1620326131840 
 O    6.1862648587025    3.7708932529831    5.4319005092107 
 O    8.0957151128700    4.7227723978754    8.6730434169472 
 O   -3.2663965702500    7.0771525101714    0.5999968967040 
 O   -1.2910747629175    8.2381989140170    3.8478505361546 
 O   -3.2087800673225    9.1812772832363    7.0172029849128 
 O   -3.2663965702500    9.2861687753434    2.1620326131840 
 O   -3.1793492507150    7.1244987408845    5.3723362643684 
 O   -1.3873959643500    8.0807373677455    8.7615723842413 
 O    0.5598466197500    7.0771525101714    0.5999968967040 
 O    2.5103406611525    8.1636927776262    3.8366888694323 
 O    0.5834708649550    9.1512295127616    7.2530774492326 
 O    0.5598466197500    9.2861687753434    2.1620326131840 
 O    0.5798316639225    6.8948826237325    5.4222317635989 
 O    2.5068319706650    8.1681592212321    8.6746789011889 
 O    4.3859750247500    7.0771525101714    0.5999968967040 
 O    6.2988899493575    8.1332602037151    3.8051961034867 
 O    4.5023207563950    9.2607789058288    6.8546718912474 
 O    4.3859750247500    9.2861687753434    2.1620326131840 
 O    4.3086696803425    6.7687406575882    5.6225279447829 
 O    6.3587010267000    8.0974875998900    8.6504659789774 
Ce    2.4728534297500    1.5545124405154    1.3810147549440 
Ce    0.5873481300775    2.5973189176799    4.7802989524084 
Ce    0.7140129184375    0.3567608983481    7.8944078456556 
Ce    6.2990966197500    1.5545124405154    1.3810147549440 
Ce    4.4304594923600    2.5974150439840    4.5373718329604 
Ce    4.3017145128375    0.2875018465825    8.0170965359043 
Ce   10.1252250247500    1.5545124405154    1.3810147549440 
Ce    8.1841854220500    2.6114095228702    4.6658542888631 
Ce    8.2299111746500    0.3422012922245    7.8865655048308 
Ce    0.5597892272500    4.8680368382734    1.3810147549440 
Ce   -1.4048120054375    5.9067077968229    4.5769669748823 
Ce   -1.2864423272800    3.6942223363202    7.9418984759376 
Ce    4.3860324172500    4.8680368382734    1.3810147549440 
Ce    2.3921672653450    5.8954373604492    4.5074036941656 
Ce    8.2121608222500    4.8680368382734    1.3810147549440 
Ce    6.2289508175400    6.0032664207162    4.7107249509442 
Ce    6.4734039554250    3.6544453313517    7.7966357692343 
Ce   -1.3533323677500    8.1816606427574    1.3810147549440 
Ce   -3.2007041390775    9.2493762585096    4.5984230682869 
Ce   -3.3035884024550    7.0647729929557    7.9443724594921 
Ce    2.4729108222500    8.1816606427574    1.3810147549440 
Ce    0.5140083778500    9.2049860856075    4.7054304984011 
Ce    0.4606175699125    6.9661162907034    7.9842803278987 
Ce    6.2990392272500    8.1816606427574    1.3810147549440 
Ce    4.3602432695525    9.2854233243051    4.5106945074369 
Ce    4.4207968336675    7.1071640965979    7.7633451111278 
Fe    3.0270875221400    4.1508459393205    7.3256820007156 
81
FORCE:  1.813222  ...  ENERGY:  -642.69905653
 O    0.5597892272500    0.4500043079294    0.5999968967040 
 O    2.6008467397000    1.6065357576868    3.7958612977534 
 O    0.5868429039000    2.6014877375482    7.1231068623406 
 O    0.5597892272500    2.6590205731014    2.1620326131840 
 O    0.6065823655650    0.3757152758282    5.4383769811877 
 O    2.5152265420700    0.8441418370333    9.0845079858559 
 O    4.3860324172500    0.4500043079294    0.5999968967040 
 O    6.2947354784600    1.5513747666159    3.6864198017615 
 O    3.9716394555475    2.6257862206180    7.0935522706769 
 O    4.3860324172500    2.6590205731014    2.1620326131840 
 O    4.4656416113925    0.4268364769611    5.4312205400999 
 O    6.3453176122325    1.5428501428278    8.5936900408813 
 O    8.2121608222500    0.4500043079294    0.5999968967040 
 O   10.0937548230475    1.5172024122660    3.8292067001023 
 O    8.2593394659875    2.7230467554037    6.9919574494290 
 O    8.2121608222500    2.6590205731014    2.1620326131840 
 O    8.1249092428075    0.4726480666382    5.2877965556382 
 O    9.9944212614675    1.3860936884639    8.5211146863276 
 O   -1.3532749752500    3.7635287056874    0.5999968967040 
 O    0.5435986882150    4.8385728835005    3.7805062220632 
 O   -1.3919758284575    5.9238453175718    7.0092338199264 
 O   -1.3533323677500    5.9726443775854    2.1620326131840 
 O   -1.2670291993700    3.8136380457564    5.4666459955590 
 O    0.0066448462575    5.0158519558538    9.0180268059863 
 O    2.4729682147500    3.7635287056874    0.5999968967040 
 O    4.3239297147750    4.9457128563429    3.7487125908854 
 O    2.3196755446975    5.8642501900810    7.1501573611165 
 O    2.4729108222500    5.9726443775854    2.1620326131840 
 O    2.4135964196025    3.9130066989803    5.6146634781601 
 O    4.3128407950650    4.7028047676373    8.3692692125767 
 O    6.2990966197500    3.7635287056874    0.5999968967040 
 O    8.1676539141725    4.8120371526553    3.8727297414163 
 O    6.3543063681900    5.9844527037535    7.0665001751940 
 O    6.2990392272500    5.9726443775854    2.1620326131840 
 O    6.1865550925750    3.7728045461039    5.4351098904215 
 O    8.0910126583825    4.7146748253822    8.6778962659349 
 O   -3.2663965702500    7.0771525101714    0.5999968967040 
 O   -1.2925793073050    8.2427355387714    3.8477360294476 
 O   -3.2035445512950    9.1792948148997    7.0095736904313 
 O   -3.2663965702500    9.2861687753434    2.1620326131840 
 O   -3.1764107547150    7.1226376481603    5.3793186643855 
 O   -1.3887590362250    8.0766382319922    8.7629603788872 
 O    0.5598466197500    7.0771525101714    0.5999968967040 
 O    2.5033844605825    8.1674986635378    3.8325987902220 
 O    0.5777074527125    9.1399920794209    7.2452868873370 
 O    0.5598466197500    9.2861687753434    2.1620326131840 
 O    0.5767380359950    6.9001801075678    5.4193022623274 
 O    2.5030225434775    8.1735119752070    8.6845153010431 
 O    4.3859750247500    7.0771525101714    0.5999968967040 
 O    6.2999305901675    8.1353827361286    3.8084162054448 
 O    4.5051406220975    9.2574051409551    6.8482273534118 
 O    4.3859750247500    9.2861687753434    2.1620326131840 
 O    4.3052175214675    6.7715665919950    5.6117360297978 
 O    6.3589585468475    8.0994040621606    8.6571600593179 
Ce    2.4728534297500    1.5545124405154    1.3810147549440 
Ce    0.5863422117300    2.5970893875496    4.7817838899835 
Ce    0.7144359585550    0.3545738509694    7.8929872325653 
Ce    6.2990966197500    1.5545124405154    1.3810147549440 
Ce    4.4327180020200    2.5951964846731    4.5370360682737 
Ce    4.3046900843925    0.2859819177420    8.0174126839042 
Ce   10.1252250247500    1.5545124405154    1.3810147549440 
Ce    8.1866378609675    2.6114426253100    4.6651015555301 
Ce    8.2297138592350    0.3398863083894    7.8859619495584 
Ce    0.5597892272500    4.8680368382734    1.3810147549440 
Ce   -1.4049987606325    5.9069105865439    4.5765602707814 
Ce   -1.2865227341725    3.6955459368769    7.9428977864624 
Ce    4.3860324172500    4.8680368382734    1.3810147549440 
Ce    2.3935629935525    5.8946048291189    4.5082572481450 
Ce    8.2121608222500    4.8680368382734    1.3810147549440 
Ce    6.2290933231175    6.0050602150869    4.7117308763983 
Ce    6.4718315157100    3.6539168851962    7.7966099938201 
Ce   -1.3533323677500    8.1816606427574    1.3810147549440 
Ce   -3.1988762453450    9.2506223218200    4.5983530412768 
Ce   -3.3020582036200    7.0634043611521    7.9474579818544 
Ce    2.4729108222500    8.1816606427574    1.3810147549440 
Ce    0.5113237288775    9.2060412880040    4.7067208658147 
Ce    0.4635338550150    6.9673971463679    7.9824532388086 
Ce    6.2990392272500    8.1816606427574    1.3810147549440 
Ce    4.3604001806475    9.2849087950913    4.5118247479414 
Ce    4.4182484344900    7.1080964322810    7.7629108068048 
Fe    3.0254685371075    4.1464305907717    7.3228243512623 
81
FORCE:  1.961307  ...  ENERGY:  -642.69315042
 O    0.5597892272500    0.4500043079294    0.5999968967040 
 O    2.6025824610775    1.6048491237667    3.7921151948662 
 O    0.5915973559925    2.5960399507432    7.1161860495962 
 O    0.5597892272500    2.6590205731014    2.1620326131840 
 O    0.6109812137275    0.3771700932632    5.4499261915260 
 O    2.5171518882675    0.8509932468094    9.0904721429644 
 O    4.3860324172500    0.4500043079294    0.5999968967040 
 O    6.2868798226300    1.5502612124713    3.6788580251790 
 O    3.9664510587625    2.6226628612871    7.0980734607961 
 O    4.3860324172500    2.6590205731014    2.1620326131840 
 O    4.4660818118675    0.4351924075352    5.4334278735737 
 O    6.3425309767875    1.5444048640224    8.5895342685801 
 O    8.2121608222500    0.4500043079294    0.5999968967040 
 O   10.0956461928850    1.5132019873916    3.8270203519214 
 O    8.2617932249325    2.7262434768984    6.9938748665191 
 O    8.2121608222500    2.6590205731014    2.1620326131840 
 O    8.1312993237575    0.4600094954946    5.2902276562028 
 O    9.9899908474300    1.3874081436018    8.5160994294207 
 O   -1.3532749752500    3.7635287056874    0.5999968967040 
 O    0.5446449534900    4.8363052172669    3.7725391099860 
 O   -1.3938501527225    5.9243622325470    7.0153742991156 
 O   -1.3533323677500    5.9726443775854    2.1620326131840 
 O   -1.2691258047875    3.8124023207455    5.4601841220467 
 O    0.0058398590525    5.0208650370460    9.0206730058034 
 O    2.4729682147500    3.7635287056874    0.5999968967040 
 O    4.3291186854850    4.9407260185264    3.7481074389059 
 O    2.3175706747600    5.8652811372364    7.1470604337037 
 O    2.4729108222500    5.9726443775854    2.1620326131840 
 O    2.4195671335550    3.9138593104692    5.6098259119400 
 O    4.3129403710525    4.7069425726070    8.3724306925753 
 O    6.2990966197500    3.7635287056874    0.5999968967040 
 O    8.1702318130950    4.8129704824057    3.8711665651948 
 O    6.3481406919150    5.9851678357403    7.0735594452514 
 O    6.2990392272500    5.9726443775854    2.1620326131840 
 O    6.1869178131750    3.7743616530600    5.4385868341169 
 O    8.0866072674750    4.7069889955481    8.6830960565589 
 O   -3.2663965702500    7.0771525101714    0.5999968967040 
 O   -1.2942832906300    8.2468941197469    3.8471541437711 
 O   -3.1983709043825    9.1774372014110    7.0017363678287 
 O   -3.2663965702500    9.2861687753434    2.1620326131840 
 O   -3.1740108299350    7.1205540831834    5.3864534358773 
 O   -1.3903337716400    8.0726172299255    8.7645142029673 
 O    0.5598466197500    7.0771525101714    0.5999968967040 
 O    2.4964081152450    8.1711607079169    3.8283437939815 
 O    0.5716075482425    9.1289205559060    7.2367556814620 
 O    0.5598466197500    9.2861687753434    2.1620326131840 
 O    0.5734575954800    6.9061812916164    5.4165062001469 
 O    2.4997733818750    8.1786667109837    8.6943083617054 
 O    4.3859750247500    7.0771525101714    0.5999968967040 
 O    6.3006905242600    8.1375600416482    3.8116347106959 
 O    4.5075489261825    9.2534823527337    6.8421099124247 
 O    4.3859750247500    9.2861687753434    2.1620326131840 
 O    4.3017642721350    6.7750618318879    5.6005682043482 
 O    6.3588420400725    8.1014715232479    8.6640612553754 
Ce    2.4728534297500    1.5545124405154    1.3810147549440 
Ce    0.5852909533075    2.5968880889294    4.7832560539020 
Ce    0.7148067141050    0.3524610604150    7.8915552144246 
Ce    6.2990966197500    1.5545124405154    1.3810147549440 
Ce    4.4349658366750    2.5930089402607    4.5367057780112 
Ce    4.3076939504500    0.2845203406496    8.0177320253182 
Ce   10.1252250247500    1.5545124405154    1.3810147549440 
Ce    8.1891200865925    2.6115245364522    4.6642746893689 
Ce    8.2295009330600    0.3375892177650    7.8853257758415 
Ce    0.5597892272500    4.8680368382734    1.3810147549440 
Ce   -1.4051424714525    5.9071225216837    4.5762124167412 
Ce   -1.2865898260050    3.6969140716468    7.9438694967650 
Ce    4.3860324172500    4.8680368382734    1.3810147549440 
Ce    2.3949505146325    5.8938493380013    4.5091358932355 
Ce    8.2121608222500    4.8680368382734    1.3810147549440 
Ce    6.2293029205275    6.0068091770242    4.7126599318121 
Ce    6.4701643209775    3.6534038470834    7.7966161525474 
Ce   -1.3533323677500    8.1816606427574    1.3810147549440 
Ce   -3.1970851402050    9.2518748465676    4.5982898572971 
Ce   -3.3004485161725    7.0619543152400    7.9504848822571 
Ce    2.4729108222500    8.1816606427574    1.3810147549440 
Ce    0.5087058273825    9.2070955957400    4.7079715436525 
Ce    0.4664325206200    6.9686186562170    7.9806268340215 
Ce    6.2990392272500    8.1816606427574    1.3810147549440 
Ce    4.3605756295200    9.2844126561219    4.5129994681429 
Ce    4.4156592866375    7.1090337383005    7.7625319310272 
Fe    3.0238206262550    4.1419470492090    7.3199320304555 
81
FORCE:  2.098501  ...  ENERGY:  -642.68677689
 O    0.5597892272500    0.4500043079294    0.5999968967040 
 O    2.6037275562375    1.6030448916898    3.7885356057163 
 O    0.5964339941450    2.5903679023644    7.1091831204882 
 O    0.5597892272500    2.6590205731014    2.1620326131840 
 O    0.6156923918750    0.3789732318661    5.4612183320260 
 O    2.5190475051500    0.8577339174928    9.0961196958710 
 O    4.3860324172500    0.4500043079294    0.5999968967040 
 O    6.2789571323600    1.5492333469244    3.6718489373437 
 O    3.9614525737600    2.6193658384058    7.1024224346528 
 O    4.3860324172500    2.6590205731014    2.1620326131840 
 O    4.4664589379850    0.4436953606571    5.4360211539564 
 O    6.3396320816125    1.5459068996523    8.5853741623598 
 O    8.2121608222500    0.4500043079294    0.5999968967040 
 O   10.0978109232000    1.5093595198048    3.8248397062658 
 O    8.2642496239325    2.7289129451184    6.9952897770841 
 O    8.2121608222500    2.6590205731014    2.1620326131840 
 O    8.1377085738025    0.4471516331134    5.2934632690296 
 O    9.9860213525600    1.3887900959066    8.5116630928772 
 O   -1.3532749752500    3.7635287056874    0.5999968967040 
 O    0.5457790292900    4.8336731259759    3.7643023825149 
 O   -1.3959786109775    5.9250900885948    7.0215428347290 
 O   -1.3533323677500    5.9726443775854    2.1620326131840 
 O   -1.2712878376550    3.8105365559052    5.4536973855243 
 O    0.0052173799975    5.0260202698563    9.0232694796002 
 O    2.4729682147500    3.7635287056874    0.5999968967040 
 O    4.3345412436700    4.9352089452334    3.7474466302799 
 O    2.3159539280350    5.8659016340201    7.1442226290383 
 O    2.4729108222500    5.9726443775854    2.1620326131840 
 O    2.4256551577775    3.9141095171986    5.6043514877000 
 O    4.3132253248150    4.7116549484530    8.3759696797454 
 O    6.2990966197500    3.7635287056874    0.5999968967040 
 O    8.1727186875125    4.8139578894151    3.8694215924683 
 O    6.3420050319175    5.9858763074765    7.0803910705009 
 O    6.2990392272500    5.9726443775854    2.1620326131840 
 O    6.1873717878500    3.7755533408913    5.4423181104385 
 O    8.0825264885475    4.6997375731065    8.6886398235059 
 O   -3.2663965702500    7.0771525101714    0.5999968967040 
 O   -1.2961961252625    8.2506637222036    3.8461128626605 
 O   -3.1932686537400    9.1757163715772    6.9937687995494 
 O   -3.2663965702500    9.2861687753434    2.1620326131840 
 O   -3.1721571095775    7.1182419821433    5.3937143472277 
 O   -1.3921180470725    8.0686961316184    8.7662370498958 
 O    0.5598466197500    7.0771525101714    0.5999968967040 
 O    2.4894383700450    8.1746552519627    3.8239343733571 
 O    0.5652067348950    9.1180803518424    7.2275166781530 
 O    0.5598466197500    9.2861687753434    2.1620326131840 
 O    0.5699973442625    6.9128328938732    5.4138371902288 
 O    2.4970904546775    8.1836268083910    8.7040284300446 
 O    4.3859750247500    7.0771525101714    0.5999968967040 
 O    6.3011831814800    8.1397851618030    3.8148500225329 
 O    4.5095346492900    9.2490089506570    6.8363745406292 
 O    4.3859750247500    9.2861687753434    2.1620326131840 
 O    4.2983290440475    6.7792308505696    5.5890910739290 
 O    6.3583574178025    8.1036878956108    8.6711378611096 
Ce    2.4728534297500    1.5545124405154    1.3810147549440 
Ce    0.5841980853225    2.5967127354648    4.7847115664468 
Ce    0.7151317278325    0.3504221290580    7.8901138441424 
Ce    6.2990966197500    1.5545124405154    1.3810147549440 
Ce    4.4372003562700    2.5908551941352    4.5363768563548 
Ce    4.3107190517325    0.2831166182717    8.0180570692574 
Ce   10.1252250247500    1.5545124405154    1.3810147549440 
Ce    8.1916308362900    2.6116508824010    4.6633746027834 
Ce    8.2292704447800    0.3353104179782    7.8846556150741 
Ce    0.5597892272500    4.8680368382734    1.3810147549440 
Ce   -1.4052422770100    5.9073454909702    4.5759213598524 
Ce   -1.2866430862450    3.6983280329175    7.9448147473505 
Ce    4.3860324172500    4.8680368382734    1.3810147549440 
Ce    2.3963285085575    5.8931741675183    4.5100339269119 
Ce    8.2121608222500    4.8680368382734    1.3810147549440 
Ce    6.2295790358450    6.0085127100876    4.7135121171854 
Ce    6.4684004772750    3.6529083045542    7.7966551578201 
Ce   -1.3533323677500    8.1816606427574    1.3810147549440 
Ce   -3.1953325454325    9.2531344291927    4.5982337444486 
Ce   -3.2987618653825    7.0604248433537    7.9534533888012 
Ce    2.4729108222500    8.1816606427574    1.3810147549440 
Ce    0.5061571412425    9.2081467224607    4.7091795666015 
Ce    0.4693104101400    6.9697791303363    7.9788031664465 
Ce    6.2990392272500    8.1816606427574    1.3810147549440 
Ce    4.3607676648250    9.2839305335008    4.5142150184252 
Ce    4.4130315710250    7.1099730324545    7.7622052903808 
Fe    3.0221606629775    4.1374098280141    7.3170235144770 
81
FORCE:  2.203569  ...  ENERGY:  -642.68030734
 O    0.5597892272500    0.4500043079294    0.5999968967040 
 O    2.6042749659025    1.6011229620494    3.7851410064854 
 O    0.6013228594725    2.5845216934016    7.1021322901681 
 O    0.5597892272500    2.6590205731014    2.1620326131840 
 O    0.6207002318550    0.3811178325728    5.4722114321020 
 O    2.5209201650325    0.8643187184297    9.1013883729999 
 O    4.3860324172500    0.4500043079294    0.5999968967040 
 O    6.2710398943775    1.5482928598898    3.6654545817304 
 O    3.9566444022875    2.6159151327262    7.1066062633782 
 O    4.3860324172500    2.6590205731014    2.1620326131840 
 O    4.4667809099100    0.4523131285475    5.4389999250460 
 O    6.3366314295350    1.5473102244032    8.5812060726040 
 O    8.2121608222500    0.4500043079294    0.5999968967040 
 O   10.1002333458400    1.5056983700862    3.8226882575395 
 O    8.2667065394650    2.7310443247305    6.9961713874877 
 O    8.2121608222500    2.6590205731014    2.1620326131840 
 O    8.1441012948075    0.4341854174008    5.2974915328662 
 O    9.9825260919175    1.3902298035193    8.5078045361921 
 O   -1.3532749752500    3.7635287056874    0.5999968967040 
 O    0.5470005138675    4.8307019583425    3.7558615046398 
 O   -1.3983544309075    5.9259952862417    7.0277118265445 
 O   -1.3533323677500    5.9726443775854    2.1620326131840 
 O   -1.2735119692075    3.8080530776695    5.4472140705171 
 O    0.0047671932275    5.0312804761694    9.0258025413162 
 O    2.4729682147500    3.7635287056874    0.5999968967040 
 O    4.3401748914700    4.9291890727203    3.7467402014519 
 O    2.3148361517050    5.8661068095025    7.1416377883930 
 O    2.4729108222500    5.9726443775854    2.1620326131840 
 O    2.4318493007325    3.9137508577312    5.5982632436421 
 O    4.3136248914000    4.7168982556226    8.3798166032791 
 O    6.2990966197500    3.7635287056874    0.5999968967040 
 O    8.1751004762625    4.8149843632677    3.8675103341055 
 O    6.3359108093050    5.9865945210719    7.0869717846395 
 O    6.2990392272500    5.9726443775854    2.1620326131840 
 O    6.1879348082750    3.7763706629924    5.4462891209215 
 O    8.0787951725525    4.6929399423692    8.6945220923518 
 O   -3.2663965702500    7.0771525101714    0.5999968967040 
 O   -1.2983247556950    8.2540349025024    3.8446238192672 
 O   -3.1882468099900    9.1741429619181    6.9857489961388 
 O   -3.2663965702500    9.2861687753434    2.1620326131840 
 O   -3.1708545293975    7.1156949830097    5.4010735701133 
 O   -1.3941072137300    8.0648963095171    8.7681296039758 
 O    0.5598466197500    7.0771525101714    0.5999968967040 
 O    2.4825015681400    8.1779597303484    3.8193812490965 
 O    0.5585417438700    9.1075352863483    7.2176077421776 
 O    0.5598466197500    9.2861687753434    2.1620326131840 
 O    0.5663661781800    6.9200763637767    5.4112883895431 
 O    2.4949723844650    8.1883974365784    8.7136456248282 
 O    4.3859750247500    7.0771525101714    0.5999968967040 
 O    6.3014234264850    8.1420510387154    3.8180610004507 
 O    4.5110894695075    9.2439892092142    6.8310734731568 
 O    4.3859750247500    9.2861687753434    2.1620326131840 
 O    4.2949315802250    6.7840730515998    5.5773701035302 
 O    6.3575136906600    8.1060489047600    8.6783561175711 
Ce    2.4728534297500    1.5545124405154    1.3810147549440 
Ce    0.5830671661100    2.5965605437673    4.7861472342038 
Ce    0.7154172555200    0.3484569574917    7.8886644903248 
Ce    6.2990966197500    1.5545124405154    1.3810147549440 
Ce    4.4394182320400    2.5887382284983    4.5360458817893 
Ce    4.3137575828600    0.2817703529815    8.0183898686310 
Ce   10.1252250247500    1.5545124405154    1.3810147549440 
Ce    8.1941683882850    2.6118176868872    4.6624017519758 
Ce    8.2290206152275    0.3330508036895    7.8839496424481 
Ce    0.5597892272500    4.8680368382734    1.3810147549440 
Ce   -1.4052978903425    5.9075811843175    4.5756855034081 
Ce   -1.2866820557525    3.6997886159426    7.9457344506228 
Ce    4.3860324172500    4.8680368382734    1.3810147549440 
Ce    2.3976953683375    5.8925821010583    4.5109454185479 
Ce    8.2121608222500    4.8680368382734    1.3810147549440 
Ce    6.2299206933975    6.0101701184302    4.7142874325184 
Ce    6.4665392385000    3.6524323451502    7.7967279220423 
Ce   -1.3533323677500    8.1816606427574    1.3810147549440 
Ce   -3.1936202401950    9.2544013679156    4.5981853870345 
Ce   -3.2970015226225    7.0588182318481    7.9563635014868 
Ce    2.4729108222500    8.1816606427574    1.3810147549440 
Ce    0.5036799661575    9.2091926800317    4.7103424255505 
Ce    0.4721644817725    6.9708766799981    7.9769847451948 
Ce    6.2990392272500    8.1816606427574    1.3810147549440 
Ce    4.3609742204325    9.2834582521456    4.5154670648691 
Ce    4.4103682146700    7.1109112331345    7.7619283757547 
Fe    3.0205056928475    4.1328337387895    7.3141175076096 
81
FORCE:  2.274357  ...  ENERGY:  -642.67395761
 O    0.5597892272500    0.4500043079294    0.5999968967040 
 O    2.6042222221950    1.5990840306924    3.7819485047495 
 O    0.6062350835475    2.5785533135725    7.0950707391005 
 O    0.5597892272500    2.6590205731014    2.1620326131840 
 O    0.6259845315075    0.3835933582704    5.4828623806629 
 O    2.5227754349875    0.8707052029483    9.1062195523917 
 O    4.3860324172500    0.4500043079294    0.5999968967040 
 O    6.2631984144950    1.5474400495874    3.6597317554905 
 O    3.9520264295600    2.6123338066086    7.1106327024067 
 O    4.3860324172500    2.6590205731014    2.1620326131840 
 O    4.4670555904150    0.4610094277514    5.4423603091253 
 O    6.3335402694850    1.5485710993158    8.5770284026059 
 O    8.2121608222500    0.4500043079294    0.5999968967040 
 O   10.1028952099900    1.5022402089021    3.8205881315404 
 O    8.2691604705875    2.7326305578573    6.9964952909219 
 O    8.2121608222500    2.6590205731014    2.1620326131840 
 O    8.1504433382350    0.4212157224529    5.3023003583590 
 O    9.9795161422550    1.3917176239873    8.5045207940521 
 O   -1.3532749752500    3.7635287056874    0.5999968967040 
 O    0.5483086037275    4.8274205423172    3.7472860471689 
 O   -1.4009672818625    5.9270434307607    7.0338516214306 
 O   -1.3533323677500    5.9726443775854    2.1620326131840 
 O   -1.2757946985025    3.8049690834021    5.4407629177523 
 O    0.0044795994100    5.0366089749031    9.0282578205879 
 O    2.4729682147500    3.7635287056874    0.5999968967040 
 O    4.3459951222875    4.9226979129192    3.7459995574725 
 O    2.3142230276275    5.8658939797022    7.1392977001314 
 O    2.4729108222500    5.9726443775854    2.1620326131840 
 O    2.4381382560975    3.9127814433392    5.5915908328976 
 O    4.3140702572000    4.7226230889730    8.3839018923682 
 O    6.2990966197500    3.7635287056874    0.5999968967040 
 O    8.1773643808175    4.8160352911750    3.8654487571772 
 O    6.3298704208575    5.9873365922815    7.0932792337680 
 O    6.2990392272500    5.9726443775854    2.1620326131840 
 O    6.1886236330600    3.7768076549599    5.4504854952025 
 O    8.0754356451725    4.6866113125651    8.7007319142481 
 O   -3.2663965702500    7.0771525101714    0.5999968967040 
 O   -1.3006739455050    8.2569992110717    3.8427020682579 
 O   -3.1833134654750    9.1727256208187    6.9777556524454 
 O   -3.2663965702500    9.2861687753434    2.1620326131840 
 O   -3.1701051555250    7.1129077178194    5.4085023638070 
 O   -1.3962932366625    8.0612384402205    8.7701914090052 
 O    0.5598466197500    7.0771525101714    0.5999968967040 
 O    2.4756233065850    8.1810524724077    3.8146958262501 
 O    0.5516510855350    9.0973470910006    7.2070722127277 
 O    0.5598466197500    9.2861687753434    2.1620326131840 
 O    0.5625750018075    6.9278474845817    5.4088540955644 
 O    2.4934147520150    8.1929844605430    8.7231286962179 
 O    4.3859750247500    7.0771525101714    0.5999968967040 
 O    6.3014274439600    8.1443499186609    3.8212662758432 
 O    4.5122088528275    9.2384321744173    6.8262571203307 
 O    4.3859750247500    9.2861687753434    2.1620326131840 
 O    4.2915911071550    6.7895835640488    5.5654675647274 
 O    6.3563221075750    8.1085495803593    8.6856815815073 
Ce    2.4728534297500    1.5545124405154    1.3810147549440 
Ce    0.5819022705375    2.5964288298553    4.7875582670516 
Ce    0.7156688642400    0.3465654463094    7.8872092058810 
Ce    6.2990966197500    1.5545124405154    1.3810147549440 
Ce    4.4416159056500    2.5866614231787    4.5357094327995 
Ce    4.3168020254150    0.2804810477453    8.0187317920450 
Ce   10.1252250247500    1.5545124405154    1.3810147549440 
Ce    8.1967311355875    2.6120213712688    4.6613572774510 
Ce    8.2287505835150    0.3308112695595    7.8832069455596 
Ce    0.5597892272500    4.8680368382734    1.3810147549440 
Ce   -1.4053090244875    5.9078312916401    4.5755025663981 
Ce   -1.2867064475650    3.7012961189424    7.9466297470870 
Ce    4.3860324172500    4.8680368382734    1.3810147549440 
Ce    2.3990496017675    5.8920759220095    4.5118642094162 
Ce    8.2121608222500    4.8680368382734    1.3810147549440 
Ce    6.2303270896900    6.0117804079847    4.7149854216090 
Ce    6.4645799159425    3.6519785534460    7.7968349014160 
Ce   -1.3533323677500    8.1816606427574    1.3810147549440 
Ce   -3.1919504054075    9.2556762591765    4.5981447850547 
Ce   -3.2951712184050    7.0571373635182    7.9592149922128 
Ce    2.4729108222500    8.1816606427574    1.3810147549440 
Ce    0.5012771717525    9.2102312815049    4.7114571551864 
Ce    0.4749911771825    6.9719095158812    7.9751743074784 
Ce    6.2990392272500    8.1816606427574    1.3810147549440 
Ce    4.3611937467450    9.2829917363804    4.5167515016564 
Ce    4.4076724889450    7.1118452587319    7.7616986780376 
Fe    3.0188732205775    4.1282322014429    7.3112324860351 
81
FORCE:  2.302839  ...  ENERGY:  -642.66794971
 O    0.5597892272500    0.4500043079294    0.5999968967040 
 O    2.6035707599275    1.5969287934660    3.7789745237811 
 O    0.6111418553350    2.5725180330169    7.0880377006592 
 O    0.5597892272500    2.6590205731014    2.1620326131840 
 O    0.6315230799350    0.3863847985432    5.4931305757291 
 O    2.5246209482175    0.8768527136976    9.1105591741070 
 O    4.3860324172500    0.4500043079294    0.5999968967040 
 O    6.2555036298425    1.5466727290694    3.6547322375533 
 O    3.9475995738575    2.6086492963094    7.1145108757788 
 O    4.3860324172500    2.6590205731014    2.1620326131840 
 O    4.4672925640475    0.4697459866794    5.4460963755681 
 O    6.3303702521400    1.5496474753450    8.5728386432542 
 O    8.2121608222500    0.4500043079294    0.5999968967040 
 O   10.1057749360700    1.4990051164112    3.8185614540666 
 O    8.2716059076200    2.7336684634835    6.9962446079120 
 O    8.2121608222500    2.6590205731014    2.1620326131840 
 O    8.1566988337725    0.4083458318579    5.3078758313465 
 O    9.9769989645975    1.3932434178247    8.5018061639321 
 O   -1.3532749752500    3.7635287056874    0.5999968967040 
 O    0.5497017492725    4.8238609862726    3.7386499148293 
 O   -1.4038047670625    5.9281995309841    7.0399321100542 
 O   -1.3533323677500    5.9726443775854    2.1620326131840 
 O   -1.2781330985225    3.8013083313104    5.4343733522602 
 O    0.0043461044550    5.0419701784498    9.0306211751525 
 O    2.4729682147500    3.7635287056874    0.5999968967040 
 O    4.3519770277775    4.9157688664901    3.7452370157960 
 O    2.3141155314750    5.8652626475853    7.1371909592031 
 O    2.4729108222500    5.9726443775854    2.1620326131840 
 O    2.4445132428200    3.9112045544447    5.5843707516281 
 O    4.3144941008125    4.7287760670922    8.3881555200026 
 O    6.2990966197500    3.7635287056874    0.5999968967040 
 O    8.1794990374625    4.8170967561952    3.8632541973599 
 O    6.3238975833825    5.9881145493191    7.0992915201896 
 O    6.2990392272500    5.9726443775854    2.1620326131840 
 O    6.1894548486375    3.7768610363718    5.4548926348167 
 O    8.0724675346425    4.6807632148746    8.7072540064270 
 O   -3.2663965702500    7.0771525101714    0.5999968967040 
 O   -1.3032469086725    8.2595496894407    3.8403656296125 
 O   -3.1784770568925    9.1714712073434    6.9698667790145 
 O   -3.2663965702500    9.2861687753434    2.1620326131840 
 O   -3.1699082992500    7.1098742221688    5.4159699346723 
 O   -1.3986656704350    8.0577416098200    8.7724213244789 
 O    0.5598466197500    7.0771525101714    0.5999968967040 
 O    2.4688299859300    8.1839135967955    3.8098904222725 
 O    0.5445735572200    9.0875728252599    7.1959568505104 
 O    0.5598466197500    9.2861687753434    2.1620326131840 
 O    0.5586360971400    6.9360770692071    5.4065279214644 
 O    2.4924076858175    8.1973942423150    8.7324441133653 
 O    4.3859750247500    7.0771525101714    0.5999968967040 
 O    6.3012124516550    8.1466736502879    3.8244633395993 
 O    4.5128910774750    9.2323509679543    6.8219736114639 
 O    4.3859750247500    9.2861687753434    2.1620326131840 
 O    4.2883260478300    6.7957535407182    5.5534434480862 
 O    6.3547969592800    8.1111830633445    8.6930773005545 
Ce    2.4728534297500    1.5545124405154    1.3810147549440 
Ce    0.5807078178275    2.5963147109339    4.7889405591722 
Ce    0.7158921210650    0.3447470984774    7.8857502718211 
Ce    6.2990966197500    1.5545124405154    1.3810147549440 
Ce    4.4437892448400    2.5846281580051    4.5353638597694 
Ce    4.3198444018400    0.2792484043429    8.0190846643075 
Ce   10.1252250247500    1.5545124405154    1.3810147549440 
Ce    8.1993173564225    2.6122583569036    4.6602420916131 
Ce    8.2284598331100    0.3285933066889    7.8824263839034 
Ce    0.5597892272500    4.8680368382734    1.3810147549440 
Ce   -1.4052759090150    5.9080972046322    4.5753707240143 
Ce   -1.2867164338600    3.7028504425101    7.9475015491473 
Ce    4.3860324172500    4.8680368382734    1.3810147549440 
Ce    2.4003897740350    5.8916579167267    4.5127841407895 
Ce    8.2121608222500    4.8680368382734    1.3810147549440 
Ce    6.2307971342650    6.0133424852771    4.7156063125582 
Ce    6.4625231409200    3.6515494146098    7.7969770083452 
Ce   -1.3533323677500    8.1816606427574    1.3810147549440 
Ce   -3.1903252219850    9.2569593017890    4.5981119385093 
Ce   -3.2932751423825    7.0553853199725    7.9620080890802 
Ce    2.4729108222500    8.1816606427574    1.3810147549440 
Ce    0.4989507093725    9.2112609363728    4.7125203339940 
Ce    0.4777867084650    6.9728760474781    7.9733743624085 
Ce    6.2990392272500    8.1816606427574    1.3810147549440 
Ce    4.3614243498100    9.2825269105297    4.5180644510700 
Ce    4.4049479521850    7.1127723258586    7.7615139162195 
Fe    3.0172798326000    4.1236178406287    7.3083837325212 
81
FORCE:  2.289042  ...  ENERGY:  -642.66230605
 O    0.5597892272500    0.4500043079294    0.5999968967040 
 O    2.6023266627050    1.5946582444374    3.7762348025500 
 O    0.6160153394725    2.5664720165349    7.0810749173289 
 O    0.5597892272500    2.6590205731014    2.1620326131840 
 O    0.6372899357275    0.3894720732326    5.5029745029167 
 O    2.5264635344300    0.8827237743419    9.1143579683275 
 O    4.3860324172500    0.4500043079294    0.5999968967040 
 O    6.2480238374950    1.5459865244398    3.6505009638178 
 O    3.9433641221425    2.6048905291859    7.1182521885448 
 O    4.3860324172500    2.6590205731014    2.1620326131840 
 O    4.4675003248975    0.4784824462006    5.4502005970410 
 O    6.3271346925600    1.5505013791213    8.5686365664480 
 O    8.2121608222500    0.4500043079294    0.5999968967040 
 O   10.1088497966500    1.4960099917568    3.8166294385119 
 O    8.2740349303975    2.7341594333032    6.9954093020133 
 O    8.2121608222500    2.6590205731014    2.1620326131840 
 O    8.1628333459200    0.3956721701399    5.3142013004548 
 O    9.9749790355600    1.3947966479185    8.4996538028018 
 O   -1.3532749752500    3.7635287056874    0.5999968967040 
 O    0.5511769087000    4.8200581819695    3.7300279247523 
 O   -1.4068517348875    5.9294287945578    7.0459236392839 
 O   -1.3533323677500    5.9726443775854    2.1620326131840 
 O   -1.2805238978950    3.7970993511249    5.4280741147680 
 O    0.0043583864500    5.0473317796233    9.0328775503434 
 O    2.4729682147500    3.7635287056874    0.5999968967040 
 O    4.3580938056425    4.9084388133283    3.7444662624832 
 O    2.3145094735950    5.8642150995067    7.1353041076483 
 O    2.4729108222500    5.9726443775854    2.1620326131840 
 O    2.4509661111650    3.9090279447722    5.5766431456113 
 O    4.3148344383375    4.7353007269599    8.3925101963845 
 O    6.2990966197500    3.7635287056874    0.5999968967040 
 O    8.1814941155475    4.8181568295213    3.8609442184317 
 O    6.3180065302200    5.9889383328575    7.1049867462072 
 O    6.2990392272500    5.9726443775854    2.1620326131840 
 O    6.1904433196650    3.7765301113809    5.4594959412995 
 O    8.0699061647600    4.6754021107347    8.7140698927068 
 O   -3.2663965702500    7.0771525101714    0.5999968967040 
 O   -1.3060442191225    8.2616807708327    3.8376345762198 
 O   -3.1737440122025    9.1703834989475    6.9621560524725 
 O   -3.2663965702500    9.2861687753434    2.1620326131840 
 O   -3.1702601152750    7.1065892275014    5.4234436642650 
 O   -1.4012107982400    8.0544242085599    8.7748163850839 
 O    0.5598466197500    7.0771525101714    0.5999968967040 
 O    2.4621467440900    8.1865264031816    3.8049775827191 
 O    0.5373475545075    9.0782648764709    7.1843161716670 
 O    0.5598466197500    9.2861687753434    2.1620326131840 
 O    0.5545630088075    6.9446913578621    5.4043046209199 
 O    2.4919366655700    8.2016332433319    8.7415585735229 
 O    4.3859750247500    7.0771525101714    0.5999968967040 
 O    6.3007966429925    8.1490139828381    3.8276494545070 
 O    4.5131374634775    9.2257635824424    6.8182665138494 
 O    4.3859750247500    9.2861687753434    2.1620326131840 
 O    4.2851530460750    6.8025694622931    5.5413515854451 
 O    6.3529547748150    8.1139421964313    8.7005072347532 
Ce    2.4728534297500    1.5545124405154    1.3810147549440 
Ce    0.5794880550250    2.5962152048011    4.7902888642424 
Ce    0.7160920191425    0.3430016157756    7.8842899691551 
Ce    6.2990966197500    1.5545124405154    1.3810147549440 
Ce    4.4459337729950    2.5826420116197    4.5350059692847 
Ce    4.3228766771850    0.2780722239609    8.0194491697215 
Ce   10.1252250247500    1.5545124405154    1.3810147549440 
Ce    8.2019254438000    2.6125254627763    4.6590575630681 
Ce    8.2281487657600    0.3263984061789    7.8816065888734 
Ce    0.5597892272500    4.8680368382734    1.3810147549440 
Ce   -1.4051989456725    5.9083802155811    4.5752876952466 
Ce   -1.2867120720300    3.7044508907987    7.9483509973085 
Ce    4.3860324172500    4.8680368382734    1.3810147549440 
Ce    2.4017143355425    5.8913299739376    4.5136990539406 
Ce    8.2121608222500    4.8680368382734    1.3810147549440 
Ce    6.2313293349175    6.0148555550535    4.7161496491641 
Ce    6.4603698891050    3.6511472149964    7.7971544709310 
Ce   -1.3533323677500    8.1816606427574    1.3810147549440 
Ce   -3.1887469282350    9.2582509927867    4.5980870754992 
Ce   -3.2913181729175    7.0535653816328    7.9647423358871 
Ce    2.4729108222500    8.1816606427574    1.3810147549440 
Ce    0.4967028747175    9.2122800541278    4.7135289966602 
Ce    0.4805474025000    6.9737746842812    7.9715881033992 
Ce    6.2990392272500    8.1816606427574    1.3810147549440 
Ce    4.3616647096000    9.2820598977309    4.5194015791906 
Ce    4.4021985644725    7.1136893529060    7.7613727216943 
Fe    3.0157414840300    4.1190031815944    7.3055863017346 
81
FORCE:  2.231690  ...  ENERGY:  -642.65694214
 O    0.5597892272500    0.4500043079294    0.5999968967040 
 O    2.6005000890000    1.5922734770807    3.7737432552178 
 O    0.6208292501950    2.5604737152813    7.0742252720996 
 O    0.5597892272500    2.6590205731014    2.1620326131840 
 O    0.6432560582800    0.3928311259109    5.5123565255590 
 O    2.5283099085475    0.8882832943069    9.1175716834574 
 O    4.3860324172500    0.4500043079294    0.5999968967040 
 O    6.2408256127525    1.5453744772278    3.6470748866476 
 O    3.9393212796575    2.6010888183567    7.1218689581593 
 O    4.3860324172500    2.6590205731014    2.1620326131840 
 O    4.4676881705500    0.4871768566767    5.4546624808976 
 O    6.3238473075525    1.5510977200706    8.5644217159852 
 O    8.2121608222500    0.4500043079294    0.5999968967040 
 O   10.1120962608050    1.4932687518806    3.8148121577652 
 O    8.2764380691575    2.7341087358729    6.9939859517109 
 O    8.2121608222500    2.6590205731014    2.1620326131840 
 O    8.1688137018125    0.3832828116584    5.3212594300072 
 O    9.9734568142825    1.3963673735960    8.4980529899136 
 O   -1.3532749752500    3.7635287056874    0.5999968967040 
 O    0.5527309254225    4.8160496057435    3.7214960345742 
 O   -1.4100895901675    5.9306956338739    7.0517956435843 
 O   -1.3533323677500    5.9726443775854    2.1620326131840 
 O   -1.2829642843875    3.7923762393524    5.4218928054980 
 O    0.0045092139400    5.0526635587790    9.0350114352919 
 O    2.4729682147500    3.7635287056874    0.5999968967040 
 O    4.3643202031825    4.9007479137511    3.7437007554937 
 O    2.3153947529075    5.8627565046161    7.1336214064976 
 O    2.4729108222500    5.9726443775854    2.1620326131840 
 O    2.4574905479575    3.9062643383826    5.5684552317563 
 O    4.3150333607425    4.7421371263204    8.3969002284230 
 O    6.2990966197500    3.7635287056874    0.5999968967040 
 O    8.1833410061975    4.8192041787864    3.8585363841701 
 O    6.3122117242800    5.9898162930615    7.1103459794372 
 O    6.2990392272500    5.9726443775854    2.1620326131840 
 O    6.1916033368750    3.7758163710883    5.4642810442873 
 O    8.0677633009875    4.6705298888732    8.7211572191885 
 O   -3.2663965702500    7.0771525101714    0.5999968967040 
 O   -1.3090647290050    8.2633890754190    3.8345328586858 
 O   -3.1691206445800    9.1694642849521    6.9546966932435 
 O   -3.2663965702500    9.2861687753434    2.1620326131840 
 O   -3.1711550939200    7.1030475646675    5.4308923027466 
 O   -1.4039119762525    8.0513023403299    8.7773729412040 
 O    0.5598466197500    7.0771525101714    0.5999968967040 
 O    2.4555975711300    8.1888759805574    3.7999709936506 
 O    0.5300104399150    9.0694716557091    7.1722083419552 
 O    0.5598466197500    9.2861687753434    2.1620326131840 
 O    0.5503708310375    6.9536135091475    5.4021784914057 
 O    2.4919821204300    8.2057077262172    8.7504369491351 
 O    4.3859750247500    7.0771525101714    0.5999968967040 
 O    6.3001985557500    8.1513628643668    3.8308209709501 
 O    4.5129533483375    9.2186935772758    6.8151759732649 
 O    4.3859750247500    9.2861687753434    2.1620326131840 
 O    4.2820872535100    6.8100138331898    5.5292419309252 
 O    6.3508133458550    8.1168186294549    8.7079342036388 
Ce    2.4728534297500    1.5545124405154    1.3810147549440 
Ce    0.5782478604925    2.5961272298486    4.7915983921408 
Ce    0.7162732646575    0.3413284017635    7.8828308069941 
Ce    6.2990966197500    1.5545124405154    1.3810147549440 
Ce    4.4480448987150    2.5807063638510    4.5346327960323 
Ce    4.3258909886775    0.2769522083790    8.0198264487920 
Ce   10.1252250247500    1.5545124405154    1.3810147549440 
Ce    8.2045533889825    2.6128198060920    4.6578046042202 
Ce    8.2278177258200    0.3242285561637    7.8807473323687 
Ce    0.5597892272500    4.8680368382734    1.3810147549440 
Ce   -1.4050788805625    5.9086814179609    4.5752507428830 
Ce   -1.2866942229625    3.7060965691476    7.9491792320758 
Ce    4.3860324172500    4.8680368382734    1.3810147549440 
Ce    2.4030224254025    5.8910935847431    4.5146027901422 
Ce    8.2121608222500    4.8680368382734    1.3810147549440 
Ce    6.2319226011900    6.0163183250266    4.7166156595275 
Ce    6.4581218822725    3.6507745391807    7.7973679734764 
Ce   -1.3533323677500    8.1816606427574    1.3810147549440 
Ce   -3.1872179346425    9.2595519286098    4.5980704241255 
Ce   -3.2893051883725    7.0516812265482    7.9674177326334 
Ce    2.4729108222500    8.1816606427574    1.3810147549440 
Ce    0.4945352747775    9.2132874418891    4.7144799497709 
Ce    0.4832694713825    6.9746042334096    7.9698180395616 
Ce    6.2990392272500    8.1816606427574    1.3810147549440 
Ce    4.3619133339100    9.2815867217152    4.5207587802001 
Ce    4.3994284006750    7.1145938547058    7.7612737258560 
Fe    3.0142732117025    4.1143993578931    7.3028527392307 
81
FORCE:  2.132395  ...  ENERGY:  -642.65165835
 O    0.5597892272500    0.4500043079294    0.5999968967040 
 O    2.5981049277975    1.5897758830899    3.7715112868349 
 O    0.6255593104750    2.5545812821909    7.0675321041632 
 O    0.5597892272500    2.6590205731014    2.1620326131840 
 O    0.6493906852125    0.3964353155754    5.5212406036964 
 O    2.5301660967825    0.8934993640336    9.1201613142239 
 O    4.3860324172500    0.4500043079294    0.5999968967040 
 O    6.2339730056450    1.5448286348954    3.6444836591740 
 O    3.9354719072900    2.5972776638886    7.1253741863800 
 O    4.3860324172500    2.6590205731014    2.1620326131840 
 O    4.4678642507400    0.4957866720291    5.4594699377844 
 O    6.3205222730650    1.5514053838875    8.5601947761689 
 O    8.2121608222500    0.4500043079294    0.5999968967040 
 O   10.1154893054050    1.4907921327090    3.8131283161094 
 O    8.2788048210725    2.7335260136451    6.9919791190249 
 O    8.2121608222500    2.6590205731014    2.1620326131840 
 O    8.1746083929675    0.3712577788276    5.3290301471149 
 O    9.9724298328875    1.3979459524049    8.4969923202171 
 O   -1.3532749752500    3.7635287056874    0.5999968967040 
 O    0.5543590932550    4.8118738274045    3.7131304300325 
 O   -1.4134978437800    5.9319653559851    7.0575186979252 
 O   -1.3533323677500    5.9726443775854    2.1620326131840 
 O   -1.2854516753375    3.7871776652095    5.4158551998643 
 O    0.0047926754975    5.0579369861866    9.0370073191295 
 O    2.4729682147500    3.7635287056874    0.5999968967040 
 O    4.3706302789875    4.8927381173970    3.7429555494940 
 O    2.3167565621475    5.8608946166382    7.1321248357710 
 O    2.4729108222500    5.9726443775854    2.1620326131840 
 O    2.4640807565550    3.9029315290800    5.5598583327904 
 O    4.3150388704225    4.7492242294439    8.4012642569463 
 O    6.2990966197500    3.7635287056874    0.5999968967040 
 O    8.1850328797050    4.8202293603517    3.8560489426561 
 O    6.3065287189300    5.9907542949281    7.1153496031925 
 O    6.2990392272500    5.9726443775854    2.1620326131840 
 O    6.1929466083375    3.7747249846435    5.4692322048104 
 O    8.0660466339200    4.6661439647154    8.7284892980539 
 O   -3.2663965702500    7.0771525101714    0.5999968967040 
 O   -1.3123048225925    8.2646735097257    3.8310864805257 
 O   -3.1646116602100    9.1687123724767    6.9475562192264 
 O   -3.2663965702500    9.2861687753434    2.1620326131840 
 O   -3.1725838228150    7.0992456550249    5.4382827754706 
 O   -1.4067495188450    8.0483896238513    8.7800868870210 
 O    0.5598466197500    7.0771525101714    0.5999968967040 
 O    2.4492043335925    8.1909501018954    3.7948850254306 
 O    0.5225998055300    9.0612348143927    7.1596974577588 
 O    0.5598466197500    9.2861687753434    2.1620326131840 
 O    0.5460755189450    6.9627636000556    5.4001436022955 
 O    2.4925203472950    8.2096235559677    8.7590452531515 
 O    4.3859750247500    7.0771525101714    0.5999968967040 
 O    6.2994374164150    8.1537122429290    3.8339753798173 
 O    4.5123477426775    9.2111682893042    6.8127359767609 
 O    4.3859750247500    9.2861687753434    2.1620326131840 
 O    4.2791435921850    6.8180639886748    5.5171598766275 
 O    6.3483923006350    8.1198030181828    8.7153233077567 
Ce    2.4728534297500    1.5545124405154    1.3810147549440 
Ce    0.5769916534525    2.5960477044678    4.7928641246453 
Ce    0.7164401046550    0.3397266611875    7.8813755225503 
Ce    6.2990966197500    1.5545124405154    1.3810147549440 
Ce    4.4501180306000    2.5788247933413    4.5342418309012 
Ce    4.3288800474700    0.2758880593772    8.0202171858221 
Ce   10.1252250247500    1.5545124405154    1.3810147549440 
Ce    8.2071996423725    2.6131389016825    4.6564850398774 
Ce    8.2274682628875    0.3220856453714    7.8798472457833 
Ce    0.5597892272500    4.8680368382734    1.3810147549440 
Ce   -1.4049165745725    5.9090015076186    4.5752578140143 
Ce   -1.2866635179750    3.7077859864560    7.9499871658532 
Ce    4.3860324172500    4.8680368382734    1.3810147549440 
Ce    2.4043127809800    5.8909497432106    4.5154898749701 
Ce    8.2121608222500    4.8680368382734    1.3810147549440 
Ce    6.2325753260925    6.0177299999425    4.7170043436485 
Ce    6.4557816456925    3.6504339717374    7.7976179721833 
Ce   -1.3533323677500    8.1816606427574    1.3810147549440 
Ce   -3.1857405943000    9.2608626062921    4.5980615281861 
Ce   -3.2872416410350    7.0497365327675    7.9700347355211 
Ce    2.4729108222500    8.1816606427574    1.3810147549440 
Ce    0.4924496313275    9.2142823044029    4.7153697718109 
Ce    0.4859495863475    6.9753635019828    7.9680666800068 
Ce    6.2990392272500    8.1816606427574    1.3810147549440 
Ce    4.3621690174975    9.2811039032470    4.5221321763813 
Ce    4.3966413634825    7.1154832466834    7.7612162444015 
Fe    3.0128884454625    4.1098161113842    7.3001939938582 
81
FORCE:  1.995191  ...  ENERGY:  -642.64607479
 O    0.5597892272500    0.4500043079294    0.5999968967040 
 O    2.5951587412025    1.5871670529728    3.7695496181489 
 O    0.6301827354900    2.5488524725715    7.0610396651156 
 O    0.5597892272500    2.6590205731014    2.1620326131840 
 O    0.6556604714825    0.4002539255480    5.5295925221776 
 O    2.5320386418800    0.8983441496387    9.1220935578796 
 O    4.3860324172500    0.4500043079294    0.5999968967040 
 O    6.2275267374375    1.5443384603295    3.6427487228919 
 O    3.9318170381050    2.5934912616953    7.1287820154694 
 O    4.3860324172500    2.6590205731014    2.1620326131840 
 O    4.4680370595575    0.5042683521116    5.4646088254387 
 O    6.3171747981100    1.5513974313495    8.5559566594031 
 O    8.2121608222500    0.4500043079294    0.5999968967040 
 O   10.1190029890400    1.4885878879667    3.8115952492212 
 O    8.2811230189325    2.7324249847479    6.9893995247029 
 O    8.2121608222500    2.6590205731014    2.1620326131840 
 O    8.1801887231350    0.3596690421173    5.3374929226869 
 O    9.9718924669100    1.3995228412994    8.4964567390456 
 O   -1.3532749752500    3.7635287056874    0.5999968967040 
 O    0.5560576242925    4.8075706096427    3.7050054720563 
 O   -1.4170537109025    5.9332042620113    7.0630631491753 
 O   -1.3533323677500    5.9726443775854    2.1620326131840 
 O   -1.2879838898300    3.7815471688422    5.4099863889780 
 O    0.0052042371150    5.0631275083847    9.0388499190882 
 O    2.4729682147500    3.7635287056874    0.5999968967040 
 O    4.3769984360025    4.8844543561059    3.7422452429489 
 O    2.3185747565475    5.8586398732790    7.1307947787817 
 O    2.4729108222500    5.9726443775854    2.1620326131840 
 O    2.4707308255300    3.8990520821912    5.5509074210570 
 O    4.3148047090225    4.7565000065332    8.4055452567020 
 O    6.2990966197500    3.7635287056874    0.5999968967040 
 O    8.1865641689975    4.8212243222722    3.8534994576673 
 O    6.3009717475100    5.9917563147262    7.1199818785036 
 O    6.2990392272500    5.9726443775854    2.1620326131840 
 O    6.1944835794875    3.7732635069579    5.4743345963031 
 O    8.0647594923225    4.6622363857230    8.7360362480708 
 O   -3.2663965702500    7.0771525101714    0.5999968967040 
 O   -1.3157593919525    8.2655347695997    3.8273237262647 
 O   -3.1602207896050    9.1681250775395    6.9407975863001 
 O   -3.2663965702500    9.2861687753434    2.1620326131840 
 O   -3.1745348808525    7.0951810134055    5.4455829201946 
 O   -1.4097021907925    8.0456979879314    8.7829532043127 
 O    0.5598466197500    7.0771525101714    0.5999968967040 
 O    2.4429870040675    8.1927402182172    3.7897342765238 
 O    0.5151527843000    9.0535912324171    7.1468526336836 
 O    0.5598466197500    9.2861687753434    2.1620326131840 
 O    0.5416926832900    6.9720593218173    5.3981963039732 
 O    2.4935240847275    8.2133867963939    8.7673499547236 
 O    4.3859750247500    7.0771525101714    0.5999968967040 
 O    6.2985330827925    8.1560545636138    3.8371088033917 
 O    4.5113316084650    9.2032214174076    6.8109764055698 
 O    4.3859750247500    9.2861687753434    2.1620326131840 
 O    4.2763349180200    6.8266934865588    5.5051455683298 
 O    6.3457124152400    8.1228860183830    8.7226382790464 
Ce    2.4728534297500    1.5545124405154    1.3810147549440 
Ce    0.5757243696600    2.5959736464570    4.7940805873316 
Ce    0.7165963844325    0.3381954993869    7.8799268530358 
Ce    6.2990966197500    1.5545124405154    1.3810147549440 
Ce    4.4521484624650    2.5770004811057    4.5338305647802 
Ce    4.3318364499300    0.2748792799217    8.0206220651149 
Ce   10.1252250247500    1.5545124405154    1.3810147549440 
Ce    8.2098627117650    2.6134803637863    4.6550997824436 
Ce    8.2271017543825    0.3199718607497    7.8789063291170 
Ce    0.5597892272500    4.8680368382734    1.3810147549440 
Ce   -1.4047137494775    5.9093412798081    4.5753063995295 
Ce   -1.2866209901325    3.7095173534027    7.9507759391458 
Ce    4.3860324172500    4.8680368382734    1.3810147549440 
Ce    2.4055848283500    5.8908990457804    4.5163541496970 
Ce    8.2121608222500    4.8680368382734    1.3810147549440 
Ce    6.2332860748125    6.0190896851407    4.7173161577292 
Ce    6.4533521063825    3.6501277990213    7.7979051513549 
Ce   -1.3533323677500    8.1816606427574    1.3810147549440 
Ce   -3.1843172603000    9.2621837216807    4.5980608438830 
Ce   -3.2851327536225    7.0477349783395    7.9725938007523 
Ce    2.4729108222500    8.1816606427574    1.3810147549440 
Ce    0.4904469774325    9.2152642440423    4.7161952693661 
Ce    0.4885843038450    6.9760518935604    7.9663367619470 
Ce    6.2990392272500    8.1816606427574    1.3810147549440 
Ce    4.3624304403350    9.2806079630910    4.5235181181181 
Ce    4.3938414703700    7.1163553418906    7.7611998211288 
Fe    3.0115987785950    4.1052619910459    7.2976178210512 
81
FORCE:  1.825440  ...  ENERGY:  -642.63970537
 O    0.5597892272500    0.4500043079294    0.5999968967040 
 O    2.5916827644400    1.5844479807965    3.7678660045941 
 O    0.6346776013050    2.5433447435108    7.0547919784517 
 O    0.5597892272500    2.6590205731014    2.1620326131840 
 O    0.6620306372350    0.4042539527955    5.5373830840731 
 O    2.5339331683050    0.9027937935079    9.1233410423033 
 O    4.3860324172500    0.4500043079294    0.5999968967040 
 O    6.2215447745550    1.5438914282827    3.6418819390539 
 O    3.9283579347375    2.5897618195560    7.1321072719932 
 O    4.3860324172500    2.6590205731014    2.1620326131840 
 O    4.4682135988875    0.5125787544052    5.4700629486888 
 O    6.3138199195225    1.5510513965363    8.5517094185969 
 O    8.2121608222500    0.4500043079294    0.5999968967040 
 O   10.1226116572625    1.4866596957025    3.8102275555652 
 O    8.2833792902850    2.7308220512912    6.9862658730275 
 O    8.2121608222500    2.6590205731014    2.1620326131840 
 O    8.1855282917650    0.3485788301378    5.3466254028243 
 O    9.9718362796525    1.4010891930810    8.4964307355304 
 O   -1.3532749752500    3.7635287056874    0.5999968967040 
 O    0.5578209514625    4.8031808086225    3.6971950653729 
 O   -1.4207321110125    5.9343792495126    7.0684002566073 
 O   -1.3533323677500    5.9726443775854    2.1620326131840 
 O   -1.2905584599875    3.7755323660721    5.4043098672432 
 O    0.0057401682800    5.0682133553003    9.0405239524006 
 O    2.4729682147500    3.7635287056874    0.5999968967040 
 O    4.3834012006950    4.8759424563787    3.7415848905249 
 O    2.3208241408000    5.8560058932602    7.1296100221357 
 O    2.4729108222500    5.9726443775854    2.1620326131840 
 O    2.4774358191275    3.8946524399051    5.5416599780106 
 O    4.3142917348575    4.7639024277916    8.4096914487608 
 O    6.2990966197500    3.7635287056874    0.5999968967040 
 O    8.1879316027025    4.8221822054839    3.8509057210826 
 O    6.2955557320700    5.9928235453365    7.1242275226027 
 O    6.2990392272500    5.9726443775854    2.1620326131840 
 O    6.1962230887700    3.7714414810770    5.4795731640987 
 O    8.0639012448775    4.6587963165631    8.7437649945926 
 O   -3.2663965702500    7.0771525101714    0.5999968967040 
 O   -1.3194210334525    8.2659745449555    3.8232747052362 
 O   -3.1559509023900    9.1676962369235    6.9344794164241 
 O   -3.2663965702500    9.2861687753434    2.1620326131840 
 O   -3.1769939199075    7.0908518504882    5.4527603465752 
 O   -1.4127463463850    8.0432375720562    8.7859655062507 
 O    0.5598466197500    7.0771525101714    0.5999968967040 
 O    2.4369636611925    8.1942404645260    3.7845344858998 
 O    0.5077063369950    9.0465711294270    7.1337459496490 
 O    0.5598466197500    9.2861687753434    2.1620326131840 
 O    0.5372395992150    6.9814178686298    5.3963320344184 
 O    2.4949621686000    8.2170031136791    8.7753188916090 
 O    4.3859750247500    7.0771525101714    0.5999968967040 
 O    6.2975060440050    8.1583823709165    3.8402171358550 
 O    4.5099195807875    9.1948906367351    6.8099202978935 
 O    4.3859750247500    9.2861687753434    2.1620326131840 
 O    4.2736720208050    6.8358717095704    5.4932339054866 
 O    6.3427953266425    8.1260573911626    8.7298449023564 
Ce    2.4728534297500    1.5545124405154    1.3810147549440 
Ce    0.5744506579075    2.5959019742075    4.7952429900785 
Ce    0.7167457771100    0.3367335246676    7.8784875356627 
Ce    6.2990966197500    1.5545124405154    1.3810147549440 
Ce    4.4541317176950    2.5752364093461    4.5333964885581 
Ce    4.3347536533125    0.2739254723858    8.0210410866703 
Ce   10.1252250247500    1.5545124405154    1.3810147549440 
Ce    8.2125409901700    2.6138420054555    4.6536504286261 
Ce    8.2267204960050    0.3178893892467    7.8779236699660 
Ce    0.5597892272500    4.8680368382734    1.3810147549440 
Ce   -1.4044717826975    5.9097011321562    4.5753937622163 
Ce   -1.2865681890325    3.7112887812601    7.9515471486606 
Ce    4.3860324172500    4.8680368382734    1.3810147549440 
Ce    2.4068381083725    5.8909414924524    4.5171908242017 
Ce    8.2121608222500    4.8680368382734    1.3810147549440 
Ce    6.2340534699300    6.0203965853675    4.7175511017695 
Ce    6.4508367652850    3.6498581085737    7.7982295109911 
Ce   -1.3533323677500    8.1816606427574    1.3810147549440 
Ce   -3.1829499413800    9.2635159706225    4.5980681431153 
Ce   -3.2829842653850    7.0456801419063    7.9750956126300 
Ce    2.4729108222500    8.1816606427574    1.3810147549440 
Ce    0.4885281739800    9.2162331614006    4.7169532490223 
Ce    0.4911703525025    6.9766689111086    7.9646303382912 
Ce    6.2990392272500    8.1816606427574    1.3810147549440 
Ce    4.3626967415350    9.2800956208252    4.5249129557942 
Ce    4.3910326814200    7.1172080527862    7.7612246841389 
Fe    3.0104144843575    4.1007442535694    7.2951310638402 
81
FORCE:  1.628553  ...  ENERGY:  -642.63214519
 O    0.5597892272500    0.4500043079294    0.5999968967040 
 O    2.5877013893225    1.5816191635947    3.7664661486957 
 O    0.6390246240400    2.5381137627752    7.0488326114644 
 O    0.5597892272500    2.6590205731014    2.1620326131840 
 O    0.6684650251950    0.4084002073370    5.5445860577669 
 O    2.5358544970275    0.9068280166691    9.1238811854950 
 O    4.3860324172500    0.4500043079294    0.5999968967040 
 O    6.2160815250875    1.5434742182536    3.6418871853772 
 O    3.9250964911400    2.5861214458431    7.1353650106180 
 O    4.3860324172500    2.6590205731014    2.1620326131840 
 O    4.4684009280075    0.5206746369840    5.4758142875549 
 O    6.3104723871750    1.5503500820843    8.5474539661543 
 O    8.2121608222500    0.4500043079294    0.5999968967040 
 O   10.1262898278025    1.4850087487971    3.8090389212021 
 O    8.2855592870050    2.7287368958066    6.9826021146049 
 O    8.2121608222500    2.6590205731014    2.1620326131840 
 O    8.1906025922600    0.3380409219280    5.3564031807189 
 O    9.9722499647925    1.4026373534317    8.4968969739949 
 O   -1.3532749752500    3.7635287056874    0.5999968967040 
 O    0.5596441390100    4.7987453799151    3.6897712899014 
 O   -1.4245065861675    5.9354594029973    7.0735033324030 
 O   -1.3533323677500    5.9726443775854    2.1620326131840 
 O   -1.2931736066425    3.7691834572959    5.3988482166597 
 O    0.0063972550125    5.0731768325362    9.0420136800969 
 O    2.4729682147500    3.7635287056874    0.5999968967040 
 O    4.3898172804475    4.8672484435295    3.7409897749898 
 O    2.3234759612625    5.8530086810646    7.1285472995301 
 O    2.4729108222500    5.9726443775854    2.1620326131840 
 O    2.4841919494425    3.8897628218666    5.5321739413078 
 O    4.3134671194175    4.7713694634218    8.4136558443146 
 O    6.2990966197500    3.7635287056874    0.5999968967040 
 O    8.1891327703350    4.8230982384640    3.8482839280736 
 O    6.2902945615950    5.9939551915053    7.1280742180354 
 O    6.2990392272500    5.9726443775854    2.1620326131840 
 O    6.1981715641450    3.7692712334350    5.4849346783388 
 O    8.0634670706150    4.6558086474132    8.7516401819629 
 O   -3.2663965702500    7.0771525101714    0.5999968967040 
 O   -1.3232799329750    8.2659961162151    3.8189706672785 
 O   -3.1518045812275    9.1674175998705    6.9286532604267 
 O   -3.2663965702500    9.2861687753434    2.1620326131840 
 O   -3.1799454440050    7.0862577686461    5.4597854014812 
 O   -1.4158571346700    8.0410156329167    8.7891178622089 
 O    0.5598466197500    7.0771525101714    0.5999968967040 
 O    2.4311505470450    8.1954473615863    3.7793013925284 
 O    0.5002931773400    9.0401961760886    7.1204526789883 
 O    0.5598466197500    9.2861687753434    2.1620326131840 
 O    0.5327330827225    6.9907548441828    5.3945471440152 
 O    2.4968016556175    8.2204770805326    8.7829212701713 
 O    4.3859750247500    7.0771525101714    0.5999968967040 
 O    6.2963766743900    8.1606888057732    3.8432964994900 
 O    4.5081283608625    9.1862158093840    6.8095861299138 
 O    4.3859750247500    9.2861687753434    2.1620326131840 
 O    4.2711634520225    6.8455661517101    5.4814534007242 
 O    6.3396632457400    8.1293070964422    8.7369094187371 
Ce    2.4728534297500    1.5545124405154    1.3810147549440 
Ce    0.5731749948100    2.5958299043312    4.7963465427649 
Ce    0.7168912670975    0.3353395441489    7.8770603076431 
Ce    6.2990966197500    1.5545124405154    1.3810147549440 
Ce    4.4560634918525    2.5735354608575    4.5329382336290 
Ce    4.3376251148725    0.2730260403289    8.0214744785893 
Ce   10.1252250247500    1.5545124405154    1.3810147549440 
Ce    8.2152332723450    2.6142221367757    4.6521385751318 
Ce    8.2263270704175    0.3158403184037    7.8768988121280 
Ce    0.5597892272500    4.8680368382734    1.3810147549440 
Ce   -1.4041925107925    5.9100812634764    4.5755171648627 
Ce   -1.2865066068800    3.7130978842665    7.9523019349027 
Ce    4.3860324172500    4.8680368382734    1.3810147549440 
Ce    2.4080725062625    5.8910768844132    4.5179946521609 
Ce    8.2121608222500    4.8680368382734    1.3810147549440 
Ce    6.2348757896700    6.0216503029958    4.7177103162745 
Ce    6.4482390659500    3.6496272861559    7.7985919634960 
Ce   -1.3533323677500    8.1816606427574    1.3810147549440 
Ce   -3.1816408758475    9.2648604465917    4.5980834258830 
Ce   -3.2808016860025    7.0435758009237    7.9775415397602 
Ce    2.4729108222500    8.1816606427574    1.3810147549440 
Ce    0.4866934505400    9.2171896529182    4.7176402892644 
Ce    0.4937050922650    6.9772143558142    7.9629492338475 
Ce    6.2990392272500    8.1816606427574    1.3810147549440 
Ce    4.3629667732475    9.2795638942478    4.5263139521976 
Ce    4.3882184975750    7.1180394906425    7.7612906053307 
Fe    3.0093445159800    4.0962688633582    7.2927382842453 
81
FORCE:  1.431406  ...  ENERGY:  -642.62303827
 O    0.5597892272500    0.4500043079294    0.5999968967040 
 O    2.5832415903250    1.5786811978078    3.7653534719689 
 O    0.6432066433375    2.5332133094036    7.0432028504366 
 O    0.5597892272500    2.6590205731014    2.1620326131840 
 O    0.6749273059100    0.4126552128367    5.5511790893599 
 O    2.5378073342325    0.9104305164194    9.1236971079800 
 O    4.3860324172500    0.4500043079294    0.5999968967040 
 O    6.2111877813975    1.5430726150806    3.6427617246495 
 O    3.9220354621525    2.5826007578284    7.1385705141115 
 O    4.3860324172500    2.6590205731014    2.1620326131840 
 O    4.4686047861675    0.5285152430906    5.4818434534513 
 O    6.3071475822575    1.5492811615597    8.5431923549845 
 O    8.2121608222500    0.4500043079294    0.5999968967040 
 O   10.1300115018575    1.4836327608958    3.8080407511824 
 O    8.2876480870425    2.7261917854008    6.9784388149703 
 O    8.2121608222500    2.6590205731014    2.1620326131840 
 O    8.1953891841525    0.3280991558540    5.3668000247547 
 O    9.9731204942325    1.4041606621009    8.4978360658531 
 O   -1.3532749752500    3.7635287056874    0.5999968967040 
 O    0.5615215624700    4.7943046826512    3.6828023478439 
 O   -1.4283492436125    5.9364152980745    7.0783463730473 
 O   -1.3533323677500    5.9726443775854    2.1620326131840 
 O   -1.2958270914875    3.7625534262986    5.3936208258136 
 O    0.0071748086025    5.0780036255239    9.0433056442176 
 O    2.4729682147500    3.7635287056874    0.5999968967040 
 O    4.3962266452775    4.8584191381262    3.7404738105052 
 O    2.3264977911725    5.8496666269365    7.1275819760558 
 O    2.4729108222500    5.9726443775854    2.1620326131840 
 O    2.4909973799150    3.8844154358549    5.5225051956959 
 O    4.3123045769375    4.7788406741345    8.4173973851816 
 O    6.2990966197500    3.7635287056874    0.5999968967040 
 O    8.1901674423250    4.8239694390107    3.8456498176102 
 O    6.2852023546400    5.9951482710307    7.1315112440541 
 O    6.2990392272500    5.9726443775854    2.1620326131840 
 O    6.2003339413675    3.7667666809734    5.4904056810636 
 O    8.0634494511175    4.6532551868424    8.7596230330099 
 O   -3.2663965702500    7.0771525101714    0.5999968967040 
 O   -1.3273263911875    8.2656039566810    3.8144433184321 
 O   -3.1477833183225    9.1672792257079    6.9233649666109 
 O   -3.2663965702500    9.2861687753434    2.1620326131840 
 O   -3.1833713171150    7.0813989666927    5.4666291160843 
 O   -1.4190071794250    8.0390366438154    8.7924027448539 
 O    0.5598466197500    7.0771525101714    0.5999968967040 
 O    2.4255615506100    8.1963603129579    3.7740523320863 
 O    0.4929444694625    9.0344813828176    7.1070508322467 
 O    0.5598466197500    9.2861687753434    2.1620326131840 
 O    0.5281897202450    6.9999874426735    5.3928382112483 
 O    2.4990067902525    8.2238123750034    8.7901292620873 
 O    4.3859750247500    7.0771525101714    0.5999968967040 
 O    6.2951645447900    8.1629676055600    3.8463423322765 
 O    4.5059770030000    9.1772402766868    6.8099855347823 
 O    4.3859750247500    9.2861687753434    2.1620326131840 
 O    4.2688147787450    6.8557419212171    5.4698264079414 
 O    6.3363384982150    8.1326248953292    8.7438010345522 
Ce    2.4728534297500    1.5545124405154    1.3810147549440 
Ce    0.5719020865525    2.5957544546261    4.7973862271685 
Ce    0.7170360683750    0.3340115696963    7.8756479061892 
Ce    6.2990966197500    1.5545124405154    1.3810147549440 
Ce    4.4579395378925    2.5719002202148    4.5324537470838 
Ce    4.3404453823225    0.2721802879041    8.0219222408719 
Ce   10.1252250247500    1.5545124405154    1.3810147549440 
Ce    8.2179384104400    2.6146189684259    4.6505655905668 
Ce    8.2259241750675    0.3138267357618    7.8758315275022 
Ce    0.5597892272500    4.8680368382734    1.3810147549440 
Ce   -1.4038779425000    5.9104817731755    4.5756743264586 
Ce   -1.2864377932725    3.7149421772540    7.9530416664781 
Ce    4.3860324172500    4.8680368382734    1.3810147549440 
Ce    2.4092880794125    5.8913045258157    4.5187612996555 
Ce    8.2121608222500    4.8680368382734    1.3810147549440 
Ce    6.2357520009675    6.0228502415853    4.7177942574462 
Ce    6.4455628536750    3.6494370216823    7.7989927369706 
Ce   -1.3533323677500    8.1816606427574    1.3810147549440 
Ce   -3.1803918428700    9.2662180442487    4.5981066921860 
Ce   -3.2785903529775    7.0414250369999    7.9799331788501 
Ce    2.4729108222500    8.1816606427574    1.3810147549440 
Ce    0.4849426349350    9.2181346132555    4.7182531966783 
Ce    0.4961861700400    6.9776883270838    7.9612950453230 
Ce    6.2990392272500    8.1816606427574    1.3810147549440 
Ce    4.3632396171925    9.2790099999705    4.5277183701162 
Ce    4.3854023049925    7.1188481643585    7.7613987252095 
Fe    3.0083961623100    4.0918396972745    7.2904422194786 
81
FORCE:  1.445940  ...  ENERGY:  -642.61221344
 O    0.5597892272500    0.4500043079294    0.5999968967040 
 O    2.5783317193425    1.5756344810626    3.7645284306158 
 O    0.6472087371475    2.5286958701472    7.0379426130450 
 O    0.5597892272500    2.6590205731014    2.1620326131840 
 O    0.6813805186100    0.4169798030446    5.5571437026704 
 O    2.5397949512925    0.9135888669178    9.1227771766066 
 O    4.3860324172500    0.4500043079294    0.5999968967040 
 O    6.2069114088300    1.5426709125008    3.6444950642245 
 O    3.9191773156525    2.5792284840555    7.1417404338475 
 O    4.3860324172500    2.6590205731014    2.1620326131840 
 O    4.4688295925900    0.5360609094411    5.4881290048828 
 O    6.3038604842125    1.5478367818309    8.5389261817945 
 O    8.2121608222500    0.4500043079294    0.5999968967040 
 O   10.1337517710825    1.4825259664085    3.8072423976474 
 O    8.2896312848800    2.7232102794679    6.9738097330734 
 O    8.2121608222500    2.6590205731014    2.1620326131840 
 O    8.1998694148800    0.3187866343556    5.3777878785074 
 O    9.9744329459225    1.4056529558716    8.4992277101151 
 O   -1.3532749752500    3.7635287056874    0.5999968967040 
 O    0.5634475399850    4.7898985789280    3.6763534760892 
 O   -1.4322314444900    5.9372197967080    7.0829056560352 
 O   -1.3533323677500    5.9726443775854    2.1620326131840 
 O   -1.2985162744675    3.7556961515257    5.3886468551895 
 O    0.0080726568725    5.0826834953705    9.0443870711060 
 O    2.4729682147500    3.7635287056874    0.5999968967040 
 O    4.4026118478650    4.8495010625165    3.7400511393337 
 O    2.3298530141150    5.8460014015421    7.1266880481976 
 O    2.4729108222500    5.9726443775854    2.1620326131840 
 O    2.4978506757325    3.8786451736308    5.5127107664275 
 O    4.3107833313325    4.7862560182672    8.4208798033013 
 O    6.2990966197500    3.7635287056874    0.5999968967040 
 O    8.1910369960925    4.8247938189894    3.8430182162578 
 O    6.2802908766675    5.9963975153564    7.1345310733255 
 O    6.2990392272500    5.9726443775854    2.1620326131840 
 O    6.2027131474550    3.7639434305483    5.4959733986167 
 O    8.0638372522400    4.6511144629980    8.7676754548649 
 O   -3.2663965702500    7.0771525101714    0.5999968967040 
 O   -1.3315489869825    8.2648037325367    3.8097257333432 
 O   -3.1438885484875    9.1672688874084    6.9186539964514 
 O   -3.2663965702500    9.2861687753434    2.1620326131840 
 O   -3.1872537475625    7.0762758422548    5.4732654868692 
 O   -1.4221683009325    8.0373024934804    8.7958126268524 
 O    0.5598466197500    7.0771525101714    0.5999968967040 
 O    2.4202083225650    8.1969814061820    3.7688041840482 
 O    0.4856891965750    9.0294355968126    7.0936195604749 
 O    0.5598466197500    9.2861687753434    2.1620326131840 
 O    0.5236243190475    7.0090333553328    5.3912027270065 
 O    2.5015407839125    8.2270120786998    8.7969164076398 
 O    4.3859750247500    7.0771525101714    0.5999968967040 
 O    6.2938897425800    8.1652130046869    3.8493503002954 
 O    4.5034861111075    9.1680096663306    6.8111253555293 
 O    4.3859750247500    9.2861687753434    2.1620326131840 
 O    4.2666297888775    6.8663620387893    5.4583695785122 
 O    6.3328431227875    8.1360008471509    8.7504903247715 
Ce    2.4728534297500    1.5545124405154    1.3810147549440 
Ce    0.5706358932175    2.5956731399243    4.7983577093701 
Ce    0.7171824192500    0.3327479113954    7.8742526123110 
Ce    6.2990966197500    1.5545124405154    1.3810147549440 
Ce    4.4597560679100    2.5703326755525    4.5319421165184 
Ce    4.3432092903375    0.2713874198575    8.0223839173161 
Ce   10.1252250247500    1.5545124405154    1.3810147549440 
Ce    8.2206556009600    2.6150311087119    4.6489328435373 
Ce    8.2255150813275    0.3118507288624    7.8747213598866 
Ce    0.5597892272500    4.8680368382734    1.3810147549440 
Ce   -1.4035303735200    5.9109026612533    4.5758625097919 
Ce   -1.2863636421625    3.7168189762409    7.9537677119930 
Ce    4.3860324172500    4.8680368382734    1.3810147549440 
Ce    2.4104855165325    5.8916234225927    4.5194866608673 
Ce    8.2121608222500    4.8680368382734    1.3810147549440 
Ce    6.2366807264025    6.0239962023227    4.7178038376886 
Ce    6.4428119737575    3.6492890050673    7.7994325157179 
Ce   -1.3533323677500    8.1816606427574    1.3810147549440 
Ce   -3.1792045642225    9.2675899564742    4.5981383982264 
Ce   -3.2763555464200    7.0392310311504    7.9822725828086 
Ce    2.4729108222500    8.1816606427574    1.3810147549440 
Ce    0.4832753828100    9.2190694341069    4.7187887778498 
Ce    0.4986115770900    6.9780911231375    7.9596689132227 
Ce    6.2990392272500    8.1816606427574    1.3810147549440 
Ce    4.3635143550900    9.2784315522319    4.5291243847418 
Ce    4.3825870306900    7.1196325828333    7.7615497280781 
Fe    3.0075751625975    4.0874601351471    7.2882433257422 
81
FORCE:  1.455407  ...  ENERGY:  -642.59958136
 O    0.5597892272500    0.4500043079294    0.5999968967040 
 O    2.5730025387550    1.5724794109861    3.7639898841312 
 O    0.6510181069425    2.5246110489625    7.0330902202593 
 O    0.5597892272500    2.6590205731014    2.1620326131840 
 O    0.6877881616650    0.4213338176434    5.5624650711327 
 O    2.5418199308700    0.9162936245256    9.1211134078397 
 O    4.3860324172500    0.4500043079294    0.5999968967040 
 O    6.2032964274325    1.5422533048449    3.6470698684254 
 O    3.9165264134700    2.5760308679003    7.1448895963916 
 O    4.3860324172500    2.6590205731014    2.1620326131840 
 O    4.4690796517125    0.5432749549536    5.4946488160517 
 O    6.3006268185850    1.5460129666289    8.5346570432913 
 O    8.2121608222500    0.4500043079294    0.5999968967040 
 O   10.1374865880200    1.4816799157635    3.8066513879305 
 O    8.2914940158600    2.7198181243499    6.9687538741868 
 O    8.2121608222500    2.6590205731014    2.1620326131840 
 O    8.2040283623925    0.3101266186066    5.3893368607448 
 O    9.9761713073550    1.4071093638143    8.5010509214880 
 O   -1.3532749752500    3.7635287056874    0.5999968967040 
 O    0.5654163896975    4.7855647438946    3.6704855776069 
 O   -1.4361240334100    5.9378482460298    7.0871588274677 
 O   -1.3533323677500    5.9726443775854    2.1620326131840 
 O   -1.3012394338075    3.7486673007437    5.3839420437572 
 O    0.0090918902800    5.0872097818255    9.0452460995096 
 O    2.4729682147500    3.7635287056874    0.5999968967040 
 O    4.4089583679075    4.8405396455744    3.7397340789298 
 O    2.3335020292650    5.8420364648689    7.1258395124404 
 O    2.4729108222500    5.9726443775854    2.1620326131840 
 O    2.5047507464375    3.8724889150896    5.5028453977450 
 O    4.3088885179450    4.7935577405121    8.4240723050372 
 O    6.2990966197500    3.7635287056874    0.5999968967040 
 O    8.1917436699450    4.8255712789935    3.8404032662791 
 O    6.2755716635700    5.9976960654181    7.1371266347182 
 O    6.2990392272500    5.9726443775854    2.1620326131840 
 O    6.2053102728650    3.7608174866425    5.5016255135435 
 O    8.0646168719600    4.6493637117397    8.7757561612451 
 O   -3.2663965702500    7.0771525101714    0.5999968967040 
 O   -1.3359358401125    8.2636019052194    3.8048507585575 
 O   -3.1401213047875    9.1673718727766    6.9145522840895 
 O   -3.2663965702500    9.2861687753434    2.1620326131840 
 O   -3.1915746567100    7.0708898864334    5.4796707913310 
 O   -1.4253124916525    8.0358127842845    8.7993397527701 
 O    0.5598466197500    7.0771525101714    0.5999968967040 
 O    2.4151008492050    8.1973144187141    3.7635740559899 
 O    0.4785540461900    9.0250597127341    7.0802389271273 
 O    0.5598466197500    9.2861687753434    2.1620326131840 
 O    0.5190517437875    7.0178111680521    5.3896374978759 
 O    2.5043654705850    8.2300782791633    8.8032598967279 
 O    4.3859750247500    7.0771525101714    0.5999968967040 
 O    6.2925718959950    8.1674206292579    3.8523160696274 
 O    4.5006772647650    9.1585734828650    6.8130060483567 
 O    4.3859750247500    9.2861687753434    2.1620326131840 
 O    4.2646115816150    6.8773867417363    5.4470940893858 
 O    6.3291992155700    8.1394249118280    8.7569494610717 
Ce    2.4728534297500    1.5545124405154    1.3810147549440 
Ce    0.5693807192425    2.5955832762440    4.7992566554505 
Ce    0.7173328449925    0.3315463822982    7.8728771632207 
Ce    6.2990966197500    1.5545124405154    1.3810147549440 
Ce    4.4615095809625    2.5688347155984    4.5314019733267 
Ce    4.3459124770875    0.2706466409354    8.0228595079220 
Ce   10.1252250247500    1.5545124405154    1.3810147549440 
Ce    8.2233842125875    2.6154572653462    4.6472414745481 
Ce    8.2251028310000    0.3099141864332    7.8735678530790 
Ce    0.5597892272500    4.8680368382734    1.3810147549440 
Ce   -1.4031522143375    5.9113437288966    4.5760794338524 
Ce   -1.2862862770725    3.7187257960590    7.9544818962553 
Ce    4.3860324172500    4.8680368382734    1.3810147549440 
Ce    2.4116654489400    5.8920322824568    4.5201670861801 
Ce    8.2121608222500    4.8680368382734    1.3810147549440 
Ce    6.2376611050875    6.0250880858010    4.7177397413048 
Ce    6.4399901567100    3.6491849262252    7.7999117559399 
Ce   -1.3533323677500    8.1816606427574    1.3810147549440 
Ce   -3.1780809338575    9.2689776743691    4.5981785440042 
Ce   -3.2741021446925    7.0369964673566    7.9845620326460 
Ce    2.4729108222500    8.1816606427574    1.3810147549440 
Ce    0.4816909480625    9.2199958053864    4.7192442955667 
Ce    0.5009799933875    6.9784234398225    7.9580715218497 
Ce    6.2990392272500    8.1816606427574    1.3810147549440 
Ce    4.3637902982300    9.2778259664571    4.5305303993675 
Ce    4.3797751425450    7.1203914537796    7.7617449825427 
Fe    3.0068859360650    4.0831318668904    7.2861416030361 
81
FORCE:  1.459961  ...  ENERGY:  -642.58526541
 O    0.5597892272500    0.4500043079294    0.5999968967040 
 O    2.5672860735775    1.5692157887648    3.7637348672020 
 O    0.6546233890075    2.5210057658239    7.0286810277360 
 O    0.5597892272500    2.6590205731014    2.1620326131840 
 O    0.6941135612675    0.4256767980956    5.5671315615953 
 O    2.5438838799550    0.9185394212794    9.1187019239620 
 O    4.3860324172500    0.4500043079294    0.5999968967040 
 O    6.2003832989175    1.5418023959358    3.6504628709491 
 O    3.9140873470050    2.5730321646038    7.1480337407134 
 O    4.3860324172500    2.6590205731014    2.1620326131840 
 O    4.4693574314125    0.5501234819346    5.5013800768567 
 O    6.2974612204625    1.5438102129875    8.5303858518790 
 O    8.2121608222500    0.4500043079294    0.5999968967040 
 O   10.1411928234925    1.4810833760008    3.8062731964559 
 O    8.2932214727175    2.7160415634224    6.9633136650982 
 O    8.2121608222500    2.6590205731014    2.1620326131840 
 O    8.2078542612275    0.3021337213959    5.4014161778303 
 O    9.9783182459950    1.4085263072867    8.5032835741739 
 O   -1.3532749752500    3.7635287056874    0.5999968967040 
 O    0.5674224297500    4.7813396598194    3.6652549933466 
 O   -1.4399976828050    5.9382782795265    7.0910851301528 
 O   -1.3533323677500    5.9726443775854    2.1620326131840 
 O   -1.3039940442375    3.7415227405326    5.3795207618804 
 O    0.0102349193100    5.0915787074332    9.0458713243780 
 O    2.4729682147500    3.7635287056874    0.5999968967040 
 O    4.4152524312050    4.8315796203264    3.7395340343440 
 O    2.3374036862000    5.8377965691915    7.1250089966630 
 O    2.4729108222500    5.9726443775854    2.1620326131840 
 O    2.5116970181050    3.8659852300411    5.4929622371837 
 O    4.3066110113675    4.8006894772555    8.4269495711774 
 O    6.2990966197500    3.7635287056874    0.5999968967040 
 O    8.1922914813575    4.8263022166497    3.8378175132298 
 O    6.2710563660250    5.9990354716442    7.1392929100102 
 O    6.2990392272500    5.9726443775854    2.1620326131840 
 O    6.2081231366825    3.7574067424667    5.5073503926925 
 O    8.0657725273400    4.6479777831658    8.7838252344739 
 O   -3.2663965702500    7.0771525101714    0.5999968967040 
 O   -1.3404734633400    8.2620055326065    3.7998516968224 
 O   -3.1364826776800    9.1675713820756    6.9110856049396 
 O   -3.2663965702500    9.2861687753434    2.1620326131840 
 O   -3.1963143589300    7.0652437832101    5.4858222193687 
 O   -1.4284108831575    8.0345650310598    8.8029765952735 
 O    0.5598466197500    7.0771525101714    0.5999968967040 
 O    2.4102480837600    8.1973657125847    3.7583804240933 
 O    0.4715619179150    9.0213480643987    7.0669878551534 
 O    0.5598466197500    9.2861687753434    2.1620326131840 
 O    0.5144865721600    7.0262429459581    5.3881406990483 
 O    2.5074423399025    8.2330116722408    8.8091392002607 
 O    4.3859750247500    7.0771525101714    0.5999968967040 
 O    6.2912298297750    8.1695872982578    3.8552353063534 
 O    4.4975736505425    9.1489824237204    6.8156223669414 
 O    4.3859750247500    9.2861687753434    2.1620326131840 
 O    4.2627604439200    6.8887755715207    5.4360067835928 
 O    6.3254277822175    8.1428881427551    8.7631535804426 
Ce    2.4728534297500    1.5545124405154    1.3810147549440 
Ce    0.5681403525325    2.5954824778238    4.8000796438946 
Ce    0.7174893543400    0.3304046960501    7.8715238399284 
Ce    6.2990966197500    1.5545124405154    1.3810147549440 
Ce    4.4631968630700    2.5674077320467    4.5308328613067 
Ce    4.3485514416300    0.2699568576637    8.0233485564874 
Ce   10.1252250247500    1.5545124405154    1.3810147549440 
Ce    8.2261240157525    2.6158964442617    4.6454923960034 
Ce    8.2246909824200    0.3080190966087    7.8723707789785 
Ce    0.5597892272500    4.8680368382734    1.3810147549440 
Ce   -1.4027455884750    5.9118046778851    4.5763225895290 
Ce   -1.2862074771700    3.7206597539134    7.9551855878711 
Ce    4.3860324172500    4.8680368382734    1.3810147549440 
Ce    2.4128291392700    5.8925295149002    4.5207996102809 
Ce    8.2121608222500    4.8680368382734    1.3810147549440 
Ce    6.2386921613500    6.0261257926138    4.7176033369008 
Ce    6.4371007886900    3.6491258786299    7.8004311419397 
Ce   -1.3533323677500    8.1816606427574    1.3810147549440 
Ce   -3.1770222718025    9.2703824902210    4.5982275857213 
Ce   -3.2718349687650    7.0347237313801    7.9868042655743 
Ce    2.4729108222500    8.1816606427574    1.3810147549440 
Ce    0.4801883550200    9.2209158146356    4.7196161002130 
Ce    0.5032901562975    6.9786860723926    7.9565030993049 
Ce    6.2990392272500    8.1816606427574    1.3810147549440 
Ce    4.3640665283325    9.2771914533251    4.5319352734881 
Ce    4.3769685345100    7.1211236837233    7.7619863134112 
Fe    3.0063315819075    4.0788550913177    7.2841347703501 
81
FORCE:  1.459762  ...  ENERGY:  -642.56953787
 O    0.5597892272500    0.4500043079294    0.5999968967040 
 O    2.5612152671050    1.5658434155852    3.7637583616060 
 O    0.6580166631775    2.5179229644372    7.0247471977175 
 O    0.5597892272500    2.6590205731014    2.1620326131840 
 O    0.7003212488525    0.4299675900167    5.5711347343208 
 O    2.5459876020425    0.9203232749774    9.1155427249735 
 O    4.3860324172500    0.4500043079294    0.5999968967040 
 O    6.1982091562325    1.5413007895964    3.6546460153715 
 O    3.9118658555075    2.5702530507650    7.1511879214797 
 O    4.3860324172500    2.6590205731014    2.1620326131840 
 O    4.4696645960725    0.5565763701462    5.5082981523890 
 O    6.2943788988575    1.5412335906496    8.5261148885678 
 O    8.2121608222500    0.4500043079294    0.5999968967040 
 O   10.1448472909300    1.4807232254325    3.8061117009408 
 O    8.2948001682150    2.7119067406545    6.9575344979089 
 O    8.2121608222500    2.6590205731014    2.1620326131840 
 O    8.2113385599025    0.2948153982278    5.4139907022086 
 O    9.9808569458400    1.4099016987476    8.5059042266778 
 O   -1.3532749752500    3.7635287056874    0.5999968967040 
 O    0.5694602078550    4.7772582184633    3.6607128179345 
 O   -1.4438230077150    5.9384902146663    7.0946656317068 
 O   -1.3533323677500    5.9726443775854    2.1620326131840 
 O   -1.3067779822350    3.7343180392523    5.3753957832156 
 O    0.0115054744750    5.0957905704138    9.0462513406607 
 O    2.4729682147500    3.7635287056874    0.5999968967040 
 O    4.4214828462200    4.8226650239521    3.7394608139198 
 O    2.3415151127225    5.8333086537328    7.1241677601381 
 O    2.4729108222500    5.9726443775854    2.1620326131840 
 O    2.5186879411375    3.8591731853285    5.4831112388648 
 O    4.3039459332375    4.8075974494587    8.4294908445298 
 O    6.2990966197500    3.7635287056874    0.5999968967040 
 O    8.1926849069450    4.8269886200928    3.8352721340592 
 O    6.2667538224775    6.0004059921756    7.1410269338882 
 O    6.2990392272500    5.9726443775854    2.1620326131840 
 O    6.2111488118900    3.7537289918249    5.5131373153162 
 O    8.0672874023775    4.6469311297477    8.7918423006724 
 O   -3.2663965702500    7.0771525101714    0.5999968967040 
 O   -1.3451488285675    8.2600222690161    3.7947613946832 
 O   -3.1329735280525    9.1678488262479    6.9082728913852 
 O   -3.2663965702500    9.2861687753434    2.1620326131840 
 O   -3.2014524798850    7.0593412106336    5.4916994699924 
 O   -1.4314343200575    8.0335548599102    8.8067153989284 
 O    0.5598466197500    7.0771525101714    0.5999968967040 
 O    2.4056565115825    8.1971431409252    3.7532410802369 
 O    0.4647330139100    9.0182889218128    7.0539436707955 
 O    0.5598466197500    9.2861687753434    2.1620326131840 
 O    0.5099412009450    7.0342549292603    5.3867105057156 
 O    2.5107329962825    8.2358109656450    8.8145362982583 
 O    4.3859750247500    7.0771525101714    0.5999968967040 
 O    6.2898819095200    8.1717098306713    3.8581034484531 
 O    4.4941983402250    9.1392915602228    6.8189649591420 
 O    4.3859750247500    9.2861687753434    2.1620326131840 
 O    4.2610753427275    6.9004881690116    5.4251097140420 
 O    6.3215488527125    8.1463810962933    8.7690794165814 
Ce    2.4728534297500    1.5545124405154    1.3810147549440 
Ce    0.5669184088150    2.5953686571225    4.8008225688841 
Ce    0.7176536116750    0.3293205662964    7.8701944672421 
Ce    6.2990966197500    1.5545124405154    1.3810147549440 
Ce    4.4648154463550    2.5660526195579    4.5302343242565 
Ce    4.3511231995550    0.2693168771617    8.0238508349114 
Ce   10.1252250247500    1.5545124405154    1.3810147549440 
Ce    8.2288748956700    2.6163476513910    4.6436865203073 
Ce    8.2242830939225    0.3061672487101    7.8711294532821 
Ce    0.5597892272500    4.8680368382734    1.3810147549440 
Ce   -1.4023131933800    5.9122850111851    4.5765896958117 
Ce   -1.2861296529400    3.7226182652290    7.9558801554466 
Ce    4.3860324172500    4.8680368382734    1.3810147549440 
Ce    2.4139779075500    5.8931136288222    4.5213814959574 
Ce    8.2121608222500    4.8680368382734    1.3810147549440 
Ce    6.2397735508350    6.0271095215743    4.7173950806787 
Ce    6.4341473132475    3.6491130551623    7.8009913580202 
Ce   -1.3533323677500    8.1816606427574    1.3810147549440 
Ce   -3.1760300128700    9.2718060939440    4.5982864357819 
Ce   -3.2695579787200    7.0324147119486    7.9890022469067 
Ce    2.4729108222500    8.1816606427574    1.3810147549440 
Ce    0.4787662836550    9.2218321458358    4.7199014545765 
Ce    0.5055413771100    6.9788800149151    7.9549641017904 
Ce    6.2990392272500    8.1816606427574    1.3810147549440 
Ce    4.3643423566875    9.2765258258878    4.5333385509016 
Ce    4.3741688709675    7.1218279803770    7.7622757735929 
Fe    3.0059133053675    4.0746297090223    7.2822196342702 
81
FORCE:  1.453339  ...  ENERGY:  -642.55295969
 O    0.5597892272500    0.4500043079294    0.5999968967040 
 O    2.5548228330625    1.5623608997533    3.7640544367170 
 O    0.6611902388575    2.5154041968138    7.0213192957392 
 O    0.5597892272500    2.6590205731014    2.1620326131840 
 O    0.7063773054525    0.4341665301229    5.5744695710870 
 O    2.5481300640675    0.9216447879929    9.1116396885913 
 O    4.3860324172500    0.4500043079294    0.5999968967040 
 O    6.1968080331300    1.5407316860900    3.6595871394501 
 O    3.9098693426100    2.5677111213745    7.1543669652561 
 O    4.3860324172500    2.6590205731014    2.1620326131840 
 O    4.4700017770100    0.5626054874848    5.5153772672344 
 O    6.2913952349600    1.5382906545264    8.5218450657616 
 O    8.2121608222500    0.4500043079294    0.5999968967040 
 O   10.1484294438175    1.4805837577959    3.8061687261933 
 O    8.2962159837975    2.7074402970486    6.9514651862348 
 O    8.2121608222500    2.6590205731014    2.1620326131840 
 O    8.2144766096250    0.2881727425763    5.4270243939200 
 O    9.9837701317475    1.4112346435365    8.5088916656057 
 O   -1.3532749752500    3.7635287056874    0.5999968967040 
 O    0.5715245012950    4.7733527270122    3.6569048996735 
 O   -1.4475701640400    5.9384663570521    7.0978813997457 
 O   -1.3533323677500    5.9726443775854    2.1620326131840 
 O   -1.3095878042500    3.7271090634828    5.3715780566112 
 O    0.0129084915300    5.0998479553422    9.0463754276101 
 O    2.4729682147500    3.7635287056874    0.5999968967040 
 O    4.4276396266575    4.8138393965977    3.7395246822026 
 O    2.3457924609625    5.8286009500029    7.1232870621385 
 O    2.4729108222500    5.9726443775854    2.1620326131840 
 O    2.5257228842175    3.8520924442355    5.4733384791924 
 O    4.3008923652750    4.8142307608779    8.4316817547308 
 O    6.2990966197500    3.7635287056874    0.5999968967040 
 O    8.1929294563875    4.8276330738974    3.8327767090098 
 O    6.2626726418025    6.0017958970185    7.1423275658473 
 O    6.2990392272500    5.9726443775854    2.1620326131840 
 O    6.2143827070875    3.7498027243680    5.5189760168692 
 O    8.0691440497525    4.6461975081098    8.7997678983658 
 O   -3.2663965702500    7.0771525101714    0.5999968967040 
 O   -1.3499483911650    8.2576598681727    3.7896126986855 
 O   -3.1295945446150    9.1681841251347    6.9061255484771 
 O   -3.2663965702500    9.2861687753434    2.1620326131840 
 O   -3.2069688748075    7.0531872384471    5.4972836108182 
 O   -1.4343539913175    8.0327751135514    8.8105488645025 
 O    0.5598466197500    7.0771525101714    0.5999968967040 
 O    2.4013313553900    8.1966559485610    3.7481742725018 
 O    0.4580850110650    9.0158665787136    7.0411830159931 
 O    0.5598466197500    9.2861687753434    2.1620326131840 
 O    0.5054285434550    7.0417766385898    5.3853455492718 
 O    2.5141986423950    8.2384731771740    8.8194349955490 
 O    4.3859750247500    7.0771525101714    0.5999968967040 
 O    6.2885457547275    8.1737863377708    3.8609150215024 
 O    4.4905742908125    9.1295587470869    6.8230174016856 
 O    4.3859750247500    9.2861687753434    2.1620326131840 
 O    4.2595537527675    6.9124829821977    5.4144026526326 
 O    6.3175815961500    8.1498950246506    8.7747068965991 
Ce    2.4728534297500    1.5545124405154    1.3810147549440 
Ce    0.5657181020700    2.5952398260056    4.8014824651061 
Ce    0.7178273961650    0.3282915078688    7.8688915542730 
Ce    6.2990966197500    1.5545124405154    1.3810147549440 
Ce    4.4663628629400    2.5647700739790    4.5296059059740 
Ce    4.3536251682000    0.2687256059554    8.0243661150930 
Ce   10.1252250247500    1.5545124405154    1.3810147549440 
Ce    8.2316369097325    2.6168099920736    4.6418245317626 
Ce    8.2238824942725    0.3043602332448    7.8698436478887 
Ce    0.5597892272500    4.8680368382734    1.3810147549440 
Ce   -1.4018573247525    5.9127845299833    4.5768789278924 
Ce   -1.2860548705125    3.7245985466176    7.9565676518907 
Ce    4.3860324172500    4.8680368382734    1.3810147549440 
Ce    2.4151133607700    5.8937828349016    4.5219104621996 
Ce    8.2121608222500    4.8680368382734    1.3810147549440 
Ce    6.2409049291875    6.0280394714960    4.7171165693455 
Ce    6.4311324852225    3.6491472510760    7.8015930884846 
Ce   -1.3533323677500    8.1816606427574    1.3810147549440 
Ce   -3.1751054196950    9.2732502748593    4.5983555503880 
Ce   -3.2672750772475    7.0300709995696    7.9911596262593 
Ce    2.4729108222500    8.1816606427574    1.3810147549440 
Ce    0.4774232417625    9.2227473835621    4.7200969371421 
Ce    0.5077334262550    6.9790062614571    7.9534536169022 
Ce    6.2990392272500    8.1816606427574    1.3810147549440 
Ce    4.3646169798000    9.2758274936376    4.5347406878101 
Ce    4.3713770128050    7.1225034490802    7.7626154159968 
Fe    3.0056319673325    4.0704538312765    7.2803923170790 
81
FORCE:  1.441669  ...  ENERGY:  -642.53614804
 O    0.5597892272500    0.4500043079294    0.5999968967040 
 O    2.5481419443150    1.5587676448286    3.7646148808986 
 O    0.6641386063675    2.5134878339500    7.0184233253163 
 O    0.5597892272500    2.6590205731014    2.1620326131840 
 O    0.7122480990625    0.4382340545374    5.5771335627828 
 O    2.5503094294700    0.9225063460871    9.1069985173409 
 O    4.3860324172500    0.4500043079294    0.5999968967040 
 O    6.1962104624200    1.5400781862733    3.6652511156294 
 O    3.9081070485050    2.5654205915940    7.1575845581031 
 O    4.3860324172500    2.6590205731014    2.1620326131840 
 O    4.4703682855150    0.5681873739632    5.5225916459787 
 O    6.2885257821375    1.5349930352048    8.5175779801675 
 O    8.2121608222500    0.4500043079294    0.5999968967040 
 O   10.1519194817425    1.4806477757275    3.8064440441124 
 O    8.2974569818250    2.7026686747938    6.9451563685002 
 O    8.2121608222500    2.6590205731014    2.1620326131840 
 O    8.2172657703400    0.2822003864782    5.4404807568029 
 O    9.9870410451075    1.4125257380938    8.5122246775639 
 O   -1.3532749752500    3.7635287056874    0.5999968967040 
 O    0.5736100299600    4.7696551944319    3.6538727529476 
 O   -1.4512104555300    5.9381919944883    7.1007157828960 
 O   -1.3533323677500    5.9726443775854    2.1620326131840 
 O   -1.3124194354150    3.7199507851435    5.3680771623097 
 O    0.0144506280050    5.1037562301816    9.0462335487819 
 O    2.4729682147500    3.7635287056874    0.5999968967040 
 O    4.4337145653900    4.8051449861215    3.7397331665258 
 O    2.3501908499850    5.8237028823927    7.1223370214319 
 O    2.4729108222500    5.9726443775854    2.1620326131840 
 O    2.5328002403550    3.8447827694525    5.4636863849542 
 O    4.2974527179650    4.8205407022175    8.4335120372351 
 O    6.2990966197500    3.7635287056874    0.5999968967040 
 O    8.1930310411125    4.8282388584857    3.8303387654149 
 O    6.2588194815300    6.0031928597390    7.1431950339883 
 O    6.2990392272500    5.9726443775854    2.1620326131840 
 O    6.2178191404175    3.7456449386464    5.5248573733110 
 O    8.0713241612575    4.6457517683505    8.8075632503826 
 O   -3.2663965702500    7.0771525101714    0.5999968967040 
 O   -1.3548583769325    8.2549264814279    3.7844382272736 
 O   -3.1263476213200    9.1685559062900    6.9046504192454 
 O   -3.2663965702500    9.2861687753434    2.1620326131840 
 O   -3.2128424232575    7.0467868369869    5.5025568499673 
 O   -1.4371420615750    8.0322161495311    8.8144694646623 
 O    0.5598466197500    7.0771525101714    0.5999968967040 
 O    2.3972761161250    8.1959151696389    3.7431987051707 
 O    0.4516339218875    9.0140598614685    7.0287807078773 
 O    0.5598466197500    9.2861687753434    2.1620326131840 
 O    0.5009606521150    7.0487408749999    5.3840449173127 
 O    2.5178004235175    8.2409930382714    8.8238216060723 
 O    4.3859750247500    7.0771525101714    0.5999968967040 
 O    6.2872385257550    8.1758159248955    3.8636645510769 
 O    4.4867243445200    9.1198412425867    6.8277603059866 
 O    4.3859750247500    9.2861687753434    2.1620326131840 
 O    4.2581911400325    6.9247179620338    5.4038814935464 
 O    6.3135457555500    8.1534221741026    8.7800173162130 
Ce    2.4728534297500    1.5545124405154    1.3810147549440 
Ce    0.5645426462775    2.5950941951520    4.8020565953483 
Ce    0.7180118556600    0.3273151350060    7.8676166977281 
Ce    6.2990966197500    1.5545124405154    1.3810147549440 
Ce    4.4678373910500    2.5635600953101    4.5289478345601 
Ce    4.3560555683975    0.2681817517575    8.0248937127292 
Ce   10.1252250247500    1.5545124405154    1.3810147549440 
Ce    8.2344106892575    2.6172827704625    4.6399068865716 
Ce    8.2234926270200    0.3025998395341    7.8685129065964 
Ce    0.5597892272500    4.8680368382734    1.3810147549440 
Ce   -1.4013804504700    5.9133025384324    4.5771880047610 
Ce   -1.2859850812325    3.7265980135044    7.9572494458096 
Ce    4.3860324172500    4.8680368382734    1.3810147549440 
Ce    2.4162372780975    5.8945354432242    4.5223842279973 
Ce    8.2121608222500    4.8680368382734    1.3810147549440 
Ce    6.2420863538000    6.0289159405991    4.7167682591032 
Ce    6.4280585429225    3.6492291622183    7.8022370176358 
Ce   -1.3533323677500    8.1816606427574    1.3810147549440 
Ce   -3.1742496975200    9.2747169216947    4.5984358419435 
Ce   -3.2649897078975    7.0276937871241    7.9932800532482 
Ce    2.4729108222500    8.1816606427574    1.3810147549440 
Ce    0.4761577371375    9.2236647088297    4.7202000387986 
Ce    0.5098661889475    6.9790658060860    7.9519711884382 
Ce    6.2990392272500    8.1816606427574    1.3810147549440 
Ce    4.3648897663525    9.2750949654737    4.5361419123145 
Ce    4.3685934765550    7.1231487975454    7.7630084340370 
Fe    3.0054874530175    4.0663256687592    7.2786484848576 
81
FORCE:  1.422756  ...  ENERGY:  -642.51980654
 O    0.5597892272500    0.4500043079294    0.5999968967040 
 O    2.5412060606900    1.5550615632698    3.7654303420093 
 O    0.6668583795500    2.5122087676065    7.0160830089537 
 O    0.5597892272500    2.6590205731014    2.1620326131840 
 O    0.7179018916300    0.4421326869244    5.5791287623173 
 O    2.5525223120925    0.9229128201897    9.1016278790604 
 O    4.3860324172500    0.4500043079294    0.5999968967040 
 O    6.1964435907550    1.5393242856633    3.6716005353438 
 O    3.9065895908050    2.5633918991298    7.1608548422835 
 O    4.3860324172500    2.6590205731014    2.1620326131840 
 O    4.4707632033075    0.5733005577284    5.5299130040966 
 O    6.2857857494025    1.5313545502197    8.5133152284927 
 O    8.2121608222500    0.4500043079294    0.5999968967040 
 O   10.1552990964975    1.4808962925425    3.8069365141930 
 O    8.2985114542275    2.6976173220121    6.9386607360385 
 O    8.2121608222500    2.6590205731014    2.1620326131840 
 O    8.2197061568325    0.2768877928206    5.4543203293826 
 O    9.9906533864500    1.4137765729271    8.5158815929562 
 O   -1.3532749752500    3.7635287056874    0.5999968967040 
 O    0.5757124320200    4.7661950451133    3.6516524177163 
 O   -1.4547160468225    5.9376545023208    7.1031528140868 
 O   -1.3533323677500    5.9726443775854    2.1620326131840 
 O   -1.3152678825825    3.7128969832733    5.3649019962505 
 O    0.0161392301400    5.1075235462836    9.0458163520346 
 O    2.4729682147500    3.7635287056874    0.5999968967040 
 O    4.4397015214200    4.7966234439419    3.7400935661215 
 O    2.3546651118925    5.8186443723267    7.1212873005839 
 O    2.4729108222500    5.9726443775854    2.1620326131840 
 O    2.5399181155975    3.8372838242633    5.4541930490191 
 O    4.2936327305575    4.8264811487565    8.4349734804061 
 O    6.2990966197500    3.7635287056874    0.5999968967040 
 O    8.1929961464725    4.8288094530929    3.8279651463049 
 O    6.2551999661250    6.0045829633954    7.1436309350184 
 O    6.2990392272500    5.9726443775854    2.1620326131840 
 O    6.2214495603975    3.7412730308369    5.5307724887023 
 O    8.0738100600025    4.6455680647208    8.8151914043590 
 O   -3.2663965702500    7.0771525101714    0.5999968967040 
 O   -1.3598642655675    8.2518297630996    3.7792694583870 
 O   -3.1232360295400    9.1689404115061    6.9038475036902 
 O   -3.2663965702500    9.2861687753434    2.1620326131840 
 O   -3.2190528082900    7.0401471635372    5.5075045889752 
 O   -1.4397713267850    8.0318666354825    8.8184692158727 
 O    0.5598466197500    7.0771525101714    0.5999968967040 
 O    2.3934936060200    8.1949324347457    3.7383319420213 
 O    0.4453948979975    9.0128445148365    7.0168088263675 
 O    0.5598466197500    9.2861687753434    2.1620326131840 
 O    0.4965484315000    7.0550854098801    5.3828074693335 
 O    2.5215008049550    8.2433635904663    8.8276844966767 
 O    4.3859750247500    7.0771525101714    0.5999968967040 
 O    6.2859769238200    8.1777988902658    3.8663465627525 
 O    4.4826720896650    9.1102003806724    6.8331692652367 
 O    4.3859750247500    9.2861687753434    2.1620326131840 
 O    4.2569820522350    6.9371508606613    5.3935416747631 
 O    6.3094587782325    8.1569545921110    8.7849937959481 
Ce    2.4728534297500    1.5545124405154    1.3810147549440 
Ce    0.5633946814925    2.5949301740541    4.8025422223985 
Ce    0.7182083101875    0.3263889625399    7.8663717224155 
Ce    6.2990966197500    1.5545124405154    1.3810147549440 
Ce    4.4692376532650    2.5624226835513    4.5282603381160 
Ce    4.3584134244750    0.2676838234670    8.0254336278198 
Ce   10.1252250247500    1.5545124405154    1.3810147549440 
Ce    8.2371968655625    2.6177654895240    4.6379340409361 
Ce    8.2231171078925    0.3008875586788    7.8671365451020 
Ce    0.5597892272500    4.8680368382734    1.3810147549440 
Ce   -1.4008848088400    5.9138385394990    4.5775153297103 
Ce   -1.2859224086225    3.7286139819077    7.9579271339103 
Ce    4.3860324172500    4.8680368382734    1.3810147549440 
Ce    2.4173517830550    5.8953697638755    4.5228016528456 
Ce    8.2121608222500    4.8680368382734    1.3810147549440 
Ce    6.2433182264200    6.0297392271039    4.7163510623559 
Ce    6.4249273803000    3.6493592856226    7.8029238297770 
Ce   -1.3533323677500    8.1816606427574    1.3810147549440 
Ce   -3.1734642237650    9.2762080225847    4.5985289071555 
Ce   -3.2627046255100    7.0252836710522    7.9953674055907 
Ce    2.4729108222500    8.1816606427574    1.3810147549440 
Ce    0.4749681627900    9.2245873026537    4.7202075661320 
Ce    0.5119400095425    6.9790596428689    7.9505159039944 
Ce    6.2990392272500    8.1816606427574    1.3810147549440 
Ce    4.3651598554575    9.2743267502952    4.5375433649199 
Ce    4.3658186065725    7.1237626340785    7.7634577930267 
Fe    3.0054792458900    4.0622427363022    7.2769840317876 
81
FORCE:  1.401094  ...  ENERGY:  -642.50468561
 O    0.5597892272500    0.4500043079294    0.5999968967040 
 O    2.5340496176875    1.5512406669426    3.7664894149988 
 O    0.6693471479200    2.5115998020030    7.0143191038433 
 O    0.5597892272500    2.6590205731014    2.1620326131840 
 O    0.7233072320650    0.4458258456087    5.5804583631046 
 O    2.5547638909650    0.9228709699581    9.0955384944975 
 O    4.3860324172500    0.4500043079294    0.5999968967040 
 O    6.1975323838725    1.5384531845234    3.6785954809165 
 O    3.9053294810750    2.5616325988930    7.1641908195547 
 O    4.3860324172500    2.6590205731014    2.1620326131840 
 O    4.4711842920800    0.5779276426036    5.5373132851641 
 O    6.2831904605525    1.5273933910021    8.5090588636461 
 O    8.2121608222500    0.4500043079294    0.5999968967040 
 O   10.1585501520525    1.4813092280823    3.8076420306169 
 O    8.2993685538225    2.6923125814859    6.9320337173949 
 O    8.2121608222500    2.6590205731014    2.1620326131840 
 O    8.2217999500175    0.2722206470349    5.4685029658814 
 O    9.9945924059025    1.4149904284583    8.5198418826918 
 O   -1.3532749752500    3.7635287056874    0.5999968967040 
 O    0.5778268865050    4.7629999141262    3.6502749157169 
 O   -1.4580601356200    5.9368432440300    7.1051769824496 
 O   -1.3533323677500    5.9726443775854    2.1620326131840 
 O   -1.3181272343250    3.7060002440301    5.3620605419690 
 O    0.0179831937725    5.1111603413543    9.0451142571259 
 O    2.4729682147500    3.7635287056874    0.5999968967040 
 O    4.4455969938050    4.7883154274097    3.7406124959193 
 O    2.3591697918250    5.8134554406363    7.1201064216551 
 O    2.4729108222500    5.9726443775854    2.1620326131840 
 O    2.5470747881700    3.8296341784774    5.4448933708414 
 O    4.2894404380025    4.8320069698414    8.4360615222239 
 O    6.2990966197500    3.7635287056874    0.5999968967040 
 O    8.1928313152125    4.8293492316151    3.8256608699018 
 O    6.2518185722025    6.0059514957922    7.1436382342507 
 O    6.2990392272500    5.9726443775854    2.1620326131840 
 O    6.2252643250875    3.7367039000830    5.5367138357098 
 O    8.0765830360325    4.6456225396067    8.8226163203355 
 O   -3.2663965702500    7.0771525101714    0.5999968967040 
 O   -1.3649522828700    8.2483778645392    3.7741380980661 
 O   -3.1202632128250    9.1693125902883    6.9037120116903 
 O   -3.2663965702500    9.2861687753434    2.1620326131840 
 O   -3.2255794259975    7.0332752759755    5.5121126855793 
 O   -1.4422147550800    8.0317133503110    8.8225405908002 
 O    0.5598466197500    7.0771525101714    0.5999968967040 
 O    2.3899855468500    8.1937200703154    3.7335924592355 
 O    0.4393810822775    9.0121924067139    7.0053360298675 
 O    0.5598466197500    9.2861687753434    2.1620326131840 
 O    0.4922019252975    7.0607520902957    5.3816325210310 
 O    2.5252621372275    8.2455760859669    8.8310143152207 
 O    4.3859750247500    7.0771525101714    0.5999968967040 
 O    6.2847770188225    8.1797366255757    3.8689542134988 
 O    4.4784393927900    9.1006984893609    6.8392166792138 
 O    4.3859750247500    9.2861687753434    2.1620326131840 
 O    4.2559200614150    6.9497395296285    5.3833758970504 
 O    6.3053370784525    8.1604853202051    8.7896219654410 
Ce    2.4728534297500    1.5545124405154    1.3810147549440 
Ce    0.5622770199475    2.5947462716110    4.8029372933479 
Ce    0.7184178502050    0.3255107041157    7.8651582250423 
Ce    6.2990966197500    1.5545124405154    1.3810147549440 
Ce    4.4705625017350    2.5613574410754    4.5275438728435 
Ce    4.3606977607600    0.2672303299830    8.0259851760620 
Ce   10.1252250247500    1.5545124405154    1.3810147549440 
Ce    8.2399962995350    2.6182576522244    4.6359055386541 
Ce    8.2227592082625    0.2992250805931    7.8657141072037 
Ce    0.5597892272500    4.8680368382734    1.3810147549440 
Ce   -1.4003728677400    5.9143920361494    4.5778597622354 
Ce   -1.2858690335975    3.7306440660661    7.9586027691020 
Ce    4.3860324172500    4.8680368382734    1.3810147549440 
Ce    2.4184590565575    5.8962842063480    4.5231613681384 
Ce    8.2121608222500    4.8680368382734    1.3810147549440 
Ce    6.2446012931500    6.0305096292304    4.7158656634066 
Ce    6.4217402599900    3.6495380189159    7.8036548935140 
Ce   -1.3533323677500    8.1816606427574    1.3810147549440 
Ce   -3.1727499167100    9.2777255656639    4.5986356584282 
Ce   -3.2604224701400    7.0228408501675    7.9974257891050 
Ce    2.4729108222500    8.1816606427574    1.3810147549440 
Ce    0.4738529691225    9.2255184454561    4.7201165538290 
Ce    0.5139554619650    6.9789889646868    7.9490863949647 
Ce    6.2990392272500    8.1816606427574    1.3810147549440 
Ce    4.3654266731900    9.2735216552213    4.5389470985355 
Ce    4.3630518289325    7.1243435669852    7.7639669144811 
Fe    3.0056057389600    4.0582018528903    7.2753937115459 
