84
CIF: 1-NH3-NH2+H_is.cif | data_image0
Ce    11.56347462     0.03571200     8.76884557
Ce     1.93475458     1.10384025     5.62816701
Ce     0.00000000     2.23543938     2.47426506
Ce     3.94244233     0.00726481     8.86588377
Ce     5.79346429     1.11223608     5.62361387
Ce     3.87189458     2.23543938     2.47426506
Ce     7.68627905     0.08792379     8.85307419
Ce     9.66808876     1.12685518     5.63700802
Ce     7.74390532     2.23543938     2.47426506
Ce     9.57699363     3.36400808     8.85258542
Ce     0.00428505     4.44059202     5.58645578
Ce    -1.93600537     5.58869904     2.47426506
Ce     1.92938719     3.18884624     8.79179905
Ce     3.85549032     4.48328496     5.66071910
Ce     1.93588921     5.58869904     2.47426506
Ce     5.76884032     3.38013674     8.77587877
Ce     7.74323986     4.48979516     5.62289896
Ce     5.80789995     5.58869904     2.47426506
Ce     7.77324575     6.64939382     8.86474350
Ce    -1.94859469     7.83353185     5.60297386
Ce    -3.87195266     8.94185811     2.47426506
Ce     1.96611163     7.83817534     5.58651710
Ce    -0.00005808     8.94185811     2.47426506
Ce     4.01397503     6.80142530     8.79227612
Ce     5.82122338     7.83649032     5.62831983
Ce     3.87195266     8.94185811     2.47426506
Ti     0.03003695     6.69202780     8.19850268
O     11.58816959     0.01902988     6.42190625
O     -0.13800787     2.19576928     9.57384524
O      1.93594729     1.11771969     3.26466483
O     -0.01216278     2.22573530     4.79740013
O      0.00000000     0.00000000     1.68386529
O      1.91943086     1.04839948     7.98226792
O     -1.94149348     9.98158464     6.46797352
O      3.95883921     2.17424123     9.61900117
O      5.80795803     1.11771969     3.26466483
O      3.85689011     2.21421803     4.83253059
O      3.87189458     0.00000000     1.68386529
O      5.81963696     1.17661844     7.88460715
O      1.93285994     9.95446108     6.47368333
O      7.69748537     2.26570091     9.59979681
O      9.67985261     1.11771969     3.26466483
O      7.74856917     2.23422164     4.85725666
O      7.74390532     0.00000000     1.68386529
O      9.61260704     1.16111258     7.93518059
O     -1.84574144     3.41168638     6.47134476
O     -2.38163934     5.30030852     9.85749270
O      0.00000000     4.47087876     3.26466483
O     -1.94625340     5.58545525     4.79755525
O     -1.93594729     3.35315907     1.68386529
O      0.08672191     4.83963533     8.14430759
O      1.87797678     3.33138887     6.40500778
O      3.87201074     4.47087876     3.26466483
O      1.95318807     5.58063827     4.81110004
O      1.93594729     3.35315907     1.68386529
O      3.79981971     4.51657309     8.04622681
O      5.74450728     3.39177785     6.40668263
O      5.90680815     5.55197604     9.61745400
O      7.74390532     4.47087876     3.26466483
O      5.81938718     5.61516248     4.83366844
O      5.80795803     3.35315907     1.68386529
O      7.70164342     4.43790381     7.88263173
O     -3.80602918     6.75505542     6.46594568
O     -3.72387972     8.86189071     9.57032700
O     -1.93600537     7.82413842     3.26466483
O     -3.87686906     8.94689578     4.80721227
O     -3.87195266     6.70641873     1.68386529
O     -1.59774734     7.62836859     8.09825663
O      0.01151192     6.70220913     6.26564387
O      0.03155517     9.46076545     9.84832651
O      1.93600537     7.82413842     3.26466483
O     -0.00094037     8.95484292     4.79808331
O     -0.00005808     6.70641873     1.68386529
O      1.66381066     7.56374380     8.14602035
O      3.86422683     6.77249506     6.40567694
O      3.84171765     9.08843514     9.57183314
O      5.80789995     7.82413842     3.26466483
O      3.87517197     8.96008246     4.79731826
O      3.87195266     6.70641873     1.68386529
O      5.86399315     7.88016022     7.98287217
N     -0.03826535     6.70606710    10.43544361
H     -0.08518167     7.72972794    10.61712769
H      0.65421675     6.28640629    11.05778013
H     -0.95804664     6.23585306    10.58593416
