86
CIF: 4-NHNO+2H-N2+H2O+H_ts.cif | data_image0
Ce     5.79023498    10.05650902     8.75906286
Ce     1.94320456     1.10212206     5.66912866
Ce     0.00000000     2.23543938     2.47426506
Ce     3.89963035     0.01616623     8.95586019
Ce     5.80180488     1.10852085     5.64977167
Ce     3.87189458     2.23543938     2.47426506
Ce     7.78362730     0.08273338     8.78250531
Ce     9.67292549     1.11505468     5.58530566
Ce     7.74390532     2.23543938     2.47426506
Ce     9.64681933     3.27322907     8.75282913
Ce    -0.00940036     4.42707081     5.58701542
Ce    -1.93600537     5.58869904     2.47426506
Ce     1.90562636     3.31411846     8.85625132
Ce     3.84556348     4.48232677     5.67207425
Ce     1.93588921     5.58869904     2.47426506
Ce     5.76249801     3.36297331     8.80151850
Ce     7.74325944     4.47868349     5.63702216
Ce     5.80789995     5.58869904     2.47426506
Ce     7.63589842     6.69961491     8.85893359
Ce    -1.94556660     7.83807688     5.57315094
Ce    -3.87195266     8.94185811     2.47426506
Ce     1.95908223     7.84547164     5.59107065
Ce    -0.00005808     8.94185811     2.47426506
Ce     3.83704147     6.76008368     8.85018378
Ce     5.80320616     7.82796262     5.63635926
Ce     3.87195266     8.94185811     2.47426506
Ti     0.12499966     6.61117162     8.22832175
O      5.80553763    10.04933874     6.41666306
O     -0.17042286     2.20926952     9.57936546
O      1.93594729     1.11771969     3.26466483
O      0.00347221     2.21501204     4.79920180
O      0.00000000     0.00000000     1.68386529
O      1.88703982     1.08152668     8.01962979
O     -1.94428337     9.92516282     6.49106630
O      3.98993640     2.32600437     9.65313310
O      5.80795803     1.11771969     3.26466483
O      3.86471129     2.21050170     4.86661168
O      3.87189458     0.00000000     1.68386529
O      5.86872638     1.09603480     7.95838426
O      1.95921174    10.03367710     6.39721231
O      7.78247236     2.27048589     9.56166118
O      9.67985261     1.11771969     3.26466483
O      7.72323671     2.24400439     4.82211152
O      7.74390532     0.00000000     1.68386529
O      9.66895472     1.13150549     7.89932857
O     -1.92709022     3.34051342     6.38942411
O     -2.36103412     5.22505789    10.28896701
O      0.00000000     4.47087876     3.26466483
O     -1.95595237     5.59354233     4.80657648
O      9.67985261     3.35315907     1.68386529
O     -0.17302363     4.71686723     7.98215267
O      1.86930381     3.35474210     6.43032595
O      3.87201074     4.47087876     3.26466483
O      1.93388535     5.57712169     4.80473443
O      1.93594729     3.35315907     1.68386529
O      3.83117122     4.52074194     7.98670463
O      5.79696884     3.36576794     6.45466736
O      5.89400607     5.55640315     9.65112324
O      7.74390532     4.47087876     3.26466483
O      5.82772416     5.60841939     4.85884044
O      5.80795803     3.35315907     1.68386529
O      7.79715935     4.51820026     7.95669605
O     -3.77842632     6.80012266     6.51885703
O     -3.94222316     8.79388699     9.60180671
O     -1.93600537     7.82413842     3.26466483
O     -3.87086473     8.93657524     4.80119121
O      7.74384724     6.70641873     1.68386529
O     -1.45773075     7.44782941     8.47185248
O      0.01144231     6.69268061     6.32227044
O      0.20254789     9.51511435    10.19739533
O      1.93600537     7.82413842     3.26466483
O     -0.00680579     8.94725595     4.80174191
O     -0.00005808     6.70641873     1.68386529
O      1.63280717     7.80525997     7.99962817
O      3.81738282     6.76254512     6.40859788
O      3.81832922     9.09109041     9.56186541
O      5.80789995     7.82413842     3.26466483
O      3.88730550     8.94815416     4.78817779
O      3.87195266     6.70641873     1.68386529
O      5.78764644     7.82252141     7.97076134
O      1.38957706     5.83427236     9.75013050
N     -0.14462168     6.06193744    11.61378218
N      1.01212791     6.12093631    11.32205115
H      0.30000648     8.89627357    10.94139952
H     -0.97799209     5.77429531    10.95189474
H      8.75707830     4.89815155    11.06449588
