85
CIF: Ni-Sc-CeO2-O-CO.cif | data_image0
Ce     1.93038582     1.11050507     0.88387043
Ce     0.00303101     2.23534644     4.02138327
Ce     5.78619294    10.05153170     7.19589425
Ce     5.81181033     1.12175166     0.90127712
Ce     3.85639371     2.21719136     4.00665967
Ce    -2.09637484     9.97693018     7.15072365
Ce     9.66901012     1.12377363     0.90450652
Ce     7.74061770     2.25063426     4.10146640
Ce     7.80982019     0.06958879     7.26308870
Ce    -0.00709724     4.47602159     0.89067279
Ce    -1.94064888     5.60095187     4.05528303
Ce    -1.84061750     3.34563189     7.17593886
Ce     3.86254305     4.47635356     0.87798423
Ce     1.94327271     5.59492247     4.03219856
Ce     1.94630273     3.34958497     7.16249765
Ce     7.74213807     4.46545905     0.90125422
Ce     5.81554111     5.57549399     4.04762711
Ce    -1.94645625     7.83004003     0.90010904
Ce    -3.89975382     8.91873895     4.01571704
Ce     7.72915911     6.68932651     7.23694203
Ce     1.92815559     7.82745473     0.89060408
Ce    -0.00382759     8.96781241     4.07552518
Ce     0.02386646     6.71848971     7.22100960
Ce     5.81127600     7.83258510     0.88371011
Ce     3.86298075     8.95169248     4.05555055
Ce     3.87012293     6.67337424     7.19630662
Sc     5.48162173     3.39188742     6.89155537
Ni     7.14369649     3.23970108     8.97192568
O     11.61334069     0.00154917     0.10141687
O      1.92148116     1.10854290     3.21115520
O      0.04891905     2.23813665     6.35680954
O     -0.00785227     2.23805103     1.69392277
O      5.80168326    10.05416838     4.84636283
O      1.91599955     1.07414946     7.98540607
O     -1.93899312    10.05733740     0.10496691
O      5.79110591     1.10652792     3.25237391
O      3.92817322     2.12338015     6.40941105
O      3.86763657     2.23577757     1.68132582
O     -1.99476223    10.01749356     4.83052248
O      6.06905175     1.97643893     8.49060938
O      7.73821774     0.00761509     0.10924988
O      9.68069290     1.11469008     3.24798401
O      7.74465131     2.40631373     6.36567682
O      7.74357843     2.23531483     1.71563532
O      7.73896977     0.00349517     4.85275335
O      9.83101407     1.19941400     8.01566894
O      9.67032270     3.35425987     0.10911246
O      0.01977130     4.50387853     3.24228926
O     -1.97718138     5.56560891     6.41338907
O     -1.94403436     5.59119430     1.70564938
O     -1.88226232     3.36618878     4.82271144
O      0.05009659     4.47733208     7.96358722
O      1.92738314     3.35244915     0.09928684
O      3.84897429     4.49110681     3.20604940
O      1.91207938     5.58022293     6.33870411
O      1.92862022     5.59252216     1.67404250
O      1.97432299     3.33618639     4.84055027
O      5.81155478     3.35101064     0.10766953
O      7.73877505     4.47595591     3.26106314
O      5.93169580     5.44476523     6.47291276
O      5.80528807     5.59217007     1.68114259
O      5.70882343     3.35655186     4.80084562
O      8.14211351     4.60248575     8.56879317
O     -3.87155109     6.71022987     0.10512724
O     -1.94074166     7.81818082     3.23435549
O     -3.91403037     8.90876098     6.39399084
O     -3.87509971     8.94378428     1.69355631
O      7.72985040     6.71193377     4.85886870
O     -2.00482458     7.81314764     8.00375960
O     -0.01209783     6.71325780     0.10434852
O      1.93785403     7.81572894     3.25386209
O     -0.08409325     9.10309987     6.54062450
O     -0.00628994     8.94736548     1.70514550
O     -0.02207603     6.77726287     4.90876754
O      1.92399312     7.67759367     8.00561898
O      3.86815347     6.71410280     0.09951587
O      5.79541973     7.81974941     3.22484451
O      3.89286232     8.93349494     6.42663445
O      3.86556896     8.94715423     1.69389986
O      3.91942749     6.68588121     4.88936452
O      5.80768980     7.76777132     7.99145249
O      3.84388812     4.42543033     7.81603138
O      7.83791983     2.31279583    11.86595564
O      6.81968394     2.89115623    13.90757716
C      7.32849837     2.60263556    12.88738315
