83
CIF: CH2→CH+H.cif | data_image0
O      0.00910816     0.01496067     0.19922347
O      1.92211233     1.06127548     3.33663832
O      0.05278282     2.27272992     6.49465058
O      0.00910816     2.22399008     1.76123671
O     -0.00324842     0.01673997     4.99473158
O      1.97101930     1.29457304     8.33632036
O      3.83525934     0.01496067     0.19922347
O      5.75410890     1.11700016     3.34401191
O      4.03347433     2.18059962     6.49715990
O      3.83525934     2.22399008     1.76123671
O     -1.91493789     9.92924959     4.97493702
O      5.79632853     1.09278632     8.23977054
O      7.66142199     0.01496067     0.19922347
O      9.57241602     1.10341432     3.33723832
O      7.63911138     2.17232343     6.52738115
O      7.66142199     2.22399008     1.76123671
O      1.93324277     9.93945960     4.96831242
O      9.58836867     0.98202084     8.20146699
O     -1.90396742     3.32850478     0.19922347
O     -0.03887098     4.46691928     3.33671018
O     -1.79649960     5.55335025     6.65223005
O     -1.90397316     5.53754413     1.76123671
O      9.53935890     3.34177633     4.93716245
O      1.92218375     3.32850478     0.19922347
O      3.88546909     4.47430827     3.32984170
O      1.58045990     5.20682123     6.86581260
O      1.92217801     5.53754413     1.76123671
O      1.94987955     3.33254111     4.70442132
O      3.99659830     4.46138102     8.62069290
O      5.74834640     3.32850478     0.19922347
O      7.66187735     4.47195485     3.33664271
O      5.64629189     5.53368950     6.57429651
O      5.74834066     5.53754413     1.76123671
O      5.80417764     3.36740201     4.94884138
O      7.55512465     4.50255717     8.16417977
O     -3.81704875     6.64205884     0.19922347
O     -1.91185678     7.73065607     3.35820576
O     -3.82856285     8.93174815     6.60916920
O     -3.81704875     8.85108825     1.76123671
O     -3.80960861     6.63696510     5.07024284
O     -1.89655059     7.80242761     8.17773782
O      0.00910242     6.64205884     0.19922347
O      1.92515124     7.74286899     3.32448688
O      0.01711322     8.89363425     6.52592824
O      0.00910242     8.85108825     1.76123671
O      0.05391255     6.67258849     4.99692367
O      1.95213820     7.74090039     8.12858795
O      3.83526508     6.64205884     0.19922347
O      5.72571162     7.72436548     3.38729906
O      3.85935935     8.83379222     6.52303543
O      3.83526508     8.85108825     1.76123671
O      3.69502264     6.59318531     5.08633013
O      5.72699441     7.74833916     8.18186894
Ce     1.92218375     1.11947537     0.98024150
Ce     0.03191239     2.23498733     4.15630381
Ce    -0.00408503     0.04904874     7.34501314
Ce     5.74834640     1.11947537     0.98024150
Ce     3.82865559     2.23664534     4.17407999
Ce     3.87084610     0.08795912     7.33991737
Ce     9.57449758     1.11947537     0.98024150
Ce     7.67319417     2.22827477     4.12673784
Ce     7.68108181     0.01309032     7.35288370
Ce     0.00910816     4.43301949     0.98024150
Ce    -1.90637254     5.53421723     4.17332244
Ce     9.51509377     3.26204208     7.34593019
Ce     3.83527081     4.43301949     0.98024150
Ce     1.90185202     5.47645911     4.13964160
Ce     7.66142199     4.43301949     0.98024150
Ce     5.73650599     5.53085692     4.17019123
Ce     5.79509269     3.27387997     7.31992664
Ce    -1.90397316     7.74657355     0.98024150
Ce    -3.82142553     8.86176635     4.17586952
Ce    -3.82605883     6.65177292     7.38857155
Ce     1.92218949     7.74657355     0.98024150
Ce     0.01511615     8.86145823     4.12609508
Ce    -0.00849595     6.77362090     7.29934494
Ce     5.74834066     7.74657355     0.98024150
Ce     3.81529505     8.84678817     4.14996917
Ce     3.85618651     6.70420613     7.37434400
Pt     1.52727654     3.30255623     7.65965767
C      2.87807265     3.84028793     8.99670848
H      2.70413138     2.45532642     8.84132252
H      2.57472176     4.03469247    10.04472553
