83
CIF: CH+OH+Olat→CO+H2O.cif | data_image0
O      0.00910816     0.01496067     0.19922347
O      1.91292225     1.07118462     3.33500156
O      0.22735236     2.35653668     6.71627797
O      0.00910816     2.22399008     1.76123671
O     -0.01946039     0.07680117     5.01844426
O      1.95166307     0.58061307     8.78394402
O      3.83525934     0.01496067     0.19922347
O      5.75665953     1.12627431     3.32405910
O      3.92734146     2.20481152     6.60763402
O      3.83525934     2.22399008     1.76123671
O      3.83217651     0.03401238     4.95515072
O      5.80537496     1.09077746     8.22087406
O      7.66142199     0.01496067     0.19922347
O      9.58178609     1.11659726     3.33097243
O      7.66407886     2.17636872     6.52563005
O      7.66142199     2.22399008     1.76123671
O      7.66504744     0.01172501     4.95176728
O      9.60158537     0.97756151     8.21014531
O     -1.90396742     3.32850478     0.19922347
O     -0.03569764     4.47064749     3.34037561
O     -1.78717891     5.54895529     6.65875828
O     -1.90397316     5.53754413     1.76123671
O     -1.88622364     3.31523832     4.97330658
O      1.92218375     3.32850478     0.19922347
O      3.88637020     4.45746211     3.32921996
O      1.63430952     5.37101484     6.58924429
O      1.92217801     5.53754413     1.76123671
O      1.94988467     3.33405970     4.71739942
O      4.01247592     4.05285878     9.45972987
O      5.74834640     3.32850478     0.19922347
O      7.66976172     4.45243437     3.35253421
O      5.62280388     5.41375201     6.62291417
O      5.74834066     5.53754413     1.76123671
O      5.78818092     3.31108121     4.95976158
O      7.57867704     4.47142394     8.18620501
O     -3.81704875     6.64205884     0.19922347
O     -1.93731322     7.73561370     3.35403162
O     -3.81463502     8.93300180     6.50886669
O     -3.81704875     8.85108825     1.76123671
O      7.64429009     6.60308068     5.07919434
O     -1.91617524     7.82546170     8.16442225
O      0.00910242     6.64205884     0.19922347
O      1.91819002     7.75556201     3.31757756
O     -0.01190618     8.92362457     6.48573585
O      0.00910242     8.85108825     1.76123671
O      0.00568491     6.70992423     4.95496030
O      1.77941155     7.81523923     8.18667022
O      3.83526508     6.64205884     0.19922347
O      5.74911323     7.74342035     3.38283977
O      3.82413800     8.85559125     6.51884282
O      3.83526508     8.85108825     1.76123671
O      3.76371459     6.62163940     4.98228695
O      5.82673428     7.78475480     8.16985949
Ce     1.92218375     1.11947537     0.98024150
Ce     0.05318491     2.25296560     4.18060718
Ce    11.46739924     0.00063810     7.35431468
Ce     5.74834640     1.11947537     0.98024150
Ce     3.81902134     2.23963814     4.17454904
Ce     3.86498056     0.06756638     7.32680290
Ce     9.57449758     1.11947537     0.98024150
Ce     7.68666607     2.21658851     4.11613578
Ce     7.67866281     0.00572661     7.35507600
Ce     0.00910816     4.43301949     0.98024150
Ce    -1.90602149     5.53427542     4.17402168
Ce     9.54672345     3.25035571     7.36553088
Ce     3.83527081     4.43301949     0.98024150
Ce     1.90953212     5.50750002     4.12950198
Ce     7.66142199     4.43301949     0.98024150
Ce     5.72534309     5.52524016     4.18450109
Ce     5.85339977     3.23013806     7.29856711
Ce    -1.90397316     7.74657355     0.98024150
Ce    -3.82695055     8.86643471     4.16603582
Ce     7.62449186     6.63716818     7.38268803
Ce     1.92218949     7.74657355     0.98024150
Ce     0.00568054     8.87838386     4.10145430
Ce    -0.04558658     6.83936740     7.27020802
Ce     5.74834066     7.74657355     0.98024150
Ce     3.82132849     8.85333221     4.14558678
Ce     3.77628642     6.71046793     7.36483548
Pt     1.65132759     3.67003927     7.70574989
C      2.93062379     3.78649320     8.98213348
H      1.95104863     0.10848075     9.63743248
H      2.27393593     2.71697065     9.20935637
