82
CIF: O2.cif | data_image0
O      0.00910816     0.01496067     0.19922347
O      1.92142369     1.05623293     3.33460040
O      0.46527126     2.08342685     6.70048038
O      0.00910816     2.22399008     1.76123671
O     11.43960381     0.00333348     4.97299225
O      3.83525934     0.01496067     0.19922347
O      5.75532754     1.12813207     3.32275505
O      3.56050856     2.21853348     6.73374964
O      3.83525934     2.22399008     1.76123671
O      3.86238478     0.04555147     4.98146356
O      5.76054192     1.12889138     8.14441454
O      7.66142199     0.01496067     0.19922347
O      9.57529412     1.11999227     3.32270377
O      7.69163527     2.20860705     6.53842592
O      7.66142199     2.22399008     1.76123671
O      7.66164959     0.02216218     4.95069103
O      9.59834274     0.95558135     8.17305718
O     -1.90396742     3.32850478     0.19922347
O     -0.04551279     4.46211766     3.33452316
O     -1.89975044     5.58608116     6.53907189
O     -1.90397316     5.53754413     1.76123671
O     -1.79635399     3.26766386     5.03162696
O      1.92218375     3.32850478     0.19922347
O      3.89972978     4.43808081     3.33693547
O      1.80961071     5.60222613     6.53939982
O      1.92217801     5.53754413     1.76123671
O      1.92910351     3.33468097     4.69643747
O      3.91638909     4.30646644     9.51387694
O      5.74834640     3.32850478     0.19922347
O      7.66155721     4.42908490     3.40632438
O      5.64232446     5.38775188     6.63921314
O      5.74834066     5.53754413     1.76123671
O      5.71991927     3.23983736     5.03267396
O      7.59805817     4.45442894     8.22226260
O     -3.81704875     6.64205884     0.19922347
O     -1.94945535     7.74881333     3.35878728
O     -3.80176999     9.04444713     6.63916715
O     -3.81704875     8.85108825     1.76123671
O      7.58595463     6.68707636     5.08590847
O     -1.91479267     7.81667449     8.15373142
O      0.00910242     6.64205884     0.19922347
O      1.91486324     7.75415091     3.32671114
O      0.01174146     8.87824081     6.48276513
O      0.00910242     8.85108825     1.76123671
O     -0.02296357     6.68045507     4.93481578
O      1.80749796     7.87968941     8.23000713
O      3.83526508     6.64205884     0.19922347
O      5.76664599     7.73815491     3.33811675
O      3.79172046     8.82867222     6.48136788
O      3.83526508     8.85108825     1.76123671
O      3.84511388     6.63488813     4.92910116
O      5.83596008     7.77055233     8.16563780
O      0.27903572     3.46631649     8.97071342
O     -0.17896408     4.81221266     8.68330088
Ce     1.92218375     1.11947537     0.98024150
Ce     0.05179562     2.24454905     4.15188174
Ce     5.61774344     9.84543333     7.28726812
Ce     5.74834640     1.11947537     0.98024150
Ce     3.78911661     2.24521764     4.14279855
Ce    -1.79162389     9.91025911     7.27142642
Ce     9.57449758     1.11947537     0.98024150
Ce     7.69700182     2.20317714     4.14852646
Ce     1.93516857     9.93956202     7.35058639
Ce     0.00910816     4.43301949     0.98024150
Ce    -1.89980624     5.52738980     4.19437556
Ce    -1.81685054     3.33289363     7.49269862
Ce     3.83527081     4.43301949     0.98024150
Ce     1.90466739     5.51986218     4.19783502
Ce     7.66142199     4.43301949     0.98024150
Ce     5.72184068     5.52795351     4.18250357
Ce     5.93360262     3.26242612     7.30024398
Ce    -1.90397316     7.74657355     0.98024150
Ce    -3.83198369     8.85487040     4.16073660
Ce    -3.82213958     6.63615598     7.39656555
Ce     1.92218949     7.74657355     0.98024150
Ce     0.01272520     8.85976339     4.10359318
Ce     0.02551606     6.69532393     7.32248119
Ce     5.74834066     7.74657355     0.98024150
Ce     3.81943087     8.83632816     4.10567631
Ce     3.73194935     6.68969558     7.34698255
Pt     1.88427029     2.90024093     7.83949025
C      3.08303802     3.71009434     8.93044743
