84
CIF: CO+O2→CO2+O.cif | data_image0
O      0.00910816     0.01496067     0.19922347
O      1.91700997     1.06738222     3.34538752
O     -0.01553595     2.17253467     6.67353456
O      0.00910816     2.22399008     1.76123671
O     11.45664059     0.02882363     5.01322457
O      3.83525934     0.01496067     0.19922347
O      5.74652384     1.11010973     3.34379354
O      3.97654719     2.14469858     6.52226283
O      3.83525934     2.22399008     1.76123671
O     -1.90477650     9.91181611     4.97192294
O      5.77501743     1.05798812     8.20269555
O      7.66142199     0.01496067     0.19922347
O      9.58108102     1.12005854     3.32912122
O      7.61860786     2.19596188     6.52037188
O      7.66142199     2.22399008     1.76123671
O      7.67153415     0.00767911     4.96302043
O      9.49557467     1.05898877     8.17083196
O     -1.90396742     3.32850478     0.19922347
O     -0.03310088     4.44510346     3.34245269
O     -1.87001038     5.49781140     6.56614621
O     -1.90397316     5.53754413     1.76123671
O     -1.89642374     3.28512341     5.00931818
O      1.92218375     3.32850478     0.19922347
O      3.86770008     4.44535293     3.34624909
O      1.96000251     5.64399281     6.57405523
O      1.92217801     5.53754413     1.76123671
O      1.90571660     3.31263514     4.78683228
O      1.82007603     4.94582987    10.34451358
O      5.74834640     3.32850478     0.19922347
O      7.68524350     4.43672022     3.34704205
O      5.71956314     5.51392265     6.53667068
O      5.74834066     5.53754413     1.76123671
O      5.77340858     3.34146002     4.95453773
O      7.67552384     4.41065135     8.12804621
O     -3.81704875     6.64205884     0.19922347
O     -1.91115488     7.73182661     3.34269753
O     -3.83181483     8.91235906     6.58892897
O     -3.81704875     8.85108825     1.76123671
O     -3.80598228     6.64999231     5.03009219
O     -1.87969161     7.74203306     8.10328042
O      0.00910242     6.64205884     0.19922347
O      1.91831228     7.73827575     3.34137493
O      0.02408671     8.84332948     6.50820232
O      0.00910242     8.85108825     1.76123671
O      0.00072973     6.63671821     4.98586672
O      1.89397725     7.77927154     8.19496030
O      3.83526508     6.64205884     0.19922347
O      5.76369712     7.75537128     3.34741009
O      3.80878576     8.81058985     6.52822245
O      3.83526508     8.85108825     1.76123671
O      3.85407611     6.64668429     4.96279253
O      5.73836113     7.74881157     8.14249059
O      1.89527809     1.11394461     8.36503365
O     -0.04874572     4.33623915     8.23389572
O      3.22625066     3.58179495     9.07654751
O      4.52932773     4.78532480     8.70677302
Ce     1.92218375     1.11947537     0.98024150
Ce     0.04966992     2.24040155     4.14632147
Ce     5.64778517     9.84464188     7.33482611
Ce     5.74834640     1.11947537     0.98024150
Ce     3.81455291     2.23896336     4.19601454
Ce     3.91544924     0.02069320     7.29824246
Ce     9.57449758     1.11947537     0.98024150
Ce     7.65672145     2.20934411     4.12785293
Ce     1.90547848     9.93364392     7.36570460
Ce     0.00910816     4.43301949     0.98024150
Ce    -1.89500643     5.52900543     4.15965075
Ce     9.44701043     3.28027302     7.31622069
Ce     3.83527081     4.43301949     0.98024150
Ce     1.93382919     5.49477648     4.20296038
Ce     7.66142199     4.43301949     0.98024150
Ce     5.74728414     5.53102629     4.15643096
Ce     5.74026583     3.27231962     7.33908356
Ce    -1.90397316     7.74657355     0.98024150
Ce    -3.81780852     8.85253001     4.16074311
Ce    -3.80244788     6.63166709     7.34269611
Ce     1.92218949     7.74657355     0.98024150
Ce     0.01869464     8.84420020     4.12445993
Ce     0.06172989     6.67026556     7.31544072
Ce     5.74834066     7.74657355     0.98024150
Ce     3.82382081     8.84699226     4.12890614
Ce     3.79325767     6.64399840     7.34450901
Pt     1.10266418     2.81248778     8.25020446
C      2.17020131     4.04065558     9.63834357
