87
CIF: 4-CH2CCH2.cif | data_VESTA_phase_1
O      0.00000000     0.00000000     0.00000000
O      1.89340150     1.04660052     3.11928200
O      0.05075203     2.49723845     6.44447082
O      0.00000000     2.20902941     1.56201325
O     -0.01119150     0.09413788     4.84979350
O      1.89778627     1.26793886     7.89111055
O      3.82615117     0.00000000     0.00000000
O      5.74867928     1.09957421     3.12808670
O      4.04959097     2.13012059     6.20024301
O      3.82615117     2.20902941     1.56201325
O     -1.94684523     9.90999529     4.72716637
O      5.77080402     1.11455475     8.01681704
O      7.65231383     0.00000000     0.00000000
O      9.56955036     1.09496175     3.13636676
O      7.63991708     2.18614605     6.29802994
O      7.65231383     2.20902941     1.56201325
O      1.91340272     9.93406158     4.76448370
O      9.56693901     1.14218974     7.95760201
O     -1.91307559     3.31354412     0.00000000
O     -0.06062925     4.45676768     3.14042696
O     -1.78862033     5.44482776     6.48765035
O     -1.91308133     5.52258347     1.56201325
O      9.53717535     3.29634680     4.77816976
O      1.91307559     3.31354412     0.00000000
O      3.87841262     4.46201634     3.12968340
O      1.59827295     5.22853927     6.64960210
O      1.91306985     5.52258347     1.56201325
O      1.92956440     3.31536325     4.47748695
O      3.49503763     3.93459568     8.23748201
O      5.73923824     3.31354412     0.00000000
O      7.66877394     4.44935196     3.13675454
O      5.67018379     5.44131872     6.44862226
O      5.73923250     5.52258347     1.56201325
O      5.80280024     3.34989704     4.72474850
O      7.64963360     4.36170532     7.97881541
O     -3.82615691     6.62709817     0.00000000
O     -1.93298498     7.70358027     3.15101085
O     -3.83518473     8.87898169     6.34766473
O     -3.82615691     8.83612758     1.56201325
O      7.66740801     6.58994999     4.88193294
O     -1.93760507     7.76820438     7.95452265
O     -0.00000574     6.62709817     0.00000000
O      1.91342568     7.73471436     3.13568246
O     -0.03933670     8.90411163     6.28974987
O     -0.00000574     8.83612758     1.56201325
O      0.01938713     6.65909710     4.79584760
O      1.77370406     7.85834612     7.97548513
O      3.82615691     6.62709817     0.00000000
O      5.72544686     7.73449566     3.21011184
O      3.83444436     8.87857412     6.36401957
O      3.82615691     8.83612758     1.56201325
O      3.72021642     6.59364791     4.84970226
O      5.84715303     7.79539204     8.02895202
Ce     1.91307559     1.10451471     0.78101803
Ce     0.03335068     2.24190311     3.94430072
Ce     0.02348494     0.04282429     7.16894259
Ce     5.73923824     1.10451471     0.78101803
Ce     3.81937314     2.21903964     3.93424146
Ce     3.80561620     0.08684145     7.10238271
Ce     9.56538941     1.10451471     0.78101803
Ce     7.65800714     2.20662377     3.90178268
Ce     7.64003187     0.00783323     7.14008781
Ce     0.00000000     4.41805882     0.78101803
Ce    -1.91781619     5.52110231     3.96695115
Ce     9.46351804     3.24958602     7.09841375
Ce     3.82616265     4.41805882     0.78101803
Ce     1.90434048     5.48269167     3.95969754
Ce     7.65231383     4.41805882     0.78101803
Ce     5.71939771     5.52095320     3.99842910
Ce     5.76096697     3.22978426     7.08869664
Ce    -1.91308133     7.73161288     0.78101803
Ce    -3.83516177     8.84687342     3.97014457
Ce     7.62327331     6.64734726     7.20297527
Ce     1.91308133     7.73161288     0.78101803
Ce    -0.00589419     8.84360294     3.92123970
Ce    -0.01809006     6.77965721     7.10386536
Ce     5.73923250     7.73161288     0.78101803
Ce     3.80643117     8.83562061     3.98850670
Ce     3.76314588     6.66311312     7.25349966
Pt     1.67776132     3.26886093     7.37484942
C      2.50305147     6.23936342    10.66865154
C      2.47051002     5.07529433    10.05512812
C      3.39053195     3.99504473     9.66810905
H      1.63776460     6.90684773    10.71894782
H      3.41845331     6.60437386    11.16442919
H      3.06057199     3.02074250    10.07125486
H      4.40374179     4.20508056    10.09283322
