81
CIF: Rh-CeO2.cif | data_image0
Ce     1.93596140     1.11772783     0.89035214
Ce    -0.01062518     2.22417529     4.00848834
Ce     5.78686713    10.05037627     7.23185666
Ce     5.80789581     1.11772783     0.89035214
Ce     3.90191778     2.25191589     4.07378402
Ce    -2.05640978    10.04706177     7.14609641
Ce     9.67981860     1.11772783     0.89035214
Ce     7.70451460     2.25447393     4.05531586
Ce     7.82709625     0.01680632     7.14706013
Ce     0.00000000     4.47091133     0.89035214
Ce    -1.93928888     5.58615283     4.04593424
Ce     9.66285542     3.29665011     7.15528320
Ce     3.87193441     4.47091133     0.89035214
Ce     1.94290040     5.58183167     4.04841603
Ce     1.85775256     3.24812873     7.14319435
Ce     7.74385721     4.47091133     0.89035214
Ce     5.80623620     5.54523693     4.05880364
Ce    -1.93596721     7.82410489     0.89035214
Ce    -3.88716594     8.94043006     4.00997471
Ce     7.68889148     6.72643945     7.15436285
Ce     1.93596721     7.82410489     0.89035214
Ce    -0.00184788     8.94688726     4.04872857
Ce    -0.00351845     6.70545426     7.24746046
Ce     5.80789000     7.82410489     0.89035214
Ce     3.87246589     8.94256542     4.00261297
Ce     3.93225383     6.78272980     7.14408253
Rh     5.88703941     3.35776558     8.15123436
O      0.00000000     0.00000000     0.09999685
O      1.93395630     1.11661529     3.23667945
O     -0.02266973     2.20704213     6.39818136
O      0.00000000     2.23545567     1.68070743
O      5.80078624    10.05609292     4.84110992
O      1.85275242     1.07084568     8.06770029
O      3.87192279     0.00000000     0.09999685
O      5.79778448     1.06603505     3.24220664
O      3.65736833     2.11338701     6.39019148
O      3.87192279     2.23545567     1.68070743
O     -1.95358294    10.00490310     4.84507573
O      5.95970189     1.56420156     8.21828757
O      7.74385721     0.00000000     0.09999685
O      9.67389781     1.11731525     3.23304495
O      7.95907901     2.09828357     6.31588667
O      7.74385721     2.23545567     1.68070743
O      1.92944718     9.99172597     4.82950739
O      9.71202568     1.07540291     8.05794315
O     -1.93596140     3.35318350     0.09999685
O      0.00178087     4.50316089     3.23235403
O     -2.03262116     5.53825457     6.48666917
O     -1.93596721     5.58864923     1.68070743
O     -1.89468858     3.38650278     4.83278306
O     -0.00708964     4.46298082     7.95222781
O      1.93596140     3.35318350     0.09999685
O      3.82366093     4.48850998     3.24301637
O      2.10377275     5.47538292     6.53702416
O      1.93595559     5.58864923     1.68070743
O      1.87765724     3.36457600     4.84324044
O      5.80789581     3.35318350     0.09999685
O      7.78122698     4.49384424     3.23556916
O      5.79816586     5.83744047     6.33020223
O      5.80789000     5.58864923     1.68070743
O      5.79770409     3.34787383     4.64413484
O      7.52748451     4.30749057     8.09617355
O     -3.87192860     6.70637706     0.09999685
O     -1.90742406     7.80840769     3.23462731
O     -3.90613264     8.93876070     6.39959793
O     -3.87192860     8.94183273     1.68070743
O     -3.82689558     6.72716010     4.83531054
O     -1.95109906     7.82429546     7.95841436
O     -0.00000581     6.70637706     0.09999685
O      1.90569981     7.80394916     3.22431734
O     -0.01861983     9.11531734     6.52586848
O     -0.00000581     8.94183273     1.68070743
O      0.02389040     6.71183793     4.98694703
O      3.87192860     6.70637706     0.09999685
O      5.80557815     7.81994194     3.23322567
O      3.88333383     8.94935392     6.38804351
O      3.87192860     8.94183273     1.68070743
O      3.81618837     6.73683718     4.83066236
O      5.78872326     7.87660873     8.05987916
O      4.39751185     4.31868403     8.25575570
O      1.93458551     7.82246580     7.94235468
