90
CIF: CH2CHCH2.cif | data_image0
O      0.00261135     0.00382715     0.19995339
O      1.92255387     1.09930312     3.34201410
O      0.08949506     2.23482213     6.57018389
O      0.00261135     2.21285656     1.76196664
O     11.44918415     0.00119623     4.97159777
O      1.94230202     1.22826111     8.22349883
O      3.82876252     0.00382715     0.19995339
O      5.74870046     1.10782284     3.33716528
O      3.79013210     2.26626481     6.59310080
O      3.82876252     2.21285656     1.76196664
O      3.86676824     0.00220231     4.98785115
O      5.74568610     1.10870051     8.15911882
O      7.65492518     0.00382715     0.19995339
O      9.56420168     1.11334902     3.33336055
O      7.66963284     2.22928810     6.56178048
O      7.65492518     2.21285656     1.76196664
O      7.65342842     0.02231041     4.97096868
O      9.60216740     1.08661180     8.15765959
O     -1.91046424     3.31737126     0.19995339
O      0.02248197     4.41193939     3.35964684
O     -1.96206245     5.57315361     6.46295678
O     -1.91046998     5.52641062     1.76196664
O     -1.88609339     3.30586791     4.99380059
O     -0.41135207     4.67373751     8.38018387
O      1.91568694     3.31737126     0.19995339
O      3.81683278     4.41031576     3.36621464
O      1.94967195     5.66067409     6.55854119
O      1.91568120     5.52641062     1.76196664
O      1.92739400     3.26400535     5.03118350
O      4.28402236     4.69010887     8.66659600
O      5.74184959     3.31737126     0.19995339
O      7.65581607     4.42824191     3.35716925
O      5.68690961     5.50203354     6.52448907
O      5.74184385     5.52641062     1.76196664
O      5.75084783     3.29617682     4.99063415
O      7.63974236     4.46564801     8.14862275
O     -3.82354556     6.63092532     0.19995339
O     -1.92023135     7.74194054     3.34766315
O     -3.82615842     8.92095042     6.55728098
O     -3.82354556     8.83995473     1.76196664
O      7.61107003     6.67112024     4.98902364
O     -1.93321628     7.78318990     8.14255256
O      0.00260561     6.63092532     0.19995339
O      1.91323245     7.72925507     3.35035994
O      0.04553033     8.82587513     6.53185200
O      0.00260561     8.83995473     1.76196664
O     -0.00440754     6.62337139     4.96798150
O      1.95377006     7.79856376     8.24108934
O      3.82876826     6.63092532     0.19995339
O      5.74466546     7.74551683     3.32924443
O      3.79402899     8.84842479     6.50525296
O      3.82876826     8.83995473     1.76196664
O      3.84687253     6.65118372     4.95358804
O      5.72307061     7.78247923     8.12774688
Ce     1.91568694     1.10834185     0.98097142
Ce    -0.00508942     2.21515958     4.14834115
Ce     5.65581258     9.92527525     7.30170140
Ce     5.74184959     1.10834185     0.98097142
Ce     3.84826625     2.20876637     4.14953402
Ce    -1.81255209     9.89330926     7.30215881
Ce     9.56800076     1.10834185     0.98097142
Ce     7.66653265     2.21684438     4.16735953
Ce     7.66791102     0.01417827     7.35811608
Ce     0.00261135     4.42188597     0.98097142
Ce    -1.90821906     5.52931204     4.15430278
Ce    -1.86619517     3.40348197     7.39359148
Ce     3.82877400     4.42188597     0.98097142
Ce     1.91610616     5.52307291     4.23423184
Ce     7.65492518     4.42188597     0.98097142
Ce     5.73029224     5.52924126     4.15717235
Ce     5.79599677     3.32687381     7.34811744
Ce    -1.91046998     7.73544003     0.98097142
Ce    -3.82926499     8.85130023     4.15341144
Ce     7.63477740     6.65543651     7.33025824
Ce     1.91569268     7.73544003     0.98097142
Ce     0.01806862     8.82835007     4.14480825
Ce     0.01434220     6.58223288     7.38348079
Ce     5.74184385     7.73544003     0.98097142
Ce     3.81687157     8.83961689     4.12510317
Ce     3.77032172     6.67738876     7.34030879
Ni     1.93649750     2.35191874     6.64650421
C      3.84957783     4.48213935    10.00381113
C      2.47964184     3.87243704    10.09465895
C      2.17317368     2.82874525    10.87939357
H      3.82491570     5.45711828    10.53878184
H      4.57881202     3.85592795    10.55807830
H      1.68971705     4.33987703     9.49133569
H      2.03335670     1.84963295     8.98603742
H      1.14464542     2.46951389    10.97204170
H      2.93341988     2.32712880    11.48635227
