89
CIF: CH2COCH2.cif | data_image0
O      0.00261135     0.00382715     0.19995339
O      1.92219898     1.11859577     3.35108222
O      0.08092521     2.26725155     6.58104430
O      0.00261135     2.21285656     1.76196664
O     11.45624197     0.02409019     4.97932100
O      1.93868559     1.11672972     7.98404930
O      3.82876252     0.00382715     0.19995339
O      5.74651549     1.10698199     3.33502075
O      3.80479229     2.28776360     6.59998418
O      3.82876252     2.21285656     1.76196664
O      3.85808568     0.02127274     4.99439557
O      5.75907975     1.11826026     8.16297262
O      7.65492518     0.00382715     0.19995339
O      9.56735766     1.11375486     3.33063250
O      7.67181549     2.23556346     6.55409602
O      7.65492518     2.21285656     1.76196664
O      7.65421521     0.02362503     4.96977313
O      9.59227460     1.08472233     8.15287986
O     -1.91046424     3.31737126     0.19995339
O      0.03841951     4.40589830     3.36472342
O     -1.97424599     5.58293987     6.43762890
O     -1.91046998     5.52641062     1.76196664
O     -1.88493334     3.30381271     4.98599567
O      1.91568694     3.31737126     0.19995339
O      3.80330312     4.40370182     3.37037450
O      1.94957666     5.67738149     6.54345617
O      1.91568120     5.52641062     1.76196664
O      1.93219004     3.25003904     5.09382812
O      4.43079647     4.76050778     8.73656950
O      5.74184959     3.31737126     0.19995339
O      7.65493133     4.41790479     3.34734582
O      5.68599820     5.50048334     6.51294991
O      5.74184385     5.52641062     1.76196664
O      5.75198513     3.29191408     4.98282467
O      7.64360616     4.46125744     8.15018508
O     -3.82354556     6.63092532     0.19995339
O     -1.91787550     7.74978647     3.34718497
O     -3.82736809     8.84249833     6.50496629
O     -3.82354556     8.83995473     1.76196664
O      7.60555041     6.64668331     4.95372026
O     -1.94276046     7.78828790     8.15062821
O      0.00260561     6.63092532     0.19995339
O      1.91341883     7.73133222     3.35123821
O      0.04016179     8.83054870     6.53485608
O      0.00260561     8.83995473     1.76196664
O     -0.00540837     6.62924478     4.96035247
O      1.96261609     7.80208509     8.24535191
O      3.82876826     6.63092532     0.19995339
O      5.73995676     7.75460702     3.32933982
O      3.80032154     8.84458572     6.50179088
O      3.82876826     8.83995473     1.76196664
O      3.84860233     6.65369224     4.94591188
O      5.72471199     7.78367249     8.13356900
O     -0.51708494     4.74602653     8.40546329
O      1.98383562     3.62956678     9.20036646
Ce     1.91568694     1.10834185     0.98097142
Ce    -0.01632810     2.21783399     4.14735796
Ce     5.67770036     9.93029277     7.31763103
Ce     5.74184959     1.10834185     0.98097142
Ce     3.86216171     2.20862211     4.14669654
Ce    -1.83405432     9.89923200     7.32086208
Ce     9.56800076     1.10834185     0.98097142
Ce     7.66850636     2.21739832     4.16610094
Ce     7.67308839     0.01871812     7.36150745
Ce     0.00261135     4.42188597     0.98097142
Ce    -1.91157339     5.53019282     4.15045195
Ce    -1.87385912     3.41200730     7.40443871
Ce     3.82877400     4.42188597     0.98097142
Ce     1.91607230     5.54392286     4.23360726
Ce     7.65492518     4.42188597     0.98097142
Ce     5.73090142     5.52767517     4.15435156
Ce     5.81041061     3.32481188     7.35359114
Ce    -1.91046998     7.73544003     0.98097142
Ce    -3.82970916     8.84660854     4.15093800
Ce     7.63323558     6.65230654     7.31873357
Ce     1.91569268     7.73544003     0.98097142
Ce     0.01427893     8.83225014     4.15323554
Ce     0.00597757     6.59443235     7.39111322
Ce     5.74184385     7.73544003     0.98097142
Ce     3.82113973     8.84426736     4.13092512
Ce     3.77330380     6.68620811     7.34267024
Ni     1.93826515     2.39246964     6.71661921
C      2.04154760     3.95754299    11.51099177
C      2.62338682     4.00128682    10.20224295
C      4.05421175     4.53458231    10.06103456
H      1.02128751     3.58625501    11.60965734
H      2.56989364     4.32344544    12.39413720
H      4.71979777     3.78967248    10.55547959
H      4.15426411     5.45605636    10.67453862
