81
CIF: Y-Cr-CeO2-Ov.cif | data_image0
Ce     1.93038582     1.11050507     0.88387043
Ce    -0.02991653     2.21259470     4.04190654
Ce     5.80444530    10.04060127     7.24400348
Ce     5.81181033     1.12175166     0.90127712
Ce     3.87020840     2.21523162     4.01570729
Ce     3.89500517     0.00637272     7.39672960
Ce     9.66901012     1.12377363     0.90450652
Ce     7.78461667     2.20710651     4.06204615
Ce     7.71774597     0.01759247     7.25176447
Ce    -0.00709724     4.47602159     0.89067279
Ce    -1.93320333     5.57809916     4.11530513
Ce     9.65271589     3.38104986     7.27120759
Ce     3.86254305     4.47635356     0.87798423
Ce     1.93878140     5.59602803     3.95160635
Ce     1.64030660     3.22048913     7.52325799
Ce     7.74213807     4.46545905     0.90125422
Ce     5.80810775     5.59902980     3.95045851
Ce    -1.94645625     7.83004003     0.90010904
Ce    -3.86863403     8.95071142     4.13775173
Ce    -3.82542952     6.73934637     7.35226645
Ce     1.92815559     7.82745473     0.89060408
Ce    -0.00397128     8.94909749     4.12310783
Ce    -0.03387879     6.76583530     7.33998614
Ce     5.81127600     7.83258510     0.88371011
Ce     3.87172386     8.93395663     4.10002403
Ce     3.87003828     7.08100790     7.92223615
Cr     3.87141514     4.56969711     6.14305586
Y      6.11636562     3.22503014     7.43893790
O     11.61334069     0.00154917     0.10141687
O      1.84293543     1.12013430     3.27266436
O      0.04215119     2.22514832     6.35271360
O     -0.00785227     2.23805103     1.69392277
O      5.77532401    10.03557623     4.87363702
O      1.75792994     1.09335820     8.19464929
O     -1.93899312    10.05733740     0.10496691
O      5.89138120     1.12739274     3.28632354
O      3.86100094     2.86745350     7.14754796
O      3.86763657     2.23577757     1.68132582
O      3.86713174     0.02220265     4.93633387
O      5.98403594     1.08352664     8.14024182
O      7.73821774     0.00761509     0.10924988
O      9.68326029     1.09646420     3.26774126
O      7.71058734     2.23193671     6.32629878
O      7.74357843     2.23531483     1.71563532
O      1.96578980    10.02463648     4.86628074
O      9.68446187     0.97770931     8.03622784
O      9.67032270     3.35425987     0.10911246
O      0.03862290     4.44079237     3.25279177
O     -1.91347962     5.70158431     6.38073771
O     -1.94403436     5.59119430     1.70564938
O     -1.92314943     3.36851264     4.79930949
O     -0.02914740     4.57523977     8.15877925
O      1.92738314     3.35244915     0.09928684
O      3.86559843     4.52662571     3.09844274
O      2.43434264     5.34272086     7.17919216
O      1.92862022     5.59252216     1.67404250
O      2.19837900     3.63365242     5.15783241
O      5.81155478     3.35101064     0.10766953
O      7.70661876     4.43675540     3.26838127
O      5.21761620     5.30717762     7.25632145
O      5.80528807     5.59217007     1.68114259
O      5.50659025     3.67268821     5.17936269
O      7.77304937     4.61658695     8.09302152
O     -3.87155109     6.71022987     0.10512724
O     -1.94037511     7.79198275     3.33705305
O     -3.88164453     8.91864339     6.41865340
O     -3.87509971     8.94378428     1.69355631
O      7.59208912     6.62547485     4.98543286
O     -1.92460350     7.74557011     8.15433784
O     -0.01209783     6.71325780     0.10434852
O      1.98835556     7.81265704     3.26018015
O     -0.00000261     8.90616991     6.40167170
O     -0.00628994     8.94736548     1.70514550
O      0.15640949     6.62718166     4.97108500
O      1.69151311     7.97986739     8.25249081
O      3.86815347     6.71410280     0.09951587
O      5.75731666     7.82126670     3.26482691
O      3.87238424     8.84269367     6.43134706
O      3.86556896     8.94715423     1.69389986
O      3.87932556     6.30815593     5.08342521
O      6.02346983     7.98750241     8.25108834
