82
CIF: Ge-CeO2-Ov+O2.cif | data_image0
O      0.55978923     0.45000431     0.59999690
O      2.47239525     1.62320769     3.78706654
O      0.41430607     2.57283625     6.84412477
O      0.55978923     2.65902057     2.16203261
O      0.55768091     0.40975447     5.35282353
O      2.35341574     1.81166690     8.29409640
O      4.38603242     0.45000431     0.59999690
O      6.27908590     1.56188935     3.74924420
O      4.63648458     2.53343874     6.87097892
O      4.38603242     2.65902057     2.16203261
O      4.36792801     0.40516016     5.35992993
O      6.35337199     1.51454625     8.63127769
O      8.21216082     0.45000431     0.59999690
O     10.13483808     1.55987723     3.73271787
O      8.21452916     2.63011699     6.90314077
O      8.21216082     2.65902057     2.16203261
O      8.20945586     0.44778840     5.34183448
O     10.10095145     1.53923962     8.58094281
O     -1.35327498     3.76352871     0.59999690
O      0.61809151     4.83522177     3.78612111
O     -1.34163320     5.97391308     6.97461839
O     -1.35333237     5.97264438     2.16203261
O     -1.38899858     3.78393460     5.35327627
O      0.69506191     4.63887286     8.28681957
O      2.47296821     3.76352871     0.59999690
O      4.32295513     4.83150515     3.80148114
O      2.48091393     6.27343097     6.85874092
O      2.47291082     5.97264438     2.16203261
O      2.44913164     3.75762626     5.80376683
O      6.29909662     3.76352871     0.59999690
O      8.21816897     4.88502594     3.72283399
O      6.32042420     5.98130588     6.96551786
O      6.29903923     5.97264438     2.16203261
O      6.34931653     3.80022029     5.34264798
O      8.23532331     4.84092935     8.56956978
O     -3.26639657     7.07715251     0.59999690
O     -1.36644369     8.17752790     3.72377602
O     -3.26254585     9.30697696     6.97867671
O     -3.26639657     9.28616878     2.16203261
O     -3.25556298     7.08718701     5.39699707
O     -1.32682394     8.20229647     8.55505239
O      0.55984662     7.07715251     0.59999690
O      2.46933459     8.16171385     3.75000352
O      0.56466947     9.29382726     6.91321831
O      0.55984662     9.28616878     2.16203261
O      0.50298120     7.09028499     5.35538433
O      2.45652201     8.25509643     8.63356454
O      4.38597502     7.07715251     0.59999690
O      6.31732554     8.17855081     3.72182832
O      4.36135432     9.29810217     6.90609592
O      4.38597502     9.28616878     2.16203261
O      4.44852472     7.09822046     5.34591393
O      6.28390204     8.21539865     8.56853005
O      4.48383775     4.91081349     8.44944507
O      3.24838076     4.34030048     8.88940277
Ce     2.47285343     1.55451244     1.38101475
Ce     0.53775276     2.64747470     4.55043753
Ce     0.51472471     0.42868104     7.72142175
Ce     6.29909662     1.55451244     1.38101475
Ce     4.40438449     2.65653707     4.61960020
Ce     4.42528695     0.47932861     7.72145073
Ce    10.12522502     1.55451244     1.38101475
Ce     8.20918139     2.65393645     4.52671393
Ce     8.20193698     0.44283158     7.78213921
Ce     0.55978923     4.86803684     1.38101475
Ce    -1.35638081     5.97469037     4.55847620
Ce    -1.39761953     3.73740638     7.72135321
Ce     4.38603242     4.86803684     1.38101475
Ce     2.47709177     5.99236077     4.61808915
Ce     8.21216082     4.86803684     1.38101475
Ce     6.30782116     5.97768152     4.56635548
Ce     6.36601739     3.70122628     7.71688637
Ce    -1.35333237     8.18166064     1.38101475
Ce    -3.26716274     9.28537942     4.55936970
Ce    -3.25956715     7.08302689     7.75939967
Ce     2.47291082     8.18166064     1.38101475
Ce     0.55837148     9.28696281     4.54099714
Ce     0.59819509     7.10443043     7.72066755
Ce     6.29903923     8.18166064     1.38101475
Ce     4.38016799     9.28352431     4.53010934
Ce     4.36436114     7.15628768     7.72156547
Ge     2.03304259     3.51936984     7.62925020
