83
CIF: Pt-Cr-CeO2-O.cif | data_image0
Ce     1.93038582     1.11050507     0.88387043
Ce    -0.01783279     2.22962299     4.02024769
Ce     5.81708663    10.03730582     7.20489971
Ce     5.81181033     1.12175166     0.90127712
Ce     3.85538031     2.24183624     3.99632323
Ce    -1.91956880    10.03647884     7.22065444
Ce     9.66901012     1.12377363     0.90450652
Ce     7.70667341     2.25591321     4.09937494
Ce     1.96634504    10.02051129     7.20548874
Ce    -0.00709724     4.47602159     0.89067279
Ce    -1.95537800     5.59126749     4.08730339
Ce    -1.86879310     3.31975243     7.23246586
Ce     3.86254305     4.47635356     0.87798423
Ce     1.93280878     5.59596761     4.06848389
Ce     1.81559575     3.32388149     7.19421295
Ce     7.74213807     4.46545905     0.90125422
Ce     5.80237624     5.60940681     3.99799258
Ce    -1.94645625     7.83004003     0.90010904
Ce    -3.87692748     8.93734491     4.07148081
Ce    -3.81898053     6.74212215     7.34073354
Ce     1.92815559     7.82745473     0.89060408
Ce    -0.00615339     8.95746078     4.05114375
Ce    -0.00339087     6.72865649     7.20836264
Ce     5.81127600     7.83258510     0.88371011
Ce     3.86712094     8.94307213     4.03887906
Ce     3.82392755     6.82360178     7.30042400
Cr     5.05756327     3.79382609     6.81083197
Pt     6.66855864     2.80959257     8.24701772
O     11.61334069     0.00154917     0.10141687
O      1.92748826     1.11685361     3.21994205
O     -0.00327875     2.22602089     6.36642781
O     -0.00785227     2.23805103     1.69392277
O      5.81143346    10.04735401     4.84004200
O      1.98286072     1.16209075     7.94567038
O     -1.93899312    10.05733740     0.10496691
O      5.79765172     1.14928477     3.24040119
O      3.96205182     2.38649605     6.40217726
O      3.86763657     2.23577757     1.68132582
O      3.87251005     0.06787946     4.87540098
O      5.84938088     0.96229149     8.12841439
O      7.73821774     0.00761509     0.10924988
O      9.66976294     1.12568905     3.24435135
O      7.70715673     2.23397174     6.51669288
O      7.74357843     2.23531483     1.71563532
O      7.73089099     0.04010376     4.84707137
O      9.73603748     1.10028376     8.00480211
O      9.67032270     3.35425987     0.10911246
O     -0.01174192     4.47164310     3.25323304
O     -1.86917658     5.56811772     6.42910633
O     -1.94403436     5.59119430     1.70564938
O      9.63988622     3.33561247     4.87378904
O      0.01526989     4.39627449     8.05575182
O      1.92738314     3.35244915     0.09928684
O      3.85753920     4.47761955     3.20974701
O      1.87450742     5.55724876     6.42669659
O      1.92862022     5.59252216     1.67404250
O      1.93320445     3.33695062     4.85158503
O      5.81155478     3.35101064     0.10766953
O      7.71794804     4.46357933     3.24916294
O      5.74224145     5.35289588     6.48195445
O      5.80528807     5.59217007     1.68114259
O      5.73904796     3.39010423     4.90399521
O      7.92984605     4.35538561     8.21008408
O     -3.87155109     6.71022987     0.10512724
O     -1.95374940     7.83403663     3.27043084
O     -3.81660555     8.98866687     6.39457243
O     -3.87509971     8.94378428     1.69355631
O      7.68509983     6.67844527     4.87641036
O     -1.82603217     7.91451304     8.05096839
O     -0.01209783     6.71325780     0.10434852
O      1.93508903     7.82636635     3.24587029
O     -0.00337589     8.95833339     6.36070042
O     -0.00628994     8.94736548     1.70514550
O     -0.00112867     6.72255671     4.84671252
O      1.84011957     7.88509458     8.03994728
O      3.86815347     6.71410280     0.09951587
O      5.80573211     7.82805768     3.21815777
O      3.84123620     8.99071031     6.36432910
O      3.86556896     8.94715423     1.69389986
O      3.89958830     6.69233887     4.85831332
O      5.79601214     7.95631538     8.01421977
O      3.88001257     4.35144686     7.96786150
O      5.95089482     3.17572208     9.87537478
