84
CIF: CO+Olatt—CO2.cif | data_image0
Ce     1.93596140     1.11772783     0.89035214
Ce     0.01809163     2.23905148     4.05462911
Ce     5.80621709    10.04627849     7.19380323
Ce     5.80789581     1.11772783     0.89035214
Ce     3.86297141     2.22077203     4.03551313
Ce    -2.04938403     9.99248581     7.16754853
Ce     9.67981860     1.11772783     0.89035214
Ce     7.76189139     2.22421474     4.02886414
Ce     7.80670423     0.02355623     7.23317507
Ce    -0.00000000     4.47091133     0.89035214
Ce    -1.93594330     5.58467823     4.04399802
Ce    -1.90326324     3.31999354     7.19372416
Ce     3.87193441     4.47091133     0.89035214
Ce     1.95288577     5.57584710     4.06833141
Ce     1.96632086     3.33298780     7.29435296
Ce     7.74385721     4.47091133     0.89035214
Ce     5.81869430     5.59506676     4.00724158
Ce    -1.93596721     7.82410489     0.89035214
Ce    -3.87590326     8.93092282     4.00129746
Ce     7.72766149     6.72736965     7.16908900
Ce     1.93596721     7.82410489     0.89035214
Ce     0.00660914     8.94852919     4.05958718
Ce     0.01643425     6.70183309     7.24204671
Ce     5.80789000     7.82410489     0.89035214
Ce     3.87190032     8.93884786     4.03988843
Ce     3.89635167     6.70606048     7.21093691
Y      5.76241260     3.39037369     6.91335003
O      0.00000000     0.00000000     0.09999685
O      1.93456218     1.11164903     3.22328697
O     -0.02048694     2.19348134     6.41754016
O      0.00000000     2.23545567     1.68070743
O     -5.80068865    10.04833181     4.84277911
O      1.93183475     0.93384674     8.03763740
O      3.87192279     0.00000000     0.09999685
O      5.80741189     1.08358309     3.24149937
O      3.99933301     2.11670448     6.44577063
O      3.87192279     2.23545567     1.68070743
O     -1.96903869    10.01764650     4.83340228
O      6.30702598     1.39835995     8.49540912
O      7.74385721     0.00000000     0.09999685
O      9.68824225     1.10978955     3.23446699
O      7.74740274     2.25001323     6.31782436
O      7.74385721     2.23545567     1.68070743
O      1.95056005    10.02946159     4.85598955
O      9.68729528     1.10856489     8.01935928
O     -1.93596140     3.35318350     0.09999685
O      0.01675337     4.49373556     3.25217578
O     -2.07137657     5.53947338     6.43035874
O     -1.93596721     5.58864923     1.68070743
O     -1.89752724     3.35631578     4.83408920
O     -0.09817060     4.56621989     8.00036084
O      1.93596140     3.35318350     0.09999685
O      3.85210982     4.48777510     3.22411657
O      1.99495659     5.61966730     6.43221582
O      1.93595559     5.58864923     1.68070743
O      1.96884584     3.33258730     4.84811163
O      5.80789581     3.35318350     0.09999685
O      7.76966886     4.47589608     3.22795910
O      5.91112402     5.56620940     6.36434638
O      5.80789000     5.58864923     1.68070743
O      5.78423566     3.36158017     4.71163466
O      7.78281453     4.19875356     8.34754950
O     -3.87192860     6.70637706     0.09999685
O     -1.91151772     7.81467248     3.22432930
O     -3.89050793     8.89321188     6.36720633
O     -3.87192860     8.94183273     1.68070743
O     -3.86039556     6.72582667     4.80672423
O     -1.96804133     7.80238198     7.97437967
O     -0.00000581     6.70637706     0.09999685
O      1.92774699     7.80697083     3.25241267
O     -0.01583167     9.10116634     6.51129576
O     -0.00000581     8.94183273     1.68070743
O     -0.02122276     6.73290534     4.94195531
O      3.87192860     6.70637706     0.09999685
O      5.80158020     7.82736046     3.21369879
O      3.89264871     8.94219339     6.41642140
O      3.87192860     8.94183273     1.68070743
O      3.90623114     6.70569340     4.86498035
O      5.82337565     7.79021062     7.99303651
O      4.07895542     4.52440283     8.13122125
O      1.94355837     7.83387259     7.99888984
O      4.55124759     4.31864006    10.73813101
Ni     6.74381971     2.98144732     9.30998456
C      5.14936956     3.93438697     9.81318888
