82
CIF: Ni-W-CeO2.cif | data_image0
Ce     1.93596140     1.11772783     0.89035214
Ce     0.01508299     2.23396051     4.00249651
Ce     0.00189976     0.02166732     7.23133846
Ce     5.80789581     1.11772783     0.89035214
Ce     3.85202783     2.21709074     4.02422659
Ce    -1.97630681    10.05591925     7.26353971
Ce     9.67981860     1.11772783     0.89035214
Ce     7.81434413     2.20676558     4.04718273
Ce     7.82164187     0.00037691     7.22451735
Ce     0.00000000     4.47091133     0.89035214
Ce    -1.94535089     5.58128798     4.04910631
Ce     9.72931232     3.25252042     7.14268369
Ce     3.87193441     4.47091133     0.89035214
Ce     1.93855165     5.57760989     4.04703300
Ce     1.82807418     3.32055167     7.19672217
Ce     7.74385721     4.47091133     0.89035214
Ce     5.81121242     5.60279453     4.04680705
Ce    -1.93596721     7.82410489     0.89035214
Ce    -3.87889082     8.95071078     4.04437541
Ce    -3.86402202     6.78844287     7.20413157
Ce     1.93596721     7.82410489     0.89035214
Ce     0.00160060     8.94588210     4.08217594
Ce    -0.01886254     6.68849712     7.23743449
Ce     5.80789000     7.82410489     0.89035214
Ce     3.87553784     8.93301742     4.02968436
Ce     3.83036357     6.79701716     7.20563409
W      5.46448077     3.56556486     7.08868966
Ni     6.91858968     2.79204818     9.13361730
O      0.00000000     0.00000000     0.09999685
O      1.94997168     1.11997948     3.22061229
O     -0.01246043     2.23235830     6.35728874
O      0.00000000     2.23545567     1.68070743
O      0.01561590     0.01434952     4.86043715
O      1.83512192     1.22780629     8.03444214
O      3.87192279     0.00000000     0.09999685
O      5.80273513     1.18089891     3.27231561
O      3.91460475     2.42881920     6.45329412
O      3.87192279     2.23545567     1.68070743
O      3.85847152     0.04458501     4.86053433
O      5.84671393     1.79583504     8.00524708
O      7.74385721     0.00000000     0.09999685
O      9.69583569     1.11376938     3.23156074
O      8.08633828     2.11945992     6.25253859
O      7.74385721     2.23545567     1.68070743
O      1.92748247     9.98844331     4.77190786
O      9.86986339     1.15605844     8.13924464
O     -1.93596140     3.35318350     0.09999685
O      0.03083778     4.49898402     3.21592993
O     -2.05388715     5.50430253     6.50243717
O     -1.93596721     5.58864923     1.68070743
O     -1.83293551     3.40428623     4.78507453
O     -0.00224915     4.44316209     8.00454646
O      1.93596140     3.35318350     0.09999685
O      3.83931785     4.40200012     3.26703722
O      1.99257771     5.50839008     6.46388711
O      1.93595559     5.58864923     1.68070743
O      1.91592604     3.31422243     4.86589454
O      5.80789581     3.35318350     0.09999685
O      7.77783488     4.41786272     3.25942286
O      5.70046321     5.45971793     6.52210763
O      5.80789000     5.58864923     1.68070743
O      5.85596341     3.29308499     5.22170651
O      7.27012817     4.16293626     7.96877460
O     -3.87192860     6.70637706     0.09999685
O     -1.92690652     7.82427877     3.25626381
O     -3.89197625     8.94337480     6.45176030
O     -3.87192860     8.94183273     1.68070743
O     -3.83910040     6.75301023     4.93006860
O     -1.97936270     7.69265780     8.07964549
O     -0.00000581     6.70637706     0.09999685
O      1.90819205     7.78172158     3.23227626
O     -0.00499617     8.92788241     6.48600479
O     -0.00000581     8.94183273     1.68070743
O     -0.01764512     6.67014420     4.93480395
O      3.87192860     6.70637706     0.09999685
O      5.81382444     7.88904781     3.23078420
O      3.91870847     8.94378265     6.42843728
O      3.87192860     8.94183273     1.68070743
O      3.80743727     6.75248600     4.90570161
O      5.81947162     7.78862260     8.01174316
O      4.09480035     4.31982906     8.08987150
O      1.96694230     7.66408005     8.07135851
