85
CIF: Ni-Y-CeO2-O-CO.cif | data_image0
Ce     1.93596140     1.11772783     0.89035214
Ce    -0.00020679     2.23775390     4.03766814
Ce    11.61375361     0.00222121     7.19476899
Ce     5.80789581     1.11772783     0.89035214
Ce     3.87467571     2.22982021     4.03113136
Ce    -1.99278120    10.04553192     7.19455563
Ce     9.67981860     1.11772783     0.89035214
Ce     7.74517540     2.23408028     4.04636384
Ce     7.78589161     0.00191663     7.19998336
Ce     0.00000000     4.47091133     0.89035214
Ce    -1.94648851     5.58909946     4.05169359
Ce     9.69395939     3.31218890     7.20289870
Ce     3.87193441     4.47091133     0.89035214
Ce     1.93564485     5.58790187     4.03169407
Ce     1.94463521     3.37032681     7.18720765
Ce     7.74385721     4.47091133     0.89035214
Ce     5.81405329     5.58952822     4.03032570
Ce    -1.93596721     7.82410489     0.89035214
Ce    -3.87507172     8.94477140     4.01700629
Ce    -3.88774629     6.77022231     7.19226143
Ce     1.93596721     7.82410489     0.89035214
Ce    -0.00630662     8.94914853     4.05108993
Ce    -0.00237160     6.70550807     7.21153630
Ce     5.80789000     7.82410489     0.89035214
Ce     3.87010563     8.94010201     4.03686503
Ce     3.86092196     6.68943370     7.18690230
Y      5.70411859     3.41655580     7.01769448
O      0.00000000     0.00000000     0.09999685
O      1.93250145     1.11917252     3.22489639
O      0.01868051     2.22964288     6.39523713
O      0.00000000     2.23545567     1.68070743
O     -5.80367260    10.05729380     4.84795268
O      1.94378152     1.10230409     7.99602704
O      3.87192279     0.00000000     0.09999685
O      5.79951145     1.10213475     3.23904629
O      3.93299020     2.15811890     6.43209238
O      3.87192279     2.23545567     1.68070743
O     -1.95963611    10.04149991     4.84445070
O      6.14023219     1.20541674     8.34066227
O      7.74385721     0.00000000     0.09999685
O      9.68740310     1.11332809     3.23617367
O      7.73640842     2.23545736     6.29238159
O      7.74385721     2.23545567     1.68070743
O      1.93805496    10.01994324     4.83228687
O      9.72516931     1.08908336     7.99280677
O     -1.93596140     3.35318350     0.09999685
O      0.01129864     4.48572078     3.24049689
O     -2.03817666     5.56870479     6.46679468
O     -1.93596721     5.58864923     1.68070743
O     -1.90300042     3.37049832     4.83426696
O      0.03249743     4.49921238     7.97390337
O      1.93596140     3.35318350     0.09999685
O      3.85103659     4.48286764     3.21783792
O      1.90724494     5.60447042     6.35113811
O      1.93595559     5.58864923     1.68070743
O      1.96289395     3.33875240     4.86127738
O      5.80789581     3.35318350     0.09999685
O      7.75303262     4.48618296     3.23898125
O      5.90652787     5.57730252     6.43214557
O      5.80789000     5.58864923     1.68070743
O      5.76305874     3.38040198     4.77122969
O      7.82425321     4.11795196     8.34144145
O     -3.87192860     6.70637706     0.09999685
O     -1.93428383     7.82309319     3.22442728
O     -3.86984520     8.94272788     6.40243102
O     -3.87192860     8.94183273     1.68070743
O     -3.86797028     6.73774027     4.84404332
O     -1.96666324     7.84307144     8.00288033
O     -0.00000581     6.70637706     0.09999685
O      1.92825488     7.80546033     3.24054950
O     -0.03255517     9.03548018     6.46313670
O     -0.00000581     8.94183273     1.68070743
O     -0.04713923     6.73127650     4.89611786
O      3.87192860     6.70637706     0.09999685
O      5.80482427     7.82663718     3.22497465
O      3.88697694     8.92662399     6.39383693
O      3.87192860     8.94183273     1.68070743
O      3.89734097     6.68918655     4.86103900
O      5.82643860     7.82782819     7.99601195
O      1.92829630     7.78030973     7.97361885
O      3.81039528     4.50755869     7.90142091
O      8.17326655     2.20964383    11.59610007
O      7.43187151     2.54003424    13.80587412
Ni     7.21433637     2.52575862     9.01341458
C      7.80328267     2.37464613    12.70319238
