83
CIF: Os-Rh-CeO2-O.cif | data_image0
Ce     1.93038582     1.11050507     0.88387043
Ce    -0.01485389     2.23985161     4.03130336
Ce     0.00801824     0.02192290     7.23157722
Ce     5.81181033     1.12175166     0.90127712
Ce     3.83797428     2.20592310     4.00318551
Ce    -1.99261419    10.03572616     7.31276585
Ce     9.66901012     1.12377363     0.90450652
Ce     7.74234956     2.23271995     4.06443428
Ce     2.03171046     9.97740308     7.28715409
Ce    -0.00709724     4.47602159     0.89067279
Ce    -1.95918420     5.58754997     4.07963346
Ce    -1.84534398     3.30882824     7.27609287
Ce     3.86254305     4.47635356     0.87798423
Ce     1.93101660     5.58729826     4.05469246
Ce     1.82511164     3.34686112     7.22293997
Ce     7.74213807     4.46545905     0.90125422
Ce     5.81243726     5.63403400     3.99847849
Ce    -1.94645625     7.83004003     0.90010904
Ce    -3.87143453     8.96059501     4.04232511
Ce    -3.85099439     6.83372069     7.21882189
Ce     1.92815559     7.82745473     0.89060408
Ce    -0.01303981     8.95584034     4.10239662
Ce    -0.00786620     6.70289795     7.22410155
Ce     5.81127600     7.83258510     0.88371011
Ce     3.86962884     8.95051060     4.04141040
Ce     3.84116535     6.78852475     7.23219948
Rh     5.01115589     3.82817087     6.69084544
Os     6.45780685     2.99168624     8.24374976
O     11.61334069     0.00154917     0.10141687
O      1.92685905     1.12279633     3.21210437
O      0.03072203     2.24797811     6.33606261
O     -0.00785227     2.23805103     1.69392277
O      0.00135065     0.00280849     4.82566744
O      1.80833210     1.20189611     8.04868462
O     -1.93899312    10.05733740     0.10496691
O      5.80567787     1.14542298     3.24860453
O      3.84823511     2.27612354     6.44313440
O      3.86763657     2.23577757     1.68132582
O      3.85627999     0.02577644     4.82868851
O      6.00843841     1.21117573     8.43421285
O      7.73821774     0.00761509     0.10924988
O      9.67146694     1.11857164     3.23016531
O      7.61862951     2.30613867     6.73886341
O      7.74357843     2.23531483     1.71563532
O      7.75953223     0.07161194     4.86616060
O      9.84780283     1.02431982     8.06399939
O      9.67032270     3.35425987     0.10911246
O     -0.01964643     4.47725225     3.24999626
O     -2.02987855     5.60277710     6.44517470
O     -1.94403436     5.59119430     1.70564938
O      9.61382720     3.31458931     4.85100461
O      0.07939880     4.53656574     8.04140167
O      1.92738314     3.35244915     0.09928684
O      3.88949272     4.46325220     3.22238163
O      1.92601511     5.59918288     6.35406881
O      1.92862022     5.59252216     1.67404250
O      1.94902209     3.35043525     4.82697337
O      5.81155478     3.35101064     0.10766953
O      7.71280240     4.47283992     3.24509082
O      5.83668759     5.59859709     6.45818539
O      5.80528807     5.59217007     1.68114259
O      5.80471187     3.36165344     4.92289638
O      7.75425412     4.28595732     8.41542606
O     -3.87155109     6.71022987     0.10512724
O     -1.94659591     7.82455943     3.25565656
O     -3.87684345     8.93640716     6.40891868
O     -3.87509971     8.94378428     1.69355631
O      7.70843948     6.73410911     4.85556743
O     -1.99456773     7.72205152     8.09874865
O     -0.01209783     6.71325780     0.10434852
O      1.92536703     7.83276471     3.26550145
O     -0.00298433     8.92433330     6.46036557
O     -0.00628994     8.94736548     1.70514550
O     -0.03941439     6.70325048     4.87433882
O      1.96723203     7.69265453     8.07352117
O      3.86815347     6.71410280     0.09951587
O      5.80302129     7.83059904     3.21393451
O      3.91304179     8.88562494     6.36920910
O      3.86556896     8.94715423     1.69389986
O      3.89665616     6.68177359     4.84654843
O      5.83792917     7.83370263     8.02254412
O      3.76707466     4.54149487     8.02776306
O      5.55586832     3.49925454     9.65804086
