83
CIF: Co-Cr-CeO2-O.cif | data_image0
Ce     1.93038582     1.11050507     0.88387043
Ce    -0.00716959     2.23281429     4.02453773
Ce    -5.77941910    10.05428223     7.19547788
Ce     5.81181033     1.12175166     0.90127712
Ce     3.85257868     2.21610801     4.01296695
Ce    -1.89621141    10.05867846     7.31959303
Ce     9.66901012     1.12377363     0.90450652
Ce     7.72613349     2.24339443     4.09444499
Ce     1.99953148    10.02068344     7.22507129
Ce    -0.00709724     4.47602159     0.89067279
Ce    -1.94658391     5.58620841     4.05390111
Ce    -1.88586505     3.33106963     7.19965320
Ce     3.86254305     4.47635356     0.87798423
Ce     1.92800868     5.59123895     4.04693539
Ce     1.85592895     3.34433793     7.20645155
Ce     7.74213807     4.46545905     0.90125422
Ce     5.79888801     5.60633907     4.00375586
Ce    -1.94645625     7.83004003     0.90010904
Ce    -3.86369052     8.94465567     4.07907731
Ce    -3.83447412     6.68839333     7.22980325
Ce     1.92815559     7.82745473     0.89060408
Ce    -0.00925305     8.95126730     4.08221656
Ce    -0.00647498     6.69957139     7.20686706
Ce     5.81127600     7.83258510     0.88371011
Ce     3.87065235     8.94539036     4.03393784
Ce     3.84982700     6.75633783     7.21169510
Cr     5.17494729     3.72372883     6.75279860
Co     6.68431924     2.88673663     8.07042214
O     11.61334069     0.00154917     0.10141687
O      1.92873797     1.11339943     3.22170771
O     -0.01304093     2.24502964     6.34909162
O     -0.00785227     2.23805103     1.69392277
O     -5.79906593    10.05704822     4.84755061
O      1.84350728     1.20799069     7.97909509
O     -1.93899312    10.05733740     0.10496691
O      5.80942226     1.14212895     3.25252342
O      3.95262861     2.39302685     6.41657467
O      3.86763657     2.23577757     1.68132582
O      3.87202594     0.03840280     4.85923109
O      6.07549804     1.09452604     8.09663535
O      7.73821774     0.00761509     0.10924988
O      9.67074388     1.11697757     3.24228554
O      7.75265468     2.25830778     6.52356813
O      7.74357843     2.23531483     1.71563532
O      7.75275119     0.03398444     4.86703225
O      9.76227764     1.07633294     7.98932998
O      9.67032270     3.35425987     0.10911246
O     -0.00496241     4.47087831     3.23699208
O     -1.92231866     5.56911053     6.37733089
O     -1.94403436     5.59119430     1.70564938
O      9.64915000     3.33622011     4.84176036
O      0.01259061     4.45558599     8.00682989
O      1.92738314     3.35244915     0.09928684
O      3.86203958     4.47387700     3.21645410
O      1.91359478     5.59366106     6.39297470
O      1.92862022     5.59252216     1.67404250
O      1.93799888     3.34026527     4.85175284
O      5.81155478     3.35101064     0.10766953
O      7.71550703     4.46507437     3.24626351
O      5.72801287     5.44968442     6.39492789
O      5.80528807     5.59217007     1.68114259
O      5.75036087     3.38149789     4.90741422
O      7.86889479     4.40212468     8.01870647
O     -3.87155109     6.71022987     0.10512724
O     -1.95341115     7.82542337     3.26479911
O     -3.87905806     8.90530165     6.42274198
O     -3.87509971     8.94378428     1.69355631
O      7.70490277     6.68200497     4.89133475
O     -1.94474035     7.67644850     8.04061112
O     -0.01209783     6.71325780     0.10434852
O      1.93266699     7.83061111     3.24659864
O      0.05371991     8.89513905     6.42196404
O     -0.00628994     8.94736548     1.70514550
O     -0.01066168     6.70196431     4.84165145
O      1.98656419     7.78899006     8.03095878
O      3.86815347     6.71410280     0.09951587
O      5.80945068     7.82725326     3.22643842
O      3.89246887     8.92473310     6.38131805
O      3.86556896     8.94715423     1.69389986
O      3.87608213     6.70534156     4.85320521
O      5.82071721     7.75301132     7.95106180
O      3.89302758     4.46840596     7.87334750
O      6.07684492     3.26145925     9.54631318
