82
CIF: O2 — 2Olat.cif | data_image0
O      0.42318360     0.48660586     0.59999690
O      2.34620135     1.63509381     3.76214459
O      0.33206835     2.63185982     6.91249574
O      0.42318360     2.69562213     2.16203261
O      0.44709727     0.47317286     5.33953342
O      2.36472210     1.08833209     8.76776005
O      4.24942679     0.48660586     0.59999690
O      6.16069202     1.57988101     3.73619100
O      4.10067115     2.77751771     6.98410863
O      4.24942679     2.69562213     2.16203261
O      4.25298611     0.53228826     5.41245029
O      6.15639177     1.64601003     8.52487114
O      8.07555519     0.48660586     0.59999690
O      9.98567809     1.58438204     3.76011894
O      8.10857531     2.68916252     6.91323256
O      8.07555519     2.69562213     2.16203261
O      8.05150242     0.46974831     5.39195651
O      9.94623704     1.55976351     8.61744652
O     -1.48988060     3.80013026     0.59999690
O      0.45775073     4.89056081     3.75852923
O     -1.55559604     6.03830788     6.87035382
O     -1.48993800     6.00924593     2.16203261
O     -1.50155885     3.81504999     5.34321658
O      2.33636259     3.80013026     0.59999690
O      4.24303907     4.90049036     3.73516934
O      2.32074647     5.81974096     7.09598117
O      2.33630519     6.00924593     2.16203261
O      2.41300102     3.86949323     5.49003714
O      4.21700826     4.83686138     8.43425538
O      6.16249099     3.80013026     0.59999690
O      8.04827263     4.88723001     3.73924665
O      6.13367601     6.00756728     6.93463082
O      6.16243360     6.00924593     2.16203261
O      6.14174770     3.75645702     5.40613206
O      8.00984175     4.88368299     8.56799530
O     -3.40300220     7.11375407     0.59999690
O     -1.47493118     8.21813977     3.77384507
O     -3.41434180     9.23864972     6.86038837
O     -3.40300220     9.32277033     2.16203261
O     -3.44643757     7.08204756     5.32978031
O     -1.57030310     8.17449151     8.62812844
O      0.42324099     7.11375407     0.59999690
O      2.32950919     8.22366950     3.73647730
O      0.36851089     9.28876810     7.00275095
O      0.42324099     9.32277033     2.16203261
O      0.48149171     7.08427771     5.42312938
O      2.44347390     8.32678258     8.53443061
O      4.24936940     7.11375407     0.59999690
O      6.12516782     8.19744529     3.74697424
O      4.29486197     9.35003606     6.90604335
O      4.24936940     9.32277033     2.16203261
O      4.17256351     7.10127113     5.43457069
O      6.12831145     8.18072830     8.58553649
O     -0.10682682     5.08954638     8.83564696
O      1.89132244     6.25854325     9.41449557
Ce     2.33624780     1.59111400     1.38101475
Ce     0.40694758     2.68520987     4.63726956
Ce     0.46793303     0.54493382     7.79294256
Ce     6.16249099     1.59111400     1.38101475
Ce     4.26370492     2.66631214     4.51408478
Ce     4.16540588     0.41789755     7.84045900
Ce     9.98861940     1.59111400     1.38101475
Ce     8.08322409     2.68951494     4.54509846
Ce     8.08744437     0.51190220     7.75890145
Ce     0.42318360     4.90463839     1.38101475
Ce    -1.49653450     5.99916690     4.56341407
Ce    -1.44245578     3.77568466     7.79435278
Ce     4.24942679     4.90463839     1.38101475
Ce     2.31468288     6.04058338     4.51361896
Ce     8.07555519     4.90463839     1.38101475
Ce     6.14588763     5.99906683     4.56123485
Ce     6.26910498     3.75597365     7.75415660
Ce    -1.48993800     8.21826220     1.38101475
Ce    -3.41103335     9.31537858     4.56156537
Ce    -3.43976236     7.08751332     7.74036312
Ce     2.33630519     8.21826220     1.38101475
Ce     0.41173582     9.31146726     4.61475578
Ce     0.28830023     7.07581397     7.87339693
Ce     6.16243360     8.21826220     1.38101475
Ce     4.25120733     9.32789930     4.56055491
Ce     4.28409847     7.23705009     7.78492152
Co     3.15708739     4.25896858     7.15671905
