90
CIF: CH2CHCH2→CH2CCH2+H.cif | data_image0
O      0.00261135     0.00382715     0.19995339
O      1.92993174     1.10927220     3.33836517
O      0.23050969     2.38156965     6.52162392
O      0.00261135     2.21285656     1.76196664
O     -0.00431248     0.05461006     4.95567708
O      1.92633963     1.52806797     8.37871317
O      3.82876252     0.00382715     0.19995339
O      5.74728523     1.10343216     3.32630882
O      3.57936288     2.39382725     6.56739812
O      3.82876252     2.21285656     1.76196664
O      3.86332001     0.05200928     4.98892034
O      5.84181281     1.04769469     8.20919108
O      7.65492518     0.00382715     0.19995339
O      9.56168788     1.10693602     3.31514969
O      7.68819056     2.21890656     6.49728681
O      7.65492518     2.21285656     1.76196664
O      7.66375309     0.01192548     4.95572278
O      9.52466246     1.22265579     8.17383668
O     -1.91046424     3.31737126     0.19995339
O      0.00473652     4.41793993     3.32835886
O     -1.83478810     5.41566219     6.56850301
O     -1.91046998     5.52641062     1.76196664
O     -1.87918169     3.26881233     4.97362341
O      0.45921030     4.16496572     8.37894343
O      1.91568694     3.31737126     0.19995339
O      3.82995437     4.42978737     3.34159187
O      2.00095106     5.25535563     6.52394591
O      1.91568120     5.52641062     1.76196664
O      1.90473348     3.32182708     4.94062133
O      3.51468665     4.29034950     8.43268360
O      5.74184959     3.31737126     0.19995339
O      7.66108077     4.42844299     3.36407927
O      5.67268081     5.53145679     6.56811232
O      5.74184385     5.52641062     1.76196664
O      5.71864040     3.28786200     4.96729011
O      7.74562650     4.44167221     8.22178438
O     -3.82354556     6.63092532     0.19995339
O     -1.91097084     7.73175197     3.37713279
O     -3.81699746     8.86166268     6.55245847
O     -3.82354556     8.83995473     1.76196664
O     -3.80043736     6.60637267     5.03093023
O     -1.98330738     7.66538635     8.24024445
O      0.00260561     6.63092532     0.19995339
O      1.92302061     7.74389356     3.32703615
O      0.06405521     8.82247288     6.53018044
O      0.00260561     8.83995473     1.76196664
O      0.05367305     6.60478115     4.96917782
O      2.07571414     7.72290042     8.19298945
O      3.82876826     6.63092532     0.19995339
O      5.75862593     7.72716364     3.37461442
O      3.83260217     8.85386354     6.51076149
O      3.82876826     8.83995473     1.76196664
O      3.79763917     6.64733118     4.98054499
O      5.73041880     7.65275938     8.24047672
Ce     1.91568694     1.10834185     0.98097142
Ce    -0.00924132     2.19561997     4.10725925
Ce    11.47087913     0.00545609     7.40610061
Ce     5.74184959     1.10834185     0.98097142
Ce     3.85197115     2.20630246     4.13019725
Ce    -1.83832677     9.89083804     7.39838018
Ce     9.56800076     1.10834185     0.98097142
Ce     7.65036722     2.21179679     4.14405581
Ce     7.65919461     0.01501390     7.34160007
Ce     0.00261135     4.42188597     0.98097142
Ce    -1.88891256     5.51719897     4.18381091
Ce     9.51006744     3.28843759     7.34638672
Ce     3.82877400     4.42188597     0.98097142
Ce     1.91817278     5.55139159     4.11508114
Ce     7.65492518     4.42188597     0.98097142
Ce     5.74530106     5.51977959     4.18670511
Ce     5.78206526     3.28147699     7.41259359
Ce    -1.91046998     7.73544003     0.98097142
Ce    -3.81426856     8.84777499     4.20357787
Ce    -3.79572527     6.63041586     7.39884396
Ce     1.91569268     7.73544003     0.98097142
Ce     0.01141553     8.83437092     4.17142842
Ce     0.05097677     6.63023614     7.42973748
Ce     5.74184385     7.73544003     0.98097142
Ce     3.83923403     8.85403150     4.14698267
Ce     3.87723396     6.72432270     7.33597458
Ta     1.89507974     3.33608655     6.98254549
C      3.31592730     4.51586376     9.83333124
C      2.10294892     3.82781872    10.36722931
C      2.05382276     2.99242220    11.40197985
H      3.21392411     5.60663397    10.04167329
H      4.21785031     4.17756945    10.39718722
H      0.98937633     4.06306334     9.36655499
H      1.94361774     1.83641519     9.30982972
H      1.12307218     2.53034162    11.74846891
H      2.96010721     2.73174542    11.97456278
