82
CIF: Ti-W-CeO2.cif | data_image0
Ce     1.93596140     1.11772783     0.89035214
Ce    -0.02266676     2.20890094     4.04649675
Ce    -5.58137909     9.93153810     7.18822174
Ce     5.80789581     1.11772783     0.89035214
Ce     3.81380461     2.17045194     3.97706124
Ce    -1.97875036     9.95500265     7.32752135
Ce     9.67981860     1.11772783     0.89035214
Ce     7.75069855     2.24195894     4.03841508
Ce     1.97926741     9.89637146     7.30455337
Ce     0.00000000     4.47091133     0.89035214
Ce    -1.94609758     5.57206711     4.05294019
Ce    -1.73491377     3.46099341     7.27459240
Ce     3.87193441     4.47091133     0.89035214
Ce     1.94087229     5.59614837     4.06407063
Ce     1.84390613     3.29783832     7.22063367
Ce     7.74385721     4.47091133     0.89035214
Ce     5.81431795     5.61637718     4.04310732
Ce    -1.93596721     7.82410489     0.89035214
Ce    -3.84603099     8.90149128     4.01718986
Ce    -3.73440569     6.71949363     7.32220974
Ce     1.93596721     7.82410489     0.89035214
Ce     0.00761998     8.96064535     4.07659199
Ce     0.05890649     6.70715935     7.24176819
Ce     5.80789000     7.82410489     0.89035214
Ce     3.88767577     8.94770264     4.05536805
Ce     3.88007268     6.73840421     7.30929636
W      5.34728492     3.45027026     6.96794312
Ti     7.42111866     2.86264116     8.89397123
O      0.00000000     0.00000000     0.09999685
O      1.91551176     1.10110106     3.21762198
O     -0.03913580     2.07865168     6.52803194
O      0.00000000     2.23545567     1.68070743
O     -5.73092597    10.01413254     4.89610677
O      1.88934508     1.14068483     8.09719636
O      3.87192279     0.00000000     0.09999685
O      5.74330987     1.10116079     3.24310151
O      3.99243538     2.19489942     6.49514353
O      3.87192279     2.23545567     1.68070743
O      3.84916965     0.00058493     4.85036622
O      5.57890553     2.58945903     8.76156588
O      7.74385721     0.00000000     0.09999685
O      9.75098813     1.07321700     3.24791852
O      7.21729066     2.65953611     6.94931428
O      7.74385721     2.23545567     1.68070743
O      1.97121698    10.03217976     4.93511921
O      8.70831757     1.61343196     8.85945762
O     -1.93596140     3.35318350     0.09999685
O      0.01964116     4.46426493     3.27199561
O     -1.91300754     5.61565504     6.48122310
O     -1.93596721     5.58864923     1.68070743
O     -1.88199755     3.33965299     4.91986658
O      0.16522748     4.47314309     8.11590400
O      1.93596140     3.35318350     0.09999685
O      3.78263874     4.41858637     3.25627225
O      1.89362157     5.52328263     6.38794335
O      1.93595559     5.58864923     1.68070743
O      1.91389194     3.23684501     4.94093971
O      5.80789581     3.35318350     0.09999685
O      7.80384070     4.50713374     3.23697472
O      5.97708128     5.21099908     6.73667742
O      5.80789000     5.58864923     1.68070743
O      5.62740676     3.32758386     5.04531180
O      8.10053114     4.50159733     8.77897245
O     -3.87192860     6.70637706     0.09999685
O     -1.93148241     7.80674780     3.25071677
O     -3.78742162     8.88819494     6.44437439
O     -3.87192860     8.94183273     1.68070743
O     -3.84546091     6.71597109     4.98207703
O     -1.91749364     7.70005649     8.17415412
O     -0.00000581     6.70637706     0.09999685
O      1.94405381     7.82398615     3.25835574
O     -0.00630475     8.97142225     6.52076618
O     -0.00000581     8.94183273     1.68070743
O      0.00259373     6.74280759     4.89044638
O      3.87192860     6.70637706     0.09999685
O      5.81908754     7.89360059     3.22377681
O      3.99838492     9.13252494     6.65002538
O      3.87192860     8.94183273     1.68070743
O      3.87538177     6.79804373     4.95761577
O      6.03182981     7.77371734     8.05059324
O      3.88069757     4.32727753     7.83304725
O      1.87435951     7.72793195     8.13768353
