83
CIF: Cu-Ti-CeO2-Ov-O2.cif | data_image0
Ce     1.93038582     1.11050507     0.88387043
Ce    -0.01993808     2.23977424     4.04690586
Ce    -5.79350376    10.04824289     7.17298239
Ce     5.81181033     1.12175166     0.90127712
Ce     3.84696059     2.23123735     4.00614706
Ce     3.91517537     0.02615478     7.22904137
Ce     9.66901012     1.12377363     0.90450652
Ce     7.74049702     2.24160575     4.04156127
Ce     1.93441683    10.03059222     7.27201982
Ce    -0.00709724     4.47602159     0.89067279
Ce    -1.95463731     5.58787082     4.07330752
Ce     9.67485103     3.35726073     7.29177818
Ce     3.86254305     4.47635356     0.87798423
Ce     1.93750014     5.59256844     4.06488223
Ce     1.85551334     3.33950916     7.19460686
Ce     7.74213807     4.46545905     0.90125422
Ce     5.79522508     5.62448260     4.01643797
Ce    -1.94645625     7.83004003     0.90010904
Ce    -3.86748477     8.95008887     4.05321651
Ce    -3.83500077     6.75490731     7.23778820
Ce     1.92815559     7.82745473     0.89060408
Ce    -0.00332249     8.96192347     4.06128484
Ce     0.00245941     6.71319657     7.22948062
Ce     5.81127600     7.83258510     0.88371011
Ce     3.86293485     8.93971241     4.07114611
Ce     3.88218921     6.70762689     7.27802549
Ti     5.76935486     3.39024232     6.65194547
Cu     6.94687396     2.64999139     8.80550738
O     11.61334069     0.00154917     0.10141687
O      1.91360341     1.11403958     3.21856323
O     -0.00426931     2.21440437     6.41039983
O     -0.00785227     2.23805103     1.69392277
O     -5.79547197    10.05687543     4.86069299
O      2.01730528     1.14120952     7.92261413
O     -1.93899312    10.05733740     0.10496691
O      5.80444520     1.10004294     3.23652385
O      4.14669921     2.32415995     6.38759585
O      3.86763657     2.23577757     1.68132582
O      3.85062628     0.04776015     4.87095811
O      6.09191289     0.96404271     8.37067747
O      7.73821774     0.00761509     0.10924988
O      9.68434358     1.11676314     3.24500218
O      7.42040662     2.42115147     6.35006543
O      7.74357843     2.23531483     1.71563532
O      7.75735671     0.03012494     4.88865288
O      9.65415830     1.13438792     7.96242766
O      9.67032270     3.35425987     0.10911246
O     -0.00734182     4.47727546     3.26548719
O     -2.00663676     5.59686988     6.45445121
O     -1.94403436     5.59119430     1.70564938
O      9.65067419     3.33848952     4.88932997
O     -0.00791887     4.46632666     8.00605897
O      1.92738314     3.35244915     0.09928684
O      3.82030525     4.49415549     3.20715581
O      1.90201260     5.53227040     6.39926636
O      1.92862022     5.59252216     1.67404250
O      1.94924602     3.30227369     4.87017243
O      5.81155478     3.35101064     0.10766953
O      7.75846621     4.49807192     3.24243227
O      5.90969082     5.30198962     6.39599458
O      5.80528807     5.59217007     1.68114259
O      5.74723367     3.39039555     4.66134028
O      8.01136219     4.20620149     8.42621031
O     -3.87155109     6.71022987     0.10512724
O     -1.94227648     7.82874519     3.26137771
O     -3.81917557     8.96222787     6.40185762
O     -3.87509971     8.94378428     1.69355631
O      7.70968763     6.73180071     4.89158076
O     -1.93254459     7.86101090     8.00867060
O     -0.01209783     6.71325780     0.10434852
O      1.92530617     7.82569568     3.26127103
O     -0.04410795     9.01917463     6.40643232
O     -0.00628994     8.94736548     1.70514550
O     -0.02395206     6.72469588     4.89761192
O      1.81944224     7.83488600     7.99999994
O      3.86815347     6.71410280     0.09951587
O      5.80879701     7.84402790     3.22833491
O      3.91204223     8.97461607     6.43126466
O      3.86556896     8.94715423     1.69389986
O      3.89915545     6.70149252     4.85321914
O      5.97499147     7.82563294     7.98188665
O      3.65603059     4.38485111     8.24618402
O      4.99876303     3.79536018     8.40079858
