82
CIF: 2.1-Re-CeO2-2Ov+CO2.cif | data_image0
O      0.55978923     0.45000431     0.59999690
O      2.47479570     1.48987317     3.75633514
O      0.79226981     2.63923188     7.13029872
O      0.55978923     2.65902057     2.16203261
O      0.54860105     0.38129970     5.45996972
O      1.68939790     0.79862194    10.52736565
O      4.38603242     0.45000431     0.59999690
O      6.35510164     1.50747105     3.75545210
O      3.08629555     2.22063176     8.36304644
O      4.38603242     2.65902057     2.16203261
O      4.39104285     0.51102688     5.56471431
O      6.06750034     1.53734700     8.60254238
O      8.21216082     0.45000431     0.59999690
O     10.06725729     1.51320010     3.76629355
O      8.22145990     2.64523129     7.01848458
O      8.21216082     2.65902057     2.16203261
O      8.20948129     0.41197340     5.41537461
O     10.28765780     1.45070962     8.71017858
O     -1.35327498     3.76352871     0.59999690
O      0.59403787     4.91678037     3.74994045
O     -1.36827978     6.00147639     7.01712862
O     -1.35333237     5.97264438     2.16203261
O     -1.38331675     3.78830820     5.42918134
O      1.18404947     4.77699685     8.61528116
O      2.47296821     3.76352871     0.59999690
O      4.36900797     4.94229180     3.71981764
O      3.89748786     4.78719554     8.08792560
O      2.47291082     5.97264438     2.16203261
O      2.60246562     4.00441971     5.85433227
O      6.29909662     3.76352871     0.59999690
O      8.19248542     4.88433468     3.79936537
O      6.30968721     6.06769519     6.99996456
O      6.29903923     5.97264438     2.16203261
O      6.26577822     3.77641964     5.49265923
O      8.19243101     4.99535906     8.76407545
O     -3.26639657     7.07715251     0.59999690
O     -1.31081296     8.19357231     3.83877193
O     -3.28106976     9.34944994     7.11822257
O     -3.26639657     9.28616878     2.16203261
O     -3.25823545     7.11635883     5.43916606
O     -1.41202388     8.20773425     8.80299406
O      0.55984662     7.07715251     0.59999690
O      2.46724225     8.19830919     3.72374352
O      0.52393875     9.22986875     6.98958307
O      0.55984662     9.28616878     2.16203261
O      0.73172541     6.98157934     5.51141847
O      2.62641369     7.90064476     8.58581952
O      4.38597502     7.07715251     0.59999690
O      6.26782062     8.15187188     3.79864506
O      4.44324838     9.24498309     6.95692117
O      4.38597502     9.28616878     2.16203261
O      4.22819525     7.00804481     5.51210851
O      6.28028629     8.17607213     8.72556185
O      2.58560926     2.69806287    11.58812501
Ce     2.47285343     1.55451244     1.38101475
Ce     0.53249087     2.63254848     4.57120488
Ce     0.46312795     0.36868464     7.80565177
Ce     6.29909662     1.55451244     1.38101475
Ce     4.42013485     2.65431105     4.48202838
Ce     4.47007924     0.28428153     7.84294358
Ce    10.12522502     1.55451244     1.38101475
Ce     8.20747840     2.65682259     4.62212001
Ce     8.21809831     0.42062017     7.85985429
Ce     0.55978923     4.86803684     1.38101475
Ce    -1.34027027     5.95893837     4.63798374
Ce    -1.41166731     3.72292953     7.84024209
Ce     4.38603242     4.86803684     1.38101475
Ce     2.46878395     6.03086069     4.41993332
Ce     8.21216082     4.86803684     1.38101475
Ce     6.29434100     5.95983658     4.60642365
Ce     6.38408468     3.80757558     7.88811999
Ce    -1.35333237     8.18166064     1.38101475
Ce    -3.27089459     9.30583516     4.61043444
Ce    -3.25556241     7.06462579     7.85202944
Ce     2.47291082     8.18166064     1.38101475
Ce     0.57768724     9.29692116     4.61266708
Ce     0.49130404     7.12963878     7.92335183
Ce     6.29903923     8.18166064     1.38101475
Ce     4.37525641     9.29688623     4.57173220
Ce     4.49233312     7.14614951     7.81462896
Re     2.33449057     3.73965165     7.69876436
C      2.14201994     1.75665089    11.04836564
