81
CIF: Y-CeO2.cif | data_image0
O      0.55978538     0.45000321     0.60000009
O      2.47272328     1.55368546     3.74142610
O      0.55473129     2.65620183     6.93149928
O      0.55978538     2.65901948     2.16203581
O      0.56103093     0.44755305     5.37899785
O      2.47375874     1.51614698     8.56057251
O      4.38602857     0.45000321     0.60000009
O      6.29983112     1.55392192     3.74336160
O      4.39136990     2.65621592     6.93103604
O      4.38602857     2.65901948     2.16203581
O      4.38465702     0.44753308     5.37873376
O      6.29875571     1.55477262     8.57126832
O      8.21215698     0.45000321     0.60000009
O     10.12461601     1.55402708     3.74326571
O      8.21224777     2.65883155     6.93508710
O      8.21215698     2.65901948     2.16203581
O      8.21236371     0.45010978     5.38115578
O     10.12580205     1.55471869     8.57125509
O     -1.35327882     3.76352761     0.60000009
O      0.55917378     4.86860085     3.74137960
O     -1.35907924     5.97580924     6.92473701
O     -1.35333621     5.97264328     2.16203581
O     -1.35497163     3.76598519     5.37856152
O      0.52480756     4.88803006     8.56053078
O      2.47296437     3.76352761     0.60000009
O      4.38653954     4.86885288     3.74146924
O      2.47288765     5.97801904     6.93143030
O      2.47290698     5.97264328     2.16203581
O      2.47279492     3.76332930     5.37668820
O      4.41940745     4.88636688     8.56067054
O      6.29909277     3.76352761     0.60000009
O      8.21218266     4.86984172     3.74050907
O      6.30419180     5.97553487     6.92494466
O      6.29903538     5.97264328     2.16203581
O      6.30079746     3.76598572     5.37855737
O      8.21177532     4.87483792     8.57141942
O     -3.26640042     7.07715142     0.60000009
O     -1.35467718     8.18082096     3.74068521
O     -3.26647104     9.28026475     6.92500103
O     -3.26640042     9.28616768     2.16203581
O     -3.26648071     7.07718048     5.38309754
O     -1.35907024     8.17838017     8.57101106
O      0.55984277     7.07715142     0.60000009
O      2.47286932     8.18210229     3.74351783
O      0.56011745     9.28646746     6.93495525
O      0.55984277     9.28616768     2.16203581
O      0.55667365     7.07723304     5.37891750
O      2.47286510     8.18098087     8.57094048
O      4.38597118     7.07715142     0.60000009
O      6.30050767     8.18082571     3.74052318
O      4.38595393     9.28607383     6.93522571
O      4.38597118     9.28616768     2.16203581
O      4.38891634     7.07727805     5.37894691
O      6.30493007     8.17810573     8.57128266
Ce     2.47284958     1.55451135     1.38101795
Ce     0.56344833     2.66123838     4.57104165
Ce     0.56814123     0.46378938     7.75606788
Ce     6.29909277     1.55451135     1.38101795
Ce     4.38213600     2.66124824     4.57102970
Ce     4.37780650     0.46378446     7.75603265
Ce    10.12522118     1.55451135     1.38101795
Ce     8.21212382     2.65964986     4.56398602
Ce     8.21224496     0.44993608     7.75543142
Ce     0.55978538     4.86803574     1.38101795
Ce    -1.35175306     5.97168447     4.55938149
Ce    -1.33743045     3.76406838     7.75601767
Ce     4.38602857     4.86803574     1.38101795
Ce     2.47286967     5.96823127     4.57111334
Ce     8.21215698     4.86803574     1.38101795
Ce     6.29746142     5.97163691     4.55937390
Ce     6.28326977     3.76383989     7.75605666
Ce    -1.35333621     8.18165955     1.38101795
Ce    -3.26636273     9.28808966     4.55939532
Ce    -3.26645025     7.07716040     7.75537236
Ce     2.47290698     8.18165955     1.38101795
Ce     0.55929878     9.28588360     4.56401905
Ce     0.56725408     7.06305702     7.75589286
Ce     6.29903538     8.18165955     1.38101795
Ce     4.38659179     9.28576224     4.56401416
Ce     4.37829008     7.06302490     7.75597610
Y      2.47272988     3.76342813     7.70161273
