80
CIF: Y-CeO2-Ov.cif | data_image0
O      0.55978923     0.45000431     0.59999690
O      2.48261722     1.54250601     3.73493793
O      0.49945109     2.62486266     6.88141729
O      0.55978923     2.65902057     2.16203261
O      0.56605480     0.43516202     5.35289676
O      2.43525055     1.51128577     8.54977467
O      4.38603242     0.45000431     0.59999690
O      6.29071135     1.54736936     3.74001540
O      4.35786407     2.83296074     7.07147727
O      4.38603242     2.65902057     2.16203261
O      4.38612744     0.52566323     5.42344844
O      6.31943133     1.48605897     8.59188703
O      8.21216082     0.45000431     0.59999690
O     10.12055316     1.55152194     3.72516826
O      8.26021799     2.63017125     6.91297837
O      8.21216082     2.65902057     2.16203261
O      8.20715852     0.44705593     5.36235998
O     10.12331018     1.55230780     8.60231238
O     -1.35327498     3.76352871     0.59999690
O      0.55362673     4.88269044     3.73450173
O     -1.34789471     5.99960613     6.90960431
O     -1.35333237     5.97264438     2.16203261
O     -1.36275092     3.77684510     5.35188544
O      0.50360934     4.85958674     8.54944301
O      2.47296821     3.76352871     0.59999690
O      4.38790349     4.86914137     3.76487330
O      2.61281413     5.86201866     7.07352001
O      2.47291082     5.97264438     2.16203261
O      2.42985197     3.74005574     5.33050573
O      6.29909662     3.76352871     0.59999690
O      8.21080103     4.88091171     3.73384954
O      6.17011786     5.90114969     7.07117551
O      6.29903923     5.97264438     2.16203261
O      6.33318612     3.74784801     5.34921842
O      8.29730814     4.89834792     8.59258662
O     -3.26639657     7.07715251     0.59999690
O     -1.34984579     8.18321428     3.78985787
O     -3.23939795     9.27815891     6.91046605
O     -3.26639657     9.28616878     2.16203261
O     -3.32627577     7.04394830     5.41824193
O     -1.35449411     8.18096696     8.57967523
O      0.55984662     7.07715251     0.59999690
O      2.46276599     8.17803520     3.73968297
O      0.53957403     9.27528563     6.91549438
O      0.55984662     9.28616878     2.16203261
O      0.62766712     7.03923319     5.42423651
O      2.42323340     8.23084177     8.59099115
O      4.38597502     7.07715251     0.59999690
O      6.30901873     8.17392013     3.73376947
O      4.38419198     9.33874884     6.91357864
O      4.38597502     9.28616878     2.16203261
O      4.38826946     7.11342335     5.35019471
O      6.36665426     8.23923461     8.59173725
Ce     2.47285343     1.55451244     1.38101475
Ce     0.54635397     2.65153417     4.52284095
Ce     0.57938545     0.46361762     7.76953352
Ce     6.29909662     1.55451244     1.38101475
Ce     4.38102011     2.67202358     4.58285122
Ce     4.36821645     0.47178910     7.76981100
Ce    10.12522502     1.55451244     1.38101475
Ce     8.21888767     2.65537287     4.52535827
Ce     8.20325344     0.44540861     7.76412937
Ce     0.55978923     4.86803684     1.38101475
Ce    -1.35290694     5.96471214     4.56520724
Ce    -1.33222356     3.77409035     7.76938505
Ce     4.38603242     4.86803684     1.38101475
Ce     2.48159801     5.96146760     4.58200478
Ce     8.21216082     4.86803684     1.38101475
Ce     6.29274772     5.96876117     4.56901884
Ce     6.44359829     3.67648150     7.70672747
Ce    -1.35333237     8.18166064     1.38101475
Ce    -3.27310718     9.29060053     4.56548360
Ce    -3.25087586     7.08590045     7.77844759
Ce     2.47291082     8.18166064     1.38101475
Ce     0.56789100     9.29091909     4.57300472
Ce     0.56887071     7.05122563     7.77014780
Ce     6.29903923     8.18166064     1.38101475
Ce     4.38596558     9.29373973     4.52501436
Ce     4.38275015     7.24536614     7.70485896
Y      2.27656588     3.65000362     7.57626737
