83
CIF: Y-CeO2-Ov+CO2.cif | data_image0
O      0.55978923     0.45000431     0.59999690
O      2.48197223     1.54467977     3.74404775
O      0.50625836     2.63042782     6.88761628
O      0.55978923     2.65902057     2.16203261
O      0.56711486     0.43815731     5.35782042
O      2.41926742     1.51134550     8.58178660
O      4.38603242     0.45000431     0.59999690
O      6.28941467     1.54526600     3.74888378
O      4.32752005     2.75365204     7.03120530
O      4.38603242     2.65902057     2.16203261
O      4.38638723     0.48754566     5.41657854
O      6.30879762     1.41311383     8.62574684
O      8.21216082     0.45000431     0.59999690
O     10.11938002     1.55660255     3.72800895
O      8.27408674     2.62292602     6.92465013
O      8.21216082     2.65902057     2.16203261
O      8.20347905     0.44447289     5.36481119
O     10.13109717     1.54996377     8.60666711
O     -1.35327498     3.76352871     0.59999690
O      0.55501937     4.88028035     3.72926045
O     -1.33633316     6.00570063     6.90315446
O     -1.35333237     5.97264438     2.16203261
O     -1.35934086     3.78170714     5.35616566
O      0.52593098     4.87594354     8.54232976
O      2.47296821     3.76352871     0.59999690
O      4.38686785     4.87248779     3.76302744
O      2.68713890     5.86744851     7.10260483
O      2.47291082     5.97264438     2.16203261
O      2.42667086     3.75802079     5.33770087
O      4.46885512     4.83250867     9.84349901
O      6.29909662     3.76352871     0.59999690
O      8.21302373     4.88124844     3.73674847
O      6.16414759     5.97688726     7.05204468
O      6.29903923     5.97264438     2.16203261
O      6.32324922     3.76132421     5.34633627
O      8.33657157     4.94613971     8.61060600
O     -3.26639657     7.07715251     0.59999690
O     -1.34322423     8.17492328     3.78507323
O     -3.25835661     9.26928679     6.93625498
O     -3.26639657     9.28616878     2.16203261
O     -3.31303635     7.04728969     5.41402713
O     -1.34547571     8.16393810     8.58817410
O      0.55984662     7.07715251     0.59999690
O      2.46605672     8.17912246     3.73453902
O      0.55364107     9.25111675     6.92096726
O      0.55984662     9.28616878     2.16203261
O      0.64821707     7.02457911     5.43166327
O      2.49003628     8.20572465     8.58215324
O      4.38597502     7.07715251     0.59999690
O      6.30647743     8.17588625     3.73732449
O      4.38297463     9.33326876     6.90482818
O      4.38597502     9.28616878     2.16203261
O      4.37926002     7.12454305     5.35425597
O      6.27728160     8.23041241     8.60384861
O      4.41077086     4.74390973    12.19446741
Ce     2.47285343     1.55451244     1.38101475
Ce     0.54839697     2.65376699     4.52586271
Ce     0.57091604     0.47455118     7.77876220
Ce     6.29909662     1.55451244     1.38101475
Ce     4.38352897     2.66544555     4.59781843
Ce     4.37142031     0.46028255     7.77253057
Ce    10.12522502     1.55451244     1.38101475
Ce     8.20897188     2.66107089     4.54340704
Ce     8.19953952     0.45396633     7.76494380
Ce     0.55978923     4.86803684     1.38101475
Ce    -1.34959129     5.96412838     4.56091134
Ce    -1.33703079     3.78189824     7.76038509
Ce     4.38603242     4.86803684     1.38101475
Ce     2.48732925     5.95808317     4.56683772
Ce     8.21216082     4.86803684     1.38101475
Ce     6.29719343     5.96725611     4.57188540
Ce     6.41112735     3.68148600     7.75564316
Ce    -1.35333237     8.18166064     1.38101475
Ce    -3.27134233     9.28751444     4.56940009
Ce    -3.24819359     7.07752212     7.77481033
Ce     2.47291082     8.18166064     1.38101475
Ce     0.56999823     9.28604698     4.57206242
Ce     0.57585789     7.04539287     7.77069478
Ce     6.29903923     8.18166064     1.38101475
Ce     4.38558626     9.30464121     4.51746945
Ce     4.39163953     7.25586934     7.67049389
Y      2.29526374     3.63664541     7.58542168
C      4.43774218     4.78852025    11.02874785
