81
CIF: Fe-Cr-CeO2-Ov.cif | data_image0
Ce     1.93038582     1.11050507     0.88387043
Ce    -0.02475730     2.22396002     4.03579485
Ce    -5.77454075    10.03641446     7.22370178
Ce     5.81181033     1.12175166     0.90127712
Ce     3.82077766     2.21798568     3.95776800
Ce     3.92707077     0.00718046     7.39167311
Ce     9.66901012     1.12377363     0.90450652
Ce     7.75466854     2.23880388     4.01497241
Ce     1.94344796     9.95925754     7.24734195
Ce    -0.00709724     4.47602159     0.89067279
Ce    -1.96142094     5.58838918     4.10329619
Ce    -1.86871082     3.38495331     7.28913172
Ce     3.86254305     4.47635356     0.87798423
Ce     1.94778931     5.58837849     4.08377476
Ce     1.77025326     3.28106585     7.20059329
Ce     7.74213807     4.46545905     0.90125422
Ce     5.80295655     5.64301087     4.02516255
Ce    -1.94645625     7.83004003     0.90010904
Ce    -3.86218563     8.94268111     4.11467657
Ce    -3.80561294     6.77245924     7.37871524
Ce     1.92815559     7.82745473     0.89060408
Ce    -0.00401322     8.97002151     4.07991896
Ce     0.00225649     6.71253898     7.27203405
Ce     5.81127600     7.83258510     0.88371011
Ce     3.87572051     8.94509135     4.04299812
Ce     3.87816528     6.85128202     7.26133726
Cr     5.73397776     3.40601764     6.57656208
Fe     7.05330092     2.59543518     8.67123200
O     11.61334069     0.00154917     0.10141687
O      1.91369102     1.11033718     3.21695026
O     -0.03485804     2.23081474     6.41738640
O     -0.00785227     2.23805103     1.69392277
O      0.01022100     0.01987254     4.88699827
O      1.86319990     1.24131030     8.05551890
O     -1.93899312    10.05733740     0.10496691
O      5.80576973     1.10343381     3.21611529
O      4.15375750     2.65311748     6.83992248
O      3.86763657     2.23577757     1.68132582
O      3.87663687     0.14666074     4.92457093
O      6.21557357     0.97375714     8.57792126
O      7.73821774     0.00761509     0.10924988
O      9.68678211     1.11908651     3.23044607
O      7.32956185     2.47559654     6.55147249
O      7.74357843     2.23531483     1.71563532
O      7.76003298     0.08478377     4.89159571
O      9.50484322     1.21468622     7.97595771
O      9.67032270     3.35425987     0.10911246
O     -0.00367547     4.46029592     3.28876330
O     -1.91509427     5.51938052     6.47466082
O     -1.94403436     5.59119430     1.70564938
O      9.62155376     3.28691194     4.92104136
O      0.01633958     4.41830769     8.10473975
O      1.92738314     3.35244915     0.09928684
O      3.76187847     4.44417392     3.21609628
O      2.01290315     5.44021591     6.54785307
O      1.92862022     5.59252216     1.67404250
O      1.94697500     3.25654621     4.91205804
O      5.81155478     3.35101064     0.10766953
O      7.81207288     4.44173586     3.24259945
O      5.73743750     5.14689318     6.77531854
O      5.80528807     5.59217007     1.68114259
O      5.74405500     3.29343840     4.74384538
O      8.08172905     4.09277426     8.66136534
O     -3.87155109     6.71022987     0.10512724
O     -1.92329176     7.84651363     3.30582835
O     -3.84918534     9.00535285     6.47478292
O     -3.87509971     8.94378428     1.69355631
O     -3.85537235     6.73014724     4.94552050
O     -1.76969860     7.77112537     8.13294931
O     -0.01209783     6.71325780     0.10434852
O      1.91624540     7.83744675     3.26501189
O      0.03932871     8.97784703     6.40978514
O     -0.00628994     8.94736548     1.70514550
O      0.03375107     6.68678737     4.93378708
O      1.86779087     7.84304166     8.07131467
O      3.86815347     6.71410280     0.09951587
O      5.81311605     7.92816446     3.23294840
O      3.88281171     9.00551020     6.42370300
O      3.86556896     8.94715423     1.69389986
O      3.83061137     6.75147915     4.89030525
O      5.81634995     7.98226938     8.09687148
