84
CIF: Ti-W-CeO2-CO.cif | data_image0
Ce     1.93596140     1.11772783     0.89035214
Ce    -0.02483229     2.21109150     4.04738001
Ce    -5.58163506     9.93750737     7.19120198
Ce     5.80789581     1.11772783     0.89035214
Ce     3.81285356     2.17424399     3.97568191
Ce    -1.97262968     9.96747330     7.31522245
Ce     9.67981860     1.11772783     0.89035214
Ce     7.74895943     2.24533810     4.04073639
Ce     1.97085161     9.91037781     7.29700743
Ce     0.00000000     4.47091133     0.89035214
Ce    -1.94782722     5.57322922     4.05270015
Ce    -1.74870110     3.45697993     7.27236434
Ce     3.87193441     4.47091133     0.89035214
Ce     1.93993269     5.59857149     4.06578192
Ce     1.84821844     3.30532093     7.21933708
Ce     7.74385721     4.47091133     0.89035214
Ce     5.81377378     5.62209034     4.04376945
Ce    -1.93596721     7.82410489     0.89035214
Ce    -3.84603278     8.90376155     4.01767405
Ce    -3.73392681     6.73142132     7.31981646
Ce     1.93596721     7.82410489     0.89035214
Ce     0.00615642     8.96005258     4.07333482
Ce     0.05797677     6.70767305     7.24288538
Ce     5.80789000     7.82410489     0.89035214
Ce     3.88797951     8.94945584     4.05661022
Ce     3.87933981     6.74242519     7.31648983
W      5.36465722     3.44895494     6.95671247
Ti     7.41851068     2.86836690     8.96060929
O      0.00000000     0.00000000     0.09999685
O      1.91494908     1.10308858     3.21825475
O     -0.04620825     2.08130911     6.53175367
O      0.00000000     2.23545567     1.68070743
O     -5.73190975    10.01377433     4.89868365
O      1.89321554     1.14803155     8.09764732
O      3.87192279     0.00000000     0.09999685
O      5.74319856     1.10071469     3.24247768
O      3.99377535     2.19986773     6.48264395
O      3.87192279     2.23545567     1.68070743
O     -1.95835276    10.05807814     4.84573571
O      5.56889208     2.57160803     8.74211766
O      7.74385721     0.00000000     0.09999685
O      9.75216373     1.07421654     3.24738113
O      7.20984115     2.64915682     6.95117643
O      7.74385721     2.23545567     1.68070743
O      1.97513684    10.03721834     4.93627409
O      8.71884300     1.63665370     8.86700949
O     -1.93596140     3.35318350     0.09999685
O      0.01883384     4.46638995     3.27241782
O     -1.92004915     5.61447459     6.48551666
O     -1.93596721     5.58864923     1.68070743
O     -1.88583023     3.34243106     4.91718433
O      0.16019570     4.47532790     8.11538013
O      1.93596140     3.35318350     0.09999685
O      3.78090704     4.42127564     3.25785523
O      1.89035122     5.52577503     6.38669134
O      1.93595559     5.58864923     1.68070743
O      1.90875913     3.23913783     4.93898469
O      5.80789581     3.35318350     0.09999685
O      7.80094931     4.51131346     3.23604584
O      5.98792350     5.21680661     6.73839552
O      5.80789000     5.58864923     1.68070743
O      5.63002297     3.33482899     5.03425983
O      8.08784877     4.50541466     8.79664448
O     -3.87192860     6.70637706     0.09999685
O     -1.93058335     7.80613522     3.24798598
O     -3.78566225     8.89557210     6.44852899
O     -3.87192860     8.94183273     1.68070743
O     -3.84489306     6.72362111     4.98006358
O     -1.91345913     7.70596323     8.17443944
O     -0.00000581     6.70637706     0.09999685
O      1.94156425     7.82612741     3.26080713
O     -0.00166523     8.97662076     6.51822434
O     -0.00000581     8.94183273     1.68070743
O     -0.00304117     6.74497764     4.89382813
O      3.87192860     6.70637706     0.09999685
O      5.81844995     7.89661668     3.22417727
O      3.99481971     9.14106243     6.66615037
O      3.87192860     8.94183273     1.68070743
O      3.87517837     6.80276894     4.96276950
O      6.03621917     7.78008469     8.06545158
O      3.88678669     4.32979202     7.82643191
O      1.87144430     7.73155156     8.14286684
O      6.57377706     3.11156478    12.35495245
C      6.92726942     2.99332574    11.27823014
