84
CIF: CO+Olatt—CO2.cif | data_image0
Ce     1.93038582     1.11050507     0.88387043
Ce    -0.00947828     2.23310741     4.03305648
Ce     0.03479357     0.01805808     7.22185416
Ce     5.81181033     1.12175166     0.90127712
Ce     3.86901090     2.22965939     4.02656679
Ce    -1.98394190    10.05014453     7.27664279
Ce     9.66901012     1.12377363     0.90450652
Ce     7.73144379     2.23499606     4.02014009
Ce     2.08586290     9.84246725     7.31066939
Ce    -0.00709724     4.47602159     0.89067279
Ce    -1.95975558     5.57674703     4.08488860
Ce    -1.73391925     3.30837548     7.31255760
Ce     3.86254305     4.47635356     0.87798423
Ce     1.93661407     5.58229906     4.04284145
Ce     1.93330943     3.35421270     7.18495203
Ce     7.74213807     4.46545905     0.90125422
Ce     5.81318885     5.59910666     4.01887044
Ce    -1.94645625     7.83004003     0.90010904
Ce    -3.86316698     8.96342131     4.01935447
Ce    -3.86401996     6.85410526     7.17313723
Ce     1.92815559     7.82745473     0.89060408
Ce    -0.00740210     8.95452359     4.10165991
Ce    -0.00504043     6.69107897     7.23056815
Ce     5.81127600     7.83258510     0.88371011
Ce     3.88113572     8.94446610     4.04203676
Ce     3.89483852     6.68702913     7.19801678
Cu     5.02931129     3.83241973     6.58589207
Re     6.68210816     2.73954905     8.37264124
O     11.61334069     0.00154917     0.10141687
O      1.92736606     1.12112000     3.21552592
O      0.06917167     2.24989660     6.34946672
O     -0.00785227     2.23805103     1.69392277
O     -0.00212678     0.00760540     4.83401396
O      1.84878625     1.19760885     8.04707880
O     -1.93899312    10.05733740     0.10496691
O      5.81980422     1.11237302     3.23875006
O      3.92342652     2.27557607     6.43005633
O      3.86763657     2.23577757     1.68132582
O      3.87282782     0.01209389     4.82220471
O      5.99155569     1.14358004     8.84535720
O      7.73821774     0.00761509     0.10924988
O      9.67382672     1.11547896     3.21895982
O      7.47383316     2.34441869     6.78298847
O      7.74357843     2.23531483     1.71563532
O      7.78162089     0.08747218     4.90722822
O      9.84670739     1.01507939     8.03059044
O      9.67032270     3.35425987     0.10911246
O     -0.02827859     4.47060879     3.26014843
O     -2.07005011     5.54713849     6.49030728
O     -1.94403436     5.59119430     1.70564938
O      9.59619497     3.28150046     4.89677235
O      0.12022060     4.52966703     8.04147380
O      1.92738314     3.35244915     0.09928684
O      3.86315716     4.47976826     3.20373442
O      1.94190704     5.58879588     6.33033491
O      1.92862022     5.59252216     1.67404250
O      1.95881803     3.34447599     4.81768328
O      3.79109639     4.53912291     8.02923235
O      5.81155478     3.35101064     0.10766953
O      7.74840798     4.47718169     3.23521246
O      5.90202777     5.54697299     6.46538016
O      5.80528807     5.59217007     1.68114259
O      5.80843547     3.36871857     4.78672800
O      7.78924985     3.97166425     9.03006404
O     -3.87155109     6.71022987     0.10512724
O     -1.93228226     7.82024721     3.25065329
O     -3.87298701     8.95023282     6.39105688
O     -3.87509971     8.94378428     1.69355631
O     -3.88202849     6.73943664     4.83924245
O     -1.96851162     7.71910802     8.06545470
O     -0.01209783     6.71325780     0.10434852
O      1.92462877     7.83545992     3.27655922
O      0.03091852     8.93834128     6.48260595
O     -0.00628994     8.94736548     1.70514550
O     -0.05924459     6.69726930     4.90153312
O      1.99554005     7.64397034     8.07806504
O      3.86815347     6.71410280     0.09951587
O      5.80672545     7.83462586     3.21796351
O      3.94286043     8.84189666     6.38119519
O      3.86556896     8.94715423     1.69389986
O      3.91454152     6.67321349     4.83891828
O      5.86831191     7.81770204     8.02953961
O      4.59044795     3.91751624    10.63283197
C      5.19839950     3.58172869     9.71783741
