84
CIF: Co-W-CeO2-CO.cif | data_image0
Ce     1.93596140     1.11772783     0.89035214
Ce    -0.01172950     2.23381119     4.02101504
Ce     0.00391887     0.00912297     7.17294331
Ce     5.80789581     1.11772783     0.89035214
Ce     3.83690621     2.18717914     3.96688709
Ce    -2.02782253     9.94097776     7.26462604
Ce     9.67981860     1.11772783     0.89035214
Ce     7.73606567     2.24857932     4.04723837
Ce     2.03800840    10.05225685     7.23735105
Ce     0.00000000     4.47091133     0.89035214
Ce    -1.93467137     5.59469457     4.06819188
Ce    -1.81894554     3.38594209     7.24324093
Ce     3.87193441     4.47091133     0.89035214
Ce     1.96017090     5.59094119     4.05363333
Ce     1.90227054     3.33863551     7.18498264
Ce     7.74385721     4.47091133     0.89035214
Ce     5.83861599     5.60971069     4.01390507
Ce    -1.93596721     7.82410489     0.89035214
Ce    -3.86651195     8.91032625     4.06062840
Ce    -3.77743566     6.65165390     7.38172008
Ce     1.93596721     7.82410489     0.89035214
Ce     0.00327099     8.95848426     4.08689068
Ce     0.04401141     6.73333117     7.22729940
Ce     5.80789000     7.82410489     0.89035214
Ce     3.88054660     8.95993837     4.03300946
Ce     3.87550853     6.75497394     7.23204127
W      5.56914818     3.36761002     6.86615561
Co     6.85448816     3.78437090     9.33400780
O      0.00000000     0.00000000     0.09999685
O      1.91539709     1.11568529     3.20836848
O      0.03443548     2.26638371     6.32413899
O      0.00000000     2.23545567     1.68070743
O      0.00675560     0.00331339     4.83433921
O      1.85393731     1.22996098     7.98480649
O      3.87192279     0.00000000     0.09999685
O      5.80315164     1.12797984     3.23260885
O      4.15941238     2.16498402     6.39665267
O      3.87192279     2.23545567     1.68070743
O     -1.97338352    10.04707299     4.80162806
O      5.88054220     2.40814122     8.46409856
O      7.74385721     0.00000000     0.09999685
O      9.68816525     1.11967278     3.21460570
O      7.38653988     2.53868129     6.44201056
O      7.74385721     2.23545567     1.68070743
O      7.77331318     0.08700234     4.83879445
O      9.78894283     1.20800038     7.95210902
O     -1.93596140     3.35318350     0.09999685
O      0.01566457     4.47000458     3.26765011
O     -1.85448396     5.54420287     6.36203253
O     -1.93596721     5.58864923     1.68070743
O      9.63603583     3.29803755     4.85872116
O      0.10863323     4.43271055     8.01142005
O      1.93596140     3.35318350     0.09999685
O      3.86243695     4.48459856     3.20431416
O      1.95932483     5.58437021     6.38701809
O      1.93595559     5.58864923     1.68070743
O      2.01286234     3.31565524     4.87159776
O      5.80789581     3.35318350     0.09999685
O      7.72801424     4.45717747     3.24066462
O      6.04803746     5.19725797     6.50873311
O      5.80789000     5.58864923     1.68070743
O      5.67357418     3.37481343     4.82076098
O      8.34749726     4.47661819     8.55987021
O     -3.87192860     6.70637706     0.09999685
O     -1.92580285     7.80884924     3.24534642
O     -3.91311408     8.93004143     6.44230369
O     -3.87192860     8.94183273     1.68070743
O      7.72060171     6.69041908     4.83231545
O     -1.75024939     7.72526823     8.11831645
O     -0.00000581     6.70637706     0.09999685
O      1.97071885     7.82325766     3.26946367
O      0.03442927     9.01417068     6.44391780
O     -0.00000581     8.94183273     1.68070743
O      0.02866905     6.74481378     4.85738555
O      3.87192860     6.70637706     0.09999685
O      5.79968190     7.82446501     3.22158374
O      3.88669711     8.94749960     6.35708228
O      3.87192860     8.94183273     1.68070743
O      3.97708303     6.66359439     4.91518569
O      5.66734183     7.79832491     7.98572604
O      4.02519885     4.33822349     7.69179152
O      2.01931597     7.73058117     8.04691942
O      5.05228164     5.60872195    10.73397821
C      5.80436833     4.84627159    10.26095289
