90
CIF: CH2CHCH3.cif | data_image0
O      0.00261135     0.00382715     0.19995339
O      1.92201425     1.10012577     3.32968177
O     -0.03623862     2.18940311     6.43168098
O      0.00261135     2.21285656     1.76196664
O      5.74535997     9.92275319     4.95328205
O      1.80207844     1.25755308     8.11075426
O      3.82876252     0.00382715     0.19995339
O      5.73268087     1.09972185     3.33650707
O      3.66759344     2.45895079     6.67794795
O      3.82876252     2.21285656     1.76196664
O      3.83824527     0.09782834     5.02775754
O      5.70029994     0.97766296     8.19156107
O      7.65492518     0.00382715     0.19995339
O      9.54955510     1.09651087     3.32657675
O      7.70807373     2.16865638     6.53786335
O      7.65492518     2.21285656     1.76196664
O      1.90228572     9.93542170     4.96469739
O      9.58893087     1.11478963     8.21079283
O     -1.91046424     3.31737126     0.19995339
O     -0.00084909     4.42730847     3.32858881
O     -1.85141372     5.53129464     6.53769947
O     -1.91046998     5.52641062     1.76196664
O      9.55279462     3.32771546     4.95341378
O      0.09019180     4.24786683     8.11240240
O      1.91568694     3.31737126     0.19995339
O      3.81767131     4.41230654     3.36991551
O      2.04791018     5.26228599     6.66335609
O      1.91568120     5.52641062     1.76196664
O      1.82753708     3.26419112     4.95115942
O      4.26120221     4.70132765     9.23084995
O      5.74184959     3.31737126     0.19995339
O      7.65558510     4.43836415     3.34947215
O      5.76611406     5.53445406     6.57214626
O      5.74184385     5.52641062     1.76196664
O      5.74977762     3.28759506     4.94815984
O      7.81530258     4.47747869     8.24788331
O     -3.82354556     6.63092532     0.19995339
O     -1.88939432     7.74572893     3.37929600
O     -3.78437884     8.88032638     6.53532255
O     -3.82354556     8.83995473     1.76196664
O     -3.80431010     6.63895913     4.99929404
O     -1.88542037     7.74736856     8.17735026
O      0.00260561     6.63092532     0.19995339
O      1.90408121     7.73035472     3.33603251
O     -0.02571448     8.81722001     6.49168801
O      0.00260561     8.83995473     1.76196664
O      0.08998577     6.58605358     5.02619489
O      1.78824409     7.75087389     8.19157521
O      3.82876826     6.63092532     0.19995339
O      5.75928321     7.72493313     3.34929779
O      3.81744881     8.90231589     6.53265548
O      3.82876826     8.83995473     1.76196664
O      3.80983061     6.64737348     4.94277724
O      5.87132073     7.83754596     8.24518761
Ce     1.91568694     1.10834185     0.98097142
Ce    -0.04230114     2.18499067     4.08302060
Ce     0.00082569     0.00352451     7.37390430
Ce     5.74184959     1.10834185     0.98097142
Ce     3.83313322     2.23128781     4.17476987
Ce     3.82391662     0.03055532     7.35117254
Ce     9.56800076     1.10834185     0.98097142
Ce     7.64548746     2.21519443     4.15133948
Ce     1.89159501     9.92551496     7.34137083
Ce     0.00261135     4.42188597     0.98097142
Ce    -1.90050391     5.51859764     4.16511637
Ce    -1.90575301     3.31043878     7.37698729
Ce     3.82877400     4.42188597     0.98097142
Ce     1.93393824     5.51701708     4.17306766
Ce     7.65492518     4.42188597     0.98097142
Ce     5.75200910     5.52858564     4.19584892
Ce     5.84168929     3.28207614     7.37167538
Ce    -1.91046998     7.73544003     0.98097142
Ce    -3.82327393     8.84846808     4.16427259
Ce    -3.78805041     6.64682764     7.37589847
Ce     1.91569268     7.73544003     0.98097142
Ce     0.01522780     8.84440230     4.15904809
Ce     0.03245506     6.59848736     7.35539383
Ce     5.74184385     7.73544003     0.98097142
Ce     3.82780639     8.82798944     4.14918944
Ce     3.84944893     6.72614615     7.35903189
Zr     1.65100781     3.16427407     7.03910948
C      4.60800029     5.12878182    10.59002560
C      3.45475097     4.23761119    10.38850109
C      3.50600730     2.76882145    10.67358086
H      4.46136343     6.19884222    10.76507445
H      5.55356077     4.71081952    10.94752262
H      2.46129695     4.70153214    10.37904575
H      2.85022617     2.20922205     9.98549854
H      3.15083035     2.58745693    11.69944999
H      4.53057830     2.37843126    10.58318271
