84
CIF: CO+O2.cif | data_image0
O      0.00261135     0.00382715     0.19995339
O      1.91948389     1.11203078     3.34198010
O     -0.01417531     2.20437444     6.48850461
O      0.00261135     2.21285656     1.76196664
O     -5.73518279     9.93419063     4.95877376
O      3.82876252     0.00382715     0.19995339
O      5.73639200     1.10578810     3.34371296
O      3.77854174     2.35185901     6.55655844
O      3.82876252     2.21285656     1.76196664
O      3.82709522     0.04624201     5.00161892
O      5.72895396     1.10344833     8.11937650
O      7.65492518     0.00382715     0.19995339
O      9.56153879     1.10517429     3.33276042
O      7.66090853     2.19939693     6.51516074
O      7.65492518     2.21285656     1.76196664
O      7.65165489     0.00209882     4.96673674
O      9.55887525     1.10415618     8.14474068
O     -1.91046424     3.31737126     0.19995339
O      0.00684020     4.42479378     3.34299655
O     -1.90426351     5.53766834     6.52468914
O     -1.91046998     5.52641062     1.76196664
O      9.55798274     3.32332235     4.96059618
O      1.91568694     3.31737126     0.19995339
O      3.81947081     4.41654182     3.36407087
O      2.01770934     5.40776630     6.57104357
O      1.91568120     5.52641062     1.76196664
O      1.86782184     3.29175914     5.01732466
O      2.22301754     6.16747895    10.97588366
O      5.74184959     3.31737126     0.19995339
O      7.65502254     4.43081211     3.33803157
O      5.73245233     5.52216378     6.54297287
O      5.74184385     5.52641062     1.76196664
O      5.75955112     3.31218937     4.96929262
O      7.68224691     4.41563367     8.14278059
O     -3.82354556     6.63092532     0.19995339
O     -1.89815142     7.74017980     3.36270106
O     -3.81003083     8.84008044     6.52451622
O     -3.82354556     8.83995473     1.76196664
O     -3.82655718     6.63004303     4.97945687
O     -1.90457523     7.73857754     8.14573418
O      0.00260561     6.63092532     0.19995339
O      1.90962071     7.73215727     3.34287358
O     -0.01230698     8.83773587     6.51692134
O      0.00260561     8.83995473     1.76196664
O      0.04433729     6.60874914     5.00773341
O      1.90335108     7.73421041     8.10206043
O      3.82876826     6.63092532     0.19995339
O      5.74826493     7.73094156     3.33837778
O      3.82314449     8.85527514     6.51111140
O      3.82876826     8.83995473     1.76196664
O      3.82978644     6.64824929     4.96754676
O      5.75033469     7.76361049     8.14350149
O      0.04000697     4.33534189     8.01858565
O      1.85503892     1.18372400     8.01579006
O      2.92665117     3.84479460     8.84719695
O      4.08539366     4.57647737     8.39785894
Ce     1.91568694     1.10834185     0.98097142
Ce    -0.01086705     2.20536450     4.13216197
Ce     0.00026325     0.01260272     7.33530795
Ce     5.74184959     1.10834185     0.98097142
Ce     3.82695506     2.22491125     4.17940068
Ce     3.80923535     0.04524739     7.33916904
Ce     9.56800076     1.10834185     0.98097142
Ce     7.65104670     2.21394927     4.14061346
Ce     7.64554330     0.00081153     7.32838317
Ce     0.00261135     4.42188597     0.98097142
Ce    -1.90661145     5.52418589     4.15891417
Ce    -1.90527585     3.31128711     7.33633584
Ce     3.82877400     4.42188597     0.98097142
Ce     1.92512624     5.51814671     4.18069357
Ce     7.65492518     4.42188597     0.98097142
Ce     5.74669838     5.52852452     4.16349027
Ce     5.78978235     3.29320829     7.33738633
Ce    -1.91046998     7.73544003     0.98097142
Ce    -3.82355722     8.84462920     4.15803484
Ce    -3.80864227     6.63992051     7.35283983
Ce     1.91569268     7.73544003     0.98097142
Ce     0.00812197     8.84343036     4.16308314
Ce     0.02767685     6.59588875     7.34250061
Ce     5.74184385     7.73544003     0.98097142
Ce     3.82748441     8.83815117     4.13883518
Ce     3.83404116     6.69056137     7.32755674
Zr     1.75743334     3.22675528     7.18294891
C      2.98782860     5.40559465    11.35894559
