90
CIF: CH2CCH2+H.cif | data_image0
O      0.00264579     0.00378738     0.19967967
O      1.91396969     1.09747059     3.34469310
O      0.18847799     2.25311487     6.57216309
O      0.00268022     2.21281680     1.76164730
O     11.46455956     0.01421685     4.98670210
O      1.91342731     1.25846117     8.41438444
O      3.82880844     0.00376750     0.19967967
O      5.74925120     1.10610651     3.32387563
O      3.64139018     2.27607899     6.56538202
O      3.82884861     2.21280686     1.76157887
O      3.85726472     0.03065909     4.97423247
O      5.68621083     0.95810757     8.20675394
O      7.65496535     0.00379733     0.19970248
O      9.56866080     1.10502422     3.33501296
O      7.66413160     2.13471635     6.56815979
O      7.65499405     2.21283668     1.76157887
O      1.91527496     9.93490816     4.94956907
O      9.61771878     0.95445031     8.23433120
O     -1.91043554     3.31736132     0.19974810
O     -0.00188534     4.42182254     3.33939707
O     -1.78032074     5.54863956     6.58043416
O     -1.91040684     5.52636091     1.76173854
O     -1.89046812     3.29802125     4.97594645
O      0.28046850     4.29868990     8.47175456
O      1.91572137     3.31735138     0.19970248
O      3.83743597     4.41551447     3.33958926
O      1.86593077     5.32091108     6.54902712
O      1.91572137     5.52636091     1.76164730
O      1.91193737     3.31004602     4.92932257
O      3.53422401     4.23002807     8.52150863
O      5.74190124     3.31736132     0.19965686
O      7.66312074     4.43511248     3.37139136
O      5.73032846     5.53549236     6.53236482
O      5.74191846     5.52638079     1.76164730
O      5.73398747     3.27876108     4.96021919
O      7.67217098     4.58467856     8.26726778
O     -3.82347669     6.63088556     0.19972529
O     -1.91367591     7.73354990     3.35294234
O     -3.79957315     8.95720900     6.57006349
O     -3.82349391     8.83988515     1.76160168
O     -3.78729119     6.64883446     5.03250850
O     -1.86767529     7.77685515     8.17684105
O      0.00262857     6.63088556     0.19974810
O      1.91414162     7.74007365     3.31299324
O      0.00431561     8.83377693     6.47159610
O      0.00266874     8.83988515     1.76162449
O      0.05049169     6.64306250     4.96181839
O      1.78394622     7.75025021     8.18300516
O      3.82880270     6.63090544     0.19972529
O      5.76300239     7.73101624     3.36434287
O      3.81083846     8.85485611     6.50341531
O      3.82883140     8.83994479     1.76167011
O      3.78611505     6.62600889     4.93900770
O      5.83177777     7.81583294     8.21562199
Ce     1.91574433     1.10830209     0.98065208
Ce    -0.01361197     2.20481081     4.14196348
Ce     5.67958979     9.89432611     7.35283375
Ce     5.74191272     1.10831203     0.98060646
Ce     3.84543027     2.21258157     4.13707872
Ce    -1.84201972     9.92218859     7.32537906
Ce     9.56805242     1.10831203     0.98067489
Ce     7.66174369     2.21279073     4.16983140
Ce     1.91369744     9.92769709     7.33707868
Ce     0.00265153     4.42185615     0.98074332
Ce    -1.89597102     5.51747337     4.18144849
Ce     9.55583425     3.27949156     7.43861913
Ce     3.82881418     4.42185615     0.98069770
Ce     1.92282769     5.53094679     4.13113778
Ce     7.65497683     4.42185615     0.98072051
Ce     5.74309713     5.52024447     4.19382938
Ce     5.78997266     3.29478620     7.39483298
Ce    -1.91042980     7.73537044     0.98076613
Ce    -3.81793478     8.84753250     4.16898128
Ce    -3.81635479     6.62496122     7.38838657
Ce     1.91573285     7.73541020     0.98072051
Ce     0.01337398     8.84500634     4.11601193
Ce     0.01253496     6.69943706     7.31304352
Ce     5.74188976     7.73542015     0.98069770
Ce     3.82578959     8.83150159     4.14027554
Ce     3.81469964     6.66171338     7.36117788
Zr     1.89716161     3.29078030     7.04518804
C      3.44309843     4.42767257     9.91884936
C      2.51610619     3.50784410    10.60490999
C      2.56067089     2.50334794    11.45456299
H      3.13657703     5.47128283    10.16992265
H      4.44449846     4.29371918    10.40170294
H      0.51775916     4.22705875     9.41728206
H      2.01061853     1.47357047     9.36193124
H      1.66439302     1.99297558    11.82175592
H      3.52432764     2.13003905    11.83857286
