89
CIF: CH2COCH2+Olat.cif | data_VESTA_phase_1
O      0.00261135     0.00382715     0.19995339
O      1.92317090     1.10673147     3.33933109
O      0.00527435     2.20713075     6.50854441
O      0.00261135     2.21285656     1.76196664
O     -5.73386058     9.94010549     4.95535867
O      1.86763234     1.08204885     7.97824516
O      3.82876252     0.00382715     0.19995339
O      5.73280456     1.10134364     3.34382468
O      3.74579618     2.45940437     6.64481198
O      3.82876252     2.21285656     1.76196664
O      3.82936514     0.08604620     5.02823696
O      5.72262890     1.12542982     8.12808474
O      7.65492518     0.00382715     0.19995339
O      9.55931157     1.10506144     3.33251087
O      7.64558745     2.21018252     6.51004987
O      7.65492518     2.21285656     1.76196664
O      7.65010422     0.00311142     4.96826919
O      9.54600229     1.09862984     8.13155188
O     -1.91046424     3.31737126     0.19995339
O      0.00149220     4.43277097     3.33969605
O     -1.93472971     5.57111368     6.49262295
O     -1.91046998     5.52641061     1.76196664
O     -1.91374134     3.31839515     4.96026284
O      1.91568694     3.31737126     0.19995339
O      3.81854095     4.41764131     3.35947241
O      2.11434473     5.31728932     6.68922326
O      1.91568120     5.52641061     1.76196664
O      1.85738781     3.29275823     4.98523991
O      4.63231821     4.88097465     8.74765284
O      5.74184959     3.31737126     0.19995339
O      7.65774888     4.42216431     3.33809934
O      5.72375379     5.51925335     6.48536934
O      5.74184385     5.52641061     1.76196664
O      5.74343362     3.29973656     4.96927283
O      7.69582295     4.42075273     8.12726358
O     -3.82354556     6.63092532     0.19995339
O     -1.88220426     7.74612621     3.37911191
O     -3.79890704     8.80012257     6.49588480
O     -3.82354556     8.83995473     1.76196664
O      7.64359593     6.62741627     4.94789976
O     -1.89688521     7.73825323     8.16289296
O      0.00260561     6.63092532     0.19995339
O      1.90326724     7.73193098     3.34286665
O     -0.01837702     8.84090903     6.52124963
O      0.00260561     8.83995473     1.76196664
O      0.08852766     6.58862789     5.04607446
O      1.91745462     7.75342265     8.09247817
O      3.82876826     6.63092532     0.19995339
O      5.74055826     7.73621539     3.33693603
O      3.82803364     8.84933869     6.50259097
O      3.82876826     8.83995473     1.76196664
O      3.80786598     6.64529949     4.97070987
O      5.75615750     7.77546105     8.13141502
O     -0.05269763     4.39010573     7.96734192
O      2.29118196     3.50288353     9.17360876
Ce     1.91568694     1.10834185     0.98097142
Ce    -0.00558427     2.20884054     4.12757992
Ce     5.73244299     9.93395223     7.31700299
Ce     5.74184959     1.10834185     0.98097142
Ce     3.81722093     2.23821514     4.18814075
Ce     3.81202692     0.02778410     7.35012327
Ce     9.56800076     1.10834185     0.98097142
Ce     7.64399768     2.21383074     4.13877968
Ce     7.64925482     0.00933426     7.32642357
Ce     0.00261135     4.42188597     0.98097142
Ce    -1.90496605     5.52498910     4.15841918
Ce     9.55353216     3.31897171     7.31526942
Ce     3.82877400     4.42188597     0.98097142
Ce     1.93169366     5.50344773     4.19283963
Ce     7.65492518     4.42188597     0.98097142
Ce     5.74314092     5.52756373     4.15280790
Ce     5.78529558     3.32128788     7.35781027
Ce    -1.91046998     7.73544002     0.98097142
Ce    -3.82316677     8.84468647     4.15549949
Ce    -3.81230815     6.63605469     7.33269635
Ce     1.91569268     7.73544002     0.98097142
Ce     0.01507696     8.84650561     4.16911712
Ce     0.02230266     6.60070577     7.36846259
Ce     5.74184385     7.73544002     0.98097142
Ce     3.82340208     8.83449732     4.13688644
Ce     3.85279269     6.68679173     7.34825284
Zr     1.72692358     3.18241710     7.24510554
C      1.71895179     5.28759662    10.64196371
C      2.60927319     4.51352875     9.98213578
C      4.10523283     4.72082096    10.06149214
H      0.65019191     5.08106984    10.57957807
H      2.06258833     6.10436950    11.27533193
H      4.56222496     3.83202814    10.54121148
H      4.35433848     5.60086602    10.68208669
