81
CIF: Y-Ti-CeO2-Ov.cif | data_image0
Ce     1.93038582     1.11050507     0.88387043
Ce    -0.01236296     2.20944861     4.07634005
Ce    -5.63490440     9.94228183     7.33382297
Ce     5.81181033     1.12175166     0.90127712
Ce     3.79915146     2.18988250     3.96196967
Ce    -1.89598983     9.98006412     7.36888280
Ce     9.66901012     1.12377363     0.90450652
Ce     7.77477862     2.22640504     4.04348578
Ce     1.86281350     9.88792929     7.23044913
Ce    -0.00709724     4.47602159     0.89067279
Ce    -1.95161386     5.58409471     4.07826613
Ce    -1.79694692     3.50409808     7.26913278
Ce     3.86254305     4.47635356     0.87798423
Ce     1.94176724     5.58673586     4.09962996
Ce     1.83982022     3.26316985     7.25355707
Ce     7.74213807     4.46545905     0.90125422
Ce     5.81596025     5.68108787     3.94323309
Ce    -1.94645625     7.83004003     0.90010904
Ce    -3.86544279     8.92925982     4.13052892
Ce    -3.83079482     6.66504935     7.47515929
Ce     1.92815559     7.82745473     0.89060408
Ce    -0.00768709     8.95515801     4.05333503
Ce     0.01074628     6.70071477     7.25734955
Ce     5.81127600     7.83258510     0.88371011
Ce     3.88668924     8.96357249     4.07581520
Ce     3.88991400     6.86351388     7.28249756
Ti     5.68758371     3.37141540     6.49104871
Y      7.36526026     2.42887415     9.14125763
O     11.61334069     0.00154917     0.10141687
O      1.92426906     1.09434187     3.21723057
O     -0.08041680     2.19325821     6.55257468
O     -0.00785227     2.23805103     1.69392277
O     -5.75208418    10.02610440     4.87499866
O      2.18455615     1.02067820     8.16137534
O     -1.93899312    10.05733740     0.10496691
O      5.72411585     1.07605153     3.22484131
O      4.13716906     2.44349380     6.68675758
O      3.86763657     2.23577757     1.68132582
O      3.85060490     0.11579453     4.94441822
O      6.03346884     0.81455821     8.53490611
O      7.73821774     0.00761509     0.10924988
O      9.75396235     1.07526931     3.25180889
O      7.30177802     2.50668110     6.77037925
O      7.74357843     2.23531483     1.71563532
O      1.91826844    10.04160630     4.91819799
O      9.04006968     1.41714170     8.52631194
O      9.67032270     3.35425987     0.10911246
O      0.00402564     4.46607094     3.27737941
O     -1.90058631     5.59858639     6.42487902
O     -1.94403436     5.59119430     1.70564938
O     -1.91623652     3.35630336     4.93923269
O     -0.03509738     4.54338546     8.13893451
O      1.92738314     3.35244915     0.09928684
O      3.82197065     4.49528945     3.21927137
O      1.99447398     5.54140121     6.47210135
O      1.92862022     5.59252216     1.67404250
O      1.94126676     3.25401410     4.87248384
O      5.81155478     3.35101064     0.10766953
O      7.75399357     4.56040854     3.21893798
O      5.63946330     5.11520856     6.93002357
O      5.80528807     5.59217007     1.68114259
O      5.72975739     3.42777070     4.69118449
O      8.23228669     4.32320582     8.65861540
O     -3.87155109     6.71022987     0.10512724
O     -1.95879993     7.82970591     3.31211512
O     -3.72682559     8.88858597     6.46891005
O     -3.87509971     8.94378428     1.69355631
O      7.59984924     6.64541444     4.94687892
O     -1.76456195     7.84251383     8.18031409
O     -0.01209783     6.71325780     0.10434852
O      1.94887908     7.82037297     3.26981278
O     -0.04295927     8.95057506     6.40237471
O     -0.00628994     8.94736548     1.70514550
O      0.02954129     6.70637180     4.88456767
O      1.82723549     7.84981761     8.10986801
O      3.86815347     6.71410280     0.09951587
O      5.81841100     7.85339659     3.20843063
O      3.84365172     9.06956001     6.50870491
O      3.86556896     8.94715423     1.69389986
O      3.97730852     6.74242067     4.88368736
O      5.84747988     7.76903597     8.18847012
