84
CIF: Re-Cu-CeO2-CO.cif | data_image0
Ce     1.93038582     1.11050507     0.88387043
Ce    -0.00563987     2.23022310     4.03692134
Ce    -5.75716363    10.05674062     7.21228441
Ce     5.81181033     1.12175166     0.90127712
Ce     3.87400253     2.23299795     4.02777327
Ce     3.85372943     0.00257712     7.30181602
Ce     9.66901012     1.12377363     0.90450652
Ce     7.72183282     2.24465548     4.07556449
Ce     2.09727188     9.88980938     7.20489286
Ce    -0.00709724     4.47602159     0.89067279
Ce    -1.95953882     5.57938541     4.07372205
Ce    -1.79892624     3.28891284     7.25994047
Ce     3.86254305     4.47635356     0.87798423
Ce     1.93116704     5.58630706     4.03862085
Ce     1.90770964     3.37657847     7.21131032
Ce     7.74213807     4.46545905     0.90125422
Ce     5.81030817     5.58708309     4.01171632
Ce    -1.94645625     7.83004003     0.90010904
Ce    -3.85957133     8.96093615     4.03435580
Ce    -3.85040165     6.81612050     7.18387402
Ce     1.92815559     7.82745473     0.89060408
Ce    -0.01096290     8.95468270     4.08338102
Ce    -0.01383129     6.69420742     7.21799726
Ce     5.81127600     7.83258510     0.88371011
Ce     3.89259760     8.93456826     4.01760367
Ce     3.87480963     6.69130629     7.20584978
Cu     5.04892171     3.81800228     6.64604348
Re     6.67673934     2.72879308     8.29763839
O     11.61334069     0.00154917     0.10141687
O      1.93113284     1.12176246     3.22125247
O      0.04583371     2.21450123     6.35886764
O     -0.00785227     2.23805103     1.69392277
O     -5.79529086    10.04883521     4.83841054
O      1.84552291     1.18150319     8.03514886
O     -1.93899312    10.05733740     0.10496691
O      5.82236588     1.10738455     3.25038049
O      3.98767431     2.29955417     6.49457028
O      3.86763657     2.23577757     1.68132582
O      3.87576841     0.02542406     4.84608706
O      6.10928411     1.01438104     8.58661446
O      7.73821774     0.00761509     0.10924988
O      9.67772573     1.11058498     3.23395434
O      7.61034974     2.18431911     6.62806851
O      7.74357843     2.23531483     1.71563532
O      7.78974369     0.02837768     4.87930185
O      9.75552894     0.91637887     8.02246108
O      9.67032270     3.35425987     0.10911246
O     -0.00846087     4.47512692     3.25790460
O     -2.05074671     5.56014164     6.46346113
O     -1.94403436     5.59119430     1.70564938
O      9.63170938     3.31202091     4.85128906
O      0.11447182     4.53897176     8.02475432
O      1.92738314     3.35244915     0.09928684
O      3.84316011     4.48469415     3.19723062
O      1.89199572     5.64942366     6.31586041
O      1.92862022     5.59252216     1.67404250
O      1.97057590     3.34007085     4.85654607
O      3.67120051     4.61477694     7.98695599
O      5.81155478     3.35101064     0.10766953
O      7.74762633     4.48029559     3.24112773
O      5.90470886     5.47580083     6.50900615
O      5.80528807     5.59217007     1.68114259
O      5.77748313     3.38236693     4.73570911
O      7.80517687     4.08519539     8.65817101
O     -3.87155109     6.71022987     0.10512724
O     -1.94518237     7.82811589     3.24847353
O     -3.85432178     8.93057128     6.40762231
O     -3.87509971     8.94378428     1.69355631
O      7.71151375     6.73011684     4.85736311
O     -1.93740260     7.71269598     8.05436332
O     -0.01209783     6.71325780     0.10434852
O      1.93044267     7.82188025     3.26378993
O      0.08894708     8.97448214     6.47299062
O     -0.00628994     8.94736548     1.70514550
O     -0.07617952     6.72515352     4.88505142
O      2.01202062     7.78217448     8.03852212
O      3.86815347     6.71410280     0.09951587
O      5.81108483     7.83089227     3.21018537
O      3.91752746     8.86758193     6.35467774
O      3.86556896     8.94715423     1.69389986
O      3.93074596     6.66389337     4.85545491
O      5.86098327     7.81012233     7.98994540
O      5.07118843     3.56796595    10.91599251
C      5.65781363     3.25576442     9.96742603
