83
CIF: Rh-Mo-CeO2-Ov-O2.cif | data_image0
Ce     1.93596140     1.11772783     0.89035214
Ce     0.01857747     2.24899936     4.07709887
Ce     5.80737101    10.05710875     7.21979827
Ce     5.80789581     1.11772783     0.89035214
Ce     3.81933753     2.20839354     3.99261511
Ce    -2.07203489     9.89517359     7.19816683
Ce     9.67981860     1.11772783     0.89035214
Ce     7.82621519     2.18944410     3.96123895
Ce     2.06059967    10.01358706     7.34922462
Ce     0.00000000     4.47091133     0.89035214
Ce    -1.94736898     5.57052985     4.08936563
Ce    -1.80875942     3.35563683     7.37207022
Ce     3.87193441     4.47091133     0.89035214
Ce     1.95387469     5.58048116     4.10309921
Ce     1.86118184     3.37155464     7.32173335
Ce     7.74385721     4.47091133     0.89035214
Ce     5.78783582     5.61798889     3.96958831
Ce    -1.93596721     7.82410489     0.89035214
Ce    -3.89032381     8.92882053     4.02156382
Ce    -3.82344662     6.73668299     7.29555078
Ce     1.93596721     7.82410489     0.89035214
Ce     0.01432212     8.96520735     4.09216166
Ce     0.04559299     6.71162486     7.28132988
Ce     5.80789000     7.82410489     0.89035214
Ce     3.87766709     8.92724978     4.08090555
Ce     3.84190199     6.77004094     7.34743796
Mo     5.87167001     3.18902580     6.69697629
O      0.00000000     0.00000000     0.09999685
O      1.86356621     1.06192092     3.21066882
O      0.02564440     2.19494985     6.44124652
O      0.00000000     2.23545567     1.68070743
O      5.81162437    10.03879437     4.86832029
O      2.03139717     0.97804864     7.99369797
O      3.87192279     0.00000000     0.09999685
O      5.88347452     1.05997061     3.22472438
O      4.23505155     2.37523902     6.62762947
O      3.87192279     2.23545567     1.68070743
O     -1.97634915    10.03796223     4.91177443
O      6.13461075     2.04450466     8.40921920
O      7.74385721     0.00000000     0.09999685
O      9.70096997     1.09757066     3.22580770
O      7.55614422     2.44896549     6.42751509
O      7.74385721     2.23545567     1.68070743
O      7.78337643     0.03995685     4.89490083
O      9.84136991     1.04245112     8.13766898
O     -1.93596140     3.35318350     0.09999685
O     -0.00552821     4.50139857     3.27649075
O     -2.01749432     5.62235522     6.45937413
O     -1.93596721     5.58864923     1.68070743
O      9.66972848     3.32440936     4.85258732
O      0.01604577     4.62099903     8.12908299
O      1.93596140     3.35318350     0.09999685
O      3.88085053     4.54065668     3.22409313
O      1.97382981     5.59497321     6.43383770
O      1.93595559     5.58864923     1.68070743
O      1.92231418     3.35222385     4.88550265
O      5.80789581     3.35318350     0.09999685
O      7.74991958     4.46819246     3.22381402
O      5.77691202     5.04305596     6.65873198
O      5.80789000     5.58864923     1.68070743
O      5.85785252     3.31360811     4.78024670
O      7.86733614     4.69274919     8.76251256
O     -3.87192860     6.70637706     0.09999685
O     -1.95657489     7.80305381     3.28094718
O     -3.85856851     8.87187671     6.37166610
O     -3.87192860     8.94183273     1.68070743
O      7.61151549     6.63380521     4.92913888
O     -1.99143145     7.83485379     8.10009367
O     -0.00000581     6.70637706     0.09999685
O      1.94529288     7.82342245     3.29120045
O     -0.07037340     9.10259165     6.54109729
O     -0.00000581     8.94183273     1.68070743
O     -0.00810261     6.75306145     4.93953366
O      3.87192860     6.70637706     0.09999685
O      5.81291335     7.82345035     3.21088031
O      3.92419700     8.94941833     6.44006254
O      3.87192860     8.94183273     1.68070743
O      3.98828408     6.68746712     4.89186337
O      5.98056768     7.75556571     8.01561132
O      1.82351275     7.79185506     8.13105418
O      3.68225794     4.69025488     8.86695764
O      4.70083673     4.37899307     9.76400039
Rh     6.31223684     3.75762450     9.16846135
