81
CIF: Rh-Mo-CeO2-Ov.cif | data_image0
Ce     1.93596140     1.11772783     0.89035214
Ce    -0.00597596     2.24709794     4.05268189
Ce    11.60847462     0.00167644     7.22401304
Ce     5.80789581     1.11772783     0.89035214
Ce     3.83328852     2.23100955     4.00893191
Ce    -2.05281320     9.94670352     7.20994368
Ce     9.67981860     1.11772783     0.89035214
Ce     7.79145435     2.20767989     3.98574815
Ce     2.03527064    10.03830109     7.35996099
Ce     0.00000000     4.47091133     0.89035214
Ce    -1.95651308     5.57381934     4.09775489
Ce    -1.86187363     3.38154382     7.37682228
Ce     3.87193441     4.47091133     0.89035214
Ce     1.94634602     5.58951647     4.09468578
Ce     1.78477259     3.32835355     7.22745421
Ce     7.74385721     4.47091133     0.89035214
Ce     5.78570100     5.61772809     3.95854380
Ce    -1.93596721     7.82410489     0.89035214
Ce    -3.89361611     8.94058867     4.03349817
Ce    -3.79465267     6.78329786     7.35131595
Ce     1.93596721     7.82410489     0.89035214
Ce     0.01312145     8.97289463     4.10038234
Ce     0.04372362     6.71703293     7.28210825
Ce     5.80789000     7.82410489     0.89035214
Ce     3.87013504     8.94066518     4.06495222
Ce     3.84354801     6.83329983     7.29353081
Mo     5.84335048     3.14831852     6.83013144
O      0.00000000     0.00000000     0.09999685
O      1.86060458     1.06129904     3.21713959
O     -0.00841356     2.20336907     6.41141052
O      0.00000000     2.23545567     1.68070743
O      5.80277694    10.03749803     4.86671646
O      1.99687348     0.99018422     8.00202942
O      3.87192279     0.00000000     0.09999685
O      5.87741181     1.08161873     3.23741577
O      4.14912782     2.40774881     6.63806952
O      3.87192279     2.23545567     1.68070743
O     -1.96879084    10.05488607     4.92163900
O      5.92317283     1.91389108     8.42637887
O      7.74385721     0.00000000     0.09999685
O      9.68880623     1.10780541     3.22881944
O      7.51260134     2.36728202     6.41196703
O      7.74385721     2.23545567     1.68070743
O      7.77099717     0.02593646     4.88334605
O      9.84322173     1.04263340     8.12969148
O     -1.93596140     3.35318350     0.09999685
O     -0.02086134     4.50672325     3.27115275
O     -1.99483911     5.66558221     6.44620655
O     -1.93596721     5.58864923     1.68070743
O      9.64137878     3.34123597     4.85939112
O      0.01324118     4.62007377     8.12198383
O      1.93596140     3.35318350     0.09999685
O      3.87600954     4.55040782     3.22149728
O      2.00298078     5.58339582     6.46030509
O      1.93595559     5.58864923     1.68070743
O      1.89024516     3.36256513     4.85577760
O      5.80789581     3.35318350     0.09999685
O      7.73958763     4.47760553     3.22002844
O      5.59060007     4.96064415     6.93966436
O      5.80789000     5.58864923     1.68070743
O      5.85946284     3.38833834     4.87828997
O      8.04367383     4.89906242     8.79416361
O     -3.87192860     6.70637706     0.09999685
O     -1.97022656     7.80028056     3.30172693
O     -3.84213443     8.89889054     6.38372430
O     -3.87192860     8.94183273     1.68070743
O      7.55958768     6.61219442     4.98899421
O     -1.97736201     7.88093683     8.12352584
O     -0.00000581     6.70637706     0.09999685
O      1.94446033     7.82240388     3.28280061
O     -0.07158343     9.08828151     6.53502640
O     -0.00000581     8.94183273     1.68070743
O      0.01918801     6.75186621     4.93740230
O      3.87192860     6.70637706     0.09999685
O      5.81712278     7.82909752     3.20773239
O      3.89928578     8.95204399     6.42983628
O      3.87192860     8.94183273     1.68070743
O      3.98745950     6.69717802     4.89426600
O      5.95840183     7.80142467     8.01782194
O      1.83332342     7.78635577     8.15397699
Rh     6.96237342     3.41031487     9.11956877
