89
CIF: CH2CO+Olat.cif | data_image0
O      0.00910816     0.01496067     0.19922347
O      1.93225851     1.06494604     3.29757092
O      0.13498161     3.72019593     7.55818118
O      0.00910816     2.22399008     1.76123671
O      0.03075373     0.17598923     5.09591971
O      1.80514168     1.29517546     7.84429517
O      3.83525934     0.01496067     0.19922347
O      5.75811119     1.10942316     3.34507564
O      3.81954657     2.43870687     6.59102387
O      3.83525934     2.22399008     1.76123671
O      3.83872711     0.10079337     5.00429993
O      5.71952285     1.10453242     8.14188681
O      7.66142199     0.01496067     0.19922347
O      9.56245787     1.10139067     3.31990625
O      7.64596542     2.19797938     6.53835848
O      7.66142199     2.22399008     1.76123671
O      1.90946925     9.93779440     4.99143072
O      9.69681513     1.15584664     8.01264337
O     -1.90396742     3.32850478     0.19922347
O     -0.02618777     4.44994318     3.30682049
O     -1.95052716     5.53388336     6.49776184
O     -1.90397316     5.53754413     1.76123671
O     -1.79829668     3.22936005     5.07319539
O      1.92218375     3.32850478     0.19922347
O      3.84211213     4.43428855     3.35228315
O      2.14530214     5.24196983     6.63786528
O      1.92217801     5.53754413     1.76123671
O      1.82669314     3.23607146     4.82729974
O      4.03594669     4.53132619     8.69020657
O      5.74834640     3.32850478     0.19922347
O      7.69794420     4.41022718     3.37920767
O      5.63923149     5.49570089     6.57540701
O      5.74834066     5.53754413     1.76123671
O      5.76809815     3.31471685     4.96211112
O      7.56169812     4.30612640     8.24339276
O     -3.81704875     6.64205884     0.19922347
O     -1.89890042     7.75429775     3.40043970
O     -3.74822290     8.85785980     6.57188687
O     -3.81704875     8.85108825     1.76123671
O      7.60068022     6.64609936     4.95258783
O     -1.90561412     7.98253395     8.57427131
O      0.00910242     6.64205884     0.19922347
O      1.92591994     7.75532569     3.33744728
O     -0.05817890     8.84052892     6.54868894
O      0.00910242     8.85108825     1.76123671
O      0.09651491     6.58976211     4.98496324
O      2.02532233     7.78670735     8.14245067
O      3.83526508     6.64205884     0.19922347
O      5.73686729     7.80214934     3.37607512
O      3.84649615     8.84685557     6.48498354
O      3.83526508     8.85108825     1.76123671
O      3.80305077     6.65518804     4.97003740
O      5.64378346     7.83805810     8.23750182
O     -1.28986415     5.43373497     9.21421449
O     -2.20343716     5.62113573    11.28657624
Ce     1.92218375     1.11947537     0.98024150
Ce     0.00620426     2.23840914     4.03765226
Ce     5.74345305     9.88042344     7.38796818
Ce     5.74834640     1.11947537     0.98024150
Ce     3.83060172     2.24281800     4.12802758
Ce     3.84059571     0.11356799     7.30146248
Ce     9.57449758     1.11947537     0.98024150
Ce     7.67189136     2.22233711     4.17187789
Ce     1.91171760     9.92775310     7.30841649
Ce     0.00910816     4.43301949     0.98024150
Ce    -1.89770246     5.52587487     4.21280347
Ce     9.49412634     3.42094234     7.49559643
Ce     3.83527081     4.43301949     0.98024150
Ce     1.92295636     5.50148648     4.16755631
Ce     7.66142199     4.43301949     0.98024150
Ce     5.74863128     5.54150240     4.18379431
Ce     5.80368369     3.30684522     7.36344889
Ce    -1.90397316     7.74657355     0.98024150
Ce    -3.81346292     8.85620783     4.19069113
Ce     7.61412687     6.61082963     7.43870471
Ce     1.92218949     7.74657355     0.98024150
Ce     0.01312534     8.82713671     4.17614573
Ce     0.07690030     6.49326682     7.43194079
Ce     5.74834066     7.74657355     0.98024150
Ce     3.82412706     8.84805080     4.14742082
Ce     3.84223933     6.68920695     7.36351551
Pt     2.02450302     3.23826474     7.21938990
C     -2.04009059     7.61518581     9.95023765
C     -1.84619649     6.09455306    10.21237396
C      2.90379164     3.83173495     9.01155541
H     -3.03541809     7.88903767    10.35040922
H     -1.29916443     8.14667941    10.57677979
H      3.09497537     2.89321797     9.56336884
H      2.12707536     4.43439384     9.51801865
