86
CIF: 9-2CH2.cif | data_VESTA_phase_1
O      0.00910816     0.01496067     0.19922347
O      1.92535754     1.05137203     3.32290781
O      0.03263328     2.29314713     6.51342577
O      0.00910816     2.22399008     1.76123671
O      0.05761616     0.00563634     5.01094690
O      1.83109639     1.18662441     8.19446215
O      3.83525934     0.01496067     0.19922347
O      5.75841302     1.10436560     3.33467783
O      3.80855469     2.39983010     6.57863986
O      3.83525934     2.22399008     1.76123671
O      3.83733694     0.08772617     5.00268964
O      5.78070419     1.17345306     8.19603605
O      7.66142199     0.01496067     0.19922347
O      9.57256345     1.10039928     3.35881092
O      7.65490222     2.18124531     6.51413288
O      7.66142199     2.22399008     1.76123671
O      1.90225139     9.92645699     4.99009846
O      9.57461236     0.98605207     8.19703969
O     -1.90396742     3.32850478     0.19922347
O     -0.04855391     4.46259290     3.32530287
O     -1.89085902     5.62089642     6.71805523
O     -1.90397316     5.53754413     1.76123671
O     -1.94003276     3.36649792     4.94529941
O      1.92218375     3.32850478     0.19922347
O      3.89175634     4.46492895     3.31086408
O      1.93549877     5.17269274     6.83333750
O      1.92217801     5.53754413     1.76123671
O      1.93113121     3.32754054     4.65504081
O      4.14788107     4.58653283     8.61248015
O      5.74834640     3.32850478     0.19922347
O      7.65615911     4.44970983     3.33244244
O      5.67972814     5.52319979     6.51324329
O      5.74834066     5.53754413     1.76123671
O      5.77128037     3.31715257     4.95800464
O      7.52341640     4.47310016     8.20050683
O     -3.81704875     6.64205884     0.19922347
O     -1.89670156     7.75135499     3.38878340
O     -3.71939571     8.78855167     6.64027277
O     -3.81704875     8.85108825     1.76123671
O      7.64946717     6.61390694     5.00385295
O     -1.95549425     7.73837251     8.79772102
O      0.00910242     6.64205884     0.19922347
O      1.92323403     7.75699134     3.32824538
O     -0.04337138     8.84475606     6.61223915
O      0.00910242     8.85108825     1.76123671
O      0.08909011     6.61882756     4.98553644
O      2.06870635     7.78555080     8.19776962
O      3.83526508     6.64205884     0.19922347
O      5.74088540     7.73819358     3.36686289
O      3.86248625     8.84712193     6.48746787
O      3.83526508     8.85108825     1.76123671
O      3.74274865     6.61444373     5.02134830
O      5.73663263     7.72273588     8.16784276
Ce     1.92218375     1.11947537     0.98024150
Ce     0.02782380     2.23811573     4.16295840
Ce     0.00755283     0.04526968     7.33652844
Ce     5.74834640     1.11947537     0.98024150
Ce     3.82091699     2.25272847     4.12954159
Ce     3.82740807     0.21202396     7.31764168
Ce     9.57449758     1.11947537     0.98024150
Ce     7.66049797     2.22105759     4.12883448
Ce     1.94552521     9.93997626     7.35375007
Ce     0.00910816     4.43301949     0.98024150
Ce    -1.89679912     5.53688805     4.17842365
Ce     9.50227507     3.25341317     7.32503215
Ce     3.83527081     4.43301949     0.98024150
Ce     1.92186809     5.48440146     4.13252971
Ce     7.66142199     4.43301949     0.98024150
Ce     5.74043774     5.52743450     4.13319121
Ce     5.79770380     3.30564130     7.33536513
Ce    -1.90397316     7.74657354     0.98024150
Ce    -3.80605812     8.85722162     4.17730595
Ce     7.54612081     6.57192761     7.32275114
Ce     1.92218949     7.74657354     0.98024150
Ce     0.02058663     8.85199285     4.17096474
Ce     0.14944388     6.64449430     7.32861334
Ce     5.74834066     7.74657354     0.98024150
Ce     3.82626022     8.83934835     4.15018474
Ce     3.84129701     6.67097617     7.35746812
Pt     1.86260478     3.15767484     7.55723903
C     -2.05578734     8.55600028     9.79598250
C      3.05758759     3.85307248     9.06364124
H     -3.04738324     8.82208145    10.19543308
H     -1.14838025     8.91557319    10.30722541
H      3.37046759     2.95537283     9.63425885
H      2.38567269     4.47189734     9.69349670
