89
CIF: CH2+CH2CO→CH2+CH2CO-O.cif | data_VESTA_phase_1
O      0.01532375     0.01512966     0.18907297
O      1.92905935     1.04480127     3.30292616
O      0.04955253     2.62854440     6.77375751
O      0.01524914     2.22393043     1.74917017
O      0.00611802     0.13189244     5.04203707
O      1.95514416     1.16175292     7.98456355
O      3.83647031     0.01747565     0.18469343
O      5.75761526     1.10845120     3.30358765
O      3.86393828     2.47247631     6.62622174
O      3.83902427     2.22428830     1.75323037
O      3.86451220     0.09284560     5.00330551
O      5.76826154     1.09108490     8.13260114
O      7.66700626     0.01361868     0.18300548
O      9.58503481     1.10434571     3.30226467
O      7.67551754     2.19454589     6.50450702
O      7.66555424     2.22222064     1.73856347
O      7.67164356     0.01793292     4.93341535
O      9.58098291     1.07712824     8.10705382
O     -1.89849220     3.32637748     0.18165968
O     -0.03037202     4.45833830     3.31544891
O     -1.82967306     5.45893353     6.53174228
O     -1.89908334     5.53688805     1.73509633
O      9.57505428     3.27736018     4.95346543
O      1.92857151     3.32754054     0.18816056
O      3.88686651     4.45548534     3.32509758
O      1.95152271     5.13801978     6.63790052
O      1.92903065     5.53651031     1.74859992
O      1.92132286     3.26283690     4.66859002
O      3.99992939     4.52387696     8.63047733
O      5.74884571     3.32895211     0.18558302
O      7.67166078     4.43457023     3.32543973
O      5.65623746     5.47523619     6.57816085
O      5.75294927     5.53824992     1.75024224
O      5.78459539     3.30349413     4.95287237
O      7.65836298     4.29183254     8.22753680
O     -3.81613621     6.64401714     0.18236680
O     -1.89144442     7.75797546     3.36553990
O     -3.79185926     8.87970736     6.52343940
O     -3.81250902     8.85300679     1.74955794
O      7.65502848     6.61757504     4.96557760
O     -1.78943530     7.84962818     8.23812069
O      0.01550167     6.64125365     0.18186498
O      1.93324899     7.74807458     3.31830017
O      0.03910139     8.86829550     6.47845788
O      0.01473261     8.85026317     1.73920215
O      0.07946541     6.63078615     4.97810034
O      1.98226777     7.71464420     8.09313966
O      3.84172745     6.64104489     0.18818337
O      5.74482825     7.76961595     3.37616941
O      3.83267668     8.85421955     6.46604918
O      3.84210050     8.85028306     1.74967199
O      3.78117855     6.62692918     5.00056830
O      5.62676076     7.84415089     8.16905169
O     -0.54840662     4.76071276     8.94582704
O     -0.39986955     4.81672828    11.21315158
Ce     1.92685548     1.12052908     0.97298788
Ce     0.01414147     2.25060118     4.09931820
Ce    -0.00133150     0.01000029     7.33819358
Ce     5.75055027     1.11919703     0.96256366
Ce     3.84789713     2.24023309     4.10187293
Ce     3.88016309     0.02595502     7.31104955
Ce     9.58073612     1.11837196     0.96555179
Ce     7.67389334     2.22372168     4.11156723
Ce     1.94299995     9.94007567     7.28956244
Ce     0.01578863     4.43166756     0.96260928
Ce    -1.90379525     5.52626150     4.17021201
Ce     9.50438137     3.31014442     7.37373173
Ce     3.83994255     4.43286044     0.97187019
Ce     1.92974232     5.48776140     4.15591007
Ce     7.66368898     4.43277097     0.95802445
Ce     5.76014052     5.53082426     4.16943647
Ce     5.84583874     3.30543255     7.35979475
Ce    -1.90085102     7.74792547     0.95875438
Ce    -3.80644839     8.85648602     4.17347385
Ce    -3.82158848     6.64334118     7.41602166
Ce     1.92908805     7.74516197     0.96420599
Ce     0.03019410     8.84749968     4.11955076
Ce     0.02735892     6.67059842     7.30970376
Ce     5.75362650     7.74702087     0.97109464
Ce     3.83047856     8.85242029     4.12755711
Ce     3.83696963     6.66684086     7.33016442
Pt     2.00058166     3.04068343     7.18960855
C     -0.71932097     6.83105033    10.15051998
C     -0.54972665     5.34953677    10.10898278
C      2.90879225     3.77982982     8.94318107
H     -1.64878393     7.20512664    10.57319124
H      0.16173157     7.46277815    10.29132676
H      3.13097516     2.85975379     9.51368463
H      2.07010673     4.34783812     9.38261776
