89
CIF: CH2+CH2CO-O.cif | data_VESTA_phase_1
O      0.00910816     0.01496067     0.19922347
O      1.93225610     1.06495095     3.29756578
O      0.13498101     3.72019591     7.55817424
O      0.00910816     2.22399008     1.76123671
O      0.03075081     0.17598913     5.09591454
O      1.80514358     1.29517622     7.84430421
O      3.83525934     0.01496067     0.19922347
O      5.75810884     1.10942538     3.34507923
O      3.81954532     2.43870795     6.59102575
O      3.83525934     2.22399008     1.76123671
O      3.83872009     0.10079811     5.00430916
O      5.71951824     1.10453459     8.14188486
O      7.66142199     0.01496067     0.19922347
O      9.56245093     1.10139334     3.31989688
O      7.64596624     2.19797542     6.53835721
O      7.66142199     2.22399008     1.76123671
O      1.90946561     9.93779926     4.99142145
O      9.69681784     1.15584818     8.01264280
O     -1.90396742     3.32850478     0.19922347
O     -0.02618812     4.44993846     3.30682669
O     -1.95052982     5.53388598     6.49775523
O     -1.90397316     5.53754413     1.76123671
O     -1.79829668     3.22935682     5.07319568
O      1.92218375     3.32850478     0.19922347
O      3.84211198     4.43429189     3.35228723
O      2.14530789     5.24196907     6.63785490
O      1.92217801     5.53754413     1.76123671
O      1.82670014     3.23606675     4.82730273
O      4.03595456     4.53132250     8.69021699
O      5.74834640     3.32850478     0.19922347
O      7.69794072     4.41022559     3.37920315
O      5.63923211     5.49570397     6.57540083
O      5.74834066     5.53754413     1.76123671
O      5.76809510     3.31471711     4.96211046
O      7.56170282     4.30612719     8.24338983
O     -3.81704875     6.64205884     0.19922347
O     -1.89890542     7.75429742     3.40043936
O     -3.74821814     8.85785783     6.57188807
O     -3.81704875     8.85108825     1.76123671
O      7.60068369     6.64609474     4.95259865
O     -1.90560885     7.98253457     8.57427323
O      0.00910242     6.64205884     0.19922347
O      1.92591999     7.75532131     3.33743785
O     -0.05818434     8.84053129     6.54869019
O      0.00910242     8.85108825     1.76123671
O      0.09651667     6.58976112     4.98496619
O      2.02532924     7.78670392     8.14245511
O      3.83526508     6.64205884     0.19922347
O      5.73686794     7.80215167     3.37607817
O      3.84650249     8.84685353     6.48498157
O      3.83526508     8.85108825     1.76123671
O      3.80305076     6.65519043     4.97004838
O      5.64378906     7.83805727     8.23750482
O     -1.28985807     5.43373401     9.21421075
O     -2.20344058     5.62113499    11.28657731
Ce     1.92218375     1.11947537     0.98024150
Ce     0.00619837     2.23841395     4.03766248
Ce     5.74345658     9.88042188     7.38796523
Ce     5.74834640     1.11947537     0.98024150
Ce     3.83059908     2.24281765     4.12803612
Ce     3.84059682     0.11357184     7.30146931
Ce     9.57449758     1.11947537     0.98024150
Ce     7.67189035     2.22233993     4.17187715
Ce     1.91172113     9.92774927     7.30842639
Ce     0.00910816     4.43301949     0.98024150
Ce    -1.89770592     5.52587382     4.21279848
Ce     9.49413110     3.42094281     7.49560612
Ce     3.83527081     4.43301949     0.98024150
Ce     1.92295281     5.50148942     4.16756604
Ce     7.66142199     4.43301949     0.98024150
Ce     5.74862762     5.54150051     4.18378402
Ce     5.80367834     3.30684412     7.36344437
Ce    -1.90397316     7.74657354     0.98024150
Ce    -3.81346173     8.85620768     4.19069548
Ce     7.61412497     6.61082534     7.43869491
Ce     1.92218949     7.74657354     0.98024150
Ce     0.01312562     8.82714124     4.17614264
Ce     0.07690572     6.49326730     7.43194312
Ce     5.74834066     7.74657354     0.98024150
Ce     3.82413096     8.84804641     4.14742471
Ce     3.84223824     6.68920730     7.36351280
Pt     2.02450279     3.23826363     7.21939855
C     -2.04009054     7.61518807     9.95024725
C     -1.84620205     6.09455808    10.21238099
C      2.90378764     3.83173986     9.01156577
H     -3.03541694     7.88904283    10.35040494
H     -1.29917284     8.14668439    10.57677243
H      3.09497869     2.89321400     9.56336504
H      2.12708009     4.43439130     9.51801855
