90
CIF: CH2CHCH2→CH2CCH2+H.cif | data_image0
O      0.00204891     0.00597433     0.14954305
O      1.91143561     1.01810716     3.27472174
O      0.31382120     2.33351969     6.52049203
O      0.00206038     2.21500374     1.71153349
O     11.44989218     0.03111332     4.96495485
O      1.89242941     1.39064684     8.44201150
O      3.82820582     0.00596439     0.14954305
O      5.75638071     1.10354547     3.27373158
O      3.46959049     2.35709794     6.53995406
O      3.82824025     2.21497392     1.71146506
O      3.86496989     0.05272042     4.95330925
O      5.67796537     0.98452263     8.11051055
O      7.65436847     0.00596439     0.14952024
O      9.55859881     1.10245716     3.28520995
O      7.68553052     2.16360475     6.53262621
O      7.65437995     2.21499380     1.71144225
O      7.64986540     0.00421604     4.92015071
O      9.63246328     1.02568273     8.12664065
O     -1.91101520     3.31953832     0.14956587
O     -0.07476388     4.46476630     3.26996258
O     -1.77727288     5.52244375     6.54492545
O     -1.91100372     5.52854785     1.71155630
O     -1.88628407     3.28521940     4.96107736
O      0.25341966     4.19127018     8.48522776
O      1.91511301     3.31951844     0.14963430
O      3.90851829     4.45983894     3.27128118
O      1.83299415     5.12125424     6.54635598
O      1.91513023     5.52857768     1.71160192
O      1.91190465     3.31426355     4.48403877
O      3.46394426     4.20757095     8.52271607
O      5.74128715     3.31951844     0.14952024
O      7.66156452     4.43585106     3.33488190
O      5.73831103     5.53353650     6.51478203
O      5.74131010     5.52854785     1.71146506
O      5.72249400     3.26530480     4.94555128
O      7.72147121     4.54118220     8.18329091
O     -3.82407931     6.63306256     0.14954305
O     -1.90915691     7.73795891     3.31883322
O     -3.80347174     8.98243919     6.54956742
O     -3.82411375     8.84209197     1.71144225
O     -3.78592698     6.65775812     5.00910142
O     -1.87449795     7.77679750     8.10691630
O      0.00206612     6.63307250     0.14961149
O      1.91530485     7.75305863     3.26607251
O      0.00023632     8.83600639     6.43173759
O      0.00207760     8.84206215     1.71155630
O      0.07437541     6.63975086     4.94706964
O      1.78497334     7.72818774     8.10085667
O      3.82818286     6.63307250     0.14954305
O      5.75517826     7.73478792     3.33129862
O      3.80282618     8.85760063     6.47205362
O      3.82821156     8.84209197     1.71146506
O      3.76416158     6.61930173     4.92627679
O      5.82262812     7.82455641     8.15440318
Ce     1.91511875     1.11047909     0.93053827
Ce     0.02642517     2.22847086     4.08025738
Ce     5.67954999     9.90768121     7.28251763
Ce     5.74129288     1.11047909     0.93046984
Ce     3.80476395     2.24012066     4.08575947
Ce    -1.85282435     9.93788146     7.25893265
Ce     9.56744406     1.11047909     0.93053827
Ce     7.65557055     2.21300935     4.11339219
Ce     1.90849660     9.92977962     7.26880985
Ce     0.00206612     4.42404309     0.93060670
Ce    -1.89600027     5.52255488     4.12677484
Ce     9.56938165     3.28588576     7.33250311
Ce     3.82822304     4.42403315     0.93058389
Ce     1.92239928     5.48477973     4.07566277
Ce     7.65436847     4.42404309     0.93051546
Ce     5.73930341     5.52100883     4.14993284
Ce     5.76932240     3.30100077     7.34577047
Ce    -1.91100946     7.73756732     0.93056108
Ce    -3.81997221     8.85237765     4.11967811
Ce    -3.81653426     6.62661209     7.34577300
Ce     1.91513023     7.73758721     0.93056108
Ce     0.01704831     8.85015616     4.06659677
Ce     0.01068942     6.68463102     7.25801222
Ce     5.74128715     7.73757726     0.93046984
Ce     3.81843889     8.83392312     4.09004265
Ce     3.81071456     6.64495401     7.30739546
Pt     1.86591145     3.28037471     7.46045120
C      3.15260914     4.54606401     9.88805290
C      2.01716376     3.75818497    10.43947908
C      2.05207984     2.87232740    11.42894798
H      2.89791115     5.62740498     9.97250617
H      4.06932068     4.37595062    10.49485056
H      0.70023000     4.08644127     9.43692931
H      1.92951713     1.63831501     9.39231791
H      1.16677909     2.33170903    11.77886134
H      2.99217973     2.65233081    11.96353440
