86
CIF: 2-NH2+H+NO-NH2NO+H_is.cif | data_image0
Ce     5.79089495    10.03280256     8.78246818
Ce     1.92874683     1.09915221     5.58123127
Ce     0.00000000     2.23543938     2.47426506
Ce     3.84181855     0.01009975     8.77320982
Ce     5.79999009     1.12227430     5.61735866
Ce     3.87189458     2.23543938     2.47426506
Ce     7.78434754     0.08425545     8.76555999
Ce     9.68483614     1.11949100     5.59651493
Ce     7.74390532     2.23543938     2.47426506
Ce     9.70125126     3.30509737     8.75711113
Ce     0.00284849     4.46338875     5.69372578
Ce    -1.93600537     5.58869904     2.47426506
Ce     1.89255442     3.16056159     8.74068438
Ce     3.84941147     4.48426979     5.65253413
Ce     1.93588921     5.58869904     2.47426506
Ce     5.80008305     3.36554980     8.76019443
Ce     7.74428159     4.48122625     5.61976631
Ce     5.80789995     5.58869904     2.47426506
Ce     7.72322356     6.67991474     8.78941868
Ce    -1.94233743     7.81860905     5.61021466
Ce    -3.87195266     8.94185811     2.47426506
Ce     1.95194548     7.82092108     5.61954363
Ce    -0.00005808     8.94185811     2.47426506
Ce     3.95500815     6.76195987     8.84446095
Ce     5.80029211     7.82300192     5.61806747
Ce     3.87195266     8.94185811     2.47426506
Co     0.00546726     7.58824710     8.27448164
O      5.79563935    10.04495662     6.39950042
O     -0.00733529     2.10414498     9.61938813
O      1.93594729     1.11771969     3.26466483
O     -0.00059883     2.23713330     4.81200837
O      0.00000000     0.00000000     1.68386529
O      1.91338900     1.06555017     7.93338967
O     -1.94084419    10.02851895     6.43458340
O      3.85529027     2.14037813     9.56313027
O      5.80795803     1.11771969     3.26466483
O      3.88060732     2.22159394     4.81124386
O      3.87189458     0.00000000     1.68386529
O      5.81428112     1.17896769     7.92748455
O      1.94715861    10.03151643     6.43699275
O      7.74970051     2.23268596     9.55332318
O      9.67985261     1.11771969     3.26466483
O      7.72398117     2.23514348     4.82534965
O      7.74390532     0.00000000     1.68386529
O      9.68873091     1.15026768     7.91741610
O     -1.93399455     3.36153629     6.39349053
O     -2.28405039     5.35899803     9.86771774
O      0.00000000     4.47087876     3.26466483
O     -1.90719735     5.60892130     4.83556560
O     -1.93594729     3.35315907     1.68386529
O      0.03968473     4.27642691     8.01314595
O      1.95113332     3.30676704     6.38533020
O      3.87201074     4.47087876     3.26466483
O      1.90382783     5.59799727     4.84647158
O      1.93594729     3.35315907     1.68386529
O      3.73957664     4.45700138     8.06608196
O      5.75990140     3.40195432     6.43767490
O      5.92652454     5.51718517     9.56232728
O      7.74390532     4.47087876     3.26466483
O      5.80966395     5.59779261     4.81878490
O      5.80795803     3.35315907     1.68386529
O      7.76389301     4.44346900     7.91584159
O     -3.85119826     6.73024808     6.44300351
O     -3.85006614     8.91508702     9.55684030
O     -1.93600537     7.82413842     3.26466483
O     -3.86992443     8.93378669     4.80065698
O     -3.87195266     6.70641873     1.68386529
O     -1.83716031     7.78197629     8.04358669
O      0.00572113     6.76813425     6.55955487
O      0.00757102     9.06631696     9.47893030
O      1.93600537     7.82413842     3.26466483
O      0.00114786     8.93044667     4.81682854
O     -0.00005808     6.70641873     1.68386529
O      1.81823602     7.79514366     8.07567624
O      3.86177048     6.72750446     6.41159515
O      3.86799050     9.09771063     9.57767231
O      5.80789995     7.82413842     3.26466483
O      3.86680582     8.94331564     4.79953817
O      3.87195266     6.70641873     1.68386529
O      5.83584656     7.83010184     7.98069345
O      2.96783519     5.63267869    11.22954569
N      0.01853572     6.62274661     9.83517004
N      2.24001118     4.78449296    10.74490283
H     -1.39343702     5.87692307     9.94330665
H      0.26690625     7.24834855    10.61437910
H      0.75116459     5.90615099     9.73710607
