83
CIF: Co-Y-CeO2-Ov-O2.cif | data_image0
Ce     1.93596140     1.11772783     0.89035214
Ce    -0.02204010     2.24658157     4.04090638
Ce    11.60226465     0.02326871     7.19901544
Ce     5.80789581     1.11772783     0.89035214
Ce     3.86703127     2.23331127     4.01600773
Ce     3.86049995     0.03623467     7.19994315
Ce     9.67981860     1.11772783     0.89035214
Ce     7.76022535     2.22765271     4.03238566
Ce     1.98274310    10.01961762     7.19365180
Ce     0.00000000     4.47091133     0.89035214
Ce    -1.94226681     5.57649828     4.07471784
Ce     9.65154521     3.27467949     7.31955919
Ce     3.87193441     4.47091133     0.89035214
Ce     1.96068427     5.57710600     4.07402970
Ce     1.86037176     3.31119433     7.20227717
Ce     7.74385721     4.47091133     0.89035214
Ce     5.81947001     5.61770358     4.02405868
Ce    -1.93596721     7.82410489     0.89035214
Ce    -3.86420943     8.97667112     3.99581238
Ce    -3.85402632     6.92293771     7.13950344
Ce     1.93596721     7.82410489     0.89035214
Ce     0.00489541     8.94850710     4.04793182
Ce     0.01872433     6.69760569     7.25361397
Ce     5.80789000     7.82410489     0.89035214
Ce     3.87687319     8.92872286     4.03521630
Ce     3.92622891     6.77144223     7.27774226
Y      5.80452275     3.39670900     6.88167561
O      0.00000000     0.00000000     0.09999685
O      1.93099324     1.12979474     3.21299996
O     -0.00155809     2.22165077     6.43095507
O      0.00000000     2.23545567     1.68070743
O      0.00183978     0.01291360     4.83156662
O      1.94796695     1.13137098     8.00049500
O      3.87192279     0.00000000     0.09999685
O      5.81273026     1.09759721     3.23034713
O      3.93777806     2.24702085     6.42121804
O      3.87192279     2.23545567     1.68070743
O      3.86835589     0.02217545     4.82963968
O      5.86218999     1.01175523     8.43758473
O      7.74385721     0.00000000     0.09999685
O      9.68294628     1.11798335     3.22646323
O      7.63596828     2.18279127     6.35796147
O      7.74385721     2.23545567     1.68070743
O      1.95748585    10.02910177     4.82419802
O      9.66835638     0.95726044     8.05614191
O     -1.93596140     3.35318350     0.09999685
O      0.00643665     4.49158099     3.25473088
O     -2.11244049     5.59442065     6.54308612
O     -1.93596721     5.58864923     1.68070743
O     -1.93656788     3.36050111     4.84088427
O      0.08394233     4.53954203     8.03872499
O      1.93596140     3.35318350     0.09999685
O      3.84271289     4.47821709     3.22566775
O      2.03253078     5.48829576     6.45294971
O      1.93595559     5.58864923     1.68070743
O      1.92764973     3.31579899     4.86238886
O      5.80789581     3.35318350     0.09999685
O      7.76875599     4.50195416     3.23870533
O      5.97913897     5.54281815     6.47158284
O      5.80789000     5.58864923     1.68070743
O      5.79460224     3.38435286     4.69054141
O      7.32421445     3.60767551     8.74076664
O     -3.87192860     6.70637706     0.09999685
O     -1.90932974     7.81855301     3.23936756
O     -3.84004854     9.01972497     6.35432419
O     -3.87192860     8.94183273     1.68070743
O     -3.86556859     6.78013137     4.82282585
O     -1.93388896     7.92347634     7.99942474
O     -0.00000581     6.70637706     0.09999685
O      1.92020607     7.79444755     3.25243633
O     -0.01572756     9.06302690     6.41245768
O     -0.00000581     8.94183273     1.68070743
O     -0.01105960     6.68606218     4.96173386
O      3.87192860     6.70637706     0.09999685
O      5.81629179     7.83874663     3.21392169
O      3.88924217     8.95284539     6.37869872
O      3.87192860     8.94183273     1.68070743
O      3.92114701     6.69243464     4.83375242
O      5.95891169     7.95155037     8.03851159
O      1.82601959     7.85910459     8.00353840
O      3.98387774     4.30697495     8.34439463
O      4.43189803     3.44607262     9.41343238
Co     6.06839232     2.54191916     9.39685802
