83
CIF: Co-Y-CeO2-O.cif | data_image0
Ce     1.93596140     1.11772783     0.89035214
Ce    -0.01498078     2.24446833     4.04935375
Ce    -0.00694289     0.01234079     7.19417205
Ce     5.80789581     1.11772783     0.89035214
Ce     3.87230816     2.23258904     4.02435554
Ce     3.81943153     0.02499751     7.20660045
Ce     9.67981860     1.11772783     0.89035214
Ce     7.74625402     2.22997742     4.06131149
Ce     2.01973135    10.00414882     7.14836241
Ce     0.00000000     4.47091133     0.89035214
Ce    -1.95335937     5.57819218     4.06988481
Ce     9.69207414     3.26675251     7.28235761
Ce     3.87193441     4.47091133     0.89035214
Ce     1.93744469     5.57981407     4.03345222
Ce     1.93759527     3.38451675     7.19374125
Ce     7.74385721     4.47091133     0.89035214
Ce     5.82467448     5.57967648     4.03421962
Ce    -1.93596721     7.82410489     0.89035214
Ce    -3.87099812     8.96568336     3.99382150
Ce    -3.88168886     6.89220243     7.13958429
Ce     1.93596721     7.82410489     0.89035214
Ce    -0.01141383     8.94540260     4.04875673
Ce     0.00438252     6.70548407     7.22736655
Ce     5.80789000     7.82410489     0.89035214
Ce     3.88526907     8.92937126     4.01857653
Ce     3.88149665     6.66964645     7.18323146
Y      5.69033797     3.36804541     7.03119627
O      0.00000000     0.00000000     0.09999685
O      1.93364935     1.12671326     3.22178944
O      0.02676447     2.21703591     6.41930024
O      0.00000000     2.23545567     1.68070743
O     -0.00228379     0.00444111     4.83223247
O      1.95494195     1.10935953     8.00805009
O      3.87192279     0.00000000     0.09999685
O      5.80648843     1.10050388     3.23985235
O      3.90534854     2.16878862     6.40495667
O      3.87192279     2.23545567     1.68070743
O     -1.94365709    10.04390256     4.83538437
O      5.88234232     1.23153023     8.36401368
O      7.74385721     0.00000000     0.09999685
O      9.68268736     1.11320552     3.23300806
O      7.66931040     2.16687042     6.34265351
O      7.74385721     2.23545567     1.68070743
O      1.95558454    10.01001963     4.81671734
O      9.69315288     0.93398687     8.00303508
O     -1.93596140     3.35318350     0.09999685
O      0.00433084     4.49063618     3.24708357
O     -2.12413684     5.58211092     6.54156456
O     -1.93596721     5.58864923     1.68070743
O     -1.92250700     3.36373969     4.83134473
O      0.11216972     4.57176343     7.99596314
O      1.93596140     3.35318350     0.09999685
O      3.85217744     4.47762460     3.21552676
O      1.92908759     5.62810313     6.33546186
O      1.93595559     5.58864923     1.68070743
O      1.94915093     3.34722457     4.85846995
O      5.80789581     3.35318350     0.09999685
O      7.75258013     4.48593690     3.24636011
O      5.98804928     5.54235149     6.48443713
O      5.80789000     5.58864923     1.68070743
O      5.76736646     3.37759410     4.77245317
O      7.33498683     3.59555179     8.70293385
O     -3.87192860     6.70637706     0.09999685
O     -1.92831157     7.82320095     3.22125762
O     -3.86905718     8.99493042     6.36859092
O     -3.87192860     8.94183273     1.68070743
O     -3.87012929     6.77009635     4.82157896
O     -1.95869681     7.91076312     7.99076236
O     -0.00000581     6.70637706     0.09999685
O      1.92882661     7.79193371     3.24943001
O      0.00304181     9.05809836     6.46088000
O     -0.00000581     8.94183273     1.68070743
O     -0.07535197     6.72046213     4.92199309
O      3.87192860     6.70637706     0.09999685
O      5.80798228     7.82663156     3.21394683
O      3.88713140     8.88891747     6.34599809
O      3.87192860     8.94183273     1.68070743
O      3.93721936     6.65724364     4.86578253
O      5.82971239     7.86318574     7.97227470
O      1.95027294     7.79800502     7.95650375
O      3.81740919     4.50775398     7.88672740
O      7.38866176     2.08798947    11.05984160
Co     6.82194802     2.18474102     9.54412854
