85
CIF: Rh-W-CeO2-O-CO.cif | data_image0
Ce     1.93596140     1.11772783     0.89035214
Ce    -0.01311751     2.23288024     4.01273741
Ce     0.02044229     0.00936819     7.17467052
Ce     5.80789581     1.11772783     0.89035214
Ce     3.84062683     2.18731384     3.96593048
Ce    -1.99688018     9.99173130     7.25999166
Ce     9.67981860     1.11772783     0.89035214
Ce     7.74704024     2.24408905     4.05041963
Ce     2.01048401    10.05933370     7.26027097
Ce     0.00000000     4.47091133     0.89035214
Ce    -1.93270285     5.58941365     4.05762165
Ce    -1.84635498     3.36836280     7.23054977
Ce     3.87193441     4.47091133     0.89035214
Ce     1.96618385     5.59177986     4.06559738
Ce     1.87867027     3.32866045     7.15643520
Ce     7.74385721     4.47091133     0.89035214
Ce     5.81648005     5.62382984     4.01840285
Ce    -1.93596721     7.82410489     0.89035214
Ce    -3.85954388     8.92888888     4.03365079
Ce    -3.78608140     6.75682081     7.26991194
Ce     1.93596721     7.82410489     0.89035214
Ce     0.00691865     8.95610708     4.08645160
Ce     0.04999288     6.72954071     7.22865306
Ce     5.80789000     7.82410489     0.89035214
Ce     3.87941197     8.94462710     4.06842640
Ce     3.90386579     6.71946849     7.33171436
W      5.57031286     3.36827762     6.85224325
Rh     6.93928209     3.48115070     9.06206181
O      0.00000000     0.00000000     0.09999685
O      1.91357729     1.11398535     3.19999303
O      0.01666629     2.26484389     6.32273914
O      0.00000000     2.23545567     1.68070743
O      0.01216122     0.00157858     4.83580581
O      1.85529379     1.23415389     7.97869631
O      3.87192279     0.00000000     0.09999685
O      5.81772721     1.13896324     3.23816527
O      4.12919764     2.15709509     6.34266080
O      3.87192279     2.23545567     1.68070743
O     -1.95943022    10.04985578     4.76797775
O      5.85818287     2.04388098     8.32882228
O      7.74385721     0.00000000     0.09999685
O      9.68419148     1.11904186     3.22530925
O      7.44440659     2.53539515     6.38008247
O      7.74385721     2.23545567     1.68070743
O      7.77687958     0.06202053     4.85510139
O      9.79082468     1.24026727     7.97042960
O     -1.93596140     3.35318350     0.09999685
O      0.01163677     4.47484372     3.25931310
O     -1.93520912     5.56159567     6.38000970
O     -1.93596721     5.58864923     1.68070743
O      9.65941808     3.32178268     4.85640581
O      0.04594554     4.41839609     8.00951428
O      1.93596140     3.35318350     0.09999685
O      3.86686887     4.47688282     3.20600173
O      1.93232804     5.52042234     6.40283871
O      1.93595559     5.58864923     1.68070743
O      1.99427965     3.30365696     4.85227099
O      5.80789581     3.35318350     0.09999685
O      7.72528727     4.46915938     3.24959711
O      6.08002899     5.22813941     6.52932107
O      5.80789000     5.58864923     1.68070743
O      5.67357999     3.40201667     4.85081148
O      8.28555543     4.68922145     8.59349571
O     -3.87192860     6.70637706     0.09999685
O     -1.92862221     7.79548161     3.24232371
O     -3.85872789     8.94094062     6.38342521
O     -3.87192860     8.94183273     1.68070743
O      7.71434545     6.70981568     4.87101808
O     -1.91812719     7.71163738     8.07389062
O     -0.00000581     6.70637706     0.09999685
O      1.96028710     7.82192181     3.27336926
O     -0.00114420     9.00166375     6.43387381
O     -0.00000581     8.94183273     1.68070743
O      0.01935501     6.72641921     4.87422771
O      3.87192860     6.70637706     0.09999685
O      5.80877729     7.82716670     3.22158934
O      3.92384625     8.96647279     6.42896198
O      3.87192860     8.94183273     1.68070743
O      3.96321511     6.66638791     4.88413607
O      5.98095599     7.84278684     8.00695747
O      1.84077666     7.75426123     8.08143758
O      4.08698996     4.21311895     7.74641794
O      4.21963027     6.11642750    10.20708776
O      5.13902744     4.65830622    11.80726703
C      4.69143823     5.37463229    10.99196862
