81
CIF: Os-Y-CeO2-Ov.cif | data_image0
Ce     1.93596140     1.11772783     0.89035214
Ce     0.01481438     2.23132959     4.00558444
Ce     5.81350105    10.04671565     7.19607588
Ce     5.80789581     1.11772783     0.89035214
Ce     3.87561175     2.23490230     3.99905431
Ce    -2.09532636     9.97736448     7.14520964
Ce     9.67981860     1.11772783     0.89035214
Ce     7.77676482     2.21588824     4.01455222
Ce     7.84161158     0.00567921     7.29203654
Ce     0.00000000     4.47091133     0.89035214
Ce    -1.95603224     5.57872613     4.07995702
Ce    -1.83084049     3.27007182     7.21314238
Ce     3.87193441     4.47091133     0.89035214
Ce     1.95253552     5.57886253     4.09260538
Ce     1.84271712     3.25602244     7.21389870
Ce     7.74385721     4.47091133     0.89035214
Ce     5.80809042     5.59149180     4.03334391
Ce    -1.93596721     7.82410489     0.89035214
Ce    -3.89331364     8.92981896     3.98905528
Ce    -3.90817948     6.79268304     7.24913320
Ce     1.93596721     7.82410489     0.89035214
Ce     0.00634642     8.96260247     4.08429678
Ce     0.00211458     6.69339643     7.29008156
Ce     5.80789000     7.82410489     0.89035214
Ce     3.86264142     8.94099712     4.02614547
Ce     3.87126531     6.83963310     7.21277727
Y      5.93720853     3.31050643     6.91018663
O      0.00000000     0.00000000     0.09999685
O      1.93679628     1.10983404     3.19147636
O      0.00835496     2.21071623     6.34726958
O      0.00000000     2.23545567     1.68070743
O      5.81218561    10.05149886     4.80199827
O      1.90096049     0.93550434     8.03310574
O      3.87192279     0.00000000     0.09999685
O      5.79954321     1.09035528     3.22828520
O      4.06931756     2.22266520     6.73604739
O      3.87192279     2.23545567     1.68070743
O      3.81404881     0.05531460     4.83975316
O      6.77199014     2.09128873     8.97536475
O      7.74385721     0.00000000     0.09999685
O      9.69016408     1.11519340     3.21151091
O      7.77288274     2.28634050     6.33546588
O      7.74385721     2.23545567     1.68070743
O      1.94310074    10.04307657     4.80206348
O      9.86263865     1.15358105     8.04323183
O     -1.93596140     3.35318350     0.09999685
O      0.02158369     4.50360527     3.26241919
O     -2.15072187     5.48594664     6.49515830
O     -1.93596721     5.58864923     1.68070743
O     -1.88973234     3.35009568     4.81042899
O     -0.08778437     4.50799097     8.02312810
O      1.93596140     3.35318350     0.09999685
O      3.85704506     4.48164206     3.22669206
O      2.02198810     5.51367853     6.45597297
O      1.93595559     5.58864923     1.68070743
O      1.99908871     3.28376248     4.82465108
O      5.80789581     3.35318350     0.09999685
O      7.76485337     4.47809004     3.23525363
O      5.83612286     5.45837277     6.55713222
O      5.80789000     5.58864923     1.68070743
O      5.79394323     3.34229841     4.71461052
O      7.92944757     5.38299539     9.32795630
O     -3.87192860     6.70637706     0.09999685
O     -1.92350584     7.81959517     3.26077494
O     -3.88034243     8.90876621     6.32316916
O     -3.87192860     8.94183273     1.68070743
O      7.69594405     6.69920064     4.84068537
O     -1.97248291     7.83750322     7.97969655
O     -0.00000581     6.70637706     0.09999685
O      1.90370863     7.79577039     3.26117248
O     -0.08535554     9.17670474     6.50356715
O     -0.00000581     8.94183273     1.68070743
O     -0.03226318     6.72625479     4.98945045
O      3.87192860     6.70637706     0.09999685
O      5.80785473     7.82013740     3.20474080
O      3.89342704     8.96991447     6.39688238
O      3.87192860     8.94183273     1.68070743
O      3.91288134     6.71372622     4.81565219
O      5.92405263     7.91173627     8.03900842
O      1.76712322     7.75582978     8.08016040
Os     7.46101936     3.69575042     9.33597033
