85
CIF: Nb-Rh-CeO2-O-CO.cif | data_image0
Ce     1.93038582     1.11050507     0.88387043
Ce     0.00332550     2.22968746     4.02761319
Ce    -5.78508602    10.04629522     7.23832302
Ce     5.81181033     1.12175166     0.90127712
Ce     3.84315492     2.21183249     4.02987089
Ce    -1.97565723    10.02129533     7.31597929
Ce     9.66901012     1.12377363     0.90450652
Ce     7.73692514     2.23930967     4.01678001
Ce     2.03569463     9.91991278     7.21741201
Ce    -0.00709724     4.47602159     0.89067279
Ce    -1.95467648     5.59271440     4.07407920
Ce    -1.76575809     3.33603144     7.21787172
Ce     3.86254305     4.47635356     0.87798423
Ce     1.93358407     5.58971873     4.06373583
Ce     1.88959943     3.32750949     7.24724922
Ce     7.74213807     4.46545905     0.90125422
Ce     5.81374222     5.62527401     4.02980231
Ce    -1.94645625     7.83004003     0.90010904
Ce    -3.85972668     8.93469537     4.07242788
Ce    -3.85903586     6.75964674     7.31602656
Ce     1.92815559     7.82745473     0.89060408
Ce    -0.01310729     8.95554936     4.07399364
Ce    -0.00715012     6.71014467     7.23494428
Ce     5.81127600     7.83258510     0.88371011
Ce     3.87849103     8.94157009     4.02762793
Ce     3.87081105     6.75900704     7.24712249
Rh     4.87458280     3.89183638     6.56294613
Nb     6.56449873     2.91537091     7.89022394
O     11.61334069     0.00154917     0.10141687
O      1.92745859     1.11861408     3.23022303
O      0.01544072     2.24726911     6.37220526
O     -0.00785227     2.23805103     1.69392277
O     11.61347314     0.00110548     4.85029902
O      1.78223201     1.17476756     8.10590862
O     -1.93899312    10.05733740     0.10496691
O      5.81535873     1.12888949     3.24242854
O      3.82188639     2.19322468     6.45445079
O      3.86763657     2.23577757     1.68132582
O     -1.93329443    10.04441891     4.83112302
O      6.20303174     1.19050150     8.50641870
O      7.73821774     0.00761509     0.10924988
O      9.67646511     1.11951492     3.22074903
O      7.65350745     2.28761865     6.51327430
O      7.74357843     2.23531483     1.71563532
O      7.77788671     0.06114523     4.87673382
O      9.68617373     1.11367763     7.96067825
O      9.67032270     3.35425987     0.10911246
O     -0.01388376     4.47489458     3.25684905
O     -1.94219055     5.47088133     6.45975888
O     -1.94403436     5.59119430     1.70564938
O      9.64370897     3.29300546     4.87677572
O      0.02031481     4.41702525     8.07249230
O      1.92738314     3.35244915     0.09928684
O      3.85674623     4.47966140     3.22259390
O      1.88343595     5.61881401     6.39196038
O      1.92862022     5.59252216     1.67404250
O      1.93977125     3.35316810     4.85440946
O      5.81155478     3.35101064     0.10766953
O      7.73758461     4.45873829     3.24236123
O      5.81958538     5.65265545     6.45463067
O      5.80528807     5.59217007     1.68114259
O      5.78389970     3.36694891     4.82854105
O      7.87670334     4.08985159     8.50889896
O     -3.87155109     6.71022987     0.10512724
O     -1.93205468     7.82170155     3.23947470
O     -3.89035790     8.95268219     6.44662398
O     -3.87509971     8.94378428     1.69355631
O     -3.85773099     6.71170565     4.83122535
O     -1.75721127     7.72076287     8.09987855
O     -0.01209783     6.71325780     0.10434852
O      1.92529394     7.83369757     3.25687091
O      0.09890867     9.00463626     6.45893418
O     -0.00628994     8.94736548     1.70514550
O     -0.05287350     6.73616344     4.88757777
O      1.99265186     7.83305162     8.07250985
O      3.86815347     6.71410280     0.09951587
O      5.80271938     7.83086399     3.22995086
O      3.86930594     8.92209106     6.37208532
O      3.86556896     8.94715423     1.69389986
O      3.87379751     6.70277375     4.85442840
O      5.68176291     7.92856971     8.10568675
O      3.69967187     4.57037666     8.07486151
O      5.50321117     3.52149413    10.19135634
O      5.73419824     3.40819137    12.52770319
C      5.62840287     3.45954251    11.36200367
