84
CIF: Sc-Fe-CeO2-Ov-CO2.cif | data_image0
Ce     1.93038582     1.11050507     0.88387043
Ce    -0.01771920     2.22568538     4.00329036
Ce    -5.78127703    10.02441481     7.24423117
Ce     5.81181033     1.12175166     0.90127712
Ce     3.81558428     2.19065846     3.97271312
Ce     3.92632280     0.00850087     7.35630548
Ce     9.66901012     1.12377363     0.90450652
Ce     7.75137255     2.25463001     4.07750305
Ce     7.77417159     0.00996867     7.27052616
Ce    -0.00709724     4.47602159     0.89067279
Ce    -1.93752138     5.58024898     4.10400723
Ce    -1.83398257     3.34005994     7.24859066
Ce     3.86254305     4.47635356     0.87798423
Ce     1.95937978     5.57840587     4.09273219
Ce     1.73990845     3.25936626     7.18551804
Ce     7.74213807     4.46545905     0.90125422
Ce     5.81569819     5.65014521     3.90682671
Ce    -1.94645625     7.83004003     0.90010904
Ce    -3.86139373     8.92570038     4.13952872
Ce    -3.76654452     6.72112392     7.45413104
Ce     1.92815559     7.82745473     0.89060408
Ce     0.00835719     8.96511728     4.09947816
Ce     0.02956035     6.73316051     7.26129567
Ce     5.81127600     7.83258510     0.88371011
Ce     3.88203220     8.94761451     4.06639341
Ce     3.85762931     6.87092125     7.35619593
Fe     4.96947481     3.77673404     6.37321670
Sc     6.70537598     3.06973576     8.15754043
O     11.61334069     0.00154917     0.10141687
O      1.92558662     1.09509797     3.21695011
O     -0.01128208     2.20996846     6.34127580
O     -0.00785227     2.23805103     1.69392277
O     -5.78922661    10.03621990     4.84777477
O      1.79901592     1.21622071     8.10574780
O     -1.93899312    10.05733740     0.10496691
O      5.80574877     1.14309271     3.24373934
O      3.81571478     2.38444582     6.52354959
O      3.86763657     2.23577757     1.68132582
O      3.88490094     0.06634043     4.84914469
O      6.17024625     1.12817491     8.41592312
O      7.73821774     0.00761509     0.10924988
O      9.67666576     1.10896373     3.23547112
O      7.71459301     2.38898693     6.54888354
O      7.74357843     2.23531483     1.71563532
O      7.75282791     0.08774004     4.86668432
O      9.71770663     1.09964483     8.02146811
O      9.67032270     3.35425987     0.10911246
O     -0.00053436     4.49166689     3.25141275
O     -1.88708836     5.54884539     6.40703319
O     -1.94403436     5.59119430     1.70564938
O      9.66507696     3.32715178     4.82437905
O      0.03266513     4.41989130     8.06640050
O      1.92738314     3.35244915     0.09928684
O      3.83089573     4.48286471     3.18636105
O      2.02465750     5.46541296     6.51202685
O      1.92862022     5.59252216     1.67404250
O      1.90917949     3.31630000     4.81034354
O      3.04346524     4.49071670     9.60367194
O      5.81155478     3.35101064     0.10766953
O      7.75417063     4.48364616     3.22354111
O      5.57422081     4.87735759     7.67185469
O      5.80528807     5.59217007     1.68114259
O      5.76095159     3.45083214     4.74705605
O      8.24754081     4.21462656     8.56909917
O     -3.87155109     6.71022987     0.10512724
O     -1.96023144     7.80137957     3.32407689
O     -3.81384673     8.96198219     6.44917971
O     -3.87509971     8.94378428     1.69355631
O      7.57571036     6.61495841     4.98527435
O     -1.75186611     7.74606160     8.14091306
O     -0.01209783     6.71325780     0.10434852
O      1.96899497     7.81792067     3.28723058
O      0.05936176     8.99036608     6.40198029
O     -0.00628994     8.94736548     1.70514550
O      0.06020604     6.70387139     4.90697024
O      1.86373315     7.88259499     8.10621031
O      3.86815347     6.71410280     0.09951587
O      5.81747688     7.84571074     3.20291926
O      3.85418419     8.98752432     6.38319622
O      3.86556896     8.94715423     1.69389986
O      4.00971137     6.65306487     4.92236743
O      5.83417204     7.96280445     8.09764903
O      4.04631985     4.30459228    11.72270528
C      3.54336340     4.39349669    10.66989509
