85
CIF: Rh-Mo-CeO2-O-CO.cif | data_image0
Ce     1.93596140     1.11772783     0.89035214
Ce    -0.00948610     2.24278260     4.05926217
Ce    11.60058576     0.00391029     7.18049733
Ce     5.80789581     1.11772783     0.89035214
Ce     3.82804799     2.19918360     3.98229382
Ce    -2.07734498     9.92134301     7.17042424
Ce     9.67981860     1.11772783     0.89035214
Ce     7.75512359     2.23777569     4.05996005
Ce     7.83259911     0.02912610     7.26921373
Ce     0.00000000     4.47091133     0.89035214
Ce    -1.92950324     5.58636223     4.06286216
Ce    -1.86034536     3.37515183     7.30443262
Ce     3.87193441     4.47091133     0.89035214
Ce     1.96717260     5.57930642     4.06002882
Ce     1.92876407     3.32879322     7.24522343
Ce     7.74385721     4.47091133     0.89035214
Ce     5.84146612     5.60069735     4.00879531
Ce    -1.93596721     7.82410489     0.89035214
Ce    -3.88515441     8.91782544     4.00312625
Ce    -3.81014675     6.70996737     7.23954584
Ce     1.93596721     7.82410489     0.89035214
Ce     0.00824250     8.95683375     4.07702285
Ce     0.04420992     6.69873735     7.23517112
Ce     5.80789000     7.82410489     0.89035214
Ce     3.87565636     8.95322907     4.03381038
Ce     3.84462897     6.77988838     7.21446602
Mo     5.59519205     3.36254646     6.84943701
O      0.00000000     0.00000000     0.09999685
O      1.92035466     1.10772845     3.20947064
O      0.04150043     2.19401457     6.36477016
O      0.00000000     2.23545567     1.68070743
O      5.80786251    10.03983404     4.82609451
O      1.98033949     0.96357725     8.00561737
O      3.87192279     0.00000000     0.09999685
O      5.79679503     1.12081943     3.24516654
O      4.17730852     2.08562170     6.41522261
O      3.87192279     2.23545567     1.68070743
O     -1.99024687    10.03220475     4.82504329
O      5.87115541     2.15966979     8.40706452
O      7.74385721     0.00000000     0.09999685
O      9.67969507     1.11175042     3.23144013
O      7.43376823     2.44952856     6.38409336
O      7.74385721     2.23545567     1.68070743
O      7.75281305     0.03579586     4.84862424
O      9.83159049     1.04166606     8.04876759
O     -1.93596140     3.35318350     0.09999685
O      0.02084448     4.48821376     3.26573246
O     -1.95909044     5.65195163     6.36904631
O     -1.93596721     5.58864923     1.68070743
O      9.66569721     3.33465832     4.82671073
O      0.07296132     4.63515779     8.04263579
O      1.93596140     3.35318350     0.09999685
O      3.87737476     4.48182635     3.20471190
O      2.00619555     5.64775962     6.37836859
O      1.93595559     5.58864923     1.68070743
O      2.00862831     3.32527904     4.83675086
O      5.80789581     3.35318350     0.09999685
O      7.72471706     4.45653374     3.24311999
O      6.20064007     5.20759475     6.43284446
O      5.80789000     5.58864923     1.68070743
O      5.66952908     3.37155702     4.84556436
O      8.23400783     4.88474078     8.71799056
O     -3.87192860     6.70637706     0.09999685
O     -1.91641469     7.81677231     3.23475089
O     -3.88335540     8.88327891     6.36840893
O     -3.87192860     8.94183273     1.68070743
O      7.71931522     6.72034331     4.80734824
O     -1.97098729     7.84043308     8.05630837
O     -0.00000581     6.70637706     0.09999685
O      1.96216975     7.81568243     3.26623050
O     -0.06557526     9.06306303     6.51259425
O     -0.00000581     8.94183273     1.68070743
O      0.02494983     6.75417810     4.88872603
O      3.87192860     6.70637706     0.09999685
O      5.79669526     7.82222009     3.20346203
O      3.87892956     8.91659373     6.37263247
O      3.87192860     8.94183273     1.68070743
O      3.99849344     6.66545244     4.90932688
O      5.79282519     7.72111920     7.90916836
O      1.98492335     7.74560709     8.04815037
O      4.18329243     4.34226308     7.63337662
O      4.08531144     6.09806290    10.12785760
O      5.38968977     5.05785445    11.78681542
Rh     6.90706851     3.62993490     9.05536502
C      4.75429814     5.56756138    10.94086213
