83
CIF: Ru-CeO2+CO.cif | data_image0
O      0.53478923     0.49330558     0.29999685
O      2.44778516     1.57763664     3.41865048
O      0.83313783     2.87579405     6.76658911
O      0.53478923     2.70232184     1.86203257
O      0.52715478     0.57430048     5.13091007
O      2.44814672     1.08185507     8.47645556
O      4.36103242     0.49330558     0.29999685
O      6.29201215     1.58711322     3.44734421
O      4.06367095     2.87369032     6.76570481
O      4.36103242     2.70232184     1.86203257
O      4.36662968     0.57492598     5.12997306
O      6.22450384     1.62579175     8.20839164
O      8.18716082     0.49330558     0.29999685
O     10.08221327     1.58786251     3.44703210
O      8.18663036     2.72556090     6.66053787
O      8.18716082     2.70232184     1.86203257
O      8.18699198     0.49306697     5.12051644
O     10.15013917     1.62542946     8.20769065
O     -1.37827498     3.80682998     0.29999685
O      0.51689446     4.92146528     3.41885604
O     -1.44359029     6.05276928     6.55281973
O     -1.37833237     6.01594565     1.86203257
O     -1.31029612     3.75946835     5.13085993
O      0.08374065     5.17131488     8.47943009
O      2.44796821     3.80682998     0.29999685
O      4.37837229     4.92179296     3.41877816
O      2.44694230     5.67158909     6.76553654
O      2.44791082     6.01594565     1.86203257
O      2.44802364     3.80661176     4.93300264
O      4.80685670     5.16774286     8.47552523
O      6.27409662     3.80682998     0.29999685
O      8.18809328     4.87297233     3.47155785
O      6.33887973     6.05210806     6.55302932
O      6.27403923     6.01594565     1.86203257
O      6.20624733     3.76072887     5.12942301
O      8.18620110     4.93495246     8.29372291
O     -3.29139657     7.12045378     0.29999685
O     -1.34474610     8.24347716     3.47157938
O     -3.29121557     9.25422100     6.55305276
O     -3.29139657     9.32947005     1.86203257
O     -3.29180253     7.12042636     4.98540304
O     -1.39976159     8.21317431     8.29369953
O      0.53484662     7.12045378     0.29999685
O      2.44738848     8.24526681     3.44710799
O      0.51389990     9.31722767     6.66072396
O      0.53484662     9.32947005     1.86203257
O      0.60937489     7.08490017     5.13066027
O      2.44851778     8.16629094     8.20742416
O      4.36097502     7.12045378     0.29999685
O      6.24035441     8.24480794     3.47109559
O      4.38120818     9.31694622     6.66127781
O      4.36097502     9.32947005     1.86203257
O      4.28770761     7.08661865     5.13041078
O      6.29543395     8.21226984     8.29356643
O      2.45078356     3.81041612    10.08311692
Ce     2.44785343     1.59781371     1.08101471
Ce     0.52700363     2.69775797     4.21747689
Ce     0.58228797     0.44115526     7.53504330
Ce     6.27409662     1.59781371     1.08101471
Ce     4.36851274     2.69779740     4.21726090
Ce     4.31326654     0.44132303     7.53472708
Ce    10.10022502     1.59781371     1.08101471
Ce     8.18703525     2.70352236     4.29652822
Ce     8.18702405     0.49268323     7.44714920
Ce     0.53478923     4.91133811     1.08101471
Ce    -1.37231438     6.01229718     4.25820203
Ce    -1.40001855     3.87384826     7.53550032
Ce     4.36103242     4.91133811     1.08101471
Ce     2.44803931     6.02479819     4.21728644
Ce     8.18716082     4.91133811     1.08101471
Ce     6.26837625     6.01272246     4.25805899
Ce     6.29478123     3.87307997     7.53440935
Ce    -1.37833237     8.22496191     1.08101471
Ce    -3.29147782     9.33592442     4.25824132
Ce    -3.29173235     7.12006783     7.42894165
Ce     2.44791082     8.22496191     1.08101471
Ce     0.53355137     9.32854666     4.29649940
Ce     0.46535479     7.10498092     7.53536930
Ce     6.27403923     8.22496191     1.08101471
Ce     4.36190081     9.32894361     4.29660304
Ce     4.42959977     7.10456782     7.53465198
Ru     2.44932832     3.80676916     7.05230413
C      2.44970979     3.80841573     8.92480791
