84
CIF: Ru-CeO2-O2+CO.cif | data_image0
O      0.55978923     0.45000431     0.59999690
O      2.47112135     1.47540045     3.71644926
O      0.73966008     2.75309602     6.84729259
O      0.55978923     2.65902057     2.16203261
O      0.54091802     0.45053622     5.38792489
O      2.33759584     1.74961391     8.60904852
O      4.38603242     0.45000431     0.59999690
O      6.30736703     1.55065653     3.72900376
O      4.07896301     2.92290211     7.06268968
O      4.38603242     2.65902057     2.16203261
O      4.39909104     0.54953104     5.42968340
O      6.23935905     1.58188384     8.47453962
O      8.21216082     0.45000431     0.59999690
O     10.10692247     1.54331116     3.73683286
O      8.23745925     2.63757048     6.93058791
O      8.21216082     2.65902057     2.16203261
O      8.20071133     0.44742057     5.37999841
O     10.16450640     1.58399837     8.53032857
O     -1.35327498     3.76352871     0.59999690
O      0.48900103     4.91384742     3.72836290
O     -1.23205710     5.93106348     7.01772923
O     -1.35333237     5.97264438     2.16203261
O     -1.35549763     3.74988024     5.39509837
O      0.73733304     4.45456601     8.74784862
O      2.47296821     3.76352871     0.59999690
O      4.46080972     4.90352550     3.73356439
O      2.40978747     5.58289256     7.03832516
O      2.47291082     5.97264438     2.16203261
O      2.46449179     3.75539333     4.98756820
O      6.29909662     3.76352871     0.59999690
O      8.20744539     4.87788637     3.77211050
O      6.33182353     5.92314955     6.96780445
O      6.29903923     5.97264438     2.16203261
O      6.27843451     3.70769831     5.41470338
O      8.28069226     4.83989638     8.55857430
O     -3.26639657     7.07715251     0.59999690
O     -1.34601074     8.19385755     3.77602088
O     -3.23322876     9.37618129     6.94310320
O     -3.26639657     9.28616878     2.16203261
O     -3.22356564     7.08425449     5.44906442
O     -1.35114139     8.21940005     8.54678635
O      0.55984662     7.07715251     0.59999690
O      2.46403460     8.19378976     3.74033579
O      0.52089896     9.30799955     6.91193324
O      0.55984662     9.28616878     2.16203261
O      0.61488294     7.08573767     5.42618173
O      2.32369283     8.21344517     8.54393686
O      4.38597502     7.07715251     0.59999690
O      6.31323783     8.16818989     3.77404545
O      4.36516389     9.32705115     6.95741732
O      4.38597502     9.28616878     2.16203261
O      4.34410742     7.06547339     5.39748474
O      6.44591965     8.25694078     8.57648101
O      3.39929102     4.41627846     9.34112062
O      4.72822440     4.79465385     9.04027739
O      4.44265945     7.20279308    11.96209636
Ce     2.47285343     1.55451244     1.38101475
Ce     0.57068185     2.66488241     4.50988530
Ce     0.55610201     0.45879520     7.72796358
Ce     6.29909662     1.55451244     1.38101475
Ce     4.34970940     2.69624365     4.54603124
Ce     4.34790272     0.53513779     7.73541733
Ce    10.12522502     1.55451244     1.38101475
Ce     8.21148289     2.65400205     4.53662471
Ce     8.19720370     0.44055411     7.70416614
Ce     0.55978923     4.86803684     1.38101475
Ce    -1.34058146     5.96933455     4.57167779
Ce    -1.32413643     3.71584836     7.73943573
Ce     4.38603242     4.86803684     1.38101475
Ce     2.48465986     5.93369554     4.57685039
Ce     8.21216082     4.86803684     1.38101475
Ce     6.29293294     5.97688300     4.59148423
Ce     6.36817957     3.75552068     7.72946082
Ce    -1.35333237     8.18166064     1.38101475
Ce    -3.26514212     9.29818242     4.56241421
Ce    -3.23971705     7.09525141     7.78539030
Ce     2.47291082     8.18166064     1.38101475
Ce     0.56426175     9.30103649     4.54576849
Ce     0.57881830     7.11691135     7.73183234
Ce     6.29903923     8.18166064     1.38101475
Ce     4.37797932     9.26296411     4.56765673
Ce     4.37774571     7.07026799     7.85945420
Ru     2.27318019     3.64462916     7.93473370
C      4.37085789     7.19775568    10.82274061
