81
CIF: Re-Y-CeO2-Ov.cif | data_image0
Ce     1.93596140     1.11772783     0.89035214
Ce     0.00034607     2.23334187     4.02148199
Ce    -0.00008893     0.00044686     7.22278895
Ce     5.80789581     1.11772783     0.89035214
Ce     3.86312686     2.22861761     3.99604746
Ce    -2.07587758     9.98775460     7.17022273
Ce     9.67981860     1.11772783     0.89035214
Ce     7.77651318     2.21608470     4.03798801
Ce     2.05359733    10.00033624     7.28835657
Ce     0.00000000     4.47091133     0.89035214
Ce    -1.94686724     5.57428020     4.08528119
Ce    -1.82745201     3.27930851     7.28557835
Ce     3.87193441     4.47091133     0.89035214
Ce     1.95642777     5.57716572     4.08812560
Ce     1.83849296     3.27209228     7.20638436
Ce     7.74385721     4.47091133     0.89035214
Ce     5.80903894     5.59881390     3.99615104
Ce    -1.93596721     7.82410489     0.89035214
Ce    -3.88909747     8.95162426     3.97715832
Ce    -3.88049670     6.86176214     7.16993964
Ce     1.93596721     7.82410489     0.89035214
Ce     0.00667320     8.95831990     4.08553757
Ce     0.02136180     6.69335197     7.29078921
Ce     5.80789000     7.82410489     0.89035214
Ce     3.87432883     8.94271147     4.02166978
Ce     3.89208975     6.83112516     7.21254575
Y      5.86139438     3.31881014     6.86717530
O      0.00000000     0.00000000     0.09999685
O      1.93831182     1.11192822     3.18927404
O      0.03247722     2.19150879     6.36417255
O      0.00000000     2.23545567     1.68070743
O     -5.79986586    10.05575887     4.78731827
O      1.94060001     0.93940338     8.06018224
O      3.87192279     0.00000000     0.09999685
O      5.80416496     1.09826223     3.23282612
O      4.03492468     2.23108605     6.67035614
O      3.87192279     2.23545567     1.68070743
O      3.82759398     0.05545870     4.83671337
O      6.34484092     1.17800810     9.20453865
O      7.74385721     0.00000000     0.09999685
O      9.68087073     1.11692950     3.21497310
O      7.66871159     2.28070195     6.49250083
O      7.74385721     2.23545567     1.68070743
O      7.75528924     0.00388486     4.81032113
O      9.86954057     1.00746741     8.13136755
O     -1.93596140     3.35318350     0.09999685
O      0.00894274     4.49896916     3.26484976
O     -2.14035113     5.57705302     6.49428317
O     -1.93596721     5.58864923     1.68070743
O      9.68402584     3.33925820     4.81068481
O      0.02111420     4.62169398     8.07976524
O      1.93596140     3.35318350     0.09999685
O      3.86219536     4.47584941     3.21596175
O      2.06310154     5.51621292     6.41298270
O      1.93595559     5.58864923     1.68070743
O      1.98689484     3.28750460     4.80481518
O      5.80789581     3.35318350     0.09999685
O      7.75952200     4.48317905     3.23346467
O      5.89722200     5.44305096     6.67965253
O      5.80789000     5.58864923     1.68070743
O      5.79305370     3.36091199     4.71562697
O      7.98055596     3.96874599     9.22477476
O     -3.87192860     6.70637706     0.09999685
O     -1.92600453     7.81777254     3.26317193
O     -3.86343354     8.93670892     6.31002623
O     -3.87192860     8.94183273     1.68070743
O      7.67238491     6.71665961     4.83752778
O     -2.00995148     7.86576670     8.04379026
O     -0.00000581     6.70637706     0.09999685
O      1.91743083     7.80158645     3.26604303
O     -0.09326121     9.12183753     6.49430138
O     -0.00000581     8.94183273     1.68070743
O     -0.01642663     6.71524190     4.96666234
O      3.87192860     6.70637706     0.09999685
O      5.81408227     7.82542382     3.18906889
O      3.92466591     8.93810371     6.35878594
O      3.87192860     8.94183273     1.68070743
O      3.95940586     6.69205989     4.80800426
O      5.96224437     7.90948669     8.05731849
O      1.81470181     7.72870056     8.08593915
Re     6.82253917     2.76957610     9.78976291
