82
CIF: Y-Ti-CeO2.cif | data_image0
Ce     1.93038582     1.11050507     0.88387043
Ce    -0.00370156     2.21859439     4.06552242
Ce    -5.55942515     9.92186223     7.20201245
Ce     5.81181033     1.12175166     0.90127712
Ce     3.83664420     2.19939305     4.00550239
Ce    -1.82388489     9.95113949     7.30912998
Ce     9.66901012     1.12377363     0.90450652
Ce     7.71621707     2.26187118     4.08942887
Ce     1.90010851     9.95108398     7.26940236
Ce    -0.00709724     4.47602159     0.89067279
Ce    -1.93664647     5.56344439     4.07580381
Ce    -1.80623130     3.45031806     7.31920755
Ce     3.86254305     4.47635356     0.87798423
Ce     1.95434447     5.57159673     4.06561711
Ce     1.91183863     3.21488689     7.28217621
Ce     7.74213807     4.46545905     0.90125422
Ce     5.82491627     5.63440712     4.00099296
Ce    -1.94645625     7.83004003     0.90010904
Ce    -3.82727621     8.90103225     4.06707821
Ce    -3.79353676     6.59891974     7.37789322
Ce     1.92815559     7.82745473     0.89060408
Ce     0.02100985     8.94924819     4.04802132
Ce     0.05531359     6.67195833     7.24911585
Ce     5.81127600     7.83258510     0.88371011
Ce     3.88591512     8.99223544     4.03237607
Ce     3.92415856     6.88881176     7.14898446
Ti     5.51609410     3.49108092     6.65894588
Y      7.02971326     2.62870846     9.02834515
O     11.61334069     0.00154917     0.10141687
O      1.93317521     1.09170668     3.23064872
O     -0.04867262     2.06537757     6.63299774
O     -0.00785227     2.23805103     1.69392277
O     -5.71432821    10.01956101     4.90290448
O      2.09386539     0.91217785     8.10263233
O     -1.93899312    10.05733740     0.10496691
O      5.73490328     1.05449497     3.23720761
O      4.03845806     2.31272735     6.41408182
O      3.86763657     2.23577757     1.68132582
O      3.87325320     0.00343626     4.92159866
O      5.99517329     0.66464575     8.46707632
O      7.73821774     0.00761509     0.10924988
O      9.76273095     1.08443670     3.25124079
O      7.14017658     2.59700099     6.74063062
O      7.74357843     2.23531483     1.71563532
O      1.96719836    10.05226583     4.94842969
O      8.92498331     1.49367390     8.37859530
O      9.67032270     3.35425987     0.10911246
O     -0.00171731     4.46231398     3.25768010
O     -1.86363122     5.57979722     6.41885544
O     -1.94403436     5.59119430     1.70564938
O     -1.88741824     3.31587558     4.98232546
O      0.03392528     4.53660143     8.08082037
O      1.92738314     3.35244915     0.09928684
O      3.79806661     4.51940493     3.22276754
O      2.21467346     5.52398566     6.55068088
O      1.92862022     5.59252216     1.67404250
O      1.87915314     3.29351871     4.88661633
O      5.24421809     3.65123070     8.47650498
O      5.81155478     3.35101064     0.10766953
O      7.77080107     4.55353789     3.23531116
O      5.65053827     5.40718673     6.43634933
O      5.80528807     5.59217007     1.68114259
O      5.67581084     3.43617695     4.66247092
O      8.28756692     4.39557358     8.59507247
O     -3.87155109     6.71022987     0.10512724
O     -1.90791639     7.80431791     3.28688447
O     -3.76793548     8.87217240     6.45985606
O     -3.87509971     8.94378428     1.69355631
O      7.70961684     6.67411721     4.89099966
O     -1.74193118     7.82371539     8.10940219
O     -0.01209783     6.71325780     0.10434852
O      1.94340453     7.83235185     3.24688667
O      0.02047447     8.90668483     6.39504553
O     -0.00628994     8.94736548     1.70514550
O      0.10066495     6.65411775     4.92530576
O      2.00247743     7.80747825     8.03436701
O      3.86815347     6.71410280     0.09951587
O      5.82186840     7.85018425     3.22174176
O      3.95806633     9.07464096     6.51747876
O      3.86556896     8.94715423     1.69389986
O      3.90329043     6.82621157     4.87313743
O      5.77640363     7.81833746     8.06694079
