83
CIF: Cr-Cr-CeO2-O.cif | data_image0
Ce     1.93596140     1.11772783     0.89035214
Ce     0.01149493     2.23118949     4.03097893
Ce    -5.79604373    10.05079251     7.17890362
Ce     5.80789581     1.11772783     0.89035214
Ce     3.85856171     2.22407949     4.02202714
Ce    -2.06264056     9.99317709     7.12430210
Ce     9.67981860     1.11772783     0.89035214
Ce     7.74529619     2.22948863     3.95251602
Ce     2.02372087     9.98134100     7.38773043
Ce     0.00000000     4.47091133     0.89035214
Ce    -1.95283660     5.60132657     4.09051237
Ce    -1.61441030     3.40049928     7.28281708
Ce     3.87193441     4.47091133     0.89035214
Ce     1.95900504     5.59572350     4.09949829
Ce     1.98987158     3.30430735     7.24408308
Ce     7.74385721     4.47091133     0.89035214
Ce     5.83077386     5.61495539     4.01666152
Ce    -1.93596721     7.82410489     0.89035214
Ce    -3.87679539     8.92106669     3.99112359
Ce    -3.84193233     6.81353394     7.31161348
Ce     1.93596721     7.82410489     0.89035214
Ce     0.00863368     8.97570241     4.08202907
Ce     0.03782977     6.76013187     7.24771341
Ce     5.80789000     7.82410489     0.89035214
Ce     3.87109591     8.95978573     4.06610841
Ce     3.88864154     6.76698304     7.26966488
Cr     5.30963851     3.69645867     6.72877063
Cr     7.09834383     2.81201829     9.10952631
O      0.00000000     0.00000000     0.09999685
O      1.92348107     1.11589681     3.20980555
O      0.08432585     2.26233898     6.32231347
O      0.00000000     2.23545567     1.68070743
O     -0.00038091     0.00165918     4.81020551
O      1.94749438     0.97380206     8.01010019
O      3.87192279     0.00000000     0.09999685
O      5.80696635     1.12931130     3.21431181
O      4.07224909     2.13651194     6.44083999
O      3.87192279     2.23545567     1.68070743
O     -1.96237870    10.05005523     4.78505835
O      7.45184542     1.28892027     9.60077850
O      7.74385721     0.00000000     0.09999685
O      9.68215997     1.13385049     3.20849463
O      6.64240845     2.57007999     7.42182584
O      7.74385721     2.23545567     1.68070743
O      7.74715796     0.18293515     4.90628730
O      9.80276065     1.25658493     7.85721753
O     -1.93596140     3.35318350     0.09999685
O     -0.04281323     4.46670239     3.30095260
O     -1.92829516     5.53417982     6.48236154
O     -1.93596721     5.58864923     1.68070743
O      9.52698778     3.26399364     4.97774185
O      0.05003216     4.52400511     8.10250568
O      1.93596140     3.35318350     0.09999685
O      3.90908282     4.47293583     3.22920462
O      1.89885207     5.63039063     6.35547095
O      1.93595559     5.58864923     1.68070743
O      2.01085459     3.33877127     4.79531155
O      5.80789581     3.35318350     0.09999685
O      7.74718255     4.45782897     3.21986928
O      6.00783837     5.36808624     6.48489648
O      5.80789000     5.58864923     1.68070743
O      5.80600744     3.33921131     4.89927734
O      8.41005548     3.87270273     9.02720566
O     -3.87192860     6.70637706     0.09999685
O     -1.92050522     7.81307178     3.22872389
O     -3.85749674     8.94172777     6.32050221
O     -3.87192860     8.94183273     1.68070743
O      7.74565000     6.70094140     4.80501973
O     -1.84698125     7.92547747     8.04655873
O     -0.00000581     6.70637706     0.09999685
O      1.94170984     7.86493366     3.29258702
O     -0.02996281     9.11530056     6.46743655
O     -0.00000581     8.94183273     1.68070743
O     -0.03789943     6.78000045     4.89437548
O      1.85881913     7.76465182     8.10521664
O      3.87192860     6.70637706     0.09999685
O      5.80383053     7.82989735     3.21066291
O      3.86943431     8.96405077     6.37057639
O      3.87192860     8.94183273     1.68070743
O      3.95687937     6.68712341     4.84915446
O      5.81448116     7.98087835     8.03827225
O      4.05210439     4.34926551     7.76605570
O      5.90391908     3.44549397     9.95628998
