84
CIF: Cr-Cr-CeO2-Ov-CO2.cif | data_image0
Ce     1.93596140     1.11772783     0.89035214
Ce    -0.02845618     2.23168952     4.03497972
Ce     5.81136556    10.04586950     7.19825388
Ce     5.80789581     1.11772783     0.89035214
Ce     3.84013035     2.18783673     4.00196797
Ce    -1.95323145    10.03048149     7.33394532
Ce     9.67981860     1.11772783     0.89035214
Ce     7.74050649     2.24956233     4.02884597
Ce     2.03884974     9.82825401     7.24457982
Ce     0.00000000     4.47091133     0.89035214
Ce    -1.94014781     5.57192874     4.09729445
Ce    -1.80260900     3.35641693     7.31542810
Ce     3.87193441     4.47091133     0.89035214
Ce     1.96518570     5.56604024     4.06114521
Ce     1.85758998     3.26218586     7.20562836
Ce     7.74385721     4.47091133     0.89035214
Ce     5.83939553     5.63451011     3.99433460
Ce    -1.93596721     7.82410489     0.89035214
Ce    -3.84875543     8.93780142     4.06450224
Ce    -3.83842353     6.79917218     7.28680684
Ce     1.93596721     7.82410489     0.89035214
Ce     0.00288059     8.95699940     4.08141806
Ce    -0.01305505     6.68511031     7.27286766
Ce     5.80789000     7.82410489     0.89035214
Ce     3.88080055     8.95397518     4.01036277
Ce     3.94269755     6.75592223     7.18716767
Cr     5.43064039     3.56666481     6.62438729
Cr     6.69385836     2.69822638     8.54105149
O      0.00000000     0.00000000     0.09999685
O      1.92501881     1.10120847     3.23264621
O      0.03962492     2.19500728     6.41379599
O      0.00000000     2.23545567     1.68070743
O     -5.79863879    10.04413263     4.87396256
O      1.85283566     1.20110407     8.07421100
O      3.87192279     0.00000000     0.09999685
O      5.74419141     1.06057315     3.23329590
O      4.01085925     2.34993534     6.45771337
O      3.87192279     2.23545567     1.68070743
O      3.86494499     0.00074858     4.88694206
O      6.33984893     1.06615297     8.79861532
O      7.74385721     0.00000000     0.09999685
O      9.73880419     1.07311518     3.21352534
O      7.07670796     2.69165780     6.78551135
O      7.74385721     2.23545567     1.68070743
O      7.78216146     0.01832384     4.96629432
O      9.59812540     0.98681352     7.87262995
O     -1.93596140     3.35318350     0.09999685
O      0.00666160     4.48127354     3.26193967
O     -1.95698312     5.57032197     6.48547634
O     -1.93596721     5.58864923     1.68070743
O     -1.92011714     3.33785396     4.90552135
O      0.14322536     4.48988427     8.05090383
O      1.93596140     3.35318350     0.09999685
O      3.84002729     4.47827482     3.21547051
O      2.16654120     5.46635426     6.48745063
O      1.93595559     5.58864923     1.68070743
O      1.93183793     3.30878552     4.86688459
O      4.25627218     4.24115185     8.24666323
O      5.80789581     3.35318350     0.09999685
O      7.75175471     4.56055539     3.23204082
O      5.82626749     5.40794413     6.48081684
O      5.80789000     5.58864923     1.68070743
O      5.69390331     3.41347844     4.77565222
O      7.91426337     3.65624543     9.12099666
O     -3.87192860     6.70637706     0.09999685
O     -1.90129609     7.81323508     3.27975110
O     -3.88444100     8.97334539     6.47798061
O     -3.87192860     8.94183273     1.68070743
O      7.72306252     6.74129346     4.86389304
O     -1.76612255     7.75439873     8.12642697
O     -0.00000581     6.70637706     0.09999685
O      1.93464549     7.82902544     3.27014295
O      0.07784759     8.98618346     6.49768999
O     -0.00000581     8.94183273     1.68070743
O      0.05459082     6.68136574     4.95936111
O      2.02709135     7.74830809     8.03755192
O      3.87192860     6.70637706     0.09999685
O      5.81411731     7.84463146     3.22060462
O      3.90519434     8.85284388     6.36078405
O      3.87192860     8.94183273     1.68070743
O      3.93041272     6.69364908     4.85015439
O      5.68774794     7.85481631     8.04938011
O      4.84223807     3.77037193    10.40035755
C      5.03244547     3.70782026     9.20172083
