84
CIF: CO+Olatt—CO2.cif | data_image0
Ce     1.93038582     1.11050507     0.88387043
Ce    -0.00355304     2.23241303     4.03302932
Ce    -5.77678786    10.04226219     7.21912568
Ce     5.81181033     1.12175166     0.90127712
Ce     3.85623510     2.22521158     4.01081355
Ce    -1.91222890    10.05522704     7.21192246
Ce     9.66901012     1.12377363     0.90450652
Ce     7.73123751     2.24296579     4.10161095
Ce     1.99957247    10.02150934     7.22939357
Ce    -0.00709724     4.47602159     0.89067279
Ce    -1.93411728     5.58224745     4.05927385
Ce    -1.87022811     3.31760253     7.22904922
Ce     3.86254305     4.47635356     0.87798423
Ce     1.94353020     5.58464288     4.04642386
Ce     1.90312409     3.30006430     7.19331448
Ce     7.74213807     4.46545905     0.90125422
Ce     5.80914068     5.60786744     4.01078134
Ce    -1.94645625     7.83004003     0.90010904
Ce    -3.86559949     8.93854837     4.05776855
Ce    -3.85559283     6.68958758     7.21173137
Ce     1.92815559     7.82745473     0.89060408
Ce     0.00673698     8.94388103     4.05926025
Ce     0.01478643     6.69863170     7.21260696
Ce     5.81127600     7.83258510     0.88371011
Ce     3.87302961     8.94683843     4.03308108
Ce     3.90189782     6.76236816     7.19344619
Cu     4.96794696     3.83838139     6.47647571
Rh     6.63269011     2.87744955     8.08626579
O     11.61334069     0.00154917     0.10141687
O      1.93321105     1.10906739     3.22686776
O      0.02765697     2.21761222     6.39788184
O     -0.00785227     2.23805103     1.69392277
O     -5.79378303    10.05178354     4.85588074
O      1.96792455     1.10779099     7.99253451
O     -1.93899312    10.05733740     0.10496691
O      5.80931829     1.10952870     3.24904182
O      3.81619402     2.25550745     6.35690783
O      3.86763657     2.23577757     1.68132582
O     -1.93192235    10.05830941     4.86936857
O      5.86432143     1.03701473     8.08953122
O      7.73821774     0.00761509     0.10924988
O      9.67439283     1.12107355     3.25141811
O      7.87293511     2.16150439     6.49078556
O      7.74357843     2.23531483     1.71563532
O      1.94362842    10.05532473     4.87021979
O      9.80323665     1.04710840     8.04165333
O      9.67032270     3.35425987     0.10911246
O     -0.00769439     4.47860392     3.23121266
O     -1.92346972     5.57615724     6.42169141
O     -1.94403436     5.59119430     1.70564938
O     -1.92828612     3.34923838     4.87027030
O      0.03428180     4.44905731     7.99424582
O      1.92738314     3.35244915     0.09928684
O      3.84998015     4.48386704     3.21309157
O      2.01869933     5.54147345     6.45810100
O      1.92862022     5.59252216     1.67404250
O      1.90451378     3.35955504     4.83254444
O      4.03912522     4.37530161     8.13870452
O      5.81155478     3.35101064     0.10766953
O      7.75177364     4.47399816     3.24892602
O      5.76312363     5.62762541     6.35708789
O      5.80528807     5.59217007     1.68114259
O      5.78497464     3.36677586     4.77235730
O      7.84360950     4.46411298     8.08964766
O     -3.87155109     6.71022987     0.10512724
O     -1.93043260     7.82111928     3.25632361
O     -3.84174150     8.92509999     6.41925896
O     -3.87509971     8.94378428     1.69355631
O     -3.86867709     6.70413097     4.86948803
O     -1.90999297     7.80976796     7.99015094
O     -0.01209783     6.71325780     0.10434852
O      1.92562173     7.82714159     3.23104826
O      0.01751511     8.93837007     6.42190945
O     -0.00628994     8.94736548     1.70514550
O      0.02800768     6.69071023     4.89122669
O      1.97240361     7.80639239     7.99425579
O      3.86815347     6.71410280     0.09951587
O      5.81430266     7.83118350     3.22664285
O      3.90154700     8.92769910     6.39793941
O      3.86556896     8.94715423     1.69389986
O      3.85115260     6.73111612     4.83253985
O      5.83322561     7.80247158     7.99240434
O      4.92100532     3.88077062    10.33733958
C      5.22846829     3.69420578     9.20675307
