84
CIF: Sc-Rh-CeO2-Ov-CO2.cif | data_image0
Ce     1.93038582     1.11050507     0.88387043
Ce    -0.00867445     2.23090742     4.03133683
Ce    -5.76713515    10.03632260     7.24503448
Ce     5.81181033     1.12175166     0.90127712
Ce     3.82947922     2.20798579     4.01544202
Ce    -1.93922517    10.02590504     7.21631479
Ce     9.66901012     1.12377363     0.90450652
Ce     7.75045639     2.23135398     4.07224573
Ce     1.96009587    10.01045415     7.25731146
Ce    -0.00709724     4.47602159     0.89067279
Ce    -1.93719644     5.58128318     4.05844321
Ce    -1.88049868     3.35663498     7.25707250
Ce     3.86254305     4.47635356     0.87798423
Ce     1.95458340     5.57755304     4.07647773
Ce     1.78837158     3.25305983     7.20934523
Ce     7.74213807     4.46545905     0.90125422
Ce     5.81022886     5.63846862     4.01515567
Ce    -1.94645625     7.83004003     0.90010904
Ce    -3.86663887     8.93899239     4.04437394
Ce    -3.84424268     6.72582826     7.21702073
Ce     1.92815559     7.82745473     0.89060408
Ce     0.00533061     8.94660473     4.05836525
Ce     0.01024300     6.70077906     7.23272335
Ce     5.81127600     7.83258510     0.88371011
Ce     3.87145287     8.95194369     4.03094250
Ce     3.88447660     6.88451607     7.20927702
Rh     4.79025876     3.93990989     6.43650201
Sc     6.54060684     2.93034665     7.83395488
O     11.61334069     0.00154917     0.10141687
O      1.92937988     1.10483501     3.21626754
O     -0.03466824     2.19068105     6.40730286
O     -0.00785227     2.23805103     1.69392277
O     -5.78976344    10.04933239     4.84497510
O      1.93908094     0.95113264     8.07673815
O     -1.93899312    10.05733740     0.10496691
O      5.81087594     1.13456475     3.25008140
O      3.85499119     2.16892152     6.45748245
O      3.86763657     2.23577757     1.68132582
O      3.86804295     0.00153638     4.84440030
O      6.01700165     1.03780246     8.27014711
O      7.73821774     0.00761509     0.10924988
O      9.66751948     1.12506869     3.24326060
O      7.76645801     2.22330929     6.47940812
O      7.74357843     2.23531483     1.71563532
O      7.74557294     0.01124125     4.86480628
O      9.70639859     1.10236744     8.06814318
O      9.67032270     3.35425987     0.10911246
O     -0.01106724     4.48357775     3.23958189
O     -1.97779819     5.59125726     6.41288415
O     -1.94403436     5.59119430     1.70564938
O      9.67161565     3.34507014     4.86552720
O     -0.10127427     4.52214949     8.07026412
O      1.92738314     3.35244915     0.09928684
O      3.86409843     4.47506646     3.22270770
O      2.01170040     5.54305954     6.50088470
O      1.92862022     5.59252216     1.67404250
O      1.89987230     3.32724713     4.79870298
O      3.60977907     4.62806382     9.44248715
O      5.81155478     3.35101064     0.10766953
O      7.73056627     4.45953674     3.24904800
O      5.85734551     5.63577213     6.45920048
O      5.80528807     5.59217007     1.68114259
O      5.78255335     3.36666375     4.84866733
O      7.91786962     4.32973524     8.27090046
O     -3.87155109     6.71022987     0.10512724
O     -1.91983459     7.81495122     3.25259066
O     -3.82166504     8.91320156     6.37703515
O     -3.87509971     8.94378428     1.69355631
O      7.74008778     6.70847480     4.84543259
O     -1.92484288     7.81801987     8.01762713
O     -0.01209783     6.71325780     0.10434852
O      1.91957537     7.82660542     3.23954174
O     -0.02319886     8.97623590     6.41329417
O     -0.00628994     8.94736548     1.70514550
O      0.02911241     6.68984144     4.90974340
O      1.84040305     7.88760710     8.07093092
O      3.86815347     6.71410280     0.09951587
O      5.81586642     7.83651358     3.21464341
O      3.89383499     8.99445016     6.40777727
O      3.86556896     8.94715423     1.69389986
O      3.87579634     6.75076231     4.79826229
O      5.95267331     7.90441928     8.07774594
O      3.98097278     4.46201925    11.76075392
C      3.78944516     4.54601449    10.61169735
