89
CIF: CH2COCH2→CH2+CH2CO.cif | data_image0
O      0.00261135     0.00382715     0.19995339
O      1.93079033     1.13055359     3.33193823
O      0.13822416     2.20786925     6.50972541
O      0.00261135     2.21285656     1.76196664
O      0.01121871     0.01955865     4.93867283
O      1.91991678     1.13176153     7.94459402
O      3.82876252     0.00382715     0.19995339
O      5.73795179     1.10087102     3.34014974
O      3.68677332     2.57672586     6.67195831
O      3.82876252     2.21285656     1.76196664
O      3.82724040     0.11487864     5.02298063
O      5.72230101     1.17771049     8.13301448
O      7.65492518     0.00382715     0.19995339
O      9.56167492     1.10442471     3.32093564
O      7.67020390     2.20429028     6.49529177
O      7.65492518     2.21285656     1.76196664
O      1.92583777     9.93808911     4.95646134
O      9.60917480     1.12365433     8.12558525
O     -1.91046424     3.31737126     0.19995339
O      0.01398597     4.42445599     3.33147879
O     -1.98083761     5.54782353     6.50853687
O     -1.91046998     5.52641062     1.76196664
O     -1.87565135     3.29278010     4.97014173
O      1.91568694     3.31737126     0.19995339
O      3.81204764     4.40967389     3.35853313
O      2.25650779     5.05604428     6.83864233
O      1.91568120     5.52641062     1.76196664
O      1.84313977     3.30641586     5.04435203
O      4.66028853     4.85125005     9.07405458
O      5.74184959     3.31737126     0.19995339
O      7.66473863     4.41934723     3.35566559
O      5.75332972     5.46306875     6.54434063
O      5.74184385     5.52641062     1.76196664
O      5.74765190     3.27635257     4.96776855
O      7.69282580     4.37330384     8.19003366
O     -3.82354556     6.63092532     0.19995339
O     -1.87938821     7.74287776     3.39730137
O     -3.79659365     8.81841097     6.46353316
O     -3.82354556     8.83995473     1.76196664
O      7.62920859     6.63060523     4.94936662
O     -2.00578331     7.82418139     8.22640950
O      0.00260561     6.63092532     0.19995339
O      1.90584535     7.73312865     3.33334268
O     -0.02059568     8.90641616     6.51605435
O      0.00260561     8.83995473     1.76196664
O      0.12276034     6.57401030     5.04677203
O      1.96872310     7.87261439     8.19284602
O      3.82876826     6.63092532     0.19995339
O      5.74013025     7.72752478     3.34428157
O      3.86735112     8.88725569     6.48626915
O      3.82876826     8.83995473     1.76196664
O      3.78872471     6.63063129     4.97302345
O      5.84907415     7.81496686     8.18309261
O      0.01826894     4.23555485     7.92039954
O      2.11421123     3.33263024     9.23434227
Ce     1.91568694     1.10834185     0.98097142
Ce    -0.00291681     2.20291894     4.11201897
Ce    -5.69708497     9.93906295     7.31983363
Ce     5.74184959     1.10834185     0.98097142
Ce     3.82447980     2.23700180     4.17464165
Ce     3.81528064     0.02673891     7.34677558
Ce     9.56800076     1.10834185     0.98097142
Ce     7.65928244     2.20307168     4.12751850
Ce     1.93996785     9.93967198     7.33382350
Ce     0.00261135     4.42188597     0.98097142
Ce    -1.89386811     5.52549948     4.18907834
Ce    -1.88744966     3.31294593     7.32330011
Ce     3.82877400     4.42188597     0.98097142
Ce     1.92512504     5.52285265     4.15834591
Ce     7.65492518     4.42188597     0.98097142
Ce     5.74386900     5.52506125     4.17407067
Ce     5.86051071     3.29496614     7.32107620
Ce    -1.91046998     7.73544003     0.98097142
Ce    -3.82117025     8.84759687     4.15288759
Ce    -3.80242157     6.65119178     7.35018125
Ce     1.91569268     7.73544003     0.98097142
Ce     0.02073407     8.84396764     4.18700491
Ce     0.00069046     6.64043644     7.47041953
Ce     5.74184385     7.73544003     0.98097142
Ce     3.82969950     8.83230921     4.14204407
Ce     3.87485703     6.73440567     7.38431791
Ru     1.77401730     3.20966195     7.11715061
C      1.31197711     5.11592885    10.78819112
C      1.92300247     4.27242036     9.97499079
C      4.26872419     4.80859228    10.28036385
H      0.26576482     4.91994476    11.04325743
H      1.81215642     5.97620144    11.22634210
H      4.35660667     3.87773262    10.86512932
H      4.05369630     5.74613144    10.82216188
