90
CIF: H+OH→H2O.cif | data_image0
O      0.00261135     0.00382715     0.19995339
O      1.92074794     1.05477713     3.31451709
O      0.24065568     2.41159719     6.67855665
O      0.00261135     2.21285656     1.76196664
O     -0.00287439     0.09955077     5.02328723
O      1.90882172     1.11172727     8.26279159
O      3.82876252     0.00382715     0.19995339
O      5.75234046     1.09340722     3.34553975
O      3.59005752     2.40352085     6.67963655
O      3.82876252     2.21285656     1.76196664
O      3.83158421     0.08528768     5.03458824
O      5.69433583     1.01703127     8.18723632
O      7.65492518     0.00382715     0.19995339
O      9.55623385     1.09357298     3.33251805
O      7.65243733     2.16669197     6.56790297
O      7.65492518     2.21285656     1.76196664
O      1.92861632     9.92828136     4.98324460
O      9.62665449     1.02179257     8.15924200
O     -1.91046424     3.31737126     0.19995339
O     -0.05254043     4.44220001     3.30521345
O     -1.93071043     5.53822191     6.53375057
O     -1.91046998     5.52641062     1.76196664
O     -1.86852371     3.26691525     5.00450707
O     -0.49748061     4.61651999     8.84726344
O      1.91568694     3.31737126     0.19995339
O      3.87993412     4.45073207     3.31120271
O      1.99296908     4.91829349     7.00900811
O      1.91568120     5.52641062     1.76196664
O      1.91395607     3.32293353     4.69603088
O      4.36759517     4.74115423     8.81894601
O      5.74184959     3.31737126     0.19995339
O      7.65198267     4.41740290     3.38822887
O      5.68810176     5.58852823     6.54213065
O      5.74184385     5.52641062     1.76196664
O      5.69983770     3.28580719     5.00519256
O      7.64092982     4.51147462     8.21634761
O     -3.82354556     6.63092532     0.19995339
O     -1.89213966     7.74266185     3.40255028
O     -3.84065289     8.87139263     6.53820714
O     -3.82354556     8.83995473     1.76196664
O     -3.83619416     6.64448436     4.99272828
O     -2.01186422     7.82294320     8.23868019
O      0.00260561     6.63092532     0.19995339
O      1.92021088     7.74616052     3.32439104
O     -0.00479269     8.85475657     6.52381912
O      0.00260561     8.83995473     1.76196664
O      0.12228343     6.55941545     5.02975257
O      2.03685642     7.75283521     8.11978634
O      3.82876826     6.63092532     0.19995339
O      5.71243160     7.74027145     3.39783759
O      3.88379808     8.82778621     6.50503787
O      3.82876826     8.83995473     1.76196664
O      3.68925686     6.57350078     5.07234676
O      5.75414019     7.79554862     8.22121105
Ce     1.91568694     1.10834185     0.98097142
Ce     0.00366063     2.23209089     4.10100069
Ce     5.72922183     9.92738974     7.37411691
Ce     5.74184959     1.10834185     0.98097142
Ce     3.82600997     2.22834125     4.10732335
Ce    -1.87995908     9.89757089     7.39076514
Ce     9.56800076     1.10834185     0.98097142
Ce     7.65587306     2.21480428     4.18027166
Ce     1.91957553     9.92653980     7.32859016
Ce     0.00261135     4.42188597     0.98097142
Ce    -1.90062918     5.51821519     4.21020149
Ce     9.49263075     3.33804882     7.45214897
Ce     3.82877400     4.42188597     0.98097142
Ce     1.90777780     5.50293651     4.08961754
Ce     7.65492518     4.42188597     0.98097142
Ce     5.72819369     5.51901774     4.19839771
Ce     5.79631393     3.32239034     7.44103915
Ce    -1.91046998     7.73544003     0.98097142
Ce    -3.82360763     8.85545818     4.18220683
Ce    -3.81486288     6.63906507     7.37123328
Ce     1.91569268     7.73544003     0.98097142
Ce     0.01180145     8.82404838     4.18628785
Ce    -0.02969294     6.62956649     7.50802580
Ce     5.74184385     7.73544003     0.98097142
Ce     3.81959078     8.83489119     4.16254858
Ce     3.90089324     6.70642507     7.45318149
Ru     1.91445256     3.08468483     7.19538636
C      3.72037095     7.25110067    10.98061846
C      3.38276076     6.06384325    10.52771818
C      4.03419952     4.78082573    10.19238257
H      3.01332493     8.08240825    11.02931254
H      4.75114338     7.46090156    11.31621021
H      0.09014688     4.31279042     9.55999293
H      1.94235432     2.46796576     8.72008913
H      3.38266886     3.92688452    10.46599545
H      4.95581270     4.69253738    10.81841406
