86
CIF: 3-NH2NO+H-NHNO+2H_fs.cif | data_image0
Ce    11.60289899     0.00830599     8.75574100
Ce     1.93008716     1.11418832     5.63648558
Ce     0.00000000     2.23543938     2.47426506
Ce     3.87357749     0.01503631     8.83626738
Ce     5.80659568     1.09595174     5.62879891
Ce     3.87189458     2.23543938     2.47426506
Ce     7.80169265     0.06964582     8.78266215
Ce     9.67978947     1.11899809     5.59284962
Ce     7.74390532     2.23543938     2.47426506
Ce     9.65319980     3.30318803     8.76859847
Ce    -0.00622477     4.45227080     5.61052347
Ce    -1.93600537     5.58869904     2.47426506
Ce     1.94967725     3.22833863     8.90026300
Ce     3.84452265     4.48254091     5.68110641
Ce     1.93588921     5.58869904     2.47426506
Ce     5.80316588     3.34956113     8.77593585
Ce     7.74422193     4.47036847     5.61449231
Ce     5.80789995     5.58869904     2.47426506
Ce     7.75883462     6.66436520     8.81196745
Ce    -1.94732160     7.80586291     5.60348350
Ce    -3.87195266     8.94185811     2.47426506
Ce     1.97499404     7.83981186     5.58606810
Ce    -0.00005808     8.94185811     2.47426506
Ce     3.98014715     6.75582673     8.86809923
Ce     5.81529253     7.81788999     5.63238330
Ce     3.87195266     8.94185811     2.47426506
Rh     0.18522569     6.72802918     8.23964078
O     11.61134546     0.00298741     6.41886124
O     -0.12820041     2.16215917     9.54394870
O      1.93594729     1.11771969     3.26466483
O      0.01273995     2.22141589     4.79805010
O      0.00000000     0.00000000     1.68386529
O      1.94209149     1.05745896     7.99100022
O     -1.93729202     9.94140452     6.51477303
O      3.97157780     2.11514323     9.60256151
O      5.80795803     1.11771969     3.26466483
O      3.85747379     2.21143856     4.86626744
O      3.87189458     0.00000000     1.68386529
O      5.83903375     1.07954832     7.95224686
O      1.95165895    10.02957752     6.41774124
O      7.75118036     2.23961571     9.55707992
O      9.67985261     1.11771969     3.26466483
O      7.72386308     2.23243683     4.82167023
O      7.74390532     0.00000000     1.68386529
O      9.65848531     1.12523429     7.90970553
O     -1.90354868     3.32954544     6.38743829
O     -2.44473792     5.20678231    10.24204924
O      0.00000000     4.47087876     3.26466483
O     -1.95253386     5.57876586     4.80481386
O     -1.93594729     3.35315907     1.68386529
O     -0.29094190     4.76259091     8.06941780
O      1.85872599     3.36677151     6.46084097
O      3.87201074     4.47087876     3.26466483
O      1.96181250     5.57414802     4.81166918
O      1.93594729     3.35315907     1.68386529
O      3.85375491     4.47996115     8.06536365
O      5.78822819     3.35591628     6.45983584
O      5.96559701     5.52764152     9.61908091
O      7.74390532     4.47087876     3.26466483
O      5.80551488     5.58497813     4.83705781
O      5.80795803     3.35315907     1.68386529
O      7.80114501     4.47141303     7.92025973
O     -3.85079260     6.73902733     6.43570820
O     -3.73403022     8.89495005     9.55090912
O     -1.93600537     7.82413842     3.26466483
O     -3.86943694     8.95124239     4.81115610
O     -3.87195266     6.70641873     1.68386529
O     -1.72607168     7.38649689     8.14950996
O      0.02265334     6.73778076     6.23164429
O      0.03407243     9.40510191    10.02319953
O      1.93600537     7.82413842     3.26466483
O     -0.00510214     8.97272773     4.79434479
O     -0.00005808     6.70641873     1.68386529
O      1.80512265     7.81700124     8.05201402
O      3.86761703     6.74205739     6.43179978
O      3.87539033     9.10341461     9.58739998
O      5.80789995     7.82413842     3.26466483
O      3.88706728     8.94516128     4.79508140
O      3.87195266     6.70641873     1.68386529
O      5.87601939     7.85716934     8.00366299
O      1.83721417     4.81231994    11.03532864
N      0.47242472     6.36443685    10.21491394
N      1.67751038     5.89030421    10.33396363
H      8.69065337     4.93637207    11.04736446
H     -0.25331987     5.80382147    10.71408494
H      0.08687243     8.49814692    10.39048193
