86
CIF: 5-NHNO+2H-N2O+3H_ts.cif | data_image0
Ce     5.76403098    10.05110485     8.79328387
Ce     1.92894986     1.11584319     5.64872197
Ce     0.00000000     2.23543938     2.47426506
Ce     3.84622025     0.00447349     8.83946911
Ce     5.80571969     1.11252253     5.64046538
Ce     3.87189458     2.23543938     2.47426506
Ce     7.74290604     0.05646727     8.80854644
Ce     9.67500790     1.11673667     5.61704917
Ce     7.74390532     2.23543938     2.47426506
Ce     9.63829333     3.27491722     8.83569455
Ce    -0.00155464     4.43958939     5.62050171
Ce    -1.93600537     5.58869904     2.47426506
Ce     1.92135588     3.23352584     8.91591655
Ce     3.84589532     4.48581207     5.69850745
Ce     1.93588921     5.58869904     2.47426506
Ce     5.78616235     3.36000814     8.80869048
Ce     7.75579410     4.48424067     5.65329194
Ce     5.80789995     5.58869904     2.47426506
Ce     7.69417251     6.71385196     8.86640029
Ce    -1.96314458     7.83522530     5.63508210
Ce    -3.87195266     8.94185811     2.47426506
Ce     1.94823736     7.84095585     5.60610764
Ce    -0.00005808     8.94185811     2.47426506
Ce     3.89612155     6.75340063     8.90860789
Ce     5.79473678     7.81942464     5.64830896
Ce     3.87195266     8.94185811     2.47426506
Rh     0.09033266     6.67551834     8.34061131
O      5.79113969    10.04928315     6.43870292
O     -0.17009897     2.14243984     9.61408710
O      1.93594729     1.11771969     3.26466483
O     -0.00116174     2.22120801     4.81010833
O      0.00000000     0.00000000     1.68386529
O      1.91346168     1.04506757     8.01390167
O     -1.95579322    10.01598078     6.46751548
O      3.97554297     2.13677627     9.62569068
O      5.80795803     1.11771969     3.26466483
O      3.86828673     2.23791217     4.86294647
O      3.87189458     0.00000000     1.68386529
O      5.81770018     1.07933089     7.95252271
O      1.94978559    10.04094930     6.41662395
O      7.73228194     2.23069751     9.58105568
O      9.67985261     1.11771969     3.26466483
O      7.74089493     2.25056566     4.84127855
O      7.74390532     0.00000000     1.68386529
O      9.63591419     1.12808340     7.93581227
O     -1.88316893     3.35921138     6.45715212
O     -2.46030902     5.20350230    10.29370786
O      0.00000000     4.47087876     3.26466483
O     -1.95294818     5.58901623     4.82246454
O      9.67985261     3.35315907     1.68386529
O     -0.10324313     4.69041591     8.18011606
O      1.86800145     3.35401417     6.45809339
O      3.87201074     4.47087876     3.26466483
O      1.93927924     5.58351988     4.82720659
O      1.93594729     3.35315907     1.68386529
O      3.83814028     4.47995500     8.06389229
O      5.80773578     3.37200139     6.48881713
O      5.91326634     5.54908841     9.64955133
O      7.74390532     4.47087876     3.26466483
O      5.80709475     5.59699769     4.86317647
O      5.80795803     3.35315907     1.68386529
O      7.82175726     4.50444083     7.98330380
O     -3.84698271     6.75039410     6.49315763
O     -3.87840409     8.89879745     9.62721184
O     -1.93600537     7.82413842     3.26466483
O     -3.88095838     8.94029990     4.82462201
O      7.74384724     6.70641873     1.68386529
O     -1.78755796     7.74587705     8.16114705
O     -0.02093095     6.68029610     6.35072663
O     -0.02097367     9.44015838    10.04929150
O      1.93600537     7.82413842     3.26466483
O     -0.01257934     8.94481431     4.82474999
O     -0.00005808     6.70641873     1.68386529
O      1.66880713     7.86951391     8.03165840
O      3.82443589     6.75080083     6.46359074
O      3.82549136     9.08115535     9.59388233
O      5.80789995     7.82413842     3.26466483
O      3.87906160     8.94080158     4.80892110
O      3.87195266     6.70641873     1.68386529
O      5.81603199     7.82418884     8.02792048
O      1.70909850     5.12109592    10.61525629
N      0.05068961     6.65188263    10.47075595
N      1.32324766     6.34332210    10.34086125
H     -2.63045984     5.11886747    11.24974672
H     -0.54851969     5.84490842    10.76398689
H     -0.05762522     8.51662284    10.41428688
