84
CIF: NH3.cif | data_image0
Ce     5.79352381    10.05782634     8.78497687
Ce     1.93161796     1.10467384     5.57064896
Ce     0.00000000     2.23543938     2.47426506
Ce    -1.96754801    10.00318739     8.74776332
Ce     5.80141630     1.11694374     5.62912500
Ce     3.87189458     2.23543938     2.47426506
Ce     1.91970656    10.04851373     8.76086020
Ce     9.70230111     1.10878799     5.62199043
Ce     7.74390532     2.23543938     2.47426506
Ce    -1.92914047     3.38162678     8.75830748
Ce     0.01263268     4.51407557     5.64711006
Ce    -1.93600537     5.58869904     2.47426506
Ce     1.96841019     3.16883878     8.68544745
Ce     3.87028376     4.47737923     5.63288745
Ce     1.93588921     5.58869904     2.47426506
Ce     5.83802958     3.34587140     8.80323041
Ce     7.74450022     4.47424687     5.61808890
Ce     5.80789995     5.58869904     2.47426506
Ce    -3.85020752     6.72270857     8.73361202
Ce    -1.95857049     7.83418714     5.61707983
Ce    -3.87195266     8.94185811     2.47426506
Ce     1.90864157     7.80205063     5.66741623
Ce    -0.00005808     8.94185811     2.47426506
Ce     4.00277956     6.77190941     8.77541329
Ce     5.79470112     7.81895924     5.59512760
Ce     3.87195266     8.94185811     2.47426506
Rh     0.09314381     6.67066932     8.63221913
O     11.59905828     0.00543664     6.41211675
O     -0.00240280     2.25575648     9.53374488
O      1.93594729     1.11771969     3.26466483
O     -0.00900676     2.24211612     4.80400905
O      0.00000000     0.00000000     1.68386529
O      1.92126086     1.06864726     7.93029233
O      3.90108226     0.07673019     6.36960191
O      3.84462125     2.17526930     9.58980535
O      5.80795803     1.11771969     3.26466483
O      3.88362669     2.26032572     4.79520063
O      3.87189458     0.00000000     1.68386529
O      5.83314113     1.12807111     8.00062293
O      1.94096944     9.98843390     6.48292437
O      7.76235306     2.24280010     9.60092256
O      9.67985261     1.11771969     3.26466483
O      7.75914624     2.23197312     4.86074211
O      7.74390532     0.00000000     1.68386529
O      9.65677760     1.15919665     7.94427406
O     -1.82875020     3.40725650     6.48724691
O     -1.81025033     5.69005210     9.30205130
O      0.00000000     4.47087876     3.26466483
O     -1.91994297     5.58318707     4.81173617
O     -1.93594729     3.35315907     1.68386529
O      0.32438236     4.66905089     8.11332614
O      1.93375554     3.30024568     6.39421408
O      3.87201074     4.47087876     3.26466483
O      1.91072448     5.59718425     4.85020718
O      1.93594729     3.35315907     1.68386529
O      3.74347861     4.46864541     8.09735630
O      5.76305732     3.37844399     6.46903356
O      5.95098925     5.49921283     9.60127478
O      7.74390532     4.47087876     3.26466483
O      5.79040380     5.55847196     4.79295174
O      5.80795803     3.35315907     1.68386529
O      7.77359918     4.42108137     7.95566747
O      7.68239713     6.63264291     6.36145972
O     -3.94710070     8.99982430     9.67451484
O     -1.93600537     7.82413842     3.26466483
O     -3.88358526     8.94358692     4.80633404
O     -3.87195266     6.70641873     1.68386529
O     -2.30316958     8.01494976     7.81308589
O     -0.08831454     6.74698745     6.52639694
O     -0.09780571     8.77564008     9.32178209
O      1.93600537     7.82413842     3.26466483
O      0.01169584     8.93439095     4.82032492
O     -0.00005808     6.70641873     1.68386529
O      1.86495813     7.59453273     8.08092272
O      3.89818907     6.71092495     6.38539500
O      3.83996931     9.07962147     9.58454435
O      5.80789995     7.82413842     3.26466483
O      3.85633478     8.95092162     4.81391897
O      3.87195266     6.70641873     1.68386529
O      5.86121351     7.86397004     7.95897142
N      0.27817958     6.55730272    10.68149042
H     -0.61786571     6.08630097    10.89418599
H      0.21912956     7.56476428    10.90780559
H      1.05738053     6.10484519    11.16427377
