82
CIF: NO.cif | data_image0
Ce    -5.79552011    10.04708312     8.74950504
Ce     1.94516222     1.09218716     5.57670607
Ce     0.00000000     2.23543938     2.47426506
Ce    -1.94009390     9.95685892     8.74034635
Ce     5.81669102     1.09668166     5.63006796
Ce     3.87189458     2.23543938     2.47426506
Ce     1.98597274    10.01541225     8.75832710
Ce     9.70461894     1.09961530     5.60709003
Ce     7.74390532     2.23543938     2.47426506
Ce    -1.85788879     3.37025295     8.72840943
Ce     0.01939030     4.50369702     5.61643423
Ce    -1.93600537     5.58869904     2.47426506
Ce     1.98121105     3.19352826     8.69350868
Ce     3.88184816     4.46576191     5.62911229
Ce     1.93588921     5.58869904     2.47426506
Ce     5.85913600     3.32548502     8.81918454
Ce     7.75868123     4.46624195     5.61589113
Ce     5.80789995     5.58869904     2.47426506
Ce    -3.80929104     6.71556519     8.72766361
Ce    -1.91432677     7.80318281     5.58394734
Ce    -3.87195266     8.94185811     2.47426506
Ce     1.90821342     7.77904821     5.63818212
Ce    -0.00005808     8.94185811     2.47426506
Ce     3.97182636     6.74947168     8.77876977
Ce     5.81170480     7.81879767     5.59843367
Ce     3.87195266     8.94185811     2.47426506
Rh    -0.06392380     6.72471516     8.97929510
O      5.81317868    10.04942244     6.41871977
O      0.04743764     2.24228428     9.50896671
O      1.93594729     1.11771969     3.26466483
O      0.01123435     2.21331968     4.79760591
O      0.00000000     0.00000000     1.68386529
O      1.95322979     1.05129139     7.94913537
O      3.88749325     0.01522414     6.40139314
O      3.88448612     2.15359820     9.54172774
O      5.80795803     1.11771969     3.26466483
O      3.89960898     2.24551206     4.81682559
O      3.87189458     0.00000000     1.68386529
O      5.84998702     0.97949623     8.04703438
O      1.98496838     9.99270982     6.47782090
O      7.77922307     2.21939341     9.53581161
O      9.67985261     1.11771969     3.26466483
O      7.74020514     2.22056747     4.84838503
O      7.74390532     0.00000000     1.68386529
O      9.70786110     1.13961663     7.95312025
O     -1.86400018     3.34847028     6.43515670
O     -1.71349442     5.74008081     9.56097726
O      0.00000000     4.47087876     3.26466483
O     -1.99364274     5.54354693     4.79254306
O     -1.93594729     3.35315907     1.68386529
O      0.11718474     4.63554422     8.01051481
O      1.94097942     3.28877492     6.42625272
O      3.87201074     4.47087876     3.26466483
O      2.00336202     5.52751260     4.81253750
O      1.93594729     3.35315907     1.68386529
O      3.74571545     4.46463492     8.08928814
O      5.79918098     3.34705103     6.52931419
O      5.96583931     5.47608907     9.55144977
O      7.74390532     4.47087876     3.26466483
O      5.81028302     5.54906820     4.81158406
O      5.80795803     3.35315907     1.68386529
O      7.87793845     4.46685346     7.98384910
O      7.71769836     6.68066894     6.39629915
O     -3.82279940     8.92347628     9.57494688
O     -1.93600537     7.82413842     3.26466483
O     -3.87602646     8.94042459     4.79760096
O     -3.87195266     6.70641873     1.68386529
O     -1.95910585     7.81741968     7.86767304
O     -0.00506564     6.69692595     6.06492936
O     -0.10716708     8.56724340     9.65412946
O      1.93600537     7.82413842     3.26466483
O      0.02021121     9.00978994     4.80430796
O     -0.00005808     6.70641873     1.68386529
O      1.74912383     7.65389538     8.04458454
O      3.89838123     6.71931601     6.40057512
O      3.87689227     9.06583353     9.56151959
O      5.80789995     7.82413842     3.26466483
O      3.88410406     8.95416049     4.79543864
O      3.87195266     6.70641873     1.68386529
O      5.88129716     7.85505407     7.97500063
O      1.08643667     5.88035961    11.29073526
N      1.23038992     5.88749356    10.08560835
