85
CIF: 1-NH3-NH2+H_fs.cif | data_image0
Ce     5.78826235    10.05715604     8.75355152
Ce     1.93341636     1.09137513     5.62385967
Ce     0.00000000     2.23543938     2.47426506
Ce     3.93966696     0.00672994     8.83619538
Ce     5.80411461     1.12114687     5.61148580
Ce     3.87189458     2.23543938     2.47426506
Ce     7.63961082     0.07955215     8.85341192
Ce     9.65596050     1.11869406     5.62963361
Ce     7.74390532     2.23543938     2.47426506
Ce     9.58720494     3.31390108     8.81601735
Ce    -0.03048233     4.44681336     5.60458002
Ce    -1.93600537     5.58869904     2.47426506
Ce     1.91112987     3.28106020     8.74538079
Ce     3.85508546     4.48351873     5.61771366
Ce     1.93588921     5.58869904     2.47426506
Ce     5.76372188     3.39287302     8.74405759
Ce     7.74018704     4.47517793     5.61773722
Ce     5.80789995     5.58869904     2.47426506
Ce     7.73854446     6.70396912     8.79468049
Ce    -1.89874080     7.80263860     5.66679849
Ce    -3.87195266     8.94185811     2.47426506
Ce     1.92732137     7.85557723     5.60640502
Ce    -0.00005808     8.94185811     2.47426506
Ce     3.90159978     6.76203598     8.74531789
Ce     5.81825092     7.84259816     5.60966690
Ce     3.87195266     8.94185811     2.47426506
Pd     0.24472929     6.54493536     8.42820557
O     11.59807162     0.00961265     6.43314273
O      0.01630706     2.20897006     9.54076115
O      1.93594729     1.11771969     3.26466483
O      0.00431051     2.22250805     4.80902050
O      0.00000000     0.00000000     1.68386529
O      1.92872988     1.10087965     7.96154849
O     -1.94433769     9.98438366     6.46903545
O      3.81654895     2.28562081     9.54767489
O      5.80795803     1.11771969     3.26466483
O      3.84131144     2.23075024     4.84406206
O      3.87189458     0.00000000     1.68386529
O      5.78712137     1.19272593     7.89078997
O      7.74971937     0.00863836     6.41423861
O      7.67556843     2.28584260     9.58025722
O      9.67985261     1.11771969     3.26466483
O      7.73206055     2.24019042     4.80446641
O      7.74390532     0.00000000     1.68386529
O      9.64733206     1.11534779     8.01232231
O      9.66180226     3.31989940     6.41311929
O     -2.45642192     5.32699628    10.03769590
O      0.00000000     4.47087876     3.26466483
O     -1.94423017     5.58231394     4.82151529
O     -1.93594729     3.35315907     1.68386529
O     -0.30729666     4.58362174     8.09575896
O      1.85532488     3.37138387     6.47667634
O      1.90417250     5.59376061     9.12934551
O      3.87201074     4.47087876     3.26466483
O      1.97603251     5.56069115     4.78495834
O      1.93594729     3.35315907     1.68386529
O      3.90521131     4.45774094     7.93318508
O      5.80637331     3.38235546     6.38222160
O      5.75944636     5.63904572     9.53620848
O      7.74390532     4.47087876     3.26466483
O      5.79446471     5.62399563     4.83656419
O      5.80795803     3.35315907     1.68386529
O      7.72476895     4.48836494     7.94013608
O     -3.82957190     6.75337818     6.45966179
O     -3.81695303     8.87471353     9.48468288
O     -1.93600537     7.82413842     3.26466483
O     -3.87595618     8.94439704     4.81892030
O     -3.87195266     6.70641873     1.68386529
O     -1.61749530     7.60357501     8.05739183
O      0.10853023     6.62925431     6.29196163
O     -0.05964777     9.59127989     9.91454709
O      1.93600537     7.82413842     3.26466483
O     -0.00338577     8.94404410     4.81701960
O     -0.00005808     6.70641873     1.68386529
O      1.63047945     8.00002422     8.09716654
O      3.80339446     6.77004364     6.47431915
O      3.88752629     8.89845717     9.53883015
O      5.80789995     7.82413842     3.26466483
O      3.88065709     8.94258916     4.80471130
O      3.87195266     6.70641873     1.68386529
O      5.80744264     7.83659704     7.94102874
N     -0.14349927     6.68843557    10.37792971
H     -0.11312731     7.72163908    10.50713231
H      0.68666791     6.30328196    10.84905309
H     -1.60649284     5.82719399    10.31999001
