87
CIF: 4-NHNO+2H-N2+OH+2H_ts.cif | data_image0
Ce    -5.79919448    10.04512372     8.79369341
Ce     1.94354466     1.09978425     5.60851848
Ce     0.00000000     2.23543938     2.47426506
Ce    -1.87801885    10.00609271     8.80458717
Ce     5.80501097     1.11949146     5.61435068
Ce     3.87189458     2.23543938     2.47426506
Ce     7.65819682     0.03218872     8.82953242
Ce     9.67038098     1.10764044     5.63151102
Ce     7.74390532     2.23543938     2.47426506
Ce     9.63754789     3.28222549     8.77779231
Ce    -0.00748367     4.44254852     5.61022201
Ce    -1.93600537     5.58869904     2.47426506
Ce     1.94892273     3.19350132     8.75912725
Ce     3.85506017     4.49085288     5.63348340
Ce     1.93588921     5.58869904     2.47426506
Ce     5.79595866     3.37974389     8.75139944
Ce     7.74528435     4.48047672     5.62119060
Ce     5.80789995     5.58869904     2.47426506
Ce    -3.85416274     6.78207645     8.77017496
Ce    -1.93186167     7.82183033     5.67991294
Ce    -3.87195266     8.94185811     2.47426506
Ce     1.94852172     7.84176667     5.61218620
Ce    -0.00005808     8.94185811     2.47426506
Ce     3.99031222     6.78299162     8.78787752
Ce     5.81473928     7.82931353     5.59281772
Ce     3.87195266     8.94185811     2.47426506
Pd     0.85296002     6.19785655     8.17588736
O     11.60494497     0.00875210     6.41923967
O      0.02409005     2.17336694     9.58728009
O      1.93594729     1.11771969     3.26466483
O      0.00196969     2.23314452     4.80851127
O      0.00000000     0.00000000     1.68386529
O      1.94877585     1.07396466     7.96144170
O     -1.91722626    10.05633720     6.41263784
O      3.85270220     2.25408490     9.55519946
O      5.80795803     1.11771969     3.26466483
O      3.86775305     2.24639226     4.81705107
O      3.87189458     0.00000000     1.68386529
O      5.81081599     1.19779587     7.89991781
O      1.93423763    10.03915587     6.43557840
O      7.71810274     2.27136066     9.57484080
O      9.67985261     1.11771969     3.26466483
O      7.73641665     2.23905574     4.82311766
O      7.74390532     0.00000000     1.68386529
O      9.65366512     1.11218853     7.99700899
O      9.68876385     3.33099350     6.42946104
O     -2.26543180     5.37706179     9.96723591
O      0.00000000     4.47087876     3.26466483
O     -1.92072954     5.58110676     4.82805323
O      9.67985261     3.35315907     1.68386529
O     -0.04188196     4.42411591     8.06867306
O      1.92378611     3.32395129     6.44700470
O      1.93077937     5.56631857     9.84138213
O      3.87201074     4.47087876     3.26466483
O      1.94041548     5.57920927     4.81652968
O      1.93594729     3.35315907     1.68386529
O      3.81064449     4.51507399     8.02769958
O      5.78604692     3.41588204     6.43872210
O      5.82470938     5.61915114     9.51975200
O      7.74390532     4.47087876     3.26466483
O      5.79826485     5.59503967     4.80094327
O      5.80795803     3.35315907     1.68386529
O      7.78129347     4.47996845     7.96941663
O      7.72954311     6.69525079     6.40047581
O     -3.90276060     8.94726494     9.60409160
O     -1.93600537     7.82413842     3.26466483
O     -3.86849020     8.94283361     4.81651968
O      7.74384724     6.70641873     1.68386529
O     -2.04491058     7.85177787     7.98556303
O      0.02959666     6.68238127     6.43016310
O      0.01234020     9.43572034     9.77380231
O      1.93600537     7.82413842     3.26466483
O      0.00848903     8.92655770     4.81992713
O     -0.00005808     6.70641873     1.68386529
O      1.95797058     7.83879451     8.06129528
O      3.88764057     6.73194653     6.43089502
O      3.95477518     8.92586307     9.58619897
O      5.80789995     7.82413842     3.26466483
O      3.86961174     8.94451223     4.80332776
O      3.87195266     6.70641873     1.68386529
O      5.83799540     7.84285544     7.94074764
O      4.10152529     6.71510776    11.73886978
H     -1.46167155     5.84852924    10.23767170
H      4.55181582     6.93379535    13.21842017
H      1.53386394     5.91183314    10.64134514
N      6.18307966     7.48235431    11.95488558
N      5.18320678     7.11648010    12.50603906
