87
CIF: 5-NHNO+2H-N2O+3H_is.cif | data_image0
Ce     5.81221158    10.04630684     8.79286161
Ce     1.94269234     1.09802859     5.60958013
Ce     0.00000000     2.23543938     2.47426506
Ce    -1.88067849    10.00688116     8.80495279
Ce     5.80257899     1.11941122     5.61093151
Ce     3.87189458     2.23543938     2.47426506
Ce     7.65686233     0.03042081     8.82790454
Ce     9.66860540     1.10846614     5.63181351
Ce     7.74390532     2.23543938     2.47426506
Ce     9.63218589     3.28362711     8.77900703
Ce    -0.01096635     4.44126722     5.61015500
Ce    -1.93600537     5.58869904     2.47426506
Ce     1.94563700     3.19412798     8.75650654
Ce     3.85353822     4.48963998     5.63364378
Ce     1.93588921     5.58869904     2.47426506
Ce     5.79224475     3.37810981     8.75004746
Ce     7.74230097     4.48108175     5.62245349
Ce     5.80789995     5.58869904     2.47426506
Ce    -3.85890348     6.78004896     8.76336546
Ce    -1.93513615     7.82392371     5.67888503
Ce    -3.87195266     8.94185811     2.47426506
Ce     1.94647356     7.84333733     5.61282409
Ce    -0.00005808     8.94185811     2.47426506
Ce     3.97745593     6.78345320     8.77295353
Ce     5.81362255     7.83022116     5.59570019
Ce     3.87195266     8.94185811     2.47426506
Pd     0.84335264     6.19706069     8.16340352
O     11.60283495     0.00724671     6.42193839
O      0.02237182     2.17332910     9.58566025
O      1.93594729     1.11771969     3.26466483
O     -0.00136313     2.23313739     4.80826963
O      0.00000000     0.00000000     1.68386529
O      1.94612800     1.07165148     7.96303039
O     -1.91904997    10.05466041     6.41120221
O      3.84947309     2.25412147     9.55346796
O      5.80795803     1.11771969     3.26466483
O      3.86612617     2.24731097     4.81730539
O      3.87189458     0.00000000     1.68386529
O      5.80537291     1.19500222     7.89570610
O      1.93234748    10.04050000     6.43288505
O      7.71377371     2.27110920     9.57139099
O      9.67985261     1.11771969     3.26466483
O      7.73633991     2.23964404     4.82237522
O      7.74390532     0.00000000     1.68386529
O      9.65309168     1.11250869     7.99638789
O      9.68494643     3.33225835     6.43260029
O     -2.26417699     5.38578583     9.95903782
O      0.00000000     4.47087876     3.26466483
O     -1.92446276     5.58057557     4.82734494
O     -1.93594729     3.35315907     1.68386529
O     -0.05095165     4.41531713     8.06463540
O      1.92080007     3.32281251     6.44497864
O      1.92124879     5.55834900     9.81501146
O      3.87201074     4.47087876     3.26466483
O      1.94145483     5.57957325     4.81805260
O      1.93594729     3.35315907     1.68386529
O      3.80573653     4.51323413     8.02454529
O      5.78301475     3.41455267     6.43434100
O      5.81620103     5.61833331     9.52943021
O      7.74390532     4.47087876     3.26466483
O      5.79424805     5.59606555     4.80399238
O      5.80795803     3.35315907     1.68386529
O      7.77526347     4.48220109     7.96886294
O      7.72721704     6.69739099     6.40166305
O     -3.91619848     8.93553413     9.61977001
O     -1.93600537     7.82413842     3.26466483
O     -3.87063151     8.94271260     4.81703425
O     -3.87195266     6.70641873     1.68386529
O     -2.04691123     7.85317504     7.98597073
O      0.02014229     6.68489828     6.41626562
O      0.00613015     9.43540962     9.77223889
O      1.93600537     7.82413842     3.26466483
O      0.00768663     8.92768623     4.81953087
O     -0.00005808     6.70641873     1.68386529
O      1.95573727     7.84585320     8.05511598
O      3.88652200     6.73250682     6.43836108
O      3.94162846     8.92511010     9.58443757
O      5.80789995     7.82413842     3.26466483
O      3.86850756     8.94304161     4.80521886
O      3.87195266     6.70641873     1.68386529
O      5.83162916     7.84380190     7.94645770
O      3.85804821     6.58688995    11.87147807
H     -1.45297616     5.86671488    10.20865645
H      5.71860960     6.99811104    13.58166727
H      1.53205262     5.91991220    10.63200043
N      5.94299859     7.26654966    12.59554509
N      5.00774038     7.04183178    11.83492801
