84
CIF: CO+Olatt—CO2.cif | data_image0
Ce     1.93596140     1.11772783     0.89035214
Ce     0.00052397     2.24353847     4.07045691
Ce    11.61113455     0.00670411     7.20168587
Ce     5.80789581     1.11772783     0.89035214
Ce     3.86159818     2.23054298     4.03383865
Ce    -2.05241005    10.01992159     7.18136279
Ce     9.67981860     1.11772783     0.89035214
Ce     7.74894267     2.22491392     4.06415779
Ce     2.05554288     9.98875050     7.19914118
Ce     0.00000000     4.47091133     0.89035214
Ce    -1.94940539     5.58018508     4.06556276
Ce    -1.89803753     3.28797929     7.27316635
Ce     3.87193441     4.47091133     0.89035214
Ce     1.94829566     5.57404744     4.06931113
Ce     1.95715022     3.35964818     7.31623171
Ce     7.74385721     4.47091133     0.89035214
Ce     5.82067511     5.61508693     3.98385376
Ce    -1.93596721     7.82410489     0.89035214
Ce    -3.87258811     8.96025061     3.97892759
Ce    -3.88277963     6.85474969     7.12488548
Ce     1.93596721     7.82410489     0.89035214
Ce    -0.00104561     8.94916029     4.06009237
Ce     0.01318043     6.70116015     7.25846555
Ce     5.80789000     7.82410489     0.89035214
Ce     3.87749006     8.93987116     4.01545072
Ce     3.90523181     6.71056009     7.19535627
Y      5.72591368     3.50231687     6.88443386
O      0.00000000     0.00000000     0.09999685
O      1.93517246     1.12463046     3.21929332
O      0.00346698     2.18505705     6.43499700
O      0.00000000     2.23545567     1.68070743
O     11.61539267     0.00000905     4.82553369
O      1.94208098     0.94303979     8.04724368
O      3.87192279     0.00000000     0.09999685
O      5.81071210     1.08953219     3.25035669
O      4.03686135     2.13661154     6.49967476
O      3.87192279     2.23545567     1.68070743
O     -1.96188001    10.04320360     4.83581112
O      6.20750538     0.97911034     9.04455021
O      7.74385721     0.00000000     0.09999685
O      9.67873053     1.11495200     3.23339016
O      7.58033720     2.18497845     6.46321274
O      7.74385721     2.23545567     1.68070743
O      1.96464037    10.03443189     4.84690521
O      9.67756531     0.95101626     8.06574154
O     -1.93596140     3.35318350     0.09999685
O      0.00253393     4.48940677     3.27034964
O     -2.14705255     5.57644327     6.48617511
O     -1.93596721     5.58864923     1.68070743
O      9.66625579     3.33496062     4.84604322
O     -0.00461574     4.67701515     8.05505005
O      1.93596140     3.35318350     0.09999685
O      3.84789852     4.48643924     3.21560767
O      2.00330067     5.63746738     6.39409520
O      1.93595559     5.58864923     1.68070743
O      1.97877610     3.32771755     4.85795678
O      5.80789581     3.35318350     0.09999685
O      7.76738392     4.48247449     3.23333810
O      5.94846483     5.61951924     6.35876425
O      5.80789000     5.58864923     1.68070743
O      5.78167734     3.39068195     4.69357470
O      7.38798244     4.01642704     8.74659094
O     -3.87192860     6.70637706     0.09999685
O     -1.90774083     7.82592709     3.22185872
O     -3.88726269     8.94738679     6.33910135
O     -3.87192860     8.94183273     1.68070743
O     -3.85975095     6.76813705     4.77876769
O     -1.98594998     7.86828840     7.98993042
O     -0.00000581     6.70637706     0.09999685
O      1.91808026     7.80621830     3.25556013
O     -0.00048897     9.11859925     6.51952410
O     -0.00000581     8.94183273     1.68070743
O     -0.05115564     6.73278280     4.95220027
O      3.87192860     6.70637706     0.09999685
O      5.80401278     7.83932048     3.19742564
O      3.90014467     8.91140718     6.36562476
O      3.87192860     8.94183273     1.68070743
O      3.92071715     6.69533571     4.83933188
O      5.83384590     7.83948923     7.98660259
O      4.06821172     4.60366518     8.10578865
O      1.97767597     7.82608888     7.99651115
O      3.55850921     3.17602349    10.22622902
Ru     6.39638163     2.69212675     9.47346433
C      4.60302348     3.36749743     9.71172884
