84
CIF: Ru-Y-CeO2-Ov-CO2.cif | data_image0
Ce     1.93596140     1.11772783     0.89035214
Ce    -0.01003413     2.24392761     4.05077367
Ce    11.61120693     0.00584005     7.20759024
Ce     5.80789581     1.11772783     0.89035214
Ce     3.85544760     2.23594588     4.02471661
Ce    -2.02487410    10.05262065     7.18849699
Ce     9.67981860     1.11772783     0.89035214
Ce     7.76926556     2.21425500     4.02055255
Ce     2.03073366     9.98548652     7.19321767
Ce     0.00000000     4.47091133     0.89035214
Ce    -1.95784386     5.57341662     4.07678340
Ce     9.69222109     3.27424839     7.31046779
Ce     3.87193441     4.47091133     0.89035214
Ce     1.94499931     5.57636799     4.09238584
Ce     1.84835132     3.31547778     7.26576903
Ce     7.74385721     4.47091133     0.89035214
Ce     5.80451046     5.60685324     4.01228928
Ce    -1.93596721     7.82410489     0.89035214
Ce    -3.87943560     8.96524018     3.98402093
Ce    -3.88574284     6.88906079     7.14132553
Ce     1.93596721     7.82410489     0.89035214
Ce    -0.00555850     8.95162418     4.05962292
Ce    -0.00664119     6.69639047     7.26937835
Ce     5.80789000     7.82410489     0.89035214
Ce     3.87734240     8.92637587     4.01785971
Ce     3.88738828     6.79241979     7.25319116
Y      5.86869243     3.34217916     6.84799210
O      0.00000000     0.00000000     0.09999685
O      1.93088571     1.12212347     3.20843772
O     -0.02742381     2.18600756     6.43688986
O      0.00000000     2.23545567     1.68070743
O      0.00088435     0.00180450     4.81826907
O      1.95319764     0.96663891     8.05489187
O      3.87192279     0.00000000     0.09999685
O      5.80986714     1.09027215     3.23418305
O      4.01811468     2.23624702     6.51977433
O      3.87192279     2.23545567     1.68070743
O      3.84456235     0.03119247     4.83534550
O      5.98643740     1.02919799     8.72620282
O      7.74385721     0.00000000     0.09999685
O      9.68150600     1.11361522     3.22166007
O      7.63728187     2.16622871     6.40160222
O      7.74385721     2.23545567     1.68070743
O      1.95902993    10.02825494     4.82410125
O      9.66797890     0.93772150     8.08150208
O     -1.93596140     3.35318350     0.09999685
O     -0.00315119     4.49614125     3.26668106
O     -2.17356953     5.57115609     6.50733321
O     -1.93596721     5.58864923     1.68070743
O      9.66951693     3.34342786     4.83560169
O     -0.04257631     4.65056439     8.08210777
O      1.93596140     3.35318350     0.09999685
O      3.84752568     4.47732991     3.22803112
O      1.99419707     5.57455356     6.43492476
O      1.93595559     5.58864923     1.68070743
O      1.94628449     3.30953858     4.83738928
O      5.80789581     3.35318350     0.09999685
O      7.76436576     4.48980129     3.23164251
O      5.92014469     5.48495784     6.54217480
O      5.80789000     5.58864923     1.68070743
O      5.80674144     3.36857315     4.68392838
O      7.43712346     3.68903122     8.83041321
O     -3.87192860     6.70637706     0.09999685
O     -1.92519301     7.82131635     3.24408671
O     -3.85875242     8.97553887     6.32520630
O     -3.87192860     8.94183273     1.68070743
O      7.69841343     6.75188111     4.81973413
O     -1.97157111     7.89371442     7.99448230
O     -0.00000581     6.70637706     0.09999685
O      1.91103122     7.79739377     3.25895008
O     -0.02733198     9.13095094     6.46016918
O     -0.00000581     8.94183273     1.68070743
O     -0.05100949     6.71527419     4.96292863
O      3.87192860     6.70637706     0.09999685
O      5.80902943     7.83322467     3.19718495
O      3.89032934     8.94908548     6.36308817
O      3.87192860     8.94183273     1.68070743
O      3.93312746     6.69441444     4.82166323
O      5.94162503     7.92953737     8.02733341
O      3.88979148     4.41185859     8.81297487
O      1.84013422     7.89353990     8.02739661
O      5.24239381     4.41643537    10.70298710
Ru     6.19238177     2.60464081     9.59594963
C      4.76446838     3.99396983     9.62617788
