82
CIF: O2.cif | data_image0
Ce    -5.77912538    10.05193587     8.79915819
Ce     1.93794695     1.10121545     5.59270172
Ce     0.00000000     2.23543938     2.47426506
Ce     3.85008319     0.03087480     8.80044320
Ce     5.79572095     1.10931490     5.62293045
Ce     3.87189458     2.23543938     2.47426506
Ce     7.78424453     0.08288869     8.78628076
Ce     9.68096315     1.12648379     5.62732047
Ce     7.74390532     2.23543938     2.47426506
Ce    -1.94951576     3.39059733     8.80394852
Ce    -0.00321761     4.45044553     5.67390918
Ce    -1.93600537     5.58869904     2.47426506
Ce     1.84977070     3.23220319     8.72698761
Ce     3.85632522     4.47946969     5.62914438
Ce     1.93588921     5.58869904     2.47426506
Ce     5.77490106     3.35102856     8.75913446
Ce     7.73878001     4.47263457     5.61333009
Ce     5.80789995     5.58869904     2.47426506
Ce    -3.81960874     6.61839483     8.84014135
Ce    -1.93990644     7.80698927     5.60767994
Ce    -3.87195266     8.94185811     2.47426506
Ce     1.96753675     7.83107404     5.60503282
Ce    -0.00005808     8.94185811     2.47426506
Ce     4.02981118     6.78009000     8.75089774
Ce     5.83670206     7.82691721     5.61169032
Ce     3.87195266     8.94185811     2.47426506
Pd     0.07314083     7.59727051     8.28342131
O      5.80719795    10.04436404     6.42074286
O      0.05326667     2.14308280     9.64358226
O      1.93594729     1.11771969     3.26466483
O      0.00093502     2.22918333     4.82261093
O      0.00000000     0.00000000     1.68386529
O      1.92554065     1.10944347     7.93794542
O     -1.94708873    10.02139710     6.44557574
O      3.84248883     2.21795157     9.54719788
O      5.80795803     1.11771969     3.26466483
O      3.87157433     2.21392914     4.80364155
O      3.87189458     0.00000000     1.68386529
O      5.79976977     1.15825804     7.93894022
O      1.94405005    10.05486035     6.44219801
O      7.70081275     2.22347072     9.56396757
O      9.67985261     1.11771969     3.26466483
O      7.72078823     2.23097188     4.82538743
O      7.74390532     0.00000000     1.68386529
O      9.69378147     1.13805023     7.98184751
O      9.65680368     3.36080058     6.40342445
O     -2.37080655     5.30934015     9.76066844
O      0.00000000     4.47087876     3.26466483
O     -1.91887473     5.59867234     4.81584631
O     -1.93594729     3.35315907     1.68386529
O      0.02675093     4.26354762     7.96252389
O      1.97338872     3.32380164     6.39430846
O      3.87201074     4.47087876     3.26466483
O      1.94044926     5.60239264     4.83024671
O      1.93594729     3.35315907     1.68386529
O      3.75143657     4.55697729     8.06593664
O      5.72279836     3.37338715     6.43177485
O      5.80150793     5.58248224     9.57775531
O      7.74390532     4.47087876     3.26466483
O      5.81401877     5.59791472     4.81522817
O      5.80795803     3.35315907     1.68386529
O      7.66891725     4.42789930     7.89391583
O     -3.82728833     6.72078261     6.43809345
O     -3.84096204     8.97931989     9.56314112
O     -1.93600537     7.82413842     3.26466483
O     -3.86158359     8.93470915     4.80090535
O     -3.87195266     6.70641873     1.68386529
O     -1.88199906     7.78269727     8.06153552
O      0.02604636     6.68628087     6.46430037
O      0.03738025     9.13261655     9.63542131
O      1.93600537     7.82413842     3.26466483
O      0.00669140     8.92822512     4.82070666
O     -0.00005808     6.70641873     1.68386529
O      2.04582005     7.81973089     8.02221289
O      3.91453544     6.72976312     6.42552273
O      3.95881723     8.94971145     9.57655413
O      5.80789995     7.82413842     3.26466483
O      3.87189484     8.94269881     4.80968876
O      3.87195266     6.70641873     1.68386529
O      5.86109537     7.80807533     7.97335804
O      0.76696652     6.36315194     9.99274391
O      1.86481928     5.66279641     9.86015815
