82
CIF: O2 — 2Olat.cif | data_image0
O      0.09997773     0.10000317     0.00000000
O      2.00909286     1.19998791     3.14354386
O      0.10919347     2.28893040     6.35108386
O      0.09997774     2.30901943     1.56203572
O      0.09362121     0.10437744     4.78534251
O      1.99110560     1.19979972     7.98329747
O      3.92622092     0.10000317     0.00000000
O      5.82864074     1.18822823     3.15279340
O      3.90014128     2.35993880     6.38604522
O      3.92622093     2.30901943     1.56203572
O      3.88411309     0.11218212     4.82008634
O      5.82434604     1.19963839     7.96040658
O      7.75234933     0.10000317     0.00000000
O      9.65844151     1.19888163     3.14457930
O      7.74428469     2.29910353     6.33775845
O      7.75234933     2.30901943     1.56203572
O      7.75256504     0.08543182     4.79556734
O      9.66015442     1.20279296     7.97371645
O     -1.81308647     3.41352756     0.00000000
O      0.09518714     4.51600513     3.14444094
O     -1.82120805     5.61098856     6.33786721
O     -1.81314386     5.62264324     1.56203572
O     -1.81034716     3.40066022     4.78582766
O      0.08461847     4.49821184     7.97359406
O      2.01315672     3.41352756     0.00000000
O      3.91823765     4.50769777     3.15142351
O      2.01042914     5.57075379     6.36514231
O      2.01309933     5.62264324     1.56203572
O      1.99627645     3.40036628     4.78595489
O      5.83928513     3.41352756     0.00000000
O      7.75426505     4.50952524     3.15008190
O      5.85502204     5.59874389     6.23407930
O      5.83922773     5.62264324     1.56203572
O      5.83234971     3.37728930     4.78096796
O      7.78742720     4.48105719     7.95193902
O     -3.72620806     6.72715137     0.00000000
O     -1.81035880     7.83853177     3.15199384
O     -3.79800092     8.90911388     6.38714158
O     -3.72620806     8.93616763     1.56203572
O     -3.70648396     6.73485791     4.78076734
O     -1.83100495     7.82186420     7.96073100
O      0.10003513     6.72715137     0.00000000
O      1.99450501     7.83499222     3.14163205
O      0.05931567     8.94472615     6.32404136
O      0.10003513     8.93616763     1.56203572
O      0.10224585     6.71777502     4.79476907
O      1.93871989     7.85834526     7.93928011
O      3.92616353     6.72715137     0.00000000
O      5.83865399     7.83349323     3.15168037
O      3.95790996     8.94099877     6.36628823
O      3.92616353     8.93616763     1.56203572
O      3.89345963     6.73566050     4.75336368
O      5.87409091     7.76593918     8.13300015
O      5.14969139     5.99916731     8.71154676
O      3.97906313     4.49055139     8.13015092
Ce     2.01304194     1.20451130     0.78101786
Ce     0.09615561     2.30179115     3.94605640
Ce     0.07907300     0.12049839     7.16778544
Ce     5.83928513     1.20451130     0.78101786
Ce     3.91768925     2.30972362     3.97153792
Ce     3.90286772     0.09715935     7.17002835
Ce     9.66541353     1.20451130     0.78101786
Ce     7.74369562     2.30132302     3.96119252
Ce     7.72284049     0.10131968     7.15463928
Ce     0.09997773     4.51803570     0.78101786
Ce    -1.81855192     5.62007668     3.96092053
Ce    -1.81619336     3.39891752     7.15293712
Ce     3.92622092     4.51803570     0.78101786
Ce     2.00818488     5.61745637     3.95759709
Ce     1.97145082     3.39754518     7.16760000
Ce     7.75234933     4.51803570     0.78101786
Ce     5.83776438     5.61456398     3.95248067
Ce     5.85752433     3.43555313     7.18119437
Ce    -1.81314386     7.83165950     0.78101786
Ce    -3.73890561     8.92958017     3.97151397
Ce    -3.74956043     6.67488475     7.18093872
Ce     2.01309933     7.83165950     0.78101786
Ce     0.08922883     8.93308787     3.95979427
Ce     0.07102904     6.72797134     7.15426838
Ce     5.83922774     7.83165950     0.78101786
Ce     3.92060670     8.92935160     3.95713949
Ce     3.87352772     6.74083464     7.15171104
