82
CIF: Zr-CeO2-Ov+O2.cif | data_image0
O      0.55978923     0.45000431     0.59999690
O      2.47867539     1.55704197     3.74416182
O      0.54287136     2.65107710     6.89569669
O      0.55978923     2.65902057     2.16203261
O      0.56196100     0.44141988     5.36413607
O      2.41311122     1.62980103     8.43052550
O      4.38603242     0.45000431     0.59999690
O      6.29073670     1.55101433     3.74623676
O      4.33216882     2.80484029     6.97828236
O      4.38603242     2.65902057     2.16203261
O      4.38670840     0.49464850     5.41581030
O      6.28697144     1.54723577     8.53209814
O      8.21216082     0.45000431     0.59999690
O     10.11957559     1.55123827     3.73525244
O      8.21753041     2.64543906     6.92129670
O      8.21216082     2.65902057     2.16203261
O      8.20709754     0.44992756     5.36951867
O     10.11481291     1.54769610     8.55618561
O     -1.35327498     3.76352871     0.59999690
O      0.56530487     4.86820651     3.74498972
O     -1.34511788     5.98307509     6.92809231
O     -1.35333237     5.97264438     2.16203261
O     -1.36283510     3.76825658     5.36568218
O      0.59190305     4.78046992     8.42896890
O      2.47296821     3.76352871     0.59999690
O      4.37722419     4.86137092     3.76495253
O      2.56262700     5.86106796     6.95869310
O      2.47291082     5.97264438     2.16203261
O      2.42761835     3.73372561     5.42367117
O      6.29909662     3.76352871     0.59999690
O      8.21285845     4.87555882     3.74156198
O      6.29151647     5.96467471     6.94428237
O      6.29903923     5.97264438     2.16203261
O      6.31362356     3.75525576     5.37216906
O      8.24013152     4.86440606     8.55386948
O     -3.26639657     7.07715251     0.59999690
O     -1.34386431     8.19017115     3.76492385
O     -3.25393700     9.28801406     6.93174998
O     -3.26639657     9.28616878     2.16203261
O     -3.26684137     7.07761145     5.38252805
O     -1.34750795     8.18385456     8.55627481
O      0.55984662     7.07715251     0.59999690
O      2.46918408     8.17865179     3.74675501
O      0.55000623     9.27989598     6.92584309
O      0.55984662     9.28616878     2.16203261
O      0.59439252     7.05891560     5.40408021
O      2.46430573     8.17599497     8.52568336
O      4.38597502     7.07715251     0.59999690
O      6.30677608     8.17955825     3.74118104
O      4.37686879     9.29931672     6.91485039
O      4.38597502     9.28616878     2.16203261
O      4.39156770     7.09226728     5.37010081
O      6.30527083     8.20574545     8.54704209
O      3.43796555     4.37292240     9.25355454
O      4.64637027     5.02091702     8.80379267
Ce     2.47285343     1.55451244     1.38101475
Ce     0.54725669     2.65168966     4.53719216
Ce     0.55696760     0.45873032     7.74136220
Ce     6.29909662     1.55451244     1.38101475
Ce     4.38303272     2.67062547     4.58546621
Ce     4.36521212     0.49109291     7.75222987
Ce    10.12522502     1.55451244     1.38101475
Ce     8.20850995     2.65882732     4.54345089
Ce     8.20346515     0.44439858     7.73671692
Ce     0.55978923     4.86803684     1.38101475
Ce    -1.34912178     5.97041850     4.56119009
Ce    -1.34786024     3.75796436     7.74417711
Ce     4.38603242     4.86803684     1.38101475
Ce     2.48201681     5.96403825     4.58179967
Ce     8.21216082     4.86803684     1.38101475
Ce     6.30524912     5.97496650     4.56555682
Ce     6.34938966     3.73913157     7.74071326
Ce    -1.35333237     8.18166064     1.38101475
Ce    -3.26535792     9.29135410     4.56239143
Ce    -3.25149463     7.08503123     7.75768882
Ce     2.47291082     8.18166064     1.38101475
Ce     0.56513747     9.29022341     4.56613964
Ce     0.58601673     7.03981043     7.74428698
Ce     6.29903923     8.18166064     1.38101475
Ce     4.38482924     9.28404549     4.54239053
Ce     4.38901431     7.13243846     7.73668817
Zr     2.31484026     3.67455751     7.59331336
