80
CIF: Cu-CeO2-Ov.cif | data_image0
O      0.00261135     0.00382715     0.19995339
O      1.90611937     1.09877010     3.34098475
O     -0.02810853     2.34127414     6.64741022
O      0.00261135     2.21285656     1.76196664
O     -0.00690923     0.04908084     5.01559374
O      1.88525677     0.99725796     8.10798069
O      3.82876252     0.00382715     0.19995339
O      5.73897320     1.11136697     3.32279961
O      3.79591249     2.25027279     6.55687605
O      3.82876252     2.21285656     1.76196664
O      3.83422827     0.02149802     4.97405137
O      5.72056668     1.09478769     8.15910144
O      7.65492518     0.00382715     0.19995339
O      9.57025737     1.10526544     3.33735975
O      7.61570420     2.20674036     6.51365995
O      7.65492518     2.21285656     1.76196664
O      7.66478690     0.01221560     4.95972249
O      9.51536356     1.09657376     8.17015457
O     -1.91046424     3.31737126     0.19995339
O     -0.00154429     4.41933702     3.36079523
O     -1.68727559     5.40098777     6.71488805
O     -1.91046998     5.52641062     1.76196664
O      9.52747606     3.30102001     4.96396798
O      1.91568694     3.31737126     0.19995339
O      3.82033993     4.42342950     3.34954757
O      1.84029211     5.65507530     6.58721222
O      1.91568120     5.52641062     1.76196664
O      1.89891862     3.29558574     4.96686911
O      4.22905865     4.68473616     8.35894013
O      5.74184959     3.31737126     0.19995339
O      7.65713470     4.42072831     3.33402126
O      5.79979463     5.56967806     6.46091997
O      5.74184385     5.52641062     1.76196664
O      5.72446613     3.31210898     4.96909107
O      7.66862750     4.42078823     8.14622785
O     -3.82354556     6.63092532     0.19995339
O     -1.91521637     7.74497036     3.32604086
O     -3.82235717     8.79647950     6.49151898
O     -3.82354556     8.83995473     1.76196664
O     -3.70996073     6.58278782     5.01300756
O     -1.88310690     7.77289109     8.13268987
O      0.00260561     6.63092532     0.19995339
O      1.92044956     7.73385818     3.35257113
O      0.02259512     8.87541756     6.48536780
O      0.00260561     8.83995473     1.76196664
O     -0.03057971     6.67412245     4.94650324
O      1.87413740     7.83079632     8.22976557
O      3.82876826     6.63092532     0.19995339
O      5.76600016     7.73761559     3.37660877
O      3.82516786     8.82151723     6.54222955
O      3.82876826     8.83995473     1.76196664
O      3.82523542     6.61276493     4.97949266
O      5.80487019     7.74595361     8.16921774
Ce     1.91568694     1.10834185     0.98097142
Ce    -0.00786180     2.21574946     4.15109943
Ce     5.73115092     9.89573725     7.36035583
Ce     5.74184959     1.10834185     0.98097142
Ce     3.82822955     2.22648993     4.14814430
Ce     3.83340364     0.02109795     7.34812252
Ce     9.56800076     1.10834185     0.98097142
Ce     7.63301058     2.20776137     4.12973039
Ce     7.64299714     0.01425305     7.36484117
Ce     0.00261135     4.42188597     0.98097142
Ce    -1.89095159     5.51822559     4.14916373
Ce     9.43010771     3.21348199     7.27641100
Ce     3.82877400     4.42188597     0.98097142
Ce     1.91979578     5.52133273     4.22489750
Ce     7.65492518     4.42188597     0.98097142
Ce     5.74739518     5.51780785     4.15906796
Ce     5.67334499     3.38117323     7.39739618
Ce    -1.91046998     7.73544003     0.98097142
Ce    -3.80931028     8.84241820     4.16066942
Ce    -3.79597854     6.62960748     7.35565916
Ce     1.91569268     7.73544003     0.98097142
Ce     0.00689471     8.85791939     4.11347446
Ce     0.08193590     6.79806503     7.27003716
Ce     5.74184385     7.73544003     0.98097142
Ce     3.82522251     8.83271899     4.17160465
Ce     3.84055988     6.58481435     7.38962739
Cu     1.89199715     2.43058308     6.75377067
