84
CIF: CeO2+CO2(O).cif | data_image0
O      0.09997773     0.10000317     0.00000000
O      2.01091172     1.20509679     3.14437635
O      0.09576962     2.30966974     6.33212204
O      0.09997774     2.30901943     1.56203572
O      0.09605720     0.09875299     4.78099506
O      2.01050566     1.20580031     7.96110704
O      3.92622092     0.10000317     0.00000000
O      5.83884267     1.20497167     3.14448254
O      3.92387334     2.29940623     6.32515951
O      3.92622093     2.30901943     1.56203572
O      3.92420747     0.09883166     4.77442589
O      5.83613665     1.20525682     7.96408662
O      7.75234933     0.10000317     0.00000000
O      9.66338996     1.20410017     3.14514123
O      7.75034826     2.31131471     6.32933871
O      7.75234933     2.30901943     1.56203572
O      7.75125087     0.09882754     4.78102127
O      9.65946074     1.20112064     7.96164770
O     -1.81308647     3.41352756     0.00000000
O      0.09917050     4.51873175     3.14269576
O     -1.81603135     5.62370501     6.33146116
O     -1.81314386     5.62264324     1.56203572
O     -1.81332859     3.41542709     4.78130896
O      0.09260237     4.51785173     7.96354377
O      2.01315672     3.41352756     0.00000000
O      3.92449422     4.51855513     3.14415017
O      2.01179083     5.62772913     6.34063633
O      2.01309933     5.62264324     1.56203572
O      2.00920222     3.41598763     4.78242476
O      5.83928513     3.41352756     0.00000000
O      7.75023386     4.51747468     3.14438798
O      5.83322666     5.63205925     6.34202011
O      5.83922773     5.62264324     1.56203572
O      5.83631450     3.41592153     4.78208299
O      7.74984932     4.52076999     7.96420332
O     -3.72620806     6.72715137     0.00000000
O     -1.81473645     7.83027297     3.14368771
O     -3.72749911     8.93574864     6.33095451
O     -3.72620806     8.93616763     1.56203572
O     -3.73041447     6.72551301     4.78060258
O     -1.81732000     7.82968800     7.96559519
O      0.10003513     6.72715137     0.00000000
O      2.01207677     7.83060699     3.14483353
O      0.09135390     8.93762081     6.32829938
O      0.10003513     8.93616763     1.56203572
O      0.09767340     6.72459489     4.78175590
O      1.99845272     7.84733449     7.96051886
O      3.92616353     6.72715137     0.00000000
O      5.83704650     7.83056403     3.14494762
O      3.92775215     8.92606874     6.33949395
O      3.92616353     8.93616763     1.56203572
O      3.92400463     6.72495404     4.78400193
O      5.84681647     7.84714966     7.98081412
O      4.07063255     6.84582099    10.17355931
O      3.92302815     4.49426751     7.94437550
O      4.95817692     8.89596711    10.91377332
Ce     2.01304194     1.20451130     0.78101786
Ce     0.09764036     2.30945620     3.95623376
Ce     0.09869611     0.10266393     7.15186782
Ce     5.83928513     1.20451130     0.78101786
Ce     3.92415528     2.30861291     3.95557243
Ce     3.92319424     0.10050347     7.14879634
Ce     9.66541353     1.20451130     0.78101786
Ce     7.75181908     2.30994601     3.95612331
Ce     7.74808635     0.10130712     7.14602238
Ce     0.09997773     4.51803570     0.78101786
Ce    -1.81479148     5.62224980     3.95580008
Ce    -1.81599551     3.41489136     7.15286744
Ce     3.92622092     4.51803570     0.78101786
Ce     2.01239857     5.62368886     3.95822003
Ce     2.00978566     3.41051090     7.14943549
Ce     7.75234933     4.51803570     0.78101786
Ce     5.83573168     5.62301298     3.95910840
Ce     5.83625009     3.41084885     7.14881002
Ce    -1.81314386     7.83165950     0.78101786
Ce    -3.72812345     8.93591716     3.95676924
Ce    -3.72678480     6.72876801     7.14997753
Ce     2.01309933     7.83165950     0.78101786
Ce     0.09766306     8.93537800     3.95544655
Ce     0.09502187     6.72854512     7.15121173
Ce     5.83922774     7.83165950     0.78101786
Ce     3.92484959     8.93367309     3.96024635
Ce     3.91880185     6.71850850     7.16515241
C      4.52669377     7.87446805    10.52915703
