87
CIF: 3-NH2NO+H-NHNO+2H_fs.cif | data_image0
Ce     0.05758211     0.05015227     8.76369832
Ce     1.92565390     1.13208722     5.59737094
Ce     0.00000000     2.23543938     2.47426506
Ce    -1.97342453    10.05320730     8.75017941
Ce     5.83021711     1.08693428     5.64519252
Ce     3.87189458     2.23543938     2.47426506
Ce     1.93522860     9.99836406     8.97131942
Ce     9.67529548     1.10369245     5.65210214
Ce     7.74390532     2.23543938     2.47426506
Ce    -1.91727286     3.37893639     8.76723618
Ce     0.01344675     4.49410981     5.67139674
Ce    -1.93600537     5.58869904     2.47426506
Ce     1.94531043     3.32680793     8.79283962
Ce     3.87291001     4.45140522     5.61366849
Ce     1.93588921     5.58869904     2.47426506
Ce     5.83215239     3.31258300     8.78260400
Ce     7.73796266     4.46731395     5.61077295
Ce     5.80789995     5.58869904     2.47426506
Ce     7.65047789     6.70791821     8.72511658
Ce    -1.96079003     7.84170456     5.54304583
Ce    -3.87195266     8.94185811     2.47426506
Ce     1.96300593     7.83937184     5.69568101
Ce    -0.00005808     8.94185811     2.47426506
Ce     3.94282461     6.65621675     8.74139697
Ce     5.79915280     7.81755377     5.59010349
Ce     3.87195266     8.94185811     2.47426506
Ti    -0.61548253     6.79087958     8.47543734
O      0.01945605     0.00829231     6.41329804
O      0.04929727     2.27557555     9.55165000
O      1.93594729     1.11771969     3.26466483
O     -0.00562733     2.25167194     4.82095795
O      0.00000000     0.00000000     1.68386529
O      1.95382725     1.11254834     7.95502446
O      3.87098980     0.00357684     6.42545515
O      3.83912420     2.18621642     9.55531750
O      5.80795803     1.11771969     3.26466483
O      3.86946274     2.23318444     4.81617353
O      3.87189458     0.00000000     1.68386529
O      5.77002165     1.03435727     8.08073470
O      7.73397087     0.00627661     6.37920388
O      7.78843672     2.45858521     9.53763760
O      9.67985261     1.11771969     3.26466483
O      7.75933772     2.25042575     4.82835269
O      7.74390532     0.00000000     1.68386529
O      9.73881417     1.07927317     8.03485002
O     -1.88789392     3.35860631     6.48403917
O     -1.92461783     5.76633854     9.42863373
O      0.00000000     4.47087876     3.26466483
O     -1.91838282     5.58991307     4.82916763
O     -1.93594729     3.35315907     1.68386529
O      0.06671297     4.65482684     8.08836824
O      1.90599308     3.34908761     6.44352642
O      2.37157896     5.34215537    10.03728498
O      3.87201074     4.47087876     3.26466483
O      1.89715285     5.60536563     4.86107701
O      1.93594729     3.35315907     1.68386529
O      3.84445958     4.45107886     7.97138153
O      5.80937737     3.30478655     6.46402618
O      5.82974040     5.57244540     9.53566325
O      7.74390532     4.47087876     3.26466483
O      5.81377832     5.53981670     4.78648196
O      5.80795803     3.35315907     1.68386529
O      7.75002449     4.52515419     7.92227277
O      7.67833729     6.70389277     6.36272546
O     -3.86137482     8.97102890     9.54360972
O     -1.93600537     7.82413842     3.26466483
O     -3.87174867     8.95749915     4.78803130
O     -3.87195266     6.70641873     1.68386529
O     -2.11186975     7.79721848     7.84083972
O     -0.07912018     6.78903881     6.56470206
O     -0.15397920     8.29768021     9.32720064
O      1.93600537     7.82413842     3.26466483
O     -0.00719439     8.92258750     4.81298849
O     -0.00005808     6.70641873     1.68386529
O      2.24883070     7.78905563     7.97759634
O      3.94501748     6.63906395     6.35795769
O      4.15017093     8.85987990     9.89543367
O      5.80789995     7.82413842     3.26466483
O      3.87474009     8.93944843     4.83035545
O      3.87195266     6.70641873     1.68386529
O      5.78203666     7.85894232     7.95649971
O      1.51199916     9.91260495    11.34529443
N      2.85985022     8.45894830    12.21433359
N      1.78117473     9.13621367    12.35617683
H      3.79761197     8.74505595    10.85942236
H      2.96856061     7.90755208    13.07788039
H      1.79065883     5.76570221    10.69510068
