83
CIF: Os-Fe-CeO2-Ov-O2.cif | data_image0
Ce     1.94147889     1.10692387     0.83607075
Ce    -0.00762760     2.21563780     3.98403369
Ce    -5.79537075    10.05645597     7.17779207
Ce     5.79759261     1.09432930     0.83538365
Ce     3.83752943     2.20686764     3.95506501
Ce    -1.95302109    10.03693525     7.25993781
Ce     9.68997660     1.09957033     0.80973168
Ce     7.76400821     2.21251127     3.89918739
Ce     1.98622902    10.00812088     7.25734008
Ce    -0.00131258     4.48342543     0.89818515
Ce    -1.95978922     5.57176834     4.08506880
Ce    -1.80737252     3.31857181     7.22473548
Ce     3.86058579     4.47901934     0.87379288
Ce     1.95273151     5.57875442     4.08972895
Ce     1.86947681     3.30711735     7.19335650
Ce     7.75499674     4.48384793     0.84010177
Ce     5.81229052     5.64406424     3.97957017
Ce    -1.92471151     7.80978008     0.90136874
Ce    -3.85958809     8.94085107     4.03465134
Ce    -3.85784251     6.80001593     7.29198890
Ce     1.92084927     7.81634897     0.91334729
Ce    -0.00302842     8.96279880     4.08176658
Ce     0.00763968     6.72395526     7.25837944
Ce     5.80923743     7.81740523     0.85721072
Ce     3.87094366     8.94832889     4.04005807
Ce     3.88822946     6.78369579     7.30218924
Fe     5.55302279     3.51748413     6.44539356
Os     6.35250820     3.01571569     8.47665987
O      5.80590370    10.04493396     0.04981520
O      1.91364823     1.10372698     3.16024101
O      0.00969448     2.27433744     6.31828776
O      0.00824720     2.23288042     1.62709024
O      0.00167727     0.01248435     4.80559033
O      1.87042234     1.24154420     7.97666709
O     -1.92636096    10.05557697     0.05968662
O      5.81403710     1.10236715     3.16445601
O      4.07047006     2.41127900     6.40675751
O      3.86356524     2.22162377     1.65271930
O      3.85592481     0.06368996     4.79539172
O      5.95074068     1.23517577     8.65888071
O      1.92644227    10.03841536     0.06770286
O      9.69625572     1.11342420     3.13896163
O      7.39419994     2.45325270     6.78440065
O      7.75413136     2.22003436     1.61964659
O      7.77517483     0.13455427     4.83733038
O      9.76996314     1.23290354     7.97539371
O     -1.93187845     3.36633135     0.07058870
O     -0.03351981     4.44447527     3.27161150
O     -1.98169275     5.44740539     6.45696475
O     -1.92738314     5.59613354     1.69596118
O      9.57688170     3.24126008     4.88308225
O      0.00888662     4.39482380     8.04609909
O      1.94417375     3.37915729     0.08911767
O      3.85597887     4.47783732     3.20260448
O      1.99903425     5.45257822     6.45297412
O      1.91200385     5.60389952     1.73196554
O      1.96058302     3.29021229     4.81651638
O      5.80284875     3.35651321     0.09033155
O      7.77013521     4.46944627     3.18021858
O      5.82320255     5.32910522     6.42441624
O      5.81768210     5.59927212     1.66698821
O      5.81822259     3.34935479     4.62528207
O      7.71200903     4.20385456     8.72530739
O      7.75228445     6.68845092     0.06600800
O     -1.92506864     7.81025182     3.26762862
O     -3.86668103     8.97937139     6.36743770
O     -3.85525415     8.92377582     1.64394725
O      7.71517770     6.69719665     4.82417722
O     -1.80239176     7.75646553     8.06301575
O      0.00469278     6.69666958     0.09360676
O      1.92483635     7.84622224     3.28424876
O      0.01663634     9.00212976     6.36968758
O     -0.01033224     8.92394683     1.68973142
O      0.00009129     6.67399394     4.91190737
O      1.82319939     7.77128347     8.05762284
O      3.85510315     6.68578514     0.09578260
O      5.81286036     7.84649676     3.19355865
O      3.89063345     8.98042360     6.36843118
O      3.86380336     8.92619011     1.65624645
O      3.91036532     6.70381899     4.81915374
O      5.82429165     7.99725302     8.06844614
O      3.82056577     4.41587720     8.57379433
O      4.85243677     3.79674267     9.33137026
