84
CIF: Nb-Ti-CeO2-CO.cif | data_image0
Ce     1.93038582     1.11050507     0.88387043
Ce    -0.00696801     2.23027385     4.05605978
Ce     5.79506562    10.03336306     7.19957513
Ce     5.81181033     1.12175166     0.90127712
Ce     3.86707931     2.22004549     4.00623891
Ce    -2.05655850     9.95198351     7.18164497
Ce     9.66901012     1.12377363     0.90450652
Ce     7.74342811     2.24016104     4.01369580
Ce     2.04037659     9.93196928     7.40733163
Ce    -0.00709724     4.47602159     0.89067279
Ce    -1.94960382     5.59085987     4.11580364
Ce    -1.69240343     3.37204916     7.37611696
Ce     3.86254305     4.47635356     0.87798423
Ce     1.94551745     5.59488962     4.04542095
Ce     1.96767042     3.34310898     7.18276661
Ce     7.74213807     4.46545905     0.90125422
Ce     5.82819578     5.59428450     4.02029848
Ce    -1.94645625     7.83004003     0.90010904
Ce    -3.88463765     8.92201694     4.02123214
Ce    -3.85557348     6.75553940     7.30426148
Ce     1.92815559     7.82745473     0.89060408
Ce     0.00400390     8.97154147     4.09850108
Ce     0.03694959     6.71527684     7.23639496
Ce     5.81127600     7.83258510     0.88371011
Ce     3.86667308     8.96031166     4.05213372
Ce     3.88183058     6.71125490     7.17657077
Ti     5.37652504     3.57672234     6.81420309
Nb     6.98196141     2.78247071     9.12775274
O     11.61334069     0.00154917     0.10141687
O      1.92681280     1.11841251     3.22069748
O      0.13705717     2.22994328     6.35631787
O     -0.00785227     2.23805103     1.69392277
O      5.80223557    10.05670857     4.82773005
O      2.00076009     1.08403637     7.98998325
O     -1.93899312    10.05733740     0.10496691
O      5.79547924     1.11796630     3.23310111
O      4.08100920     2.18861852     6.48538263
O      3.86763657     2.23577757     1.68132582
O      3.83509241     0.00299683     4.84763959
O      6.97091336     0.98235448     9.41314937
O      7.73821774     0.00761509     0.10924988
O      9.68182275     1.12428328     3.22236537
O      7.03963374     2.61443492     7.13462203
O      7.74357843     2.23531483     1.71563532
O      7.74752422     0.14422880     4.90375186
O      9.86557103     1.04458391     7.98489984
O      9.67032270     3.35425987     0.10911246
O     -0.01319812     4.46847900     3.29285404
O     -1.89806442     5.59752226     6.47602223
O     -1.94403436     5.59119430     1.70564938
O      9.57336859     3.27316673     4.92112436
O      0.24056253     4.52199650     8.06206060
O      1.92738314     3.35244915     0.09928684
O      3.87305260     4.47141177     3.20421283
O      1.92250789     5.60546072     6.30558054
O      1.92862022     5.59252216     1.67404250
O      2.02502102     3.32959382     4.85087691
O      3.86914568     4.45192097     7.73754481
O      5.81155478     3.35101064     0.10766953
O      7.74452844     4.46525230     3.23634122
O      5.88715765     5.38655354     6.46902143
O      5.80528807     5.59217007     1.68114259
O      5.78268066     3.34915049     4.83031657
O      8.38896784     3.96982498     9.20218833
O     -3.87155109     6.71022987     0.10512724
O     -1.93469119     7.82765687     3.25613210
O     -3.87826970     8.92826006     6.38700982
O     -3.87509971     8.94378428     1.69355631
O      7.72624800     6.69497458     4.83037614
O     -1.87574854     7.91694633     8.08785710
O     -0.01209783     6.71325780     0.10434852
O      1.93802963     7.84815530     3.27448877
O     -0.04093106     9.05877579     6.49388162
O     -0.00628994     8.94736548     1.70514550
O     -0.01762428     6.76967661     4.88499763
O      1.97105986     7.65118729     8.03997172
O      3.86815347     6.71410280     0.09951587
O      5.80155958     7.82807235     3.21832305
O      3.89330539     8.87498878     6.34240589
O      3.86556896     8.94715423     1.69389986
O      3.93640006     6.66588524     4.84562366
O      5.69593686     7.82679545     8.01296766
O      4.26205614     4.00155624    10.47067909
C      5.22048487     3.59524564     9.93998604
