90
CIF: H+OH→H2O.cif | data_image0
O      0.00261135     0.00382715     0.19995339
O      1.89775037     1.11534466     3.33283481
O      0.20122212     2.38038782     6.51486834
O      0.00261135     2.21285656     1.76196664
O     -0.02521170     0.05695908     4.99893543
O      1.81375797     1.56693116     8.31156413
O      3.82876252     0.00382715     0.19995339
O      5.75078334     1.10812975     3.31739126
O      3.63200600     2.35922666     6.50660583
O      3.82876252     2.21285656     1.76196664
O      3.81432131     0.05469633     4.94645136
O      5.86758420     1.05086401     8.24769327
O      7.65492518     0.00382715     0.19995339
O      9.56593540     1.09758966     3.33066712
O      7.70911683     2.18490602     6.51221320
O      7.65492518     2.21285656     1.76196664
O      1.90874091     9.93645986     4.94787836
O      9.63591795     0.98006288     8.19789709
O     -1.91046424     3.31737126     0.19995339
O      0.01083699     4.43292674     3.33240550
O     -1.76591329     5.54145303     6.59559815
O     -1.91046998     5.52641062     1.76196664
O     -1.88708937     3.31724534     4.93966862
O      0.36062373     3.41980878     9.02888280
O      1.91568694     3.31737126     0.19995339
O      3.82782599     4.42464471     3.32717939
O      1.67266877     5.07410785     6.90960337
O      1.91568120     5.52641062     1.76196664
O      1.93376460     3.32767124     4.95312722
O      3.60134115     4.04729038     8.49094576
O      5.74184959     3.31737126     0.19995339
O      7.65439447     4.44819660     3.36797733
O      5.71674454     5.56597326     6.55701219
O      5.74184385     5.52641062     1.76196664
O      5.73129307     3.29367296     4.95143548
O      7.68482284     4.57882707     8.27979974
O     -3.82354556     6.63092532     0.19995339
O     -1.90834783     7.72892535     3.36899612
O     -3.88211958     8.90691624     6.58179482
O     -3.82354556     8.83995473     1.76196664
O     -3.78456814     6.63569033     5.03758458
O     -1.90328324     7.69031096     8.25508194
O      0.00260561     6.63092532     0.19995339
O      1.91448939     7.73841756     3.31126163
O     -0.03503382     8.86901083     6.47354298
O      0.00260561     8.83995473     1.76196664
O      0.09052445     6.64034319     4.99264342
O      1.75911130     7.79080199     8.16138393
O      3.82876826     6.63092532     0.19995339
O      5.72939799     7.72560293     3.40599080
O      3.82953245     8.83217312     6.51472944
O      3.82876826     8.83995473     1.76196664
O      3.69109153     6.56827822     5.02063455
O      5.78847184     7.81784519     8.28363426
Ce     1.91568694     1.10834185     0.98097142
Ce    -0.02650768     2.21324219     4.11522229
Ce     5.68406770     9.89196084     7.36545089
Ce     5.74184959     1.10834185     0.98097142
Ce     3.85607959     2.20188759     4.10278642
Ce     3.82989391     0.05815476     7.48076612
Ce     9.56800076     1.10834185     0.98097142
Ce     7.66373444     2.22587151     4.16056479
Ce     7.63818146     0.02517004     7.34199559
Ce     0.00261135     4.42188597     0.98097142
Ce    -1.90351788     5.52257334     4.18976934
Ce     9.53352088     3.28568714     7.43219756
Ce     3.82877400     4.42188597     0.98097142
Ce     1.91480594     5.53669724     4.09965774
Ce     7.65492518     4.42188597     0.98097142
Ce     5.73106324     5.51980508     4.22215608
Ce     5.83235354     3.30919850     7.41503233
Ce    -1.91046998     7.73544003     0.98097142
Ce    -3.82077610     8.85886193     4.20217576
Ce    -3.83052396     6.64010246     7.41507160
Ce     1.91569268     7.73544003     0.98097142
Ce    -0.00703093     8.86263636     4.13428113
Ce    -0.05322211     6.82490868     7.31043064
Ce     5.74184385     7.73544003     0.98097142
Ce     3.81055107     8.82791450     4.16960136
Ce     3.81002524     6.66791127     7.47433550
Nb     1.94520585     3.15290542     6.99534940
C      3.34145920     6.51301786    10.81902170
C      2.90313870     5.36301453    10.34905302
C      3.47131424     4.07413018     9.89918840
H      2.69400794     7.38694189    10.93581166
H      4.39804010     6.64476331    11.10761117
H      0.71670047     3.95978890     9.75917171
H      0.93343589     2.48353376     8.97533083
H      2.88200262     3.20681806    10.25906339
H      4.47318469     3.97311517    10.39096484
