85
CIF: Co-Sc-CeO2-O-CO.cif | data_image0
Ce     1.93038582     1.11050507     0.88387043
Ce    -0.00444442     2.22849912     4.02467863
Ce     0.03754707     0.00466541     7.19888270
Ce     5.81181033     1.12175166     0.90127712
Ce     3.85948254     2.22078462     4.02770537
Ce     3.88114353     0.00635354     7.30816621
Ce     9.66901012     1.12377363     0.90450652
Ce     7.71984779     2.24153378     4.09134454
Ce     2.01788953     9.95811783     7.20235260
Ce    -0.00709724     4.47602159     0.89067279
Ce    -1.95382105     5.58615187     4.05359286
Ce    -1.86080467     3.31298848     7.18989703
Ce     3.86254305     4.47635356     0.87798423
Ce     1.93071773     5.58719877     4.03882557
Ce     1.93330773     3.34802504     7.17947962
Ce     7.74213807     4.46545905     0.90125422
Ce     5.81030363     5.61101171     4.01167651
Ce    -1.94645625     7.83004003     0.90010904
Ce    -3.85343098     8.95217232     4.05196708
Ce    -3.86060126     6.76473792     7.20525466
Ce     1.92815559     7.82745473     0.89060408
Ce    -0.01280734     8.94996310     4.07404453
Ce    -0.00919145     6.68571253     7.20991819
Ce     5.81127600     7.83258510     0.88371011
Ce     3.88166318     8.94240773     4.03247253
Ce     3.88892738     6.69678415     7.19561112
Sc     5.44193427     3.58618311     6.82490898
Co     7.07123201     2.59361278     8.52287087
O     11.61334069     0.00154917     0.10141687
O      1.92755191     1.11804757     3.22071724
O      0.00901308     2.24118584     6.35271469
O     -0.00785227     2.23805103     1.69392277
O     -5.79363907    10.05555506     4.84799310
O      1.83256003     1.20222911     8.02288948
O     -1.93899312    10.05733740     0.10496691
O      5.81482850     1.11747527     3.25423552
O      3.93855456     2.26862057     6.40583099
O      3.86763657     2.23577757     1.68132582
O     -1.93588895    10.05378299     4.82997656
O      6.17908414     1.06844402     8.45922427
O      7.73821774     0.00761509     0.10924988
O      9.67839110     1.11262150     3.23852480
O      7.61542383     2.28481503     6.49821320
O      7.74357843     2.23531483     1.71563532
O      7.77354429     0.01710307     4.86952273
O      9.73289916     1.08527473     7.95099364
O      9.67032270     3.35425987     0.10911246
O     -0.00798408     4.47517348     3.24322100
O     -2.02523720     5.51584886     6.43246231
O     -1.94403436     5.59119430     1.70564938
O      9.65532610     3.32005663     4.85768309
O      0.01228954     4.45924622     7.97892510
O      1.92738314     3.35244915     0.09928684
O      3.84371219     4.49037125     3.20455429
O      1.90366500     5.60376120     6.36574764
O      1.92862022     5.59252216     1.67404250
O      1.94732633     3.34484950     4.84232192
O      5.81155478     3.35101064     0.10766953
O      7.74175548     4.47837771     3.24708028
O      5.89505257     5.54929934     6.41531200
O      5.80528807     5.59217007     1.68114259
O      5.74724854     3.40403566     4.77647983
O      7.88091724     4.15968924     8.41944694
O     -3.87155109     6.71022987     0.10512724
O     -1.93560229     7.82005294     3.23781720
O     -3.87429101     8.92291398     6.43176524
O     -3.87509971     8.94378428     1.69355631
O     -3.86688392     6.73390043     4.85256834
O     -1.93317538     7.67573833     8.03296255
O     -0.01209783     6.71325780     0.10434852
O      1.92892278     7.81992788     3.25543886
O      0.06664645     8.95101221     6.44941975
O     -0.00628994     8.94736548     1.70514550
O     -0.05267274     6.70682518     4.88303752
O      1.99304536     7.77904208     8.01419449
O      3.86815347     6.71410280     0.09951587
O      5.80710553     7.83254392     3.22160997
O      3.91118144     8.90412830     6.38599028
O      3.86556896     8.94715423     1.69389986
O      3.89621306     6.68619159     4.85743971
O      5.83904400     7.80174880     8.00775866
O      3.86206686     4.51047481     7.85691652
O      6.00013418     3.21322945    11.04310692
O      6.63157917     2.86902530    13.28423707
C      6.31773196     3.04056129    12.16461684
