86
CIF: 5-NHNO+2H-N2O+3H_ts.cif | data_image0
Ce     0.01506329     0.01817311     8.78517697
Ce     1.93640385     1.11118965     5.59311650
Ce     0.00000000     2.23543938     2.47426506
Ce     3.85069337     0.03390098     8.82983151
Ce     5.81034551     1.09711942     5.64148141
Ce     3.87189458     2.23543938     2.47426506
Ce     7.78164692     0.06021756     8.83720660
Ce     9.68592612     1.11753235     5.60783054
Ce     7.74390532     2.23543938     2.47426506
Ce     9.67855985     3.24751797     8.83259106
Ce     0.00888502     4.44406387     5.52410783
Ce    -1.93600537     5.58869904     2.47426506
Ce     1.95261464     3.21467338     8.77826173
Ce     3.87162723     4.47907940     5.65293990
Ce     1.93588921     5.58869904     2.47426506
Ce     5.82601248     3.37959625     8.81019553
Ce     7.75604003     4.48250479     5.67051058
Ce     5.80789995     5.58869904     2.47426506
Ce     7.67731567     6.75208579     8.82372891
Ce    -1.95636347     7.83501370     5.56679865
Ce    -3.87195266     8.94185811     2.47426506
Ce     1.96611078     7.83891529     5.55373075
Ce    -0.00005808     8.94185811     2.47426506
Ce     3.98819913     6.76989638     8.77880033
Ce     5.81560706     7.83947997     5.60290145
Ce     3.87195266     8.94185811     2.47426506
Fe     0.00804372     6.73405765     8.17204990
O     -0.00683727     0.02413200     6.36363244
O      0.01857153     2.05674128     9.64262079
O      1.93594729     1.11771969     3.26466483
O     -0.00225964     2.22473626     4.75198347
O      0.00000000     0.00000000     1.68386529
O      1.96820572     1.07451535     7.89591841
O     -1.93323417     9.94909622     6.43223123
O      3.94899873     2.16058269     9.59305880
O      5.80795803     1.11771969     3.26466483
O      3.87199580     2.22433498     4.84642992
O      3.87189458     0.00000000     1.68386529
O      5.82421830     1.03958010     7.94191825
O      1.95488077     9.94203421     6.46306278
O      7.68971967     2.17987120     9.61165546
O      9.67985261     1.11771969     3.26466483
O      7.75589809     2.22705743     4.85930857
O      7.74390532     0.00000000     1.68386529
O      9.65358160     1.09497188     7.91411960
O     -1.79026172     3.39315118     6.42679774
O     -2.33934121     5.37603950    10.71533322
O      0.00000000     4.47087876     3.26466483
O     -1.95222791     5.57562182     4.77369415
O      9.67985261     3.35315907     1.68386529
O      0.08233620     4.89019806     8.50044248
O      1.83207277     3.36885884     6.39374651
O      3.87201074     4.47087876     3.26466483
O      1.96376837     5.58477699     4.77967448
O      1.93594729     3.35315907     1.68386529
O      3.81837621     4.50683400     7.97053169
O      5.80373056     3.35036899     6.44673718
O      5.81224501     5.45231359     9.67799554
O      7.74390532     4.47087876     3.26466483
O      5.81198999     5.59101855     4.83746936
O      5.80795803     3.35315907     1.68386529
O      7.79913046     4.49319344     7.95569993
O     -3.81221168     6.77262796     6.38375880
O     -3.81854702     9.09796525     9.65397163
O     -1.93600537     7.82413842     3.26466483
O     -3.87766376     8.95425949     4.77177508
O      7.74384724     6.70641873     1.68386529
O     -1.63256475     7.66803204     8.28302654
O      0.00040222     6.68974734     6.25462108
O      0.01049797     9.56563078    10.17149403
O      1.93600537     7.82413842     3.26466483
O      0.01622799     8.95981767     4.78138198
O     -0.00005808     6.70641873     1.68386529
O      1.66096017     7.65435281     8.31301954
O      3.83931670     6.78520710     6.38464138
O      3.84376777     9.08816299     9.62306351
O      5.80789995     7.82413842     3.26466483
O      3.87193239     8.95830404     4.76845918
O      3.87195266     6.70641873     1.68386529
O      5.83182423     7.88860809     7.95555760
O      2.32711022     5.42046837    10.85380833
N      0.33014594     6.60814690    11.16348426
N      1.33317868     6.02964560    11.16565744
H     -2.59540472     5.20852348    11.64088936
H     -0.02849610     8.77054724    10.72939962
H     -1.53193312     5.92961062    10.75567385
