    86
 Tv_1:  11.598200   0.000000   0.000000 Tv_2:  -5.799100  10.044336   0.000000 Tv_3:   0.000000   0.000000  22.891600
Ce      2.12985117      1.20141175      3.19610764
Ce      0.12435466      2.32505556      9.56500288
Ce      0.15391529      0.06268946      6.35670677
Ce      5.99522034      1.20188135      3.19753148
Ce      3.98167839      2.10000803      9.45055656
Ce      4.02412181      0.04854024      6.32288818
Ce      9.86135484      1.20114586      3.19432515
Ce      7.86280926      2.25698240      9.56654699
Ce      7.86657982      0.05299386      6.36354395
Ce      0.19666432      4.54978071      3.19670162
Ce     -1.76779195      5.64058964      9.51291902
Ce     -1.78052282      3.41448263      6.37139991
Ce      4.06226209      4.54995432      3.20052152
Ce      2.08842644      3.46109180      6.37209886
Ce      7.92719740      4.54917011      3.19817882
Ce      6.04322502      5.69136784      9.43639235
Ce      5.94478647      3.40380309      6.35706926
Ce     -1.73648549      7.89693124      3.19668890
Ce     -3.85487575      9.00774928      9.45677105
Ce     -3.71254629      6.75057532      6.31417619
Ce      2.12993816      7.89714199      3.19855908
Ce      0.13452211      8.89639469      9.54678284
Ce      0.14697682      6.76145528      6.32754221
Ce      5.99514040      7.89633388      3.19902964
Ce      3.90679511      8.90538465      9.52052223
Ce      3.96929377      6.71785761      6.35215869
O       0.19723043      2.31789210      2.40685267
O       2.02238243      1.12749981     10.15207103
O       2.07809719      1.18904980      5.54286704
O       0.23217112      2.33945451      7.26808717
O       0.04142812      0.05311475      8.70914868
O       0.19616943      0.08438512      3.98427186
O       4.06307343      2.31867058      2.40887949
O       5.89461601      1.13696204     10.31043444
O       5.97006982      1.21869248      5.52582590
O       4.00736536      2.21936830      7.16780391
O      -1.81589788      9.99171926      8.70943815
O       4.06208343      0.08467395      3.98544832
O       7.92745766      2.31806252      2.40774341
O       9.73691506      1.16313081     10.33990624
O       9.83859086      1.17618453      5.60707003
O       7.81268650      2.31030004      7.25053266
O       7.85314207      0.01985919      8.76925741
O       7.92770816      0.08495917      3.98578726
O      -1.73693137      5.66532416      2.40792814
O       0.25553122      4.65413151     10.03990119
O       0.11889677      4.48300438      5.53127711
O      -1.85528863      5.54857036      7.10341606
O      -1.79879016      3.37258158      8.77272039
O      -1.73775434      3.43338823      3.98479391
O       2.13058317      5.66593859      2.40910530
O       0.41098425      3.61721195     12.69698049
O       4.06883870      4.49300656      5.55663588
O       2.04529817      5.66635860      6.87179288
O       2.36219975      3.61463459      8.87202572
O       2.12898729      3.43373125      3.98703280
O       5.99452833      5.66513142      2.41021948
O       7.84166129      4.52334000     10.29389323
O       7.86806429      4.50007346      5.53071998
O       5.97401753      5.65515299      7.15115064
O       5.74480312      3.48236962      8.86308952
O       5.99342257      3.43358950      3.99030800
O      -3.66942129      9.01255710      2.40739297
O      -2.12817752      7.91671360     10.64147584
O      -1.78781338      7.88155887      5.53963700
O      -3.76199791      9.00669895      7.14628142
O      -3.71853772      6.78587878      8.67833184
O      -3.67068744      6.78052572      3.98770550
O       0.19725538      9.01348921      2.40797827
O       1.99781329      7.65484857     10.10562985
O       2.10636445      7.93712139      5.51497358
O       0.18232445      9.07513746      7.08774392
O      -0.34156634      7.01850899      8.50837898
O       0.19628260      6.78135326      3.98691547
O       4.06290305      9.01218061      2.40805359
O       5.86436774      7.85214542     10.24796120
O       5.95126461      7.89181265      5.54064432
O       3.98175340      8.86497139      7.24525032
O       3.93505254      6.36981905      8.86798046
O       4.06171859      6.78108953      3.99059518
O       1.40326969      2.65646623     12.57758072
O      -0.91894821      7.29122566     11.13515415
Pd      2.13730132      5.56370963      9.57412582
C       0.74892964      4.84324387     12.66476217
H      -0.08077859      5.54911728     12.59598995
H       1.80516211      5.11809879     12.71765282
