90
CIF: CH2CHCH2→CH2CCH2+H.cif | data_image0
O      0.00261135     0.00382715     0.19995339
O      1.91144083     1.10236206     3.33570853
O      0.28037109     2.31345470     6.52609730
O      0.00261135     2.21285656     1.76196664
O     -0.02321982     0.04078431     4.99319210
O      1.86037220     1.39307098     8.38678741
O      3.82876252     0.00382715     0.19995339
O      5.74936070     1.10741665     3.32614331
O      3.55284202     2.40614927     6.58292454
O      3.82876252     2.21285656     1.76196664
O      3.84021178     0.06090666     4.98178657
O      5.84976200     1.05970857     8.21462783
O      7.65492518     0.00382715     0.19995339
O      9.56481037     1.10033128     3.32527457
O      7.70305601     2.17959074     6.53672648
O      7.65492518     2.21285656     1.76196664
O      7.65503973     0.00058295     4.95669796
O      9.66248129     0.98014971     8.19676884
O     -1.91046424     3.31737126     0.19995339
O      0.00628006     4.42775879     3.32507664
O     -1.78802103     5.52862050     6.56248233
O     -1.91046998     5.52641062     1.76196664
O     -1.86161009     3.29077611     4.96789095
O      0.40718550     4.22610550     8.35650868
O      1.91568694     3.31737126     0.19995339
O      3.84000415     4.41388222     3.33620573
O      1.92012528     5.23162164     6.51511689
O      1.91568120     5.52641062     1.76196664
O      1.90454577     3.31854022     4.91545161
O      3.49953638     4.22919511     8.46108958
O      5.74184959     3.31737126     0.19995339
O      7.65911167     4.42853936     3.37759210
O      5.73523908     5.51875777     6.54779998
O      5.74184385     5.52641062     1.76196664
O      5.72190700     3.26661767     4.98824573
O      7.67912164     4.53653198     8.25555762
O     -3.82354556     6.63092532     0.19995339
O     -1.90747756     7.73615457     3.37110373
O     -3.86410068     8.89943552     6.57419003
O     -3.82354556     8.83995473     1.76196664
O     -3.78981466     6.63398860     5.02662527
O     -1.87479108     7.65409946     8.22284776
O      0.00260561     6.63092532     0.19995339
O      1.91402702     7.74525687     3.31737760
O      0.01952666     8.81593172     6.49600179
O      0.00260561     8.83995473     1.76196664
O      0.07010615     6.62572130     4.98024402
O      1.80088063     7.70684263     8.16927032
O      3.82876826     6.63092532     0.19995339
O      5.75931072     7.73496751     3.37634298
O      3.81998455     8.83668700     6.51266301
O      3.82876826     8.83995473     1.76196664
O      3.78704086     6.61948851     4.95123563
O      5.80200536     7.78903287     8.24449849
Ce     1.91568694     1.10834185     0.98097142
Ce    -0.02111434     2.20276903     4.10684717
Ce     5.69009480     9.86328199     7.36366893
Ce     5.74184959     1.10834185     0.98097142
Ce     3.85147698     2.20236859     4.12424944
Ce    -1.86068637     9.93406563     7.43209053
Ce     9.56800076     1.10834185     0.98097142
Ce     7.66701299     2.21518560     4.17479705
Ce     1.90938312     9.94059565     7.34175989
Ce     0.00261135     4.42188597     0.98097142
Ce    -1.88989290     5.51690787     4.18675295
Ce    -1.88718491     3.29326499     7.44858888
Ce     3.82877400     4.42188597     0.98097142
Ce     1.92889253     5.54778352     4.10168908
Ce     7.65492518     4.42188597     0.98097142
Ce     5.74563913     5.52010487     4.20264007
Ce     5.83704526     3.29597689     7.40760503
Ce    -1.91046998     7.73544003     0.98097142
Ce    -3.81513163     8.85124393     4.19294556
Ce    -3.80340548     6.61886725     7.39824373
Ce     1.91569268     7.73544003     0.98097142
Ce     0.00270568     8.84994637     4.15054028
Ce    -0.00227601     6.69679304     7.34603112
Ce     5.74184385     7.73544003     0.98097142
Ce     3.82696535     8.83233745     4.15055339
Ce     3.83256685     6.65070905     7.38785355
Nb     1.88229239     3.32339703     6.95938518
C      3.28222046     4.41626490     9.86060235
C      2.01119509     3.80241308    10.34284963
C      1.84566072     2.96258767    11.35969172
H      3.25774854     5.50229713    10.11803732
H      4.13837811     3.98878904    10.43355479
H      0.95682186     4.10969225     9.34297672
H      1.82719778     1.71171927     9.31230371
H      0.86506640     2.56771585    11.64377162
H      2.69471279     2.63002769    11.98048048
