85
CIF: W-Fe-CeO2-O-CO.cif | data_image0
Ce     1.93038582     1.11050507     0.88387043
Ce     0.00834191     2.23334250     4.07226840
Ce     5.79778448    10.03050258     7.22160416
Ce     5.81181033     1.12175166     0.90127712
Ce     3.84420520     2.22787307     3.99154879
Ce    -2.05365070     9.94055941     7.22792429
Ce     9.66901012     1.12377363     0.90450652
Ce     7.76191694     2.22774366     4.01602225
Ce     2.05535385     9.90777649     7.36436963
Ce    -0.00709724     4.47602159     0.89067279
Ce    -1.95233403     5.58601294     4.11211340
Ce    -1.71003919     3.33339999     7.34067655
Ce     3.86254305     4.47635356     0.87798423
Ce     1.93499295     5.58817616     4.07014846
Ce     1.92027159     3.35911843     7.34145559
Ce     7.74213807     4.46545905     0.90125422
Ce     5.81479366     5.61985241     3.98081455
Ce    -1.94645625     7.83004003     0.90010904
Ce    -3.88468339     8.93159318     4.03118363
Ce    -3.87865217     6.76002742     7.28938644
Ce     1.92815559     7.82745473     0.89060408
Ce    -0.00457362     8.96708278     4.10051112
Ce    -0.00394289     6.69906743     7.25765188
Ce     5.81127600     7.83258510     0.88371011
Ce     3.86073612     8.95071577     4.03864201
Ce     3.82995950     6.76255293     7.22070281
Fe     4.95006813     3.87398168     6.54671828
W      6.50677744     2.94463977     7.93536672
O     11.61334069     0.00154917     0.10141687
O      1.92793218     1.11303591     3.21334935
O      0.06071037     2.19757982     6.38267639
O     -0.00785227     2.23805103     1.69392277
O      5.80518540    10.04563817     4.82775776
O      1.99621771     0.95739018     8.04385466
O     -1.93899312    10.05733740     0.10496691
O      5.80182998     1.14081603     3.24297498
O      4.18476293     2.25028928     6.61087608
O      3.86763657     2.23577757     1.68132582
O      3.83219900     0.04962062     4.88109710
O      6.11361171     1.42183395     8.79297548
O      7.73821774     0.00761509     0.10924988
O      9.67608990     1.12168354     3.22865431
O      7.60199230     2.31373087     6.64686641
O      7.74357843     2.23531483     1.71563532
O      7.74365036     0.08445833     4.87235674
O      9.85167030     1.00783675     8.09861149
O      9.67032270     3.35425987     0.10911246
O     -0.00075084     4.47095390     3.28922390
O     -1.95189453     5.57715731     6.45950578
O     -1.94403436     5.59119430     1.70564938
O      9.61902395     3.29480546     4.87710508
O      0.06289281     4.62527653     8.15980842
O      1.92738314     3.35244915     0.09928684
O      3.86780157     4.47860032     3.19184274
O      1.91578500     5.64935845     6.34455815
O      1.92862022     5.59252216     1.67404250
O      2.03360184     3.31299866     4.86248953
O      5.81155478     3.35101064     0.10766953
O      7.72519501     4.44517968     3.23789336
O      5.81950628     5.43611336     6.44238938
O      5.80528807     5.59217007     1.68114259
O      5.73437957     3.39156474     4.87695915
O      7.60017721     4.14236291     8.70101615
O     -3.87155109     6.71022987     0.10512724
O     -1.94030554     7.84334806     3.26339855
O     -3.86765801     8.91123367     6.37905099
O     -3.87509971     8.94378428     1.69355631
O      7.70195761     6.69031802     4.81803265
O     -1.89480252     7.89154018     8.11420168
O     -0.01209783     6.71325780     0.10434852
O      1.92564148     7.83549550     3.26934798
O     -0.04848597     9.04158486     6.49861021
O     -0.00628994     8.94736548     1.70514550
O     -0.03936524     6.75775029     4.88555169
O      1.95468232     7.69082346     8.11413967
O      3.86815347     6.71410280     0.09951587
O      5.79827460     7.83377699     3.20264379
O      3.87562362     8.89520666     6.34768180
O      3.86556896     8.94715423     1.69389986
O      3.92371729     6.68214469     4.84465711
O      5.68760364     7.84684027     8.02392729
O      3.94365014     4.57039620     7.95596403
O      5.13773233     3.82768117    10.72599899
O      5.97294120     3.87954805    12.92507418
C      5.55993115     3.85165698    11.82528081
