83
CIF: Pd-Y-CeO2-Ov-O2.cif | data_image0
Ce     1.93596140     1.11772783     0.89035214
Ce     0.01299767     2.24053568     4.04598386
Ce    -5.78937433    10.05111017     7.19533287
Ce     5.80789581     1.11772783     0.89035214
Ce     3.85694205     2.22226884     4.03896443
Ce    -1.96203840    10.03305704     7.20968601
Ce     9.67981860     1.11772783     0.89035214
Ce     7.76243526     2.22390578     4.00734861
Ce     7.75754573     0.04085139     7.22593041
Ce     0.00000000     4.47091133     0.89035214
Ce    -1.93534297     5.57897887     4.04164324
Ce     9.66812941     3.34447484     7.20144277
Ce     3.87193441     4.47091133     0.89035214
Ce     1.95079771     5.57497355     4.06745608
Ce     1.88717166     3.27988653     7.27003099
Ce     7.74385721     4.47091133     0.89035214
Ce     5.80630178     5.59924737     4.01678897
Ce    -1.93596721     7.82410489     0.89035214
Ce    -3.87002481     8.93127929     4.03697194
Ce     7.72700178     6.67976094     7.19764788
Ce     1.93596721     7.82410489     0.89035214
Ce     0.00699910     8.94306067     4.05493275
Ce    -0.00333224     6.69997889     7.23721385
Ce     5.80789000     7.82410489     0.89035214
Ce     3.87018031     8.95196240     4.02034593
Ce     3.88168020     6.83348945     7.16785060
Y      5.84514977     3.32565828     6.87558297
O      0.00000000     0.00000000     0.09999685
O      1.93627054     1.10562590     3.22835009
O     -0.03503719     2.18664730     6.42360898
O      0.00000000     2.23545567     1.68070743
O     -5.79258659    10.05000180     4.84770065
O      1.95097655     0.94508070     8.03477803
O      3.87192279     0.00000000     0.09999685
O      5.80359800     1.08135065     3.23277712
O      3.95728271     2.20998538     6.41139197
O      3.87192279     2.23545567     1.68070743
O     -1.95398491    10.04333980     4.85877969
O      6.00394201     1.16341531     8.22858918
O      7.74385721     0.00000000     0.09999685
O      9.69041177     1.11291042     3.22653878
O      7.74445470     2.24715126     6.31365222
O      7.74385721     2.23545567     1.68070743
O      1.94243403    10.03854072     4.84370056
O      9.64924947     1.12854239     8.02320208
O     -1.93596140     3.35318350     0.09999685
O      0.00773936     4.48936400     3.23871479
O     -2.02441778     5.57573752     6.39613576
O     -1.93596721     5.58864923     1.68070743
O     -1.90731976     3.35690985     4.83519189
O     -0.10959768     4.56181126     7.99626453
O      1.93596140     3.35318350     0.09999685
O      3.85146201     4.49008146     3.23571913
O      2.09549227     5.58037409     6.49231692
O      1.93595559     5.58864923     1.68070743
O      1.92717392     3.34031025     4.82969922
O      5.80789581     3.35318350     0.09999685
O      7.77153975     4.48365909     3.22148178
O      5.76129537     5.54487456     6.40249273
O      5.80789000     5.58864923     1.68070743
O      5.81381635     3.35594816     4.68382526
O      7.77429297     4.37314755     8.15592840
O     -3.87192860     6.70637706     0.09999685
O     -1.91989662     7.80999003     3.24988000
O     -3.86691632     8.89122706     6.39249327
O     -3.87192860     8.94183273     1.68070743
O      7.71652053     6.69523075     4.84911080
O     -1.94069305     7.79472642     7.99277977
O     -0.00000581     6.70637706     0.09999685
O      1.92462863     7.81282625     3.23840873
O     -0.01777154     9.01103962     6.45033879
O     -0.00000581     8.94183273     1.68070743
O      0.02715310     6.69076652     4.93203587
O      3.87192860     6.70637706     0.09999685
O      5.81033581     7.83068768     3.21736693
O      3.89353330     8.96847415     6.40036984
O      3.87192860     8.94183273     1.68070743
O      3.88417952     6.74976200     4.83835259
O      5.80639079     7.81226111     7.98838217
O      1.95567514     7.85488164     7.99154827
O      4.11105571     4.39195350     8.45230504
O      4.76735039     4.02148475     9.62561288
Pd     6.50472779     2.97440448     9.42875747
