84
CIF: Ti-Ti-CeO2-CO.cif | data_image0
Ce     1.93596140     1.11772783     0.89035214
Ce    -0.01704387     2.21081561     4.07702713
Ce    -5.61476940     9.94960657     7.24786956
Ce     5.80789581     1.11772783     0.89035214
Ce     3.83018853     2.17575745     3.97250307
Ce    -1.89215128    10.01573735     7.27903551
Ce     9.67981860     1.11772783     0.89035214
Ce     7.73573858     2.23988248     4.07509214
Ce     1.93483434     9.80855766     7.29906140
Ce     0.00000000     4.47091133     0.89035214
Ce    -1.93338198     5.57669485     4.05313040
Ce    -1.72591325     3.47512590     7.30363973
Ce     3.87193441     4.47091133     0.89035214
Ce     1.94560976     5.58231338     4.02564825
Ce     2.02369462     3.32168212     7.17662180
Ce     7.74385721     4.47091133     0.89035214
Ce     5.83915389     5.65559018     3.97240510
Ce    -1.93596721     7.82410489     0.89035214
Ce    -3.84443197     8.92792841     4.04257821
Ce    -3.80995950     6.70257834     7.27489620
Ce     1.93596721     7.82410489     0.89035214
Ce     0.01098465     8.94490306     4.05228698
Ce     0.05653768     6.67144276     7.23926252
Ce     5.80789000     7.82410489     0.89035214
Ce     3.88551615     8.96821936     4.07654346
Ce     3.94472142     6.64513819     7.17666815
Ti     5.46510608     3.55266662     6.58185846
Ti     7.29500884     2.48334056     8.74014203
O      0.00000000     0.00000000     0.09999685
O      1.92776605     1.10010852     3.21777363
O      0.07125260     2.17264636     6.52916343
O      0.00000000     2.23545567     1.68070743
O     -5.74588419    10.02488596     4.85458791
O      2.20650253     1.15131262     8.04674777
O      3.87192279     0.00000000     0.09999685
O      5.74401372     1.06761664     3.23333744
O      4.08007276     2.21906984     6.35610387
O      3.87192279     2.23545567     1.68070743
O     -1.95208200    10.04384869     4.87833687
O      5.96612485     1.17918649     8.60759314
O      7.74385721     0.00000000     0.09999685
O      9.74339134     1.08112223     3.25158436
O      7.08449137     2.61437085     6.74320803
O      7.74385721     2.23545567     1.68070743
O      1.95747512    10.01696152     4.92400779
O      8.85283579     1.58700964     8.59216277
O     -1.93596140     3.35318350     0.09999685
O      0.00851821     4.46421801     3.25552803
O     -1.95980573     5.64348202     6.48663967
O     -1.93596721     5.58864923     1.68070743
O     -1.88974357     3.35570814     4.92628405
O      0.21593320     4.54532463     8.06731510
O      1.93596140     3.35318350     0.09999685
O      3.82441215     4.49811491     3.19579187
O      2.00936416     5.54488936     6.34348471
O      1.93595559     5.58864923     1.68070743
O      1.95586440     3.28756214     4.87599239
O      4.04202304     4.37387317     7.76313825
O      5.80789581     3.35318350     0.09999685
O      7.75550673     4.55198745     3.23380361
O      5.93014996     5.41830334     6.35756380
O      5.80789000     5.58864923     1.68070743
O      5.63993568     3.45159149     4.72634281
O      7.75882458     4.27796509     8.62691696
O     -3.87192860     6.70637706     0.09999685
O     -1.91617971     7.81302027     3.24374624
O     -3.75400043     8.87688433     6.46755557
O     -3.87192860     8.94183273     1.68070743
O     -3.86532022     6.73170939     4.87826589
O     -1.91024205     7.81102536     8.12203347
O     -0.00000581     6.70637706     0.09999685
O      1.94569805     7.81858564     3.25581464
O     -0.05945316     8.92892559     6.48184865
O     -0.00000581     8.94183273     1.68070743
O      0.00851767     6.69860967     4.89197162
O      1.98126691     7.59506344     8.06629907
O      3.87192860     6.70637706     0.09999685
O      5.81944308     7.84075291     3.21809823
O      3.96475363     8.90856447     6.52604268
O      3.87192860     8.94183273     1.68070743
O      3.93900137     6.71968211     4.87579917
O      5.91646965     7.57695910     8.04711426
O      6.66310058     2.81921773    12.14340593
C      6.90454750     2.68809726    11.03699077
