81
CIF: Fe-Fe-CeO2-Ov.cif | data_image0
Ce     1.93353370     1.11563544     0.87109026
Ce     0.00334768     2.22982679     4.01509737
Ce    -5.75129215    10.03834485     7.21986647
Ce     5.81235627     1.12048415     0.89218442
Ce     3.84609434     2.22117441     4.00183177
Ce    -1.92646920    10.05855228     7.30843729
Ce     9.66774981     1.12478964     0.89850580
Ce     7.74776131     2.23208613     4.03729734
Ce     2.01690429     9.97969077     7.23413393
Ce    -0.00465793     4.47576004     0.88352688
Ce    -1.94473536     5.57933973     4.05442703
Ce    -1.85221140     3.32364861     7.21558789
Ce     3.86676539     4.47340610     0.87963328
Ce     1.94268162     5.58258301     4.08294512
Ce     1.77334210     3.27682724     7.23718216
Ce     7.74387463     4.46530816     0.89232184
Ce     5.80360182     5.62005965     3.98933331
Ce    -1.93819163     7.82528186     0.87970199
Ce    -3.85734893     8.94911477     4.04667548
Ce    -3.83897337     6.74775351     7.21623489
Ce     1.92909066     7.82521144     0.88325204
Ce     0.00353928     8.95708057     4.07655918
Ce    -0.00817090     6.71109652     7.23221564
Ce     5.80867407     7.82747485     0.87102155
Ce     3.88217671     8.94262433     4.01911288
Ce     3.87538409     6.85379785     7.23034806
Fe     5.21761263     3.72209887     6.56199694
Fe     6.81773510     2.78759171     7.95944038
O     11.61181902     0.00223322     0.09674454
O      1.93659057     1.11002911     3.19858265
O     -0.05030731     2.20864901     6.35389489
O     -0.00737602     2.24265831     1.68670815
O     -5.77767967    10.04736102     4.82488348
O      1.80940550     1.02201808     8.06500795
O     -1.93499729    10.05852443     0.09479774
O      5.81477759     1.11518237     3.22789907
O      3.96209710     2.43473349     6.57439029
O      3.87217834     2.23390649     1.67871482
O      3.87815578     0.08120836     4.85387718
O      6.10865435     1.20378881     8.31116485
O      7.74048282     0.01097498     0.10059234
O      9.68258685     1.11593731     3.22463018
O      7.78696375     2.20947255     6.49118118
O      7.73910054     2.23794038     1.71361981
O      7.76630790     0.02780845     4.84933836
O      9.73596325     1.07801324     8.03561865
O      9.66841191     3.35052778     0.10059234
O     -0.00027950     4.48212888     3.24298946
O     -2.01673384     5.54816898     6.39736649
O     -1.93497986     5.58591303     1.69119725
O      9.65898944     3.33641507     4.83802685
O     -0.13660806     4.50862815     8.06339345
O      1.93135574     3.35110117     0.09452290
O      3.85629776     4.48029018     3.21163886
O      1.97748808     5.57423068     6.48890077
O      1.92632611     5.59379972     1.66462914
O      1.94016026     3.31840212     4.81025306
O      5.81266989     3.35046742     0.10466917
O      7.74481746     4.47691918     3.22471758
O      5.76438559     5.45001563     6.53512799
O      5.80918516     5.58916226     1.67805062
O      5.79550459     3.36333394     4.75892779
O      7.80038224     4.23527666     8.25871782
O     -3.87069152     6.70604509     0.09498097
O     -1.93559704     7.82444407     3.26304257
O     -3.82305216     8.88232330     6.36478111
O     -3.87555853     8.94391506     1.67486702
O      7.68184232     6.67810467     4.86604446
O     -1.91932262     7.68809034     8.04931578
O     -0.00903127     6.71144708     0.08950703
O      1.92529757     7.81870111     3.25394389
O      0.05327544     8.96103487     6.41424013
O      0.00269486     8.94208422     1.69078498
O     -0.00387544     6.68830315     4.89667954
O      1.87158159     7.90327490     8.10089664
O      3.87118519     6.71122577     0.09477484
O      5.81834575     7.83029491     3.19993302
O      3.90013122     8.96840605     6.37862962
O      3.86179383     8.94423696     1.68659363
O      3.90933375     6.71316321     4.81000864
O      5.96510251     7.84939693     8.03143530
