84
CIF: Pt-Ti-CeO2-CO.cif | data_image0
Ce     1.93038582     1.11050507     0.88387043
Ce    -0.00121996     2.22870988     4.07254321
Ce    -5.76539754    10.01238054     7.17942871
Ce     5.81181033     1.12175166     0.90127712
Ce     3.82642288     2.21362446     4.00132714
Ce    -1.91476706     9.98896988     7.25310592
Ce     9.66901012     1.12377363     0.90450652
Ce     7.72332308     2.24888306     4.04611175
Ce     1.97345251     9.92548887     7.27295227
Ce    -0.00709724     4.47602159     0.89067279
Ce    -1.94402342     5.58870608     4.07503305
Ce    -1.78627470     3.38431963     7.29087289
Ce     3.86254305     4.47635356     0.87798423
Ce     1.94062828     5.57700123     4.06098647
Ce     1.99801992     3.31761337     7.28512304
Ce     7.74213807     4.46545905     0.90125422
Ce     5.82461632     5.63797881     3.98495519
Ce    -1.94645625     7.83004003     0.90010904
Ce    -3.85428442     8.91999374     4.06502374
Ce    -3.82701937     6.66370055     7.32082605
Ce     1.92815559     7.82745473     0.89060408
Ce    -0.00220584     8.95000313     4.06153067
Ce     0.02826563     6.68588756     7.21653229
Ce     5.81127600     7.83258510     0.88371011
Ce     3.87115354     8.96010600     4.04012321
Ce     3.91102039     6.70119565     7.17228407
Ti     5.43635566     3.58364305     6.66536710
Pt     6.93402274     2.65047965     8.67306770
O     11.61334069     0.00154917     0.10141687
O      1.91993430     1.10371004     3.22934643
O      0.02073927     2.19008463     6.42497666
O     -0.00785227     2.23805103     1.69392277
O      5.81330578    10.04721332     4.85551563
O      2.02698227     0.95465616     8.01565550
O     -1.93899312    10.05733740     0.10496691
O      5.81085808     1.11975503     3.24239625
O      4.11147501     2.23755924     6.39383720
O      3.86763657     2.23577757     1.68132582
O     -1.93734461    10.05928220     4.87106002
O      6.00351313     0.82758717     8.39630471
O      7.73821774     0.00761509     0.10924988
O      9.67028629     1.12637318     3.24000468
O      7.19641392     2.54648576     6.69584615
O      7.74357843     2.23531483     1.71563532
O      7.75947318     0.12574449     4.92795295
O      9.60914426     1.12207397     7.91003750
O      9.67032270     3.35425987     0.10911246
O     -0.02219145     4.45045121     3.27254231
O     -1.88649263     5.54492282     6.40312770
O     -1.94403436     5.59119430     1.70564938
O      9.59130127     3.26678980     4.93916312
O     -0.01371170     4.52353016     8.07470125
O      1.92738314     3.35244915     0.09928684
O      3.83962516     4.49154471     3.19139739
O      1.96499840     5.63308058     6.38721699
O      1.92862022     5.59252216     1.67404250
O      1.96830009     3.32602351     4.83506803
O      4.12320436     4.44090977     7.80379542
O      5.81155478     3.35101064     0.10766953
O      7.74987418     4.44701238     3.23831432
O      5.88774936     5.42422073     6.32536740
O      5.80528807     5.59217007     1.68114259
O      5.70942316     3.41008949     4.73759905
O      8.09977384     4.32044719     8.46400337
O     -3.87155109     6.71022987     0.10512724
O     -1.91625173     7.83104261     3.24647698
O     -3.85359182     8.92054941     6.39601822
O     -3.87509971     8.94378428     1.69355631
O     -3.86147176     6.70027936     4.79471378
O     -1.79834459     7.86907735     8.03915346
O     -0.01209783     6.71325780     0.10434852
O      1.94081354     7.85395198     3.26665682
O      0.04237189     8.94853119     6.39605313
O     -0.00628994     8.94736548     1.70514550
O      0.00126331     6.71221188     4.85241473
O      1.99329550     7.79189970     8.03101141
O      3.86815347     6.71410280     0.09951587
O      5.79944598     7.85109269     3.21467222
O      3.87255741     8.91278046     6.36254713
O      3.86556896     8.94715423     1.69389986
O      3.91681621     6.69909866     4.84236852
O      5.70357230     7.82879900     7.98680598
O      6.10853521     3.06459398    11.53070088
C      6.46276626     2.88567447    10.44216779
