82
CIF: Co-Cr-CeO2.cif | data_image0
Ce     1.93038582     1.11050507     0.88387043
Ce     0.01050039     2.23522221     4.02701999
Ce    -5.76459225    10.05240053     7.21387412
Ce     5.81181033     1.12175166     0.90127712
Ce     3.85062270     2.22659172     4.02650244
Ce    -1.94863389    10.02618281     7.31139536
Ce     9.66901012     1.12377363     0.90450652
Ce     7.73929670     2.23662796     4.07753512
Ce     2.03611858     9.99334473     7.20929907
Ce    -0.00709724     4.47602159     0.89067279
Ce    -1.95001258     5.58382434     4.04636117
Ce    -1.85134807     3.31074226     7.17625694
Ce     3.86254305     4.47635356     0.87798423
Ce     1.93148098     5.58434035     4.06554992
Ce     1.84494719     3.32358877     7.27134328
Ce     7.74213807     4.46545905     0.90125422
Ce     5.80316313     5.61059678     4.00830600
Ce    -1.94645625     7.83004003     0.90010904
Ce    -3.86092290     8.94857750     4.05845369
Ce     7.74211485     6.70314257     7.19210182
Ce     1.92815559     7.82745473     0.89060408
Ce    -0.00835683     8.95422273     4.08323007
Ce    -0.02693425     6.69239890     7.21241084
Ce     5.81127600     7.83258510     0.88371011
Ce     3.87773006     8.95042059     4.01168895
Ce     3.86812033     6.81229808     7.17491935
Cr     5.05052390     3.77010865     6.72809695
Co     6.84017269     2.78311152     8.03826673
O     11.61334069     0.00154917     0.10141687
O      1.94102342     1.11856456     3.21827022
O     -0.04059663     2.21589809     6.36094823
O     -0.00785227     2.23805103     1.69392277
O     -5.78304845    10.05652572     4.82969591
O      1.81214467     1.04774194     8.05002733
O     -1.93899312    10.05733740     0.10496691
O      5.80668823     1.14995286     3.26212713
O      3.99150077     2.31223592     6.47367503
O      3.86763657     2.23577757     1.68132582
O      3.87037586     0.02711652     4.85788771
O      6.12797802     1.20611815     8.31386978
O      7.73821774     0.00761509     0.10924988
O      9.67279797     1.11806878     3.23744185
O      7.83257541     2.18641905     6.42335177
O      7.74357843     2.23531483     1.71563532
O      1.94509057    10.05496830     4.84612790
O      9.73731158     1.06358606     8.02356594
O      9.67032270     3.35425987     0.10911246
O      0.00499121     4.48368919     3.23601683
O     -2.02213720     5.52803612     6.39069328
O     -1.94403436     5.59119430     1.70564938
O     -1.93169897     3.34840640     4.81904650
O     -0.10688424     4.51756370     8.02458155
O      1.92738314     3.35244915     0.09928684
O      3.86729517     4.47699308     3.21936383
O      1.92975398     5.66251339     6.42136964
O      1.92862022     5.59252216     1.67404250
O      1.94662422     3.34321774     4.83886970
O      3.99447457     4.51363763     7.90011109
O      5.81155478     3.35101064     0.10766953
O      7.71173042     4.45727199     3.24839596
O      5.80372987     5.53027862     6.40528719
O      5.80528807     5.59217007     1.68114259
O      5.74138602     3.41392649     4.94759941
O      7.76833014     4.26254030     8.21993412
O     -3.87155109     6.71022987     0.10512724
O     -1.93868555     7.82932291     3.25230021
O     -3.87532656     8.87034561     6.40270366
O     -3.87509971     8.94378428     1.69355631
O      7.71860870     6.69876865     4.84496504
O     -1.95326444     7.65931235     8.02677611
O     -0.01209783     6.71325780     0.10434852
O      1.92322006     7.81694009     3.24754031
O      0.06923937     8.94430714     6.46396942
O     -0.00628994     8.94736548     1.70514550
O     -0.04079518     6.70541022     4.88124288
O      2.03202760     7.84834021     8.05160328
O      3.86815347     6.71410280     0.09951587
O      5.80661480     7.82888251     3.21491038
O      3.90404649     8.94583481     6.35943397
O      3.86556896     8.94715423     1.69389986
O      3.88525268     6.71633336     4.84387972
O      5.80162088     7.78343191     7.98639555
