81
CIF: Pd-Rh-CeO2-Ov.cif | data_image0
Ce     1.93038582     1.11050507     0.88387043
Ce    -0.00868827     2.22603106     4.01591451
Ce    -5.77050489    10.03764328     7.23891250
Ce     5.81181033     1.12175166     0.90127712
Ce     3.84854202     2.21540186     4.02091313
Ce    -1.90489042    10.03354580     7.23301692
Ce     9.66901012     1.12377363     0.90450652
Ce     7.74212499     2.23618472     4.07637026
Ce     1.96016072    10.03380790     7.22533851
Ce    -0.00709724     4.47602159     0.89067279
Ce    -1.93180668     5.58019019     4.05725364
Ce    -1.90183932     3.34444868     7.22529813
Ce     3.86254305     4.47635356     0.87798423
Ce     1.95975477     5.57462143     4.06053296
Ce     1.79651160     3.24205117     7.16697476
Ce     7.74213807     4.46545905     0.90125422
Ce     5.81337039     5.61862488     4.02087947
Ce    -1.94645625     7.83004003     0.90010904
Ce    -3.86249115     8.93619247     4.06343730
Ce    -3.83417925     6.69195162     7.23298891
Ce     1.92815559     7.82745473     0.89060408
Ce     0.00920209     8.94205906     4.05712086
Ce     0.02022585     6.69432413     7.21941719
Ce     5.81127600     7.83258510     0.88371011
Ce     3.87556934     8.95369544     4.01595603
Ce     3.89816553     6.88214758     7.16700470
Rh     4.92042182     3.86529770     6.55508621
Pd     6.71734506     2.82769629     8.10418786
O     11.61334069     0.00154917     0.10141687
O      1.93552004     1.10610344     3.22052369
O     -0.01803598     2.20528998     6.38527359
O     -0.00785227     2.23805103     1.69392277
O     -5.79073571    10.04933673     4.84439147
O      1.91757114     1.02938671     8.03958574
O     -1.93899312    10.05733740     0.10496691
O      5.80545767     1.12643135     3.24602259
O      3.84410693     2.20546404     6.47410164
O      3.86763657     2.23577757     1.68132582
O      3.87824189     0.01328340     4.86241655
O      5.86377660     0.98031764     8.14220654
O      7.73821774     0.00761509     0.10924988
O      9.67367273     1.12104226     3.23863282
O      7.84768266     2.17509422     6.42038892
O      7.74357843     2.23531483     1.71563532
O      1.93865925    10.05224213     4.84671345
O      9.74207605     1.08146370     8.05195529
O      9.67032270     3.35425987     0.10911246
O      0.00268199     4.47749929     3.22881498
O     -1.92600046     5.59189222     6.39477515
O     -1.94403436     5.59119430     1.70564938
O     -1.92865246     3.35407138     4.84675252
O     -0.04676333     4.47012992     8.02359756
O      1.92738314     3.35244915     0.09928684
O      3.85500010     4.48059450     3.21969930
O      2.05047720     5.52217881     6.51867670
O      1.92862022     5.59252216     1.67404250
O      1.90622747     3.32911864     4.82005135
O      5.81155478     3.35101064     0.10766953
O      7.73477238     4.46832624     3.24590188
O      5.81971336     5.62717889     6.47402637
O      5.80528807     5.59217007     1.68114259
O      5.77072470     3.37444679     4.80921681
O      7.89048482     4.49062200     8.14215168
O     -3.87155109     6.71022987     0.10512724
O     -1.92055038     7.81508297     3.26566997
O     -3.82329732     8.91345049     6.39845820
O     -3.87509971     8.94378428     1.69355631
O      7.73530134     6.69390522     4.86238386
O     -1.89521933     7.80019630     8.01947003
O     -0.01209783     6.71325780     0.10434852
O      1.93141136     7.81808981     3.22867546
O      0.00185867     8.93104143     6.39469758
O     -0.00628994     8.94736548     1.70514550
O      0.06001673     6.67144164     4.89537351
O      1.91285447     7.86442381     8.02365820
O      3.86815347     6.71410280     0.09951587
O      5.81763117     7.83006426     3.22031783
O      3.88871783     8.97203594     6.38535020
O      3.86556896     8.94715423     1.69389986
O      3.87771906     6.74381586     4.82004820
O      5.87495825     7.88365316     8.03958233
