83
CIF: CO+Olat — CO2.cif | data_image0
O      0.55978923     0.45000431     0.59999690
O      2.46678138     1.48453966     3.72360546
O      0.72052230     2.91231696     7.04285551
O      0.55978923     2.65902057     2.16203261
O      0.54324507     0.53666653     5.45300719
O      2.54353319     1.76900652     8.51119882
O      4.38603242     0.45000431     0.59999690
O      6.32080257     1.54209096     3.74571543
O      4.54398518     2.56299150     6.80900645
O      4.38603242     2.65902057     2.16203261
O      4.38199715     0.39146286     5.35647174
O      6.33149362     1.53559191     8.59436405
O      8.21216082     0.45000431     0.59999690
O     10.12560735     1.54483053     3.74189766
O      8.19390253     2.64262855     6.93716487
O      8.21216082     2.65902057     2.16203261
O      8.22119623     0.44108882     5.39155145
O     10.16738128     1.57237593     8.50417609
O     -1.35327498     3.76352871     0.59999690
O      0.50244733     4.89836536     3.73328920
O     -1.33676161     5.96495520     6.95349418
O     -1.35333237     5.97264438     2.16203261
O     -1.34138832     3.72945424     5.41651105
O      0.40774886     4.92493023     8.88596510
O      2.47296821     3.76352871     0.59999690
O      4.44068819     4.90710131     3.72423363
O      2.33677827     5.70078389     7.04423988
O      2.47291082     5.97264438     2.16203261
O      2.49704822     3.74711096     5.06367234
O      4.23401442     4.68968792     8.51249912
O      6.29909662     3.76352871     0.59999690
O      8.23102419     4.88436390     3.75374398
O      6.24206107     5.95436259     6.99497244
O      6.29903923     5.97264438     2.16203261
O      6.34209737     3.79674912     5.35575144
O      8.21041954     4.87201526     8.56013409
O     -3.26639657     7.07715251     0.59999690
O     -1.36113568     8.15782026     3.75238286
O     -3.29123073     9.34540687     6.98361022
O     -3.26639657     9.28616878     2.16203261
O     -3.28590778     7.08558765     5.43187384
O     -1.39124676     8.19762461     8.54599928
O      0.55984662     7.07715251     0.59999690
O      2.48276344     8.18357304     3.74152670
O      0.56581620     9.29969749     6.94716979
O      0.55984662     9.28616878     2.16203261
O      0.59387319     7.08162216     5.41130911
O      2.48873764     8.12567374     8.50361429
O      4.38597502     7.07715251     0.59999690
O      6.27754605     8.19307793     3.78713052
O      4.40374565     9.27459039     6.94917679
O      4.38597502     9.28616878     2.16203261
O      4.30662899     7.04480327     5.45418337
O      6.28981796     8.18689557     8.57398798
O      0.72947753     5.68499634    11.44691093
Ce     2.47285343     1.55451244     1.38101475
Ce     0.59481447     2.68840697     4.54620652
Ce     0.57924697     0.49801388     7.76232345
Ce     6.29909662     1.55451244     1.38101475
Ce     4.39318048     2.65378408     4.53194613
Ce     4.41133252     0.49397239     7.72606833
Ce    10.12522502     1.55451244     1.38101475
Ce     8.22486017     2.66068037     4.55015188
Ce     8.22071817     0.44139865     7.73163621
Ce     0.55978923     4.86803684     1.38101475
Ce    -1.35391693     5.97522421     4.57108859
Ce    -1.39800344     3.78486593     7.76810768
Ce     4.38603242     4.86803684     1.38101475
Ce     2.46085992     5.92565401     4.55003502
Ce     8.21216082     4.86803684     1.38101475
Ce     6.29128943     5.96752089     4.56965108
Ce     6.26955877     3.71085283     7.72941243
Ce    -1.35333237     8.18166064     1.38101475
Ce    -3.26845315     9.29261618     4.56939142
Ce    -3.29770593     7.09665183     7.77851789
Ce     2.47291082     8.18166064     1.38101475
Ce     0.56510730     9.26877565     4.55379911
Ce     0.51690140     7.09583225     7.79553087
Ce     6.29903923     8.18166064     1.38101475
Ce     4.37437955     9.29122704     4.57599899
Ce     4.35400219     7.02895293     7.75949641
Au     2.44374640     3.77465207     7.86561417
C      0.52513950     6.19428473    10.42843301
