82
CIF: Co-Mo-CeO2.cif | data_image0
Ce     1.93596140     1.11772783     0.89035214
Ce    -0.00284787     2.23892183     4.03791339
Ce     5.80043390    10.05889619     7.17922279
Ce     5.80789581     1.11772783     0.89035214
Ce     3.83225103     2.20420111     3.98375149
Ce    -2.08798394     9.92451265     7.14453691
Ce     9.67981860     1.11772783     0.89035214
Ce     7.74984351     2.24274428     4.06237031
Ce     7.80374863     0.06038343     7.26073621
Ce     0.00000000     4.47091133     0.89035214
Ce    -1.94049837     5.59744639     4.05283699
Ce    -1.85205424     3.38294868     7.22156312
Ce     3.87193441     4.47091133     0.89035214
Ce     1.95940640     5.58788097     4.08061398
Ce     1.89622965     3.32936694     7.24297628
Ce     7.74385721     4.47091133     0.89035214
Ce     5.81790028     5.60741850     4.01821037
Ce    -1.93596721     7.82410489     0.89035214
Ce    -3.89179309     8.91703925     3.99713953
Ce    -3.82598045     6.71773109     7.26743595
Ce     1.93596721     7.82410489     0.89035214
Ce     0.00176480     8.96516597     4.06845216
Ce     0.03396040     6.72215994     7.23113401
Ce     5.80789000     7.82410489     0.89035214
Ce     3.86696532     8.95009202     4.05584468
Ce     3.84891478     6.77044284     7.28348557
Mo     5.57513328     3.38625945     6.89655131
O      0.00000000     0.00000000     0.09999685
O      1.91583848     1.10974249     3.19888736
O     -0.00770286     2.22102743     6.35789412
O      0.00000000     2.23545567     1.68070743
O      5.81257802    10.04886300     4.82937979
O      1.94844137     0.97524022     7.97365782
O      3.87192279     0.00000000     0.09999685
O      5.79719960     1.13295350     3.24408909
O      4.20092921     2.07909983     6.43721179
O      3.87192279     2.23545567     1.68070743
O     -2.00055538    10.04737806     4.80375162
O      5.96150634     2.22464886     8.42890012
O      7.74385721     0.00000000     0.09999685
O      9.68023907     1.11939802     3.23724194
O      7.53083046     2.49134359     6.36502704
O      7.74385721     2.23545567     1.68070743
O      7.74379342     0.03526182     4.84681064
O      9.77334592     1.24124455     8.01959904
O     -1.93596140     3.35318350     0.09999685
O      0.01711664     4.48855338     3.26772018
O     -1.97123352     5.59698391     6.37215060
O     -1.93596721     5.58864923     1.68070743
O      9.68299620     3.34741194     4.84576995
O     -0.06247892     4.51518603     8.02425904
O      1.93596140     3.35318350     0.09999685
O      3.87329385     4.47629852     3.21267537
O      1.90755949     5.59644690     6.38294697
O      1.93595559     5.58864923     1.68070743
O      2.00787058     3.29734313     4.84471651
O      5.80789581     3.35318350     0.09999685
O      7.72009646     4.45866089     3.24918523
O      6.14498327     5.21943617     6.47744744
O      5.80789000     5.58864923     1.68070743
O      5.66453405     3.37658324     4.88496437
O      8.25335953     4.79151535     8.62663738
O     -3.87192860     6.70637706     0.09999685
O     -1.93093421     7.81516375     3.22978119
O     -3.87423682     8.89789182     6.33836050
O     -3.87192860     8.94183273     1.68070743
O      7.70832269     6.70990182     4.83030488
O     -1.97484174     7.83372110     8.03026292
O     -0.00000581     6.70637706     0.09999685
O      1.94951701     7.82094042     3.26879194
O     -0.09358772     9.09943058     6.48042562
O     -0.00000581     8.94183273     1.68070743
O     -0.00750073     6.77386582     4.88649853
O      3.87192860     6.70637706     0.09999685
O      5.79586060     7.82465848     3.20798154
O      3.89051050     8.99943121     6.42064845
O      3.87192860     8.94183273     1.68070743
O      3.96837251     6.68136825     4.88058466
O      5.93915199     7.82307824     7.98228328
O      4.18882824     4.28403597     7.75236910
O      1.80616980     7.78872071     8.07558141
Co     7.08993725     3.54080981     8.86816434
