84
CIF: Ti-Fe-CeO2-CO.cif | data_image0
Ce     1.93038582     1.11050507     0.88387043
Ce    -0.00365871     2.22599391     4.02636333
Ce     5.82037668    10.02544931     7.22530349
Ce     5.81181033     1.12175166     0.90127712
Ce     3.83781792     2.19850096     3.98205870
Ce    -2.04116529     9.93405031     7.21096220
Ce     9.66901012     1.12377363     0.90450652
Ce     7.73984139     2.23684739     4.12294653
Ce     2.02795994    10.02567445     7.36562371
Ce    -0.00709724     4.47602159     0.89067279
Ce    -1.94703554     5.58949987     4.09421897
Ce    -1.73302664     3.33773271     7.25618022
Ce     3.86254305     4.47635356     0.87798423
Ce     1.94655701     5.59295502     4.04466720
Ce     1.89403973     3.31709535     7.19887523
Ce     7.74213807     4.46545905     0.90125422
Ce     5.83180061     5.62927105     3.99935448
Ce    -1.94645625     7.83004003     0.90010904
Ce    -3.88373475     8.91228818     4.05652278
Ce    -3.84151247     6.67921170     7.36723590
Ce     1.92815559     7.82745473     0.89060408
Ce     0.01432334     8.96842764     4.09043788
Ce     0.02675127     6.72558334     7.23999214
Ce     5.81127600     7.83258510     0.88371011
Ce     3.85715490     8.96325882     4.05307299
Ce     3.85300576     6.79459870     7.21628543
Fe     4.91345456     3.82567260     6.54858720
Ti     6.80518513     2.99629241     8.15126728
O     11.61334069     0.00154917     0.10141687
O      1.92858617     1.10190705     3.21904047
O      0.09474794     2.22564730     6.38239421
O     -0.00785227     2.23805103     1.69392277
O     -5.77319433    10.04152822     4.87959452
O      1.98371434     1.10627919     8.00379693
O     -1.93899312    10.05733740     0.10496691
O      5.72106068     1.09853212     3.25914645
O      4.03134652     2.24440938     6.52465506
O      3.86763657     2.23577757     1.68132582
O      3.80593553     0.00891522     4.90867653
O      6.57387664     1.42347130     8.89359862
O      7.73821774     0.00761509     0.10924988
O      9.74517120     1.08841630     3.24961787
O      7.69729826     2.39241232     6.65839287
O      7.74357843     2.23531483     1.71563532
O      1.93496857     9.99827489     4.88906272
O      9.91371865     1.16494028     8.03046386
O      9.67032270     3.35425987     0.10911246
O      0.02045470     4.49129800     3.26314195
O     -1.88452739     5.54498704     6.49946911
O     -1.94403436     5.59119430     1.70564938
O     -1.85811399     3.36597647     4.91854524
O      0.11814983     4.43162003     8.06364672
O      1.92738314     3.35244915     0.09928684
O      3.85517721     4.48609933     3.20280027
O      1.93155926     5.56812739     6.38145889
O      1.92862022     5.59252216     1.67404250
O      1.99524730     3.31453418     4.87602043
O      3.88158968     4.42451002     7.91805413
O      5.81155478     3.35101064     0.10766953
O      7.72798406     4.53998159     3.26010135
O      5.81044847     5.38513273     6.53597150
O      5.80528807     5.59217007     1.68114259
O      5.64442965     3.42350630     4.91670822
O      8.12849307     4.16363814     8.60683859
O     -3.87155109     6.71022987     0.10512724
O     -1.94444830     7.82598812     3.27498453
O     -3.86367482     8.90848493     6.47246035
O     -3.87509971     8.94378428     1.69355631
O      7.71143335     6.69725673     4.90084809
O     -1.85126918     7.86654838     8.11129041
O     -0.01209783     6.71325780     0.10434852
O      1.93649557     7.80027907     3.25151308
O     -0.06468619     9.05825418     6.52795019
O     -0.00628994     8.94736548     1.70514550
O     -0.00569196     6.76153963     4.91838202
O      1.95085140     7.68225003     8.06397336
O      3.86815347     6.71410280     0.09951587
O      5.81007938     7.82907572     3.23007937
O      3.92612284     8.92306529     6.40909622
O      3.86556896     8.94715423     1.69389986
O      3.92266272     6.69478651     4.88969459
O      5.68625375     7.81446406     8.06710670
O      4.85399640     4.06502081    10.88401008
C      5.43196744     3.82966969     9.92612345
