87
CIF: 6-OH+2H-H2O_ts.cif | data_image0
Ce     0.00222118     0.00441289     8.74273232
Ce     1.92523299     1.10858617     5.63050885
Ce     0.00000000     2.23543938     2.47426506
Ce    -1.89650386     9.98918724     8.77181782
Ce     5.80325707     1.10983173     5.62204062
Ce     3.87189458     2.23543938     2.47426506
Ce     1.94254175    10.03487354     8.73982329
Ce     9.68339970     1.12865019     5.60350182
Ce     7.74390532     2.23543938     2.47426506
Ce     9.63573099     3.31309867     8.76678326
Ce    -0.02157032     4.50620776     5.62723581
Ce    -1.93600537     5.58869904     2.47426506
Ce     1.90370290     3.40279220     8.75762072
Ce     3.86386564     4.48676404     5.62732655
Ce     1.93588921     5.58869904     2.47426506
Ce     5.78023513     3.34413492     8.77312426
Ce     7.73988092     4.46820136     5.61484134
Ce     5.80789995     5.58869904     2.47426506
Ce     7.69427927     6.69405836     8.76991151
Ce    -1.91648179     7.79371930     5.63267780
Ce    -3.87195266     8.94185811     2.47426506
Ce     1.94929992     7.83326336     5.58923701
Ce    -0.00005808     8.94185811     2.47426506
Ce     3.83241558     6.74823892     8.76643072
Ce     5.81266781     7.82238433     5.60825408
Ce     3.87195266     8.94185811     2.47426506
Rh     0.11017866     6.75139413     8.58081548
O      0.00771660     0.00357532     6.42836841
O     -0.00048386     2.29651977     9.50072746
O      1.93594729     1.11771969     3.26466483
O      0.01548265     2.23133950     4.81244906
O      0.00000000     0.00000000     1.68386529
O      1.95333632     1.11789502     7.98084716
O     -1.94237517     9.97165298     6.48867808
O      3.87232436     2.27424450     9.58601182
O      5.80795803     1.11771969     3.26466483
O      3.84505779     2.22491762     4.85424860
O      3.87189458     0.00000000     1.68386529
O      5.77513155     1.10086463     7.98706210
O      7.73585272     0.03788597     6.40321494
O      7.72461648     2.22066456     9.52999239
O      9.67985261     1.11771969     3.26466483
O      7.73413393     2.25054262     4.81147988
O      7.74390532     0.00000000     1.68386529
O      9.69054709     1.10660026     7.95540014
O     -1.91861314     3.32920816     6.41896958
O     -2.45868604     5.28755009    10.11856741
O      0.00000000     4.47087876     3.26466483
O     -1.96113024     5.57570544     4.81568159
O      9.67985261     3.35315907     1.68386529
O     -0.23297006     4.73358547     8.04702615
O      1.85963386     3.39012385     6.49188267
O      1.76526855     5.69629811     9.33784785
O      3.87201074     4.47087876     3.26466483
O      1.95842215     5.56501669     4.80025363
O      1.93594729     3.35315907     1.68386529
O      3.84720503     4.49183273     7.99720693
O      5.79624085     3.35288065     6.44660383
O      5.81954041     5.57537975     9.54963572
O      7.74390532     4.47087876     3.26466483
O      5.81657151     5.57711435     4.81138249
O      5.80795803     3.35315907     1.68386529
O      7.77561071     4.48641913     7.95019167
O     -3.88360666     6.73146589     6.43273697
O     -3.81539294     8.90385157     9.51578793
O     -1.93600537     7.82413842     3.26466483
O     -3.87180161     8.95224880     4.81368600
O      7.74384724     6.70641873     1.68386529
O     -1.80754576     7.54133317     8.06880666
O      0.03255026     6.73242571     6.26997008
O      0.06490166     8.80354640     9.40434398
O      1.93600537     7.82413842     3.26466483
O     -0.00748868     8.97794525     4.79936704
O     -0.00005808     6.70641873     1.68386529
O      2.03647944     7.87999859     7.88130047
O      3.90017046     6.69346149     6.38341209
O      3.89810422     8.99278313     9.55969295
O      5.80789995     7.82413842     3.26466483
O      3.88715172     8.95637794     4.80838847
O      3.87195266     6.70641873     1.68386529
O      5.78827918     7.83856756     7.97726447
O      3.65890566     6.41574576    11.41500488
H     -1.73274207     5.70227769    10.62163259
H      4.49593402     6.74047838    11.77798983
H      3.70718404     5.44854547    11.52471601
N      5.91943149     8.79906923    13.52532079
N      5.76107899     8.84183123    12.41886547
