86
CIF: 2-NH2+H+NO-NH2NO+H_fs.cif | data_image0
Ce     5.78342864    10.04596402     8.75355522
Ce     1.91520976     1.11670226     5.61834931
Ce     0.00000000     2.23543938     2.47426506
Ce     3.84175266     0.00473726     8.77463226
Ce     5.80455606     1.09955090     5.61421683
Ce     3.87189458     2.23543938     2.47426506
Ce     1.96347192    10.05605081     8.71543416
Ce     9.69274166     1.11834885     5.58675223
Ce     7.74390532     2.23543938     2.47426506
Ce     9.65542656     3.27788920     8.75132701
Ce     0.00734715     4.49818946     5.66638971
Ce    -1.93600537     5.58869904     2.47426506
Ce     1.91607956     3.26358775     8.83293481
Ce     3.86283527     4.47775978     5.66767800
Ce     1.93588921     5.58869904     2.47426506
Ce     5.80404419     3.31962312     8.77136163
Ce     7.74361107     4.47682522     5.61856253
Ce     5.80789995     5.58869904     2.47426506
Ce     7.68087787     6.66433720     8.81158233
Ce    -1.96599889     7.80798101     5.61027477
Ce    -3.87195266     8.94185811     2.47426506
Ce     1.97390418     7.81996668     5.60350559
Ce    -0.00005808     8.94185811     2.47426506
Ce     3.95718731     6.72773853     8.85852452
Ce     5.80459383     7.80790721     5.61127554
Ce     3.87195266     8.94185811     2.47426506
Rh     0.04793974     6.94193761     8.43709889
O      5.79812475    10.04752366     6.41422948
O     -0.15730863     2.18469341     9.52162526
O      1.93594729     1.11771969     3.26466483
O      0.00116648     2.23257390     4.80709519
O      0.00000000     0.00000000     1.68386529
O      1.92077775     1.05434531     7.96660102
O     -1.94637335     9.95152210     6.48931036
O      3.97597015     2.08368546     9.61897146
O      5.80795803     1.11771969     3.26466483
O      3.86427071     2.20885776     4.85351414
O      3.87189458     0.00000000     1.68386529
O      5.82880290     1.14571102     7.91657249
O      1.94009006    10.00643313     6.42130129
O      7.75830743     2.19334635     9.54989601
O      9.67985261     1.11771969     3.26466483
O      7.74248987     2.23198432     4.83213152
O      7.74390532     0.00000000     1.68386529
O      9.64658884     1.10799810     7.88943292
O     -1.87478585     3.35625624     6.43038698
O     -2.41185675     5.16756043    10.31416094
O      0.00000000     4.47087876     3.26466483
O     -1.92060424     5.59790270     4.83170776
O     -1.93594729     3.35315907     1.68386529
O     -0.07472121     4.83640171     8.06888982
O      1.87511913     3.35370005     6.43056193
O      3.87201074     4.47087876     3.26466483
O      1.91956612     5.59274309     4.83550643
O      1.93594729     3.35315907     1.68386529
O      3.85862691     4.46010647     8.04805776
O      5.80303455     3.37858557     6.43611410
O      5.94885493     5.48652204     9.65486962
O      7.74390532     4.47087876     3.26466483
O      5.81616840     5.56745638     4.80379186
O      5.80795803     3.35315907     1.68386529
O      7.80924337     4.46469279     7.94515360
O      7.71253180     6.71789843     6.40677042
O     -3.81880040     8.91725176     9.57350146
O     -1.93600537     7.82413842     3.26466483
O     -3.87066527     8.95096218     4.80521205
O     -3.87195266     6.70641873     1.68386529
O     -1.92459860     7.34456471     8.12627835
O     -0.00011012     6.85577651     6.41598710
O     -0.01024210     8.89542967     9.23830457
O      1.93600537     7.82413842     3.26466483
O     -0.01398682     8.96270117     4.78581798
O     -0.00005808     6.70641873     1.68386529
O      1.94726066     7.63208024     7.96882649
O      3.91624386     6.70471397     6.37771970
O      3.86015269     9.08744131     9.57605617
O      5.80789995     7.82413842     3.26466483
O      3.88088663     8.95147465     4.79435956
O      3.87195266     6.70641873     1.68386529
O      5.83628902     7.82891197     8.00578355
O      1.57407546     5.20006015    10.47502088
N     -0.17641758     6.62176037    10.47033115
N      1.19312191     6.42650307    10.36033919
H      8.69013780     4.86055073    11.08481570
H     -0.91096517     5.86061035    10.64260781
H     -0.36802954     7.59540673    10.75392653
