84
CIF: Y-Sc-CeO2-CO.cif | data_image0
Ce     1.93038582     1.11050507     0.88387043
Ce     0.00034913     2.21917464     4.03443857
Ce    -5.68714379     9.93467297     7.16912441
Ce     5.81181033     1.12175166     0.90127712
Ce     3.84866595     2.21734754     4.01586344
Ce    -1.99899078    10.00006093     7.17866680
Ce     9.66901012     1.12377363     0.90450652
Ce     7.73488847     2.25948570     4.08055327
Ce     7.75419868     0.05486199     7.19651978
Ce    -0.00709724     4.47602159     0.89067279
Ce    -1.94094929     5.60522943     4.05087746
Ce    -1.87431004     3.42027866     7.14536557
Ce     3.86254305     4.47635356     0.87798423
Ce     1.93060866     5.59721366     4.04016069
Ce     1.94336096     3.34124645     7.20812964
Ce     7.74213807     4.46545905     0.90125422
Ce     5.81139544     5.58277035     4.07114328
Ce    -1.94645625     7.83004003     0.90010904
Ce    -3.87106976     8.89973899     4.01977685
Ce     7.73345142     6.63302368     7.32614118
Ce     1.92815559     7.82745473     0.89060408
Ce     0.00511571     8.96644612     4.05004322
Ce     0.03302296     6.73879028     7.21803289
Ce     5.81127600     7.83258510     0.88371011
Ce     3.87505776     8.95771985     4.05038926
Ce     3.86792522     6.66494748     7.21115341
Sc     5.49349921     3.37929336     6.91125465
Y      7.48287303     2.65203881     9.50123142
O     11.61334069     0.00154917     0.10141687
O      1.92750142     1.11355374     3.21043305
O     -0.10821448     2.10025354     6.51025737
O     -0.00785227     2.23805103     1.69392277
O     -5.75133291    10.02939468     4.84172926
O      1.96305965     1.06545167     8.02627273
O     -1.93899312    10.05733740     0.10496691
O      5.78406289     1.11546613     3.24012064
O      3.90698617     2.16957611     6.39519398
O      3.86763657     2.23577757     1.68132582
O     -1.97594269    10.03193051     4.83582921
O      5.97790581     1.79340632     8.36712529
O      7.73821774     0.00761509     0.10924988
O      9.70374249     1.11457737     3.25259664
O      7.75803631     2.41748290     6.32394736
O      7.74357843     2.23531483     1.71563532
O      7.74825860     0.00359420     4.80041474
O      9.10540384     1.63684906     8.65776135
O      9.67032270     3.35425987     0.10911246
O      0.02720777     4.49482858     3.23558648
O     -1.90934718     5.56823096     6.42291490
O     -1.94403436     5.59119430     1.70564938
O     -1.86284204     3.37733377     4.80635112
O      0.06093573     4.46108485     7.99095485
O      1.92738314     3.35244915     0.09928684
O      3.82685145     4.48991457     3.23636704
O      1.94039965     5.56080066     6.35997895
O      1.92862022     5.59252216     1.67404250
O      1.89529954     3.29686939     4.89886029
O      3.82431133     4.39707853     7.93496909
O      5.81155478     3.35101064     0.10766953
O      7.73519880     4.46967465     3.25631525
O      5.79871067     5.44034689     6.45409205
O      5.80528807     5.59217007     1.68114259
O      5.71381665     3.34416473     4.80872895
O      7.95868070     4.38655081     8.50127289
O     -3.87155109     6.71022987     0.10512724
O     -1.92876766     7.81989057     3.23171130
O     -3.85197068     8.92063105     6.42647080
O     -3.87509971     8.94378428     1.69355631
O      7.73087689     6.69562998     4.82764673
O     -1.80444426     7.90397747     8.08132995
O     -0.01209783     6.71325780     0.10434852
O      1.94400476     7.80912495     3.23910952
O     -0.04319738     9.08080026     6.45647608
O     -0.00628994     8.94736548     1.70514550
O     -0.00008507     6.76240369     4.89014375
O      1.94763354     7.70207867     8.00372993
O      3.86815347     6.71410280     0.09951587
O      5.79372552     7.81924273     3.22504141
O      3.94108247     9.08558642     6.46353302
O      3.86556896     8.94715423     1.69389986
O      3.89620685     6.74948614     4.90672413
O      5.70832801     7.83863755     8.06786927
O      5.20294578     3.41170101    12.60042086
C      5.96262004     3.14993628    11.79284745
