83
CIF: Ti-Rh-CeO2-O.cif | data_image0
Ce     1.93038582     1.11050507     0.88387043
Ce    -0.00088862     2.23475805     4.03605753
Ce    -5.77679949    10.04159010     7.22579233
Ce     5.81181033     1.12175166     0.90127712
Ce     3.85049855     2.22248787     4.00942383
Ce    -1.91505988    10.04449951     7.24541681
Ce     9.66901012     1.12377363     0.90450652
Ce     7.75120734     2.23002490     4.11585577
Ce     1.98651451    10.05498020     7.20372822
Ce    -0.00709724     4.47602159     0.89067279
Ce    -1.94906921     5.59036601     4.05872951
Ce     9.70166747     3.30617373     7.21029667
Ce     3.86254305     4.47635356     0.87798423
Ce     1.93037665     5.58974788     4.04306186
Ce     1.84227931     3.35548472     7.20665277
Ce     7.74213807     4.46545905     0.90125422
Ce     5.80934102     5.61304364     4.01054106
Ce    -1.94645625     7.83004003     0.90010904
Ce    -3.87007631     8.94121485     4.06763599
Ce    -3.84878554     6.70172503     7.24653235
Ce     1.92815559     7.82745473     0.89060408
Ce    -0.00920050     8.95000731     4.05664853
Ce    -0.01054154     6.70835976     7.19616123
Ce     5.81127600     7.83258510     0.88371011
Ce     3.87215333     8.93879543     4.03622170
Ce     3.82218234     6.78239627     7.20769199
Rh     4.88039066     3.88944951     6.54372616
Ti     6.44291159     2.97501931     8.35693712
O     11.61334069     0.00154917     0.10141687
O      1.93793317     1.11424557     3.22766525
O      0.01105898     2.21468779     6.38605576
O     -0.00785227     2.23805103     1.69392277
O     -5.78468768    10.04336013     4.85955138
O      1.95069641     1.09873162     7.98008435
O     -1.93899312    10.05733740     0.10496691
O      5.79423590     1.12710133     3.25325811
O      3.86735560     2.21857341     6.44641125
O      3.86763657     2.23577757     1.68132582
O      3.86120530     0.02322284     4.88407470
O      6.03546548     1.04162492     8.15276119
O      7.73821774     0.00761509     0.10924988
O      9.68412439     1.11385632     3.25860408
O      7.87275268     2.15508730     6.42283679
O      7.74357843     2.23531483     1.71563532
O      1.92922194    10.02795381     4.83818782
O      9.76451011     1.06569789     8.04142107
O      9.67032270     3.35425987     0.10911246
O      0.00382456     4.47855044     3.23453223
O     -1.96882054     5.59856619     6.43096013
O     -1.94403436     5.59119430     1.70564938
O     -1.91708622     3.37372766     4.84056560
O      0.01734166     4.46992581     7.98640783
O      1.92738314     3.35244915     0.09928684
O      3.86481797     4.47547317     3.22005380
O      1.87954216     5.61848074     6.35992097
O      1.92862022     5.59252216     1.67404250
O      1.92903789     3.34393187     4.85170041
O      5.81155478     3.35101064     0.10766953
O      7.72842377     4.47829096     3.25332021
O      5.82436486     5.60097656     6.44853710
O      5.80528807     5.59217007     1.68114259
O      5.80898502     3.35197188     4.85330912
O      7.91764142     4.28891771     8.16715721
O     -3.87155109     6.71022987     0.10512724
O     -1.95520894     7.83545275     3.25209055
O     -3.82623044     8.91624499     6.42958215
O     -3.87509971     8.94378428     1.69355631
O      7.72122758     6.70550085     4.88492492
O     -1.93875501     7.82679362     8.01706629
O     -0.01209783     6.71325780     0.10434852
O      1.92947221     7.81290331     3.23432961
O     -0.02627647     8.95773777     6.42287734
O     -0.00628994     8.94736548     1.70514550
O     -0.03337950     6.72175823     4.85610459
O      1.94241494     7.80431872     7.98461417
O      3.86815347     6.71410280     0.09951587
O      5.81190386     7.82202850     3.22824443
O      3.89549498     8.93760804     6.38913790
O      3.86556896     8.94715423     1.69389986
O      3.87586233     6.71339306     4.85386194
O      5.83672896     7.82233788     7.98358546
O      3.73127435     4.55342090     7.97938761
O      5.76805827     3.34601064     9.80579416
