84
CIF: Pd-Y-CeO2-CO.cif | data_image0
Ce     1.93596140     1.11772783     0.89035214
Ce     0.00394802     2.23586968     4.04049297
Ce     5.80458110    10.05299064     7.19394352
Ce     5.80789581     1.11772783     0.89035214
Ce     3.87641879     2.23059295     4.04097632
Ce    -2.01013012    10.04251462     7.18460405
Ce     9.67981860     1.11772783     0.89035214
Ce     7.74689681     2.23528047     4.03833359
Ce     7.78311833     0.01921682     7.18782929
Ce     0.00000000     4.47091133     0.89035214
Ce    -1.94451050     5.59341080     4.04507835
Ce     9.67938039     3.32790442     7.18191874
Ce     3.87193441     4.47091133     0.89035214
Ce     1.93482100     5.59214591     4.03559415
Ce     1.95106026     3.36820031     7.19008452
Ce     7.74385721     4.47091133     0.89035214
Ce     5.80866948     5.58838040     4.03001962
Ce    -1.93596721     7.82410489     0.89035214
Ce    -3.87796905     8.93784819     4.02309042
Ce     7.71262294     6.71091419     7.20102590
Ce     1.93596721     7.82410489     0.89035214
Ce    -0.00727594     8.95146778     4.04912618
Ce    -0.00782648     6.71303432     7.20934322
Ce     5.80789000     7.82410489     0.89035214
Ce     3.86982042     8.93940820     4.03582828
Ce     3.85883662     6.68700562     7.18390537
Y      5.75740609     3.40966678     7.03458825
O      0.00000000     0.00000000     0.09999685
O      1.93047570     1.11883360     3.22894484
O      0.00590354     2.22678762     6.39659892
O      0.00000000     2.23545567     1.68070743
O     -5.80409478    10.05782769     4.85124411
O      1.93218043     1.09540486     7.99120736
O      3.87192279     0.00000000     0.09999685
O      5.80188923     1.10245411     3.24058197
O      3.92349842     2.15510986     6.42750195
O      3.87192279     2.23545567     1.68070743
O     -1.96331614    10.03769115     4.84143191
O      6.12681957     1.30273976     8.26866028
O      7.74385721     0.00000000     0.09999685
O      9.68687045     1.11534512     3.23737405
O      7.77011021     2.22621639     6.30799045
O      7.74385721     2.23545567     1.68070743
O      1.93638958    10.02656783     4.83561873
O      9.69424985     1.11168234     7.98878850
O     -1.93596140     3.35318350     0.09999685
O      0.01287407     4.48633137     3.24352357
O     -2.00794365     5.56379097     6.44049331
O     -1.93596721     5.58864923     1.68070743
O     -1.90596470     3.36887447     4.83463534
O      0.00647818     4.48804129     7.96716856
O      1.93596140     3.35318350     0.09999685
O      3.85384204     4.47940892     3.22590506
O      1.90140133     5.60326891     6.36003915
O      1.93595559     5.58864923     1.68070743
O      1.95932884     3.33997274     4.86610078
O      5.80789581     3.35318350     0.09999685
O      7.75289887     4.48012664     3.23490860
O      5.85386441     5.59809369     6.38585281
O      5.80789000     5.58864923     1.68070743
O      5.78269640     3.36665048     4.78224258
O      7.72147529     4.31086204     8.11256784
O     -3.87192860     6.70637706     0.09999685
O     -1.93418179     7.82400455     3.22361415
O     -3.87927501     8.93249357     6.40144165
O     -3.87192860     8.94183273     1.68070743
O     -3.86489630     6.72227109     4.84368046
O     -1.96337550     7.82908808     7.98266467
O     -0.00000581     6.70637706     0.09999685
O      1.92440747     7.81185559     3.23706041
O     -0.02921724     9.06006800     6.46602746
O     -0.00000581     8.94183273     1.68070743
O     -0.04034239     6.74535330     4.89516986
O      3.87192860     6.70637706     0.09999685
O      5.80484359     7.82699546     3.22845506
O      3.88682400     8.93894924     6.39665603
O      3.87192860     8.94183273     1.68070743
O      3.87541028     6.70160145     4.85106718
O      5.81852605     7.81442528     7.99283821
O      3.81122089     4.50279059     7.90029269
O      1.92151538     7.80781143     7.96050124
O      7.80425406     4.47337848    11.80677714
Pd     6.99436375     2.57840689     9.60168562
C      7.52422848     3.69553048    10.99520292
