83
CIF: Co-Ti-CeO2-Ov-O2.cif | data_image0
Ce     1.93038582     1.11050507     0.88387043
Ce    -0.00915761     2.23420134     4.05055117
Ce    -5.78181282    10.04312887     7.18769867
Ce     5.81181033     1.12175166     0.90127712
Ce     3.80879613     2.19704233     3.99125821
Ce    -1.98008129     9.97558037     7.31315549
Ce     9.66901012     1.12377363     0.90450652
Ce     7.73013652     2.24339543     4.02734137
Ce     1.98983269     9.96071870     7.29039813
Ce    -0.00709724     4.47602159     0.89067279
Ce    -1.95117126     5.58337433     4.07731042
Ce    -1.80875704     3.36723385     7.26524282
Ce     3.86254305     4.47635356     0.87798423
Ce     1.94730349     5.57771529     4.07589906
Ce     1.90859083     3.27401865     7.28885773
Ce     7.74213807     4.46545905     0.90125422
Ce     5.81334928     5.65332421     3.97696815
Ce    -1.94645625     7.83004003     0.90010904
Ce    -3.85756130     8.92262813     4.07176239
Ce    -3.84353125     6.68202978     7.31148447
Ce     1.92815559     7.82745473     0.89060408
Ce    -0.00364905     8.95782969     4.09206593
Ce     0.01408603     6.69055617     7.25250326
Ce     5.81127600     7.83258510     0.88371011
Ce     3.86674734     8.96733121     4.03093282
Ce     3.89824221     6.78846918     7.18629212
Ti     5.53099722     3.50519785     6.55418344
Co     6.88381496     2.78511167     8.64861769
O     11.61334069     0.00154917     0.10141687
O      1.91442230     1.10551080     3.21510078
O     -0.01168132     2.22047061     6.37458734
O     -0.00785227     2.23805103     1.69392277
O      5.80947983    10.05475229     4.83718254
O      1.80182815     1.00732884     8.07101000
O     -1.93899312    10.05733740     0.10496691
O      5.80584472     1.11030330     3.23783746
O      4.10970699     2.29938302     6.40777356
O      3.86763657     2.23577757     1.68132582
O      3.85579338     0.00639505     4.83757055
O      6.45046814     1.04280187     8.72696813
O      7.73821774     0.00761509     0.10924988
O      9.67131177     1.12236675     3.22020944
O      7.19482064     2.56938247     6.61942218
O      7.74357843     2.23531483     1.71563532
O      7.77016711     0.13025175     4.91481752
O      9.62894480     1.13433175     7.88503423
O      9.67032270     3.35425987     0.10911246
O     -0.01981508     4.46848195     3.27260954
O     -1.95009581     5.49829829     6.39869018
O     -1.94403436     5.59119430     1.70564938
O      9.58782230     3.26769511     4.90015831
O     -0.03282143     4.51095727     8.05046179
O      1.92738314     3.35244915     0.09928684
O      3.83418803     4.49741676     3.19572925
O      2.06864146     5.59269693     6.45522331
O      1.92862022     5.59252216     1.67404250
O      1.95802780     3.32412614     4.82680023
O      5.81155478     3.35101064     0.10766953
O      7.74658702     4.46507278     3.22811785
O      5.80915129     5.37619274     6.36842511
O      5.80528807     5.59217007     1.68114259
O      5.72157040     3.39996612     4.67541528
O      8.14674616     4.07890496     8.65409128
O     -3.87155109     6.71022987     0.10512724
O     -1.91548794     7.81467863     3.26600666
O     -3.88989456     8.89309195     6.40905952
O     -3.87509971     8.94378428     1.69355631
O      7.72026739     6.69098649     4.81325547
O     -1.78256721     7.70608533     8.07005203
O     -0.01209783     6.71325780     0.10434852
O      1.93006313     7.84921243     3.27546621
O      0.08609495     8.99112769     6.44514606
O     -0.00628994     8.94736548     1.70514550
O      0.01572713     6.69969091     4.91085992
O      2.01142648     7.81471900     8.05575985
O      3.86815347     6.71410280     0.09951587
O      5.80077866     7.84984167     3.20719467
O      3.86454985     8.92304205     6.36429693
O      3.86556896     8.94715423     1.69389986
O      3.91843019     6.72156270     4.83562137
O      5.67951132     7.81240792     8.00604836
O      4.17321797     4.34601947     8.06876497
O      5.25672117     3.76939836     8.88684532
