81
CIF: Mn-CeO2.cif | data_image0
O      0.55978538     0.45000321     0.60000009
O      2.49342406     1.49911845     3.72619156
O      0.61273778     2.68513443     6.96614847
O      0.55978538     2.65901948     2.16203581
O      0.57501171     0.46276966     5.38226054
O      2.54383246     1.21584968     8.73019567
O      4.38602857     0.45000321     0.60000009
O      6.30795153     1.54081290     3.74596721
O      4.15934234     2.97178048     7.03624483
O      4.38602857     2.65901948     2.16203581
O      4.40217518     0.55624022     5.47372073
O      6.27939340     1.63292372     8.50780416
O      8.21215698     0.45000321     0.60000009
O     10.10904821     1.54648847     3.75385497
O      8.26102904     2.66333780     6.94373244
O      8.21215698     2.65901948     2.16203581
O      8.20486643     0.44698855     5.41618718
O     10.13345352     1.56200431     8.59093440
O     -1.35327882     3.76352761     0.60000009
O      0.51914799     4.91284048     3.72637145
O     -1.38963707     6.00323241     6.89843506
O     -1.35333621     5.97264328     2.16203581
O     -1.33310164     3.76888535     5.38551380
O      0.32968836     5.08709029     8.71253066
O      2.47296437     3.76352761     0.60000009
O      4.44325935     4.89999726     3.72965082
O      2.63190453     5.63336130     7.02637106
O      2.47290698     5.97264328     2.16203581
O      2.47883604     3.76879685     5.09965056
O      4.29951273     4.82845585     8.81625645
O      6.29909277     3.76352761     0.60000009
O      8.20274004     4.85871690     3.75777879
O      6.24566147     5.94143560     6.98792696
O      6.29903538     5.97264328     2.16203581
O      6.29071949     3.72040622     5.42991513
O      8.20645777     4.87373192     8.57935914
O     -3.26640042     7.07715142     0.60000009
O     -1.32554544     8.19706491     3.80437395
O     -3.25736250     9.23571519     6.89505703
O     -3.26640042     9.28616768     2.16203581
O     -3.30706747     7.05265853     5.37857116
O     -1.38500610     8.16095523     8.61654467
O      0.55984277     7.07715142     0.60000009
O      2.46466802     8.19650336     3.74545858
O      0.54808886     9.27988266     7.00336729
O      0.55984277     9.28616768     2.16203581
O      0.65955032     7.03923807     5.47192256
O      2.53200675     8.12889189     8.50770009
O      4.38597118     7.07715142     0.60000009
O      6.28651634     8.17800425     3.75638425
O      4.41386918     9.32939643     6.94343944
O      4.38597118     9.28616768     2.16203581
O      4.34713875     7.09452402     5.42660315
O      6.30151823     8.17371250     8.57841622
Ce     2.47284958     1.55451135     1.38101795
Ce     0.58141139     2.67084160     4.59905414
Ce     0.63011850     0.54229574     7.77809701
Ce     6.29909277     1.55451135     1.38101795
Ce     4.36202952     2.67124889     4.51610039
Ce     4.32479178     0.40265681     7.84103570
Ce    10.12522118     1.55451135     1.38101795
Ce     8.22245088     2.65973390     4.55807982
Ce     8.24062616     0.46832834     7.74922161
Ce     0.55978538     4.86803574     1.38101795
Ce    -1.34800999     5.96819035     4.57040614
Ce    -1.23480488     3.77552402     7.77667341
Ce     4.38602857     4.86803574     1.38101795
Ce     2.47168793     5.94702888     4.51411499
Ce     8.21215698     4.86803574     1.38101795
Ce     6.29723759     5.97194792     4.56696927
Ce     6.42866390     3.75324440     7.76786569
Ce    -1.35333621     8.18165955     1.38101795
Ce    -3.26698782     9.29264105     4.56980866
Ce    -3.27134165     7.07267526     7.76031490
Ce     2.47290698     8.18165955     1.38101795
Ce     0.56673765     9.29122119     4.61038918
Ce     0.49392328     7.04714242     7.83692182
Ce     6.29903538     8.18165955     1.38101795
Ce     4.39203930     9.29615969     4.55723621
Ce     4.44265427     7.19755081     7.76649109
Mn     3.08426927     4.12678829     7.79539001
