83
CIF: Sc-Ti-CeO2-O.cif | data_image0
Ce     1.93038582     1.11050507     0.88387043
Ce    -0.03319640     2.21452524     4.07948752
Ce    -5.56123663     9.92645481     7.19557744
Ce     5.81181033     1.12175166     0.90127712
Ce     3.80594496     2.17225439     3.97219761
Ce    -1.81693554    10.01578183     7.27877976
Ce     9.66901012     1.12377363     0.90450652
Ce     7.69527968     2.26369242     4.10761971
Ce     1.90622493     9.87162823     7.31568696
Ce    -0.00709724     4.47602159     0.89067279
Ce    -1.93795880     5.57716876     4.05467153
Ce    -1.76654466     3.46358419     7.32640750
Ce     3.86254305     4.47635356     0.87798423
Ce     1.94229264     5.59484360     4.05493519
Ce     2.00469744     3.30687308     7.19895109
Ce     7.74213807     4.46545905     0.90125422
Ce     5.81575328     5.68092734     3.99660334
Ce    -1.94645625     7.83004003     0.90010904
Ce    -3.82707471     8.91808296     4.04460307
Ce    -3.75595914     6.65786538     7.29279915
Ce     1.92815559     7.82745473     0.89060408
Ce     0.00818793     8.94765503     4.04610829
Ce     0.05859239     6.67776557     7.21573102
Ce     5.81127600     7.83258510     0.88371011
Ce     3.87520480     8.97094703     4.09672888
Ce     3.94970396     6.67430464     7.30217269
Ti     5.37671480     3.58804866     6.55787249
Sc     7.20499131     2.55649694     8.93809452
O     11.61334069     0.00154917     0.10141687
O      1.90514949     1.09598784     3.22210992
O     -0.01096594     2.10720198     6.57398834
O     -0.00785227     2.23805103     1.69392277
O     -5.72964933    10.01561691     4.90581065
O      2.09939097     1.06967122     8.00040950
O     -1.93899312    10.05733740     0.10496691
O      5.74460862     1.07808263     3.24171000
O      4.01891733     2.17353710     6.33736422
O      3.86763657     2.23577757     1.68132582
O     -1.93751858    10.02982122     4.85966284
O      6.03124098     0.75938933     8.41671996
O      7.73821774     0.00761509     0.10924988
O      9.73898382     1.08530391     3.27806034
O      6.90689576     2.69158155     6.81703866
O      7.74357843     2.23531483     1.71563532
O      1.96374860    10.04937390     4.99223373
O      8.92265149     1.56500985     8.34287857
O      9.67032270     3.35425987     0.10911246
O     -0.00973411     4.44695770     3.26835986
O     -1.89724497     5.60388194     6.43551735
O     -1.94403436     5.59119430     1.70564938
O     -1.91895472     3.32943407     5.00313354
O      0.11586395     4.46335878     8.04901092
O      1.92738314     3.35244915     0.09928684
O      3.78833584     4.51718848     3.19437853
O      1.93003439     5.52617014     6.37871170
O      1.92862022     5.59252216     1.67404250
O      1.91288958     3.27322132     4.89985270
O      5.81155478     3.35101064     0.10766953
O      7.74643985     4.55466878     3.25165633
O      5.93753755     5.43426480     6.40846908
O      5.80528807     5.59217007     1.68114259
O      5.58712541     3.47925521     4.69114790
O      8.18880936     4.41944444     8.43243468
O     -3.87155109     6.71022987     0.10512724
O     -1.92589963     7.80931160     3.24206546
O     -3.74192410     8.90381251     6.43427477
O     -3.87509971     8.94378428     1.69355631
O     -3.85376370     6.72712607     4.89549318
O     -1.87422377     7.79898027     8.05022233
O     -0.01209783     6.71325780     0.10434852
O      1.94951248     7.84169017     3.26240060
O     -0.01464477     8.91561412     6.40756118
O     -0.00628994     8.94736548     1.70514550
O      0.00943067     6.70455163     4.86030619
O      1.87297714     7.76704775     8.05388538
O      3.86815347     6.71410280     0.09951587
O      5.81959275     7.85798895     3.22839863
O      3.98909674     9.10040529     6.62024892
O      3.86556896     8.94715423     1.69389986
O      3.91611374     6.77265499     4.88654668
O      6.06617059     7.79374204     8.04550776
O      3.97948217     4.26941346     7.79107406
O      6.41947074     2.97507450    10.69225446
