84
CIF: Os-Cu-CeO2-Ov-CO2.cif | data_image0
Ce     1.93038582     1.11050507     0.88387043
Ce     0.01175828     2.23425732     4.04326438
Ce    -5.78427148    10.03991717     7.22576965
Ce     5.81181033     1.12175166     0.90127712
Ce     3.85500710     2.23045979     4.03735136
Ce    -2.03092586    10.00907140     7.18644800
Ce     9.66901012     1.12377363     0.90450652
Ce     7.71929661     2.25732218     4.02764667
Ce     2.02953045     9.98338843     7.23008101
Ce    -0.00709724     4.47602159     0.89067279
Ce    -1.95703584     5.58675715     4.08032538
Ce    -1.76236345     3.35037625     7.23349806
Ce     3.86254305     4.47635356     0.87798423
Ce     1.94112075     5.58155365     4.07628469
Ce     1.93690146     3.28449698     7.27956758
Ce     7.74213807     4.46545905     0.90125422
Ce     5.79456843     5.59538934     4.02780929
Ce    -1.94645625     7.83004003     0.90010904
Ce    -3.88423364     8.92028736     4.04031390
Ce     7.70243906     6.71348164     7.27794165
Ce     1.92815559     7.82745473     0.89060408
Ce    -0.00423872     8.95808296     4.06884950
Ce    -0.00831259     6.72000976     7.25517836
Ce     5.81127600     7.83258510     0.88371011
Ce     3.87013469     8.96622137     4.00926180
Ce     3.88659229     6.82565546     7.15510704
Cu     5.14312538     3.68676198     6.47416209
Os     6.70008969     2.86195104     8.30820246
O     11.61334069     0.00154917     0.10141687
O      1.92544957     1.10655030     3.22946011
O      0.02480465     2.21719224     6.42851671
O     -0.00785227     2.23805103     1.69392277
O     11.61196151     0.00184070     4.85109022
O      1.94364020     0.94590306     8.08343873
O     -1.93899312    10.05733740     0.10496691
O      5.80233023     1.06562327     3.23498331
O      3.91661309     2.17467300     6.43351470
O      3.86763657     2.23577757     1.68132582
O     -1.95947918    10.03038411     4.85187824
O      6.07875026     1.13784440     8.53981451
O      7.73821774     0.00761509     0.10924988
O      9.67938157     1.12628801     3.22280129
O      7.62036593     2.33397947     6.68828983
O      7.74357843     2.23531483     1.71563532
O      7.76957073     0.07936060     4.90853398
O      9.72283344     1.08522699     7.98783206
O      9.67032270     3.35425987     0.10911246
O     -0.02394340     4.48818873     3.26888313
O     -1.95721838     5.51036590     6.45308798
O     -1.94403436     5.59119430     1.70564938
O      9.64875939     3.28799711     4.91868481
O     -0.06255545     4.52946425     8.07683216
O      1.92738314     3.35244915     0.09928684
O      3.82746957     4.50235811     3.22046051
O      2.04794095     5.59760019     6.50885792
O      1.92862022     5.59252216     1.67404250
O      1.92701273     3.35537033     4.82413519
O      4.01591182     4.37652584     8.95064959
O      5.81155478     3.35101064     0.10766953
O      7.79151584     4.48694949     3.22927791
O      5.63648234     5.56201568     6.45182235
O      5.80528807     5.59217007     1.68114259
O      5.83136777     3.34282144     4.58162501
O      7.86150673     4.29213212     8.50922448
O     -3.87155109     6.71022987     0.10512724
O     -1.92613138     7.80825755     3.26220955
O     -3.87698295     8.93370635     6.39224901
O     -3.87509971     8.94378428     1.69355631
O      7.70727851     6.68370520     4.84383128
O     -1.83291860     7.86584599     8.00973616
O     -0.01209783     6.71325780     0.10434852
O      1.90919346     7.84648486     3.25357733
O      0.02706311     9.08462737     6.47681209
O     -0.00628994     8.94736548     1.70514550
O      0.00918647     6.72722735     4.95464793
O      1.95692315     7.87430223     8.02655860
O      3.86815347     6.71410280     0.09951587
O      5.79971092     7.83890311     3.21728688
O      3.86788675     8.94713230     6.36748346
O      3.86556896     8.94715423     1.69389986
O      3.85591533     6.75658309     4.81273919
O      5.69352506     7.90549734     8.04669937
O      5.73496869     3.43184478    10.20843238
C      5.08336607     3.78310920     9.19375242
