84
CIF: 2-CO2.cif | data_VESTA_phase_1
O     -0.00101584     0.09961518     0.10145935
O      1.91271975     1.20431875     3.24647115
O      0.00304179     2.30720319     6.43708034
O     -0.00101584     2.30864459     1.66347260
O      0.00056818     0.09866087     4.88106615
O      3.82513533     0.09961518     0.10145935
O      5.73860118     1.20448774     3.24681330
O      3.83187319     2.31763093     6.44802919
O      3.82513533     2.30864459     1.66347260
O      3.82658162     0.10339262     4.88451048
O      7.65129798     0.09961518     0.10145935
O      9.56596908     1.20393107     3.24663082
O      7.65153903     2.30916150     6.44634125
O      7.65129798     2.30864459     1.66347260
O      7.65387490     0.10087764     4.88275410
O      9.57101386     1.20058107     8.06371462
O     -1.91409143     3.41315929     0.10145935
O     -0.00006887     4.51835990     3.24619743
O     -1.90443230     5.62468380     6.43235865
O     -1.91409717     5.62219864     1.66347260
O     -1.91306985     3.41146938     4.88268567
O      1.91205974     3.41315929     0.10145935
O      3.82717276     4.51680916     3.24843282
O      1.91396517     5.62101571     6.43404660
O      1.91205400     5.62219864     1.66347260
O      1.91450466     3.41136998     4.88193294
O      3.83876027     4.71674530    11.32993932
O      5.73822240     3.41315929     0.10145935
O      7.65172842     4.51770382     3.24761165
O      5.73476164     5.61172121     6.44599909
O      5.73821666     5.62219864     1.66347260
O      5.74319257     3.41172784     4.88519478
O      7.67176982     4.52933437     8.05217271
O     -3.82717276     6.72671335     0.10145935
O     -1.91521058     7.83198354     3.24854687
O     -3.82627170     8.93728356     6.43767341
O     -3.82717276     8.93574276     1.66347260
O     -3.82888879     6.72431765     4.88355245
O     -1.91262219     7.83235135     8.06398834
O     -0.00102158     6.72671335     0.10145935
O      1.91518189     7.83213265     3.24576403
O      0.00148072     8.92733297     6.43354478
O     -0.00102158     8.93574276     1.66347260
O      0.00285240     6.72505326     4.87682347
O      1.91618051     7.83215253     8.06296189
O      3.82514107     6.72671335     0.10145935
O      5.73956538     7.83026381     3.24742917
O      3.82980133     8.93566323     6.43787870
O      3.82514107     8.93574276     1.66347260
O      3.82855017     6.72641513     4.88131706
O      5.73993843     7.82735120     8.07010145
O      1.91634695     1.20535258     8.06825383
O      0.00242196     4.51682904     8.06433050
O      3.81041994     4.52954312     8.08650192
O      5.59475306     3.54777547    10.28840707
O      5.73989251     1.18537189     8.05269734
Ce     1.91205974     1.20412988     0.88247738
Ce     0.00099289     2.30723302     4.05816877
Ce     0.00186525     0.09889945     7.25532447
Ce     5.73822240     1.20412988     0.88247738
Ce     3.82934219     2.31044384     4.06282203
Ce     3.82852148     0.09832289     7.25185733
Ce     9.56437357     1.20412988     0.88247738
Ce     7.65150459     2.30957901     4.06165871
Ce     7.65524657     0.09677215     7.25281535
Ce    -0.00101584     4.51767400     0.88247738
Ce    -1.91187609     5.62171155     4.05844249
Ce    -1.90825463     3.41382531     7.25235915
Ce     3.82514681     4.51767400     0.88247738
Ce     1.91390778     5.62191036     4.05796348
Ce     1.91154321     3.41413347     7.25210824
Ce     7.65129798     4.51767400     0.88247738
Ce     5.73978347     5.61878900     4.06295889
Ce     5.74776674     3.40871582     7.27535174
Ce    -1.91409717     7.83122805     0.88247738
Ce    -3.82686284     8.93608074     4.05892150
Ce    -3.82234606     6.72612685     7.25044310
Ce     1.91206548     7.83122805     0.88247738
Ce     0.00106750     8.93550418     4.05898993
Ce     0.00195708     6.72686246     7.25103617
Ce     5.73821666     7.83122805     0.88247738
Ce     3.82802216     8.93556383     4.05812315
Ce     3.82530177     6.72897981     7.25192576
C      4.70460958     4.13840867    10.78961353
