89
CIF: CH2+CH2CO.cif | data_image0
O      0.00215221     0.00213724     0.19997620
O      1.92562880     1.12938111     3.33825033
O      0.34613998     2.10332099     6.62201450
O      0.00215221     2.21116665     1.76198945
O     -0.00155020     0.01973679     4.95413981
O      3.82830339     0.00213724     0.19997620
O      5.73145103     1.10015930     3.32963052
O      3.35801955     2.46207566     6.91078720
O      3.82830339     2.21116665     1.76198945
O      3.83129217     0.14549109     5.06551040
O      5.77052041     0.97554876     8.14138719
O      7.65446604     0.00213724     0.19997620
O      9.55164965     1.10211035     3.32125104
O      7.67607457     2.17690831     6.51699176
O      7.65446604     2.21116665     1.76198945
O      1.91842445     9.92448769     4.94904809
O      9.63622377     0.95910697     8.19569755
O     -1.91092337     3.31568135     0.19997620
O      0.01279319     4.41218937     3.31859517
O     -1.94914994     5.55474444     6.51332165
O     -1.91092911     5.52472071     1.76198945
O     -1.82587493     3.26018840     4.99108985
O      0.25322776     4.28800788     7.89595045
O      1.91522780     3.31568135     0.19997620
O      3.80813378     4.39538991     3.33942135
O      2.21891335     5.17657526     6.70702143
O      1.91522206     5.52472071     1.76198945
O      1.82991397     3.35572799     5.03160237
O      4.57514864     4.93128672     9.30671701
O      5.74139045     3.31568135     0.19997620
O      7.65283973     4.39777420     3.40289341
O      5.75214668     5.51020755     6.53395444
O      5.74138471     5.52472071     1.76198945
O      5.64513562     3.23422986     5.00838077
O      7.67601247     4.51857271     8.32257626
O     -3.82400470     6.62923541     0.19997620
O     -1.89111696     7.75356620     3.40422688
O     -3.79905967     8.86402048     6.53273271
O     -3.82400470     8.83826482     1.76198945
O      7.64004321     6.64506258     4.96719790
O     -1.94329319     7.78097881     8.26995684
O      0.00214647     6.62923541     0.19997620
O      1.90339178     7.74482610     3.31122885
O     -0.03475061     8.83903125     6.48188823
O      0.00214647     8.83826482     1.76198945
O      0.11696773     6.57188339     4.99808916
O      1.94178685     7.84707509     8.19725850
O      3.82830913     6.62923541     0.19997620
O      5.75130881     7.72963022     3.35194837
O      3.87364438     8.84546793     6.47184308
O      3.82830913     8.83826482     1.76198945
O      3.78523863     6.62627737     4.92842133
O      5.83464736     7.76654767     8.25642727
O      1.85936393     0.58006562     8.73536880
O      1.97718152     2.84461781     8.98935327
Ce     1.91522780     1.10665194     0.98099423
Ce    -0.03334081     2.18044193     4.10021567
Ce     5.70847286     9.83124976     7.40266839
Ce     5.74139045     1.10665194     0.98099423
Ce     3.83637507     2.20632540     4.11400416
Ce    -1.84112564     9.82904050     7.46244391
Ce     9.56754163     1.10665194     0.98099423
Ce     7.65139860     2.20021813     4.18393789
Ce     1.93410531     9.91070200     7.33974453
Ce     0.00215221     4.42019606     0.98099423
Ce    -1.89344535     5.51054917     4.21316023
Ce     9.55391768     3.28731461     7.44556028
Ce     3.82831486     4.42019606     0.98099423
Ce     1.92828801     5.55794759     4.09623162
Ce     7.65446604     4.42019606     0.98099423
Ce     5.73698151     5.51789015     4.20458366
Ce     5.84920344     3.27611922     7.43753937
Ce    -1.91092911     7.73375012     0.98099423
Ce    -3.82312895     8.84699451     4.19172616
Ce    -3.80444936     6.59548969     7.37494456
Ce     1.91523354     7.73375012     0.98099423
Ce     0.00602255     8.84306850     4.17317001
Ce     0.02193275     6.65917170     7.42565761
Ce     5.74138471     7.73375012     0.98099423
Ce     3.83653220     8.82791759     4.13253826
Ce     3.88465256     6.73788019     7.39732647
Re     1.70866745     3.37339230     7.02720070
C      5.02898135     5.05526939    10.45136049
C      2.42084935     1.63571471     9.33820453
C      3.44574589     1.46015998    10.22614717
H      4.72702902     5.90647248    11.08950952
H      5.75487308     4.32361379    10.85657074
H      3.67134654     0.46957259    10.61743176
H      3.97339377     2.31705378    10.63780179
