84
CIF: Re-Mo-CeO2-Ov-CO2.cif | data_image0
Ce     1.93596140     1.11772783     0.89035214
Ce     0.01735289     2.22891155     4.03856893
Ce    -5.76817921    10.02203472     7.24913767
Ce     5.80789581     1.11772783     0.89035214
Ce     3.80380641     2.18652694     3.97236495
Ce    -1.99759126     9.94560942     7.24793148
Ce     9.67981860     1.11772783     0.89035214
Ce     7.81135520     2.19313178     3.99642428
Ce     2.00583092     9.93540047     7.32041091
Ce     0.00000000     4.47091133     0.89035214
Ce    -1.93973371     5.57352241     4.09340678
Ce    -1.74078475     3.31589141     7.27908147
Ce     3.87193441     4.47091133     0.89035214
Ce     1.95417135     5.57962062     4.10119375
Ce     1.83061621     3.29286657     7.32731780
Ce     7.74385721     4.47091133     0.89035214
Ce     5.81942754     5.67940082     3.97971456
Ce    -1.93596721     7.82410489     0.89035214
Ce    -3.86092217     8.92060844     4.05212681
Ce    -3.84843549     6.73544491     7.35885225
Ce     1.93596721     7.82410489     0.89035214
Ce     0.00974067     8.95109343     4.07776797
Ce     0.00959989     6.69446180     7.25779298
Ce     5.80789000     7.82410489     0.89035214
Ce     3.87092997     8.94012461     4.05415124
Ce     3.83425257     6.86505325     7.32562630
Mo     5.18607367     3.71679562     6.63077552
O      0.00000000     0.00000000     0.09999685
O      1.94045602     1.09704325     3.20033602
O      0.02787389     2.22064601     6.37254924
O      0.00000000     2.23545567     1.68070743
O     -5.77634398    10.04962326     4.82111605
O      1.99502911     0.94589356     8.05550933
O      3.87192279     0.00000000     0.09999685
O      5.80749016     1.15365687     3.23856666
O      3.92350618     2.27037753     6.50930578
O      3.87192279     2.23545567     1.68070743
O      3.85772998     0.05017491     4.85707307
O      5.99725854     1.17644127     8.50751659
O      7.74385721     0.00000000     0.09999685
O      9.69059497     1.11729544     3.21343717
O      7.79050762     2.25993181     6.59359493
O      7.74385721     2.23545567     1.68070743
O      7.75371276     0.05390783     4.83110405
O      9.86969594     1.17983763     8.09178620
O     -1.93596140     3.35318350     0.09999685
O     -0.01218853     4.47296112     3.26374407
O     -1.92847447     5.50842552     6.44022910
O     -1.93596721     5.58864923     1.68070743
O      9.66083968     3.29301565     4.86446511
O     -0.06011186     4.49416487     8.13333387
O      1.93596140     3.35318350     0.09999685
O      3.92008197     4.44574842     3.24652307
O      1.98072059     5.52825717     6.42975798
O      1.93595559     5.58864923     1.68070743
O      1.97053868     3.30374858     4.79258379
O      5.80789581     3.35318350     0.09999685
O      7.72463358     4.43660530     3.24142397
O      5.72368284     5.55351018     6.47894550
O      5.80789000     5.58864923     1.68070743
O      5.83406498     3.34308612     4.93065760
O      7.92897390     4.23520863     8.50662165
O     -3.87192860     6.70637706     0.09999685
O     -1.92501245     7.82015402     3.26362595
O     -3.80875517     8.91124825     6.36852757
O     -3.87192860     8.94183273     1.68070743
O      7.71020918     6.66653972     4.83392235
O     -1.84532923     7.86942718     8.08926413
O     -0.00000581     6.70637706     0.09999685
O      1.91843265     7.83325610     3.25421229
O     -0.04654948     9.01123786     6.42193726
O     -0.00000581     8.94183273     1.68070743
O      0.00776604     6.71253109     4.89854832
O      3.87192860     6.70637706     0.09999685
O      5.82167050     7.83299445     3.20871298
O      3.90995867     8.97290013     6.37329280
O      3.87192860     8.94183273     1.68070743
O      3.89647841     6.71928740     4.78500371
O      5.83466345     7.98484537     8.11633814
O      4.04967082     4.38029615     8.42540047
O      1.78310987     7.73717097     8.13066758
O      5.09748316     3.83736221    10.38971220
Re     6.71551786     2.84573100     8.06832757
C      5.03697919     3.85514656     9.17563344
