82
CIF: O2.cif | data_image0
Ce    -0.00448486     0.01216477     8.72064719
Ce     1.93652960     1.11286597     5.61443087
Ce     0.00000000     2.23543938     2.47426506
Ce    -1.89837015     9.99284665     8.77529464
Ce     5.80414293     1.10829470     5.63609274
Ce     3.87189458     2.23543938     2.47426506
Ce     1.90347656     9.99517432     8.78038427
Ce     9.68285179     1.11448310     5.63019535
Ce     7.74390532     2.23543938     2.47426506
Ce    -1.91082261     3.40478725     8.75926396
Ce     0.00107656     4.51078276     5.60332258
Ce    -1.93600537     5.58869904     2.47426506
Ce     1.95253216     3.29506663     8.76366751
Ce     3.86888468     4.48068221     5.64903944
Ce     1.93588921     5.58869904     2.47426506
Ce     5.82776063     3.34182622     8.82234439
Ce     7.74907286     4.47336085     5.63035430
Ce     5.80789995     5.58869904     2.47426506
Ce    -3.79344075     6.70290606     8.76841362
Ce    -1.90792066     7.80918829     5.58106022
Ce    -3.87195266     8.94185811     2.47426506
Ce     1.90965238     7.79317822     5.62362730
Ce    -0.00005808     8.94185811     2.47426506
Ce     3.95516380     6.73385899     8.82087095
Ce     5.80622888     7.82237917     5.62336653
Ce     3.87195266     8.94185811     2.47426506
Pt    -0.08743076     6.73514921     8.85904089
O     -0.00042261     0.00227639     6.43745016
O      0.01366512     2.31333170     9.47471341
O      1.93594729     1.11771969     3.26466483
O      0.00335707     2.21878406     4.81296552
O      0.00000000     0.00000000     1.68386529
O      1.93125117     1.10496849     7.98703158
O     -1.95431616    10.03659274     6.45570996
O      3.87873395     2.21790642     9.55020044
O      5.80795803     1.11771969     3.26466483
O      3.87500134     2.24140998     4.84489872
O      3.87189458     0.00000000     1.68386529
O      5.81958932     1.04741551     8.01878653
O      1.95663299    10.00252057     6.49111601
O      7.72565208     2.23518727     9.55084058
O      9.67985261     1.11771969     3.26466483
O      7.73806308     2.23028528     4.85530134
O      7.74390532     0.00000000     1.68386529
O      9.68731218     1.14077246     7.97909617
O     -1.88826284     3.35862936     6.45969378
O     -1.82403520     5.72459967     9.58171138
O      0.00000000     4.47087876     3.26466483
O     -2.01674508     5.53899122     4.78901109
O     -1.93594729     3.35315907     1.68386529
O     -0.01733841     4.79451107     7.97552761
O      1.90244178     3.34088150     6.48086089
O      3.87201074     4.47087876     3.26466483
O      2.02396085     5.53397670     4.80677819
O      1.93594729     3.35315907     1.68386529
O      3.78602787     4.51149987     8.06688181
O      5.79343279     3.35787281     6.50908146
O      5.88418873     5.56781955     9.54278697
O      7.74390532     4.47087876     3.26466483
O      5.80621210     5.58012502     4.84239749
O      5.80795803     3.35315907     1.68386529
O      7.81504600     4.47897118     7.99965048
O     -3.85482228     6.72542483     6.45272479
O     -3.77789395     8.90044902     9.49146272
O     -1.93600537     7.82413842     3.26466483
O     -3.88796505     8.95026184     4.80930103
O     -3.87195266     6.70641873     1.68386529
O     -1.69618556     7.69818001     7.91591912
O      0.00125967     6.70626977     5.94017348
O     -0.06340054     8.75514795     9.59141304
O      1.93600537     7.82413842     3.26466483
O      0.00491310     9.04026915     4.79670152
O     -0.00005808     6.70641873     1.68386529
O      1.65318191     7.61839245     8.01870724
O      3.87111893     6.74071362     6.46894932
O      3.84932653     8.97296895     9.45845728
O      5.80789995     7.82413842     3.26466483
O      3.88502291     8.95171120     4.81694147
O      3.87195266     6.70641873     1.68386529
O      5.84696379     7.85028589     7.99254225
O      2.45849692     6.24745682    10.47086719
O      1.38202710     5.59329319     9.81981818
