     8
 Tv_1:  11.598200   0.000000   0.000000 Tv_2:  -5.799100  10.044336   0.000000 Tv_3:   0.000000   0.000000  22.891600
O      -0.16673362      4.34256784     10.68287873
O       2.14914471      7.96487170     10.52116918
O       4.46296353      4.34256974     10.68305345
O       2.14694561      3.35051891      8.86952351
O       0.18451204      6.77138010      8.89219442
O       4.11224009      6.77194110      8.89188200
O       2.14710812      5.66327969      7.26872034
Ag      2.14827402      6.54847954      9.08831296
