85
CIF: Mo-Fe-CeO2-O-CO.cif | data_image0
Ce     1.93038582     1.11050507     0.88387043
Ce    -0.00229344     2.23058128     4.03884616
Ce    -5.80284527    10.05404042     7.22487246
Ce     5.81181033     1.12175166     0.90127712
Ce     3.85119871     2.21002776     3.99328532
Ce    -1.98698690     9.99570667     7.30440250
Ce     9.66901012     1.12377363     0.90450652
Ce     7.76256476     2.22368957     4.01212325
Ce     2.05541852     9.89268580     7.31148869
Ce    -0.00709724     4.47602159     0.89067279
Ce    -1.95364075     5.58115941     4.10752832
Ce    -1.73890453     3.31860126     7.31920771
Ce     3.86254305     4.47635356     0.87798423
Ce     1.93427522     5.58700020     4.05478613
Ce     1.87443155     3.34586454     7.23709467
Ce     7.74213807     4.46545905     0.90125422
Ce     5.81921922     5.61998068     3.99292327
Ce    -1.94645625     7.83004003     0.90010904
Ce    -3.86823388     8.93988851     4.06113488
Ce    -3.85013211     6.78745190     7.30154104
Ce     1.92815559     7.82745473     0.89060408
Ce    -0.00618818     8.95595598     4.10495772
Ce    -0.01396771     6.70655973     7.23962841
Ce     5.81127600     7.83258510     0.88371011
Ce     3.87316971     8.94374468     4.03759875
Ce     3.84341025     6.76133431     7.23487001
Fe     4.93137405     3.86523335     6.55217959
Mo     6.48532716     2.91272721     7.90667060
O     11.61334069     0.00154917     0.10141687
O      1.92766550     1.11683757     3.21501171
O      0.06002082     2.24779912     6.34736727
O     -0.00785227     2.23805103     1.69392277
O     11.61492666     0.00000322     4.83315042
O      1.85937754     1.21319259     8.04149600
O     -1.93899312    10.05733740     0.10496691
O      5.81275594     1.15167704     3.24159565
O      4.04579830     2.31078068     6.51452682
O      3.86763657     2.23577757     1.68132582
O      3.85932874     0.04419292     4.84472890
O      6.03917532     1.35615872     8.64404465
O      7.73821774     0.00761509     0.10924988
O      9.67997479     1.11646145     3.21678976
O      7.59294830     2.31940822     6.61299418
O      7.74357843     2.23531483     1.71563532
O      7.76710630     0.08494347     4.85709721
O      9.83897203     1.01850748     8.04829014
O      9.67032270     3.35425987     0.10911246
O     -0.00134191     4.46264034     3.26948323
O     -1.94613712     5.54419524     6.45550562
O     -1.94403436     5.59119430     1.70564938
O      9.61695272     3.28556631     4.85978179
O      0.15197715     4.49196215     8.10799532
O      1.92738314     3.35244915     0.09928684
O      3.86934273     4.47069240     3.19693797
O      1.90759005     5.60030484     6.34010081
O      1.92862022     5.59252216     1.67404250
O      2.00558766     3.31812815     4.86558682
O      5.81155478     3.35101064     0.10766953
O      7.71816459     4.44865645     3.24071665
O      5.82327617     5.41255188     6.51097516
O      5.80528807     5.59217007     1.68114259
O      5.73486608     3.39944752     4.90190877
O      7.56250476     4.05461145     8.72315788
O     -3.87155109     6.71022987     0.10512724
O     -1.94675339     7.82987825     3.26712718
O     -3.88097625     8.94447038     6.42909447
O     -3.87509971     8.94378428     1.69355631
O      7.70059374     6.69415921     4.84344173
O     -1.81466267     7.75085488     8.14014087
O     -0.01209783     6.71325780     0.10434852
O      1.93858419     7.82619834     3.26982907
O      0.02899536     8.95283784     6.44341181
O     -0.00628994     8.94736548     1.70514550
O     -0.03765190     6.71918119     4.86025731
O      1.98546430     7.67373387     8.10557825
O      3.86815347     6.71410280     0.09951587
O      5.80467509     7.83171923     3.21517237
O      3.89037815     8.87708198     6.34204432
O      3.86556896     8.94715423     1.69389986
O      3.93204914     6.66073130     4.86156522
O      5.68390327     7.84773645     8.04200031
O      3.82519741     4.50171285     7.91576121
O      4.78046675     3.33334499    10.64885733
O      4.93431175     2.84606245    12.94545349
C      4.86065615     3.08713838    11.79771900
