83
CIF: Cr-W-CeO2-Ov-O2.cif | data_image0
Ce     1.93596140     1.11772783     0.89035214
Ce    -0.00202663     2.26569954     4.08146403
Ce    -0.01723730     0.05972646     7.22789738
Ce     5.80789581     1.11772783     0.89035214
Ce     3.79589964     2.20252532     3.95863920
Ce    -2.07894049     9.97282762     7.30348515
Ce     9.67981860     1.11772783     0.89035214
Ce     7.80967022     2.21122982     3.95325107
Ce     2.04351037    10.02473020     7.28722578
Ce     0.00000000     4.47091133     0.89035214
Ce    -1.94863265     5.58848023     4.10675912
Ce    -1.84315038     3.40954686     7.36953020
Ce     3.87193441     4.47091133     0.89035214
Ce     1.95323787     5.58884004     4.10400783
Ce     1.83833684     3.38896494     7.39026730
Ce     7.74385721     4.47091133     0.89035214
Ce     5.81226592     5.64112680     3.95937026
Ce    -1.93596721     7.82410489     0.89035214
Ce    -3.88489548     8.93765003     4.07132238
Ce    -3.82241668     6.76936362     7.37234619
Ce     1.93596721     7.82410489     0.89035214
Ce    -0.00289663     8.96786174     4.11290242
Ce    -0.00929329     6.74810669     7.27293245
Ce     5.80789000     7.82410489     0.89035214
Ce     3.87602728     8.95178952     4.04520111
Ce     3.79852586     6.85432796     7.31613008
W      5.79841541     3.21746681     6.70608083
Cr     6.22158407     4.00907217     9.31613104
O      0.00000000     0.00000000     0.09999685
O      1.91537972     1.11536729     3.21251542
O     -0.00077108     2.28522108     6.38179274
O      0.00000000     2.23545567     1.68070743
O     11.60420778     0.01790211     4.83400763
O      1.80586760     1.08001430     8.09433690
O      3.87192279     0.00000000     0.09999685
O      5.79875522     1.12308200     3.21610558
O      4.14837079     2.40190782     6.51616424
O      3.87192279     2.23545567     1.68070743
O      3.83257919     0.08278713     4.84282059
O      5.86267901     2.40040872     8.49514226
O      7.74385721     0.00000000     0.09999685
O      9.69595279     1.11532735     3.20314943
O      7.47151221     2.44120535     6.46683907
O      7.74385721     2.23545567     1.68070743
O      7.76652165     0.09458821     4.82768096
O      9.77551112     1.09607985     8.07125967
O     -1.93596140     3.35318350     0.09999685
O      0.00662442     4.48687399     3.28600834
O     -1.95531894     5.61427102     6.39008402
O     -1.93596721     5.58864923     1.68070743
O      9.61249167     3.31442726     4.83584152
O      0.00086478     4.65568789     8.13897389
O      1.93596140     3.35318350     0.09999685
O      3.88462501     4.47835447     3.22041367
O      2.02251065     5.64331452     6.43324647
O      1.93595559     5.58864923     1.68070743
O      2.00920314     3.32797011     4.85479430
O      5.80789581     3.35318350     0.09999685
O      7.72500770     4.46671731     3.21512193
O      5.76961859     5.05047183     6.73481678
O      5.80789000     5.58864923     1.68070743
O      5.79263943     3.31692706     4.77471162
O      7.76528862     4.65820104     8.82497952
O     -3.87192860     6.70637706     0.09999685
O     -1.95543556     7.82307671     3.29596171
O     -3.90710401     8.94481763     6.38895108
O     -3.87192860     8.94183273     1.68070743
O      7.60700943     6.65161719     4.87939254
O     -1.83837474     7.79291882     8.15239801
O     -0.00000581     6.70637706     0.09999685
O      1.96368633     7.81980332     3.28705809
O      0.00212256     9.04774306     6.44587729
O     -0.00000581     8.94183273     1.68070743
O      0.01941595     6.73636909     4.89218186
O      3.87192860     6.70637706     0.09999685
O      5.80234175     7.83413676     3.20335262
O      3.84573398     8.95089823     6.35647639
O      3.87192860     8.94183273     1.68070743
O      4.01305993     6.67035168     4.91940882
O      5.66291115     7.83306061     7.99596735
O      1.94930815     7.81279811     8.12020527
O      3.67261625     4.84865756     8.64449533
O      4.69096838     4.83729505     9.69733464
