84
CIF: Mo-Cu-CeO2-CO.cif | data_image0
Ce     1.93038582     1.11050507     0.88387043
Ce     0.01521144     2.22352405     4.02528003
Ce    -5.77629532    10.04123040     7.22461217
Ce     5.81181033     1.12175166     0.90127712
Ce     3.88261590     2.23158849     4.02788703
Ce    -1.98828723    10.03872789     7.29376506
Ce     9.66901012     1.12377363     0.90450652
Ce     7.71506155     2.25156684     4.02101790
Ce     2.06862487     9.90769927     7.18818682
Ce    -0.00709724     4.47602159     0.89067279
Ce    -1.95880103     5.59297757     4.07851351
Ce    -1.73927687     3.31299587     7.18884872
Ce     3.86254305     4.47635356     0.87798423
Ce     1.93642770     5.58794863     4.05884049
Ce     1.91930841     3.37147822     7.27098511
Ce     7.74213807     4.46545905     0.90125422
Ce     5.81622128     5.58142507     4.02769354
Ce    -1.94645625     7.83004003     0.90010904
Ce    -3.86565511     8.93823993     4.06293056
Ce    -3.88095299     6.76237757     7.29361444
Ce     1.92815559     7.82745473     0.89060408
Ce    -0.01544267     8.95856448     4.07817259
Ce    -0.02143441     6.71791512     7.23769101
Ce     5.81127600     7.83258510     0.88371011
Ce     3.88953755     8.93406479     4.02514344
Ce     3.84753412     6.71139602     7.27080342
Cu     4.93304171     3.85917676     6.66173824
Mo     6.63302758     2.87308701     8.09237915
O     11.61334069     0.00154917     0.10141687
O      1.92778864     1.11874202     3.22577075
O      0.02792253     2.24566800     6.36768264
O     -0.00785227     2.23805103     1.69392277
O     -5.80543304    10.05787997     4.85374359
O      1.81568827     1.18644502     8.06581393
O     -1.93899312    10.05733740     0.10496691
O      5.81529049     1.07647680     3.23067576
O      4.01748502     2.27920376     6.56046122
O      3.86763657     2.23577757     1.68132582
O      3.86437521     0.02018380     4.85233774
O      6.28850386     1.19800977     8.64598904
O      7.73821774     0.00761509     0.10924988
O      9.68791053     1.11292351     3.22114972
O      7.59981115     2.31594386     6.56763970
O      7.74357843     2.23531483     1.71563532
O      7.78780832     0.06298936     4.88308890
O      9.70695691     1.10172745     7.94637499
O      9.67032270     3.35425987     0.10911246
O     -0.00254431     4.47068840     3.27408709
O     -1.96777450     5.45372552     6.47208338
O     -1.94403436     5.59119430     1.70564938
O      9.64585378     3.28280640     4.88395782
O      0.01213595     4.42199253     8.05636239
O      1.92738314     3.35244915     0.09928684
O      3.82279400     4.49911029     3.20629709
O      1.85576028     5.63416862     6.34917257
O      1.92862022     5.59252216     1.67404250
O      1.99339215     3.32693184     4.89047079
O      3.49084489     4.69102558     8.18356324
O      5.81155478     3.35101064     0.10766953
O      7.78294531     4.48482001     3.23051754
O      5.84126486     5.44317839     6.55828946
O      5.80528807     5.59217007     1.68114259
O      5.79534404     3.36043437     4.59821047
O      7.90986277     4.00922484     8.64739293
O     -3.87155109     6.71022987     0.10512724
O     -1.94513817     7.82932118     3.25033111
O     -3.88994605     8.95215916     6.43993419
O     -3.87509971     8.94378428     1.69355631
O      7.72276785     6.70287691     4.85216334
O     -1.77230699     7.72941630     8.08399408
O     -0.01209783     6.71325780     0.10434852
O      1.93421797     7.82556303     3.27348028
O      0.10066966     9.03483526     6.47082211
O     -0.00628994     8.94736548     1.70514550
O     -0.08042953     6.75181590     4.89761913
O      1.98384174     7.83674301     8.05598155
O      3.86815347     6.71410280     0.09951587
O      5.80293690     7.83051453     3.22564575
O      3.87725769     8.91187095     6.36768792
O      3.86556896     8.94715423     1.69389986
O      3.92203234     6.66990848     4.88965314
O      5.68826309     7.89445205     8.06646795
O      4.92309995     3.84175275    10.86463632
C      5.44063089     3.55303182     9.88365271
