84
CIF: Co-Sc-CeO2-CO.cif | data_image0
Ce     1.93038582     1.11050507     0.88387043
Ce    -0.00917480     2.22840982     4.03022447
Ce     0.03381416     0.00527789     7.20436613
Ce     5.81181033     1.12175166     0.90127712
Ce     3.85165320     2.22003815     4.02690311
Ce     3.87838468     0.00268012     7.30893240
Ce     9.66901012     1.12377363     0.90450652
Ce     7.71165219     2.24789886     4.07943708
Ce     2.00627228     9.96376768     7.22877823
Ce    -0.00709724     4.47602159     0.89067279
Ce    -1.95290336     5.59038110     4.05417361
Ce    -1.85388864     3.33465767     7.20421239
Ce     3.86254305     4.47635356     0.87798423
Ce     1.92938144     5.59106287     4.04186877
Ce     1.93491007     3.35255927     7.18258182
Ce     7.74213807     4.46545905     0.90125422
Ce     5.80664402     5.61762126     4.01186618
Ce    -1.94645625     7.83004003     0.90010904
Ce    -3.85670264     8.95067386     4.05778708
Ce    -3.85594691     6.74510999     7.21202060
Ce     1.92815559     7.82745473     0.89060408
Ce    -0.01473731     8.95166016     4.07943972
Ce    -0.00598332     6.69069232     7.21057600
Ce     5.81127600     7.83258510     0.88371011
Ce     3.87795991     8.94896050     4.04096185
Ce     3.88646733     6.69771198     7.20048584
Sc     5.44570272     3.58046756     6.80962928
Co     7.08225561     2.63275268     8.52876241
O     11.61334069     0.00154917     0.10141687
O      1.92190338     1.11771004     3.22362135
O      0.00960439     2.24751560     6.35301664
O     -0.00785227     2.23805103     1.69392277
O     -5.80052179    10.05953666     4.85333231
O      1.83112886     1.20003824     8.01694844
O     -1.93899312    10.05733740     0.10496691
O      5.81709543     1.11953971     3.25118055
O      3.93460201     2.27242346     6.39516070
O      3.86763657     2.23577757     1.68132582
O     -1.93714699    10.05685672     4.82778731
O      6.17029319     1.05327317     8.38833628
O      7.73821774     0.00761509     0.10924988
O      9.67070302     1.11613599     3.23751898
O      7.53636916     2.34509343     6.64736942
O      7.74357843     2.23531483     1.71563532
O      7.76925690     0.06468634     4.89671091
O      9.71709013     1.10233528     7.95642816
O      9.67032270     3.35425987     0.10911246
O     -0.01872964     4.46791145     3.24958366
O     -1.99162912     5.53805213     6.40937763
O     -1.94403436     5.59119430     1.70564938
O      9.61856110     3.30140613     4.87617270
O      0.02473020     4.46887787     7.98574774
O      1.92738314     3.35244915     0.09928684
O      3.84496139     4.49067859     3.20681986
O      1.90797827     5.60413673     6.36221431
O      1.92862022     5.59252216     1.67404250
O      1.94364501     3.34771430     4.83892906
O      3.86411578     4.50570922     7.86015126
O      5.81155478     3.35101064     0.10766953
O      7.74069901     4.47556385     3.24399320
O      5.87895829     5.54754455     6.40140923
O      5.80528807     5.59217007     1.68114259
O      5.75758433     3.39556779     4.77091062
O      7.92254658     4.25038956     8.31620148
O     -3.87155109     6.71022987     0.10512724
O     -1.93791366     7.82093910     3.24128429
O     -3.87854804     8.92088921     6.42959947
O     -3.87509971     8.94378428     1.69355631
O     -3.87015252     6.72731908     4.85241918
O     -1.94274153     7.67264433     8.03626024
O     -0.01209783     6.71325780     0.10434852
O      1.93130832     7.83770404     3.26213990
O      0.05664886     8.93577678     6.44351992
O     -0.00628994     8.94736548     1.70514550
O     -0.04002912     6.70926624     4.86673517
O      1.98786617     7.77212979     8.02061100
O      3.86815347     6.71410280     0.09951587
O      5.80437625     7.83710264     3.22524494
O      3.90553374     8.90816233     6.39182839
O      3.86556896     8.94715423     1.69389986
O      3.89126857     6.69403795     4.85430042
O      5.83644819     7.79716313     8.00218093
O      5.96910152     3.33113888    11.10814985
C      6.44298368     3.03040581    10.09446698
