81
CIF: Rh-CeO2.cif | data_image0
O      0.00261284     0.00382715     0.19994632
O      1.91721024     1.05318991     3.33073430
O      0.15567226     2.30175480     6.50144281
O      0.00261284     2.21285656     1.76195957
O     11.46588368     0.01757008     4.99802003
O      1.91416931     1.36452389     8.11055635
O      3.82876402     0.00382715     0.19994632
O      5.75342123     1.10150342     3.34271999
O      3.67479221     2.30211957     6.50089773
O      3.82876402     2.21285656     1.76195957
O      3.84325920     0.01662910     4.99926336
O      5.68687378     1.14066660     8.11278146
O      7.65492667     0.00382715     0.19994632
O      9.55600590     1.10216683     3.34209945
O      7.65522891     2.19907005     6.54568899
O      7.65492667     2.21285656     1.76195957
O      7.65552076     0.00361893     4.98654787
O      9.62026429     1.13815639     8.11399198
O     -1.91046274     3.31737126     0.19994632
O     -0.04578580     4.45014646     3.33058712
O     -1.84946293     5.49173750     6.57625236
O     -1.91046848     5.52641062     1.76195957
O      9.57221160     3.29776106     4.99872215
O      0.22872748     4.29091057     8.11256885
O      1.91568843     3.31737126     0.19994632
O      3.87724815     4.44847530     3.33093984
O      1.91534595     5.34889336     6.50170933
O      1.91568269     5.52641062     1.76195957
O      1.91505072     3.31722165     4.74408723
O      3.60449310     4.29405093     8.11108723
O      5.74185108     3.31737126     0.19994632
O      7.65489757     4.43014362     3.36360584
O      5.68296595     5.49396122     6.57532617
O      5.74184534     5.52641062     1.76195957
O      5.73848675     3.29841493     4.99892055
O      7.65508272     4.43449246     8.14509432
O     -3.82354407     6.63092532     0.19994632
O     -1.91741233     7.73159687     3.36370172
O     -3.82454563     8.90670790     6.57542480
O     -3.82354407     8.83995473     1.76195957
O     -3.82293745     6.63073736     5.04157857
O     -1.92102025     7.72943650     8.14518275
O      0.00260710     6.63092532     0.19994632
O      1.91537532     7.74847078     3.34210518
O      0.01496468     8.84696543     6.54562201
O      0.00260710     8.83995473     1.76195957
O      0.02200243     6.63725026     4.99888970
O      1.91645560     7.67538407     8.11388619
O      3.82876976     6.63092532     0.19994632
O      5.74960336     7.73085227     3.36368111
O      3.81701618     8.84721649     6.54532122
O      3.82876976     8.83995473     1.76195957
O      3.80932869     6.63791959     4.99821016
O      5.75294520     7.72888627     8.14646169
Ce     1.91568843     1.10834185     0.98096435
Ce     0.02168776     2.22382134     4.14143322
Ce     0.02260006     0.05547398     7.33483950
Ce     5.74185108     1.10834185     0.98096435
Ce     3.80979482     2.22380743     4.14180072
Ce     3.80769492     0.05651321     7.33446124
Ce     9.56800226     1.10834185     0.98096435
Ce     7.65487451     2.21040053     4.16081446
Ce     7.65494480     0.00406708     7.30957574
Ce     0.00261284     4.42188597     0.98096435
Ce    -1.90748714     5.52469772     4.16912875
Ce    -1.85601936     3.30808552     7.33440338
Ce     3.82877550     4.42188597     0.98096435
Ce     1.91576711     5.50436212     4.14139184
Ce     7.65492667     4.42188597     0.98096435
Ce     5.73910603     5.52485896     4.16889385
Ce     5.68584809     3.30932297     7.33433748
Ce    -1.91046848     7.73544003     0.98096435
Ce    -3.82342147     8.84327456     4.16898287
Ce    -3.82339822     6.63104019     7.39376490
Ce     1.91569417     7.73544003     0.98096435
Ce     0.00486480     8.84119058     4.16091693
Ce     0.03795709     6.58859802     7.33453948
Ce     5.74184534     7.73544003     0.98096435
Ce     3.82660086     8.84131345     4.16058629
Ce     3.79420088     6.58843458     7.33470511
Rh     1.91431039     3.31848287     7.31959393
