84
CIF: Cu-Rh-CeO2-Ov-CO2.cif | data_image0
Ce     1.93038582     1.11050507     0.88387043
Ce    -0.01406725     2.22615726     4.02280382
Ce    -5.78009718    10.04333513     7.22991130
Ce     5.81181033     1.12175166     0.90127712
Ce     3.84921983     2.21945133     4.02092150
Ce    -1.88341596    10.03580387     7.23374451
Ce     9.66901012     1.12377363     0.90450652
Ce     7.72951060     2.24354231     4.09469035
Ce     7.76668582     0.00205250     7.23241780
Ce    -0.00709724     4.47602159     0.89067279
Ce    -1.93087959     5.57905311     4.05877033
Ce     9.68960429     3.33216257     7.23223696
Ce     3.86254305     4.47635356     0.87798423
Ce     1.95684891     5.57642490     4.05483721
Ce     1.82823123     3.25115885     7.15910387
Ce     7.74213807     4.46545905     0.90125422
Ce     5.81023849     5.61610006     4.02089977
Ce    -1.94645625     7.83004003     0.90010904
Ce    -3.85937056     8.93447667     4.07166186
Ce    -3.82511221     6.67264564     7.23360948
Ce     1.92815559     7.82745473     0.89060408
Ce     0.01074651     8.94201210     4.05868380
Ce     0.03652797     6.68521472     7.22132984
Ce     5.81127600     7.83258510     0.88371011
Ce     3.87280765     8.95843745     4.02289209
Ce     3.90621836     6.85050125     7.15911936
Rh     4.88193700     3.88766262     6.47472284
Cu     6.62688739     2.88068029     7.95958186
O     11.61334069     0.00154917     0.10141687
O      1.93260515     1.10728365     3.22917140
O     -0.00151242     2.20859100     6.38676068
O     -0.00785227     2.23805103     1.69392277
O     -5.78786083    10.04779339     4.85681622
O      1.91441129     1.09637608     8.01390590
O     -1.93899312    10.05733740     0.10496691
O      5.80615454     1.11136842     3.25096651
O      3.81285665     2.19317088     6.43606154
O      3.86763657     2.23577757     1.68132582
O     -1.92688744    10.05417803     4.87385810
O      5.92013797     1.00971748     8.11157782
O      7.73821774     0.00761509     0.10924988
O      9.67377024     1.12101793     3.24535542
O      7.80350236     2.20090726     6.45235078
O      7.74357843     2.23531483     1.71563532
O      7.74643939     0.00093239     4.85974043
O      9.74262759     1.08140244     8.02967577
O      9.67032270     3.35425987     0.10911246
O     -0.00014787     4.47511349     3.23281542
O     -1.91694663     5.58649083     6.41801284
O     -1.94403436     5.59119430     1.70564938
O      9.68010859     3.35026006     4.85968909
O      0.02565946     4.43581009     7.99252966
O      1.92738314     3.35244915     0.09928684
O      3.83300179     4.49336217     3.20678791
O      2.04894360     5.52328646     6.51054748
O      1.92862022     5.59252216     1.67404250
O      1.89434531     3.33968547     4.84214673
O      4.26015510     4.24765682     8.43950526
O      5.81155478     3.35101064     0.10766953
O      7.74817543     4.47534884     3.25086326
O      5.81488650     5.66072844     6.43586169
O      5.80528807     5.59217007     1.68114259
O      5.75186240     3.38531178     4.75248770
O      7.89377422     4.42791568     8.11106781
O     -3.87155109     6.71022987     0.10512724
O     -1.92212066     7.81605694     3.26176640
O     -3.82945238     8.91722340     6.43366509
O     -3.87509971     8.94378428     1.69355631
O     -3.86282973     6.70101126     4.87376173
O     -1.89158004     7.79832375     8.01193893
O     -0.01209783     6.71325780     0.10434852
O      1.93213206     7.82184321     3.23264837
O      0.01122753     8.92650487     6.41819434
O     -0.00628994     8.94736548     1.70514550
O      0.05414436     6.67514461     4.90084060
O      1.97892161     7.81917885     7.99253499
O      3.86815347     6.71410280     0.09951587
O      5.81519908     7.83206598     3.22895960
O      3.89422510     8.95646889     6.38685948
O      3.86556896     8.94715423     1.69389986
O      3.86268435     6.74905815     4.84213318
O      5.81546771     7.85318970     8.01376274
O      5.43217025     3.57904315    10.29629812
C      5.23577307     3.68736330     9.11304376
