81
CIF: Ni-CeO2-O2-Ov.cif | data_image0
O      0.39818343     0.52990743     0.59999690
O      2.29852227     1.64279262     3.77151531
O      0.27396775     2.60797432     7.01728325
O      0.39818343     2.73892370     2.16203261
O      0.36198219     0.48517829     5.35495730
O      4.22442662     0.52990743     0.59999690
O      6.13542414     1.64065627     3.73216264
O      4.14159465     2.78522638     6.98809333
O      4.22442662     2.73892370     2.16203261
O      4.23341296     0.51952029     5.35532755
O      6.25131361     1.70051299     8.59483936
O      8.05055502     0.52990743     0.59999690
O      9.96745487     1.63101515     3.74502468
O      8.08663078     2.73378691     6.91330956
O      8.05055502     2.73892370     2.16203261
O      8.03274395     0.53103202     5.35369496
O      9.87245755     1.50925981     8.63000438
O     -1.51488078     3.84343183     0.59999690
O      0.40822911     4.93951436     3.76064592
O     -1.43337711     5.98653396     6.94959154
O     -1.51493817     6.05254750     2.16203261
O     -1.51231351     3.83893992     5.35640964
O      2.31136241     3.84343183     0.59999690
O      4.23017942     4.94619964     3.74163489
O      2.23701504     5.95290710     6.99465638
O      2.31130502     6.05254750     2.16203261
O      2.31890564     3.84982244     5.43221804
O      4.23642428     4.95592324     8.45920221
O      6.13749082     3.84343183     0.59999690
O      8.04624112     4.97379166     3.76005960
O      6.16807275     6.08300839     6.90337334
O      6.13743343     6.05254750     2.16203261
O      6.14437642     3.82576275     5.38598845
O      8.02798195     4.97261247     8.54569127
O     -3.42800237     7.15705564     0.59999690
O     -1.52096986     8.25643913     3.73936426
O     -3.51532398     9.51462852     7.09386030
O     -3.42800237     9.36607190     2.16203261
O     -3.38275640     7.21667688     5.44150288
O     -1.50623403     8.13651356     8.58070339
O      0.39824082     7.15705564     0.59999690
O      2.30486385     8.25559923     3.72407102
O      0.41913245     9.34056563     6.92852709
O      0.39824082     9.36607190     2.16203261
O      0.40966169     7.17385781     5.37348973
O      2.27895163     8.23523419     8.56345366
O      4.22436922     7.15705564     0.59999690
O      6.14418524     8.24240034     3.75111355
O      4.16369078     9.33719125     6.89135046
O      4.22436922     9.36607190     2.16203261
O      4.18922759     7.14582779     5.38282938
O      6.05259551     8.23456863     8.57928965
O     -0.50048422     4.26430594     9.94867028
O      0.17050816     5.05357342     9.10809145
Ce     2.31124763     1.63441557     1.38101475
Ce     0.39630437     2.73669152     4.63329717
Ce     0.19652399     0.45675725     7.67902275
Ce     6.13749082     1.63441557     1.38101475
Ce     4.22402956     2.73602548     4.56378166
Ce     4.32172733     0.51232299     7.76429991
Ce     9.96361922     1.63441557     1.38101475
Ce     8.05789548     2.73560216     4.54415034
Ce     8.01758061     0.52963728     7.76716804
Ce     0.39818343     4.94793996     1.38101475
Ce    -1.50245560     6.04921099     4.56857261
Ce    -1.54014404     3.76842926     7.77010720
Ce     4.22442662     4.94793996     1.38101475
Ce     2.30518315     6.04286755     4.54999036
Ce     8.05055502     4.94793996     1.38101475
Ce     6.13440080     6.05385748     4.56581992
Ce     6.16912585     3.85240509     7.73735101
Ce    -1.51493817     8.26156377     1.38101475
Ce    -3.42500564     9.38210152     4.57706716
Ce    -3.42261647     7.15837381     7.77267014
Ce     2.31130502     8.26156377     1.38101475
Ce     0.39484369     9.37341608     4.53090402
Ce     0.39759862     7.20291316     7.72716993
Ce     6.13743343     8.26156377     1.38101475
Ce     4.19847576     9.35511949     4.51525045
Ce     4.20032789     7.13128058     7.74996365
Ni     3.16799638     4.35060515     7.04057021
