83
CIF: Cr-Rh-CeO2-O.cif | data_image0
Ce     1.93038582     1.11050507     0.88387043
Ce     0.01007355     2.23333038     4.00816152
Ce    -5.79552792    10.05240841     7.21821999
Ce     5.81181033     1.12175166     0.90127712
Ce     3.85602666     2.21008427     4.01659518
Ce    -1.97882543    10.02993075     7.30021940
Ce     9.66901012     1.12377363     0.90450652
Ce     7.75606028     2.22821734     4.07609295
Ce     2.04971099    10.05452427     7.14437130
Ce    -0.00709724     4.47602159     0.89067279
Ce    -1.95704575     5.59269497     4.07703573
Ce    -1.87503863     3.25674521     7.14442290
Ce     3.86254305     4.47635356     0.87798423
Ce     1.93286146     5.59018413     4.05769431
Ce     1.81614333     3.33914979     7.23173982
Ce     7.74213807     4.46545905     0.90125422
Ce     5.82183695     5.61502009     4.01624360
Ce    -1.94645625     7.83004003     0.90010904
Ce    -3.86620433     8.93856683     4.06851676
Ce    -3.86786678     6.75845656     7.29952241
Ce     1.92815559     7.82745473     0.89060408
Ce    -0.01421015     8.95779037     4.07708079
Ce    -0.02286661     6.71925836     7.22953943
Ce     5.81127600     7.83258510     0.88371011
Ce     3.87872148     8.93391116     4.00830610
Ce     3.82401647     6.81688644     7.23171295
Rh     4.97574423     3.83366517     6.70477534
Cr     6.27921975     3.08075435     8.40726115
O     11.61334069     0.00154917     0.10141687
O      1.94267949     1.12479801     3.21728669
O     -0.02136025     2.22052179     6.33892791
O     -0.00785227     2.23805103     1.69392277
O     -5.78425566    10.04569689     4.82844883
O      1.80307982     1.20197971     8.03898004
O     -1.93899312    10.05733740     0.10496691
O      5.79376217     1.14350345     3.25065996
O      3.89607100     2.23476372     6.49544681
O      3.86763657     2.23577757     1.68132582
O      3.85428995     0.01758297     4.85179993
O      6.22146492     1.37963340     8.36365880
O      7.73821774     0.00761509     0.10924988
O      9.69140552     1.11077675     3.23294899
O      7.94992980     2.11625452     6.31530253
O      7.74357843     2.23531483     1.71563532
O      1.94062693    10.02133273     4.78251675
O      9.75653269     1.07327357     8.02923869
O      9.67032270     3.35425987     0.10911246
O      0.02421008     4.49534735     3.23956377
O     -1.99964389     5.47180023     6.46394644
O     -1.94403436     5.59119430     1.70564938
O     -1.90074686     3.36803835     4.78251966
O     -0.00268766     4.40921894     8.01080321
O      1.92738314     3.35244915     0.09928684
O      3.87531198     4.46905573     3.23297941
O      1.87798652     5.62214082     6.39329645
O      1.92862022     5.59252216     1.67404250
O      1.95584047     3.33977680     4.87319096
O      5.81155478     3.35101064     0.10766953
O      7.71417774     4.47014946     3.25065952
O      5.82127833     5.56829801     6.49606571
O      5.80528807     5.59217007     1.68114259
O      5.79458425     3.36094729     4.92221611
O      7.72358255     3.98106312     8.36435076
O     -3.87155109     6.71022987     0.10512724
O     -1.94584615     7.82981112     3.24894806
O     -3.87256441     8.94185050     6.45680338
O     -3.87509971     8.94378428     1.69355631
O      7.71971479     6.71277862     4.85151489
O     -1.78281847     7.73511785     8.08577221
O     -0.01209783     6.71325780     0.10434852
O      1.92690850     7.79046414     3.23964528
O      0.06942262     9.05452247     6.46385805
O     -0.00628994     8.94736548     1.70514550
O     -0.06204538     6.74175149     4.90228792
O      1.98793991     7.85700921     8.01094926
O      3.86815347     6.71410280     0.09951587
O      5.80505632     7.81467207     3.21705614
O      3.87397588     8.96749739     6.33909747
O      3.86556896     8.94715423     1.69389986
O      3.89376759     6.69554354     4.87344813
O      5.66888055     7.89658631     8.03893351
O      3.72576265     4.55506167     8.01666828
O      5.45784892     3.55460629     9.68141802
