81
CIF: Nb-Rh-CeO2-Ov.cif | data_image0
Ce     1.93038582     1.11050507     0.88387043
Ce    -0.02347023     2.22860402     4.01940929
Ce     5.81289978    10.04885107     7.23792880
Ce     5.81181033     1.12175166     0.90127712
Ce     3.84805222     2.20707675     3.99210513
Ce    -2.01046541    10.00468946     7.20442820
Ce     9.66901012     1.12377363     0.90450652
Ce     7.74890966     2.23110519     4.04103217
Ce     2.00979720     9.94985427     7.34475901
Ce    -0.00709724     4.47602159     0.89067279
Ce    -1.93654278     5.57432231     4.09291948
Ce    -1.80596233     3.32811271     7.35842572
Ce     3.86254305     4.47635356     0.87798423
Ce     1.96510811     5.57955411     4.06810178
Ce     1.82521285     3.25181680     7.13953721
Ce     7.74213807     4.46545905     0.90125422
Ce     5.82188448     5.62620880     4.01445871
Ce    -1.94645625     7.83004003     0.90010904
Ce    -3.87037198     8.94411776     4.01675531
Ce    -3.85388321     6.81399289     7.21448795
Ce     1.92815559     7.82745473     0.89060408
Ce     0.01266710     8.95317516     4.08714628
Ce     0.02966775     6.68796353     7.26862238
Ce     5.81127600     7.83258510     0.88371011
Ce     3.86897572     8.94368968     4.04824648
Ce     3.91979766     6.82006327     7.24575764
Rh     4.82545156     3.91572096     6.50821297
Nb     6.49398226     2.95861007     7.87419613
O     11.61334069     0.00154917     0.10141687
O      1.93033121     1.10760543     3.20028649
O      0.05944650     2.21276191     6.37177144
O     -0.00785227     2.23805103     1.69392277
O      0.01175023     0.00142197     4.82130335
O      1.93763520     1.06196035     8.03982607
O     -1.93899312    10.05733740     0.10496691
O      5.80854912     1.11438780     3.23715059
O      3.81643299     2.17754444     6.45952321
O      3.86763657     2.23577757     1.68132582
O      3.85604042     0.01074338     4.83835565
O      6.02797384     1.31895301     8.59259554
O      7.73821774     0.00761509     0.10924988
O      9.66870123     1.12197392     3.22901092
O      7.62779407     2.29883088     6.54879039
O      7.74357843     2.23531483     1.71563532
O      7.75061848     0.03511049     4.85975075
O      9.86210074     1.01741747     8.10278934
O      9.67032270     3.35425987     0.10911246
O     -0.01125775     4.48793972     3.25464354
O     -2.00869173     5.61204102     6.50853765
O     -1.94403436     5.59119430     1.70564938
O      9.65004208     3.32336636     4.86488161
O      0.14341560     4.50158034     8.07486691
O      1.92738314     3.35244915     0.09928684
O      3.85636880     4.47289146     3.21133226
O      2.07461464     5.43723050     6.44692381
O      1.92862022     5.59252216     1.67404250
O      1.92634373     3.31140340     4.80103430
O      5.81155478     3.35101064     0.10766953
O      7.74716134     4.47280342     3.24729725
O      5.92298089     5.60754576     6.46047607
O      5.80528807     5.59217007     1.68114259
O      5.76816822     3.35981879     4.76937127
O      7.69855896     4.15307818     8.61194403
O     -3.87155109     6.71022987     0.10512724
O     -1.90727887     7.81162603     3.26399518
O     -3.83251022     8.94371844     6.36880334
O     -3.87509971     8.94378428     1.69355631
O     -3.86291210     6.73012038     4.84318981
O     -1.97831619     7.86923982     8.06321037
O     -0.01209783     6.71325780     0.10434852
O      1.91666341     7.82099293     3.25490791
O     -0.08393717     9.02559581     6.47837463
O     -0.00628994     8.94736548     1.70514550
O      0.03549463     6.69306711     4.95402828
O      1.81257061     7.69574112     8.08704184
O      3.86815347     6.71410280     0.09951587
O      5.81928239     7.83246113     3.21319419
O      3.93598875     8.92498765     6.38473952
O      3.86556896     8.94715423     1.69389986
O      3.89773317     6.70934488     4.79992541
O      5.98407036     7.89872841     8.08772551
