83
CIF: Pt-Fe-CeO2-Ov-O2.cif | data_image0
Ce     1.93038582     1.11050507     0.88387043
Ce     0.00149537     2.22623275     4.02716109
Ce    -5.74475676    10.02746631     7.19295790
Ce     5.81181033     1.12175166     0.90127712
Ce     3.85756683     2.21766870     3.99015100
Ce    -1.88258742    10.03463408     7.21101561
Ce     9.66901012     1.12377363     0.90450652
Ce     7.74973572     2.23398644     4.10218857
Ce     2.00968030    10.00230188     7.22907100
Ce    -0.00709724     4.47602159     0.89067279
Ce    -1.93310832     5.57868767     4.06489219
Ce    -1.84129146     3.30603798     7.24133603
Ce     3.86254305     4.47635356     0.87798423
Ce     1.94609888     5.59370679     4.05496542
Ce     1.88893010     3.32522202     7.17728447
Ce     7.74213807     4.46545905     0.90125422
Ce     5.80545572     5.61157829     4.01537402
Ce    -1.94645625     7.83004003     0.90010904
Ce    -3.85790284     8.93400395     4.05150270
Ce    -3.80390501     6.70056146     7.23899447
Ce     1.92815559     7.82745473     0.89060408
Ce     0.00946870     8.94593875     4.05177652
Ce     0.02450301     6.70958037     7.20195598
Ce     5.81127600     7.83258510     0.88371011
Ce     3.88362934     8.93074053     4.05253414
Ce     3.88423791     6.74170338     7.29340942
Fe     5.06298820     3.76032189     6.61854699
Pt     6.77388384     2.79925962     8.24841411
O     11.61334069     0.00154917     0.10141687
O      1.93577882     1.10939183     3.21186239
O      0.03860664     2.21215996     6.36846035
O     -0.00785227     2.23805103     1.69392277
O     -5.77095034    10.04253082     4.84328455
O      2.01376540     1.11084849     7.92587924
O     -1.93899312    10.05733740     0.10496691
O      5.81812771     1.14123731     3.24772542
O      3.97916636     2.28690081     6.38068785
O      3.86763657     2.23577757     1.68132582
O      3.88087187     0.03534624     4.85385013
O      5.91276296     0.95858474     8.11467298
O      7.73821774     0.00761509     0.10924988
O      9.68069802     1.11808067     3.25201482
O      7.77010781     2.22253528     6.48777380
O      7.74357843     2.23531483     1.71563532
O      7.75692680     0.00794667     4.86423452
O      9.81027536     1.07218625     8.00954490
O      9.67032270     3.35425987     0.10911246
O     -0.00013317     4.46723927     3.24296648
O     -1.89866089     5.58328713     6.41217553
O     -1.94403436     5.59119430     1.70564938
O      9.68252332     3.33608527     4.87061822
O      0.04136340     4.41076301     8.02033925
O      1.92738314     3.35244915     0.09928684
O      3.87057021     4.46672270     3.20925344
O      1.88205947     5.55848239     6.38408378
O      1.92862022     5.59252216     1.67404250
O      1.95582377     3.32542043     4.83761599
O      5.81155478     3.35101064     0.10766953
O      7.72897577     4.45654685     3.25996779
O      5.82557728     5.40772367     6.43755466
O      5.80528807     5.59217007     1.68114259
O      5.74789289     3.37579662     4.88982909
O      7.96620040     4.44618746     8.13549473
O     -3.87155109     6.71022987     0.10512724
O     -1.94444782     7.82201975     3.25326243
O     -3.78104466     8.92744752     6.37874418
O     -3.87509971     8.94378428     1.69355631
O      7.71953929     6.68411256     4.88982779
O     -1.90521270     7.82323827     8.00638090
O     -0.01209783     6.71325780     0.10434852
O      1.93839393     7.82644971     3.23980027
O     -0.00335677     8.94124369     6.37513435
O     -0.00628994     8.94736548     1.70514550
O     -0.00023685     6.71392018     4.83896775
O      1.84811360     7.86657699     8.02834518
O      3.86815347     6.71410280     0.09951587
O      5.82396020     7.82445071     3.22133361
O      3.91667530     8.96791293     6.39053700
O      3.86556896     8.94715423     1.69389986
O      3.90136341     6.69502579     4.82395023
O      5.99771168     7.83206696     7.97661783
O      3.88860278     4.34159528     7.86208794
O      6.08632477     3.20256233     9.87545052
