85
CIF: Mo-Ti-CeO2-O-CO.cif | data_image0
Ce     1.93038582     1.11050507     0.88387043
Ce     0.00445175     2.22913234     4.05735745
Ce    -5.78836851    10.03920302     7.21137894
Ce     5.81181033     1.12175166     0.90127712
Ce     3.85157727     2.20409733     4.02447224
Ce    -2.04340737     9.97237307     7.31667189
Ce     9.66901012     1.12377363     0.90450652
Ce     7.74083278     2.24096404     4.02176336
Ce     2.05340407     9.76030208     7.27127936
Ce    -0.00709724     4.47602159     0.89067279
Ce    -1.96243492     5.58240954     4.08892650
Ce    -1.64050601     3.36407217     7.28597620
Ce     3.86254305     4.47635356     0.87798423
Ce     1.94168863     5.57428650     4.08155247
Ce     1.98841895     3.31101773     7.33693711
Ce     7.74213807     4.46545905     0.90125422
Ce     5.82191074     5.63071456     3.98999698
Ce    -1.94645625     7.83004003     0.90010904
Ce    -3.86185733     8.93865020     4.04631447
Ce    -3.88552654     6.79893218     7.26713151
Ce     1.92815559     7.82745473     0.89060408
Ce    -0.02057405     8.96037647     4.09185107
Ce    -0.02565141     6.68949307     7.27239239
Ce     5.81127600     7.83258510     0.88371011
Ce     3.86810001     8.95540874     4.02711756
Ce     3.90751225     6.70417495     7.20004437
Ti     5.32627657     3.70058733     6.78666048
Mo     7.24804355     2.58872676     9.35784182
O     11.61334069     0.00154917     0.10141687
O      1.92551974     1.11040031     3.23289129
O      0.04491314     2.24163777     6.42480051
O     -0.00785227     2.23805103     1.69392277
O     11.61328849     0.00338080     4.87562783
O      1.77884692     0.99889846     8.12085414
O     -1.93899312    10.05733740     0.10496691
O      5.73734979     1.08567831     3.24599642
O      4.14596635     2.23816446     6.57252496
O      3.86763657     2.23577757     1.68132582
O     -1.95927353    10.05603614     4.87581177
O      6.99264763     0.81248616     9.26528573
O      7.73821774     0.00761509     0.10924988
O      9.73632406     1.08490255     3.22791983
O      6.97792410     3.14768269     7.58082089
O      7.74357843     2.23531483     1.71563532
O      7.75341588     0.03433526     4.98740968
O      9.54868180     1.14494582     7.70861282
O      9.67032270     3.35425987     0.10911246
O     -0.00673374     4.46816078     3.28643907
O     -2.00365752     5.45876651     6.53773466
O     -1.94403436     5.59119430     1.70564938
O      9.67090726     3.31346671     4.98118392
O      0.01578896     4.51225732     8.11974021
O      1.92738314     3.35244915     0.09928684
O      3.86714297     4.47333499     3.21418578
O      1.94396391     5.63952581     6.39932094
O      1.92862022     5.59252216     1.67404250
O      2.01253784     3.31221130     4.87036191
O      5.81155478     3.35101064     0.10766953
O      7.73889916     4.53802056     3.23331952
O      5.81871178     5.52443857     6.38087543
O      5.80528807     5.59217007     1.68114259
O      5.72352306     3.41872956     4.91794724
O      8.88060032     3.21335963     9.62348030
O     -3.87155109     6.71022987     0.10512724
O     -1.92470819     7.82793332     3.25331801
O     -3.91592850     8.92840571     6.40623972
O     -3.87509971     8.94378428     1.69355631
O     -3.85967225     6.72170445     4.83544649
O     -1.81991584     7.71833745     8.10214561
O     -0.01209783     6.71325780     0.10434852
O      1.91378305     7.83671896     3.28223993
O      0.07173229     9.00195472     6.54782855
O     -0.00628994     8.94736548     1.70514550
O     -0.07143471     6.72444132     4.93628138
O      2.02020887     7.73692137     8.10380192
O      3.86815347     6.71410280     0.09951587
O      5.80270112     7.84675222     3.22646888
O      3.88557050     8.84966989     6.37726380
O      3.86556896     8.94715423     1.69389986
O      3.89880099     6.68910352     4.83319115
O      5.68471661     7.86104926     8.05686309
O      4.06119890     4.49908128     7.90996791
O      6.11889532     3.31995379    10.41669811
O      5.75931571     3.50433611    13.72203292
C      6.51933996     2.76452547    13.29385119
