90
CIF: CH2CHCH2.cif | data_image0
O      0.00261135     0.00382715     0.19995339
O      1.92157002     1.10998293     3.34318118
O      0.11679817     2.25021102     6.59618279
O      0.00261135     2.21285656     1.76196664
O     11.44931858     0.01947894     4.98400730
O      1.91300419     1.23674324     8.26234686
O      3.82876252     0.00382715     0.19995339
O      5.74847872     1.10477548     3.33151463
O      3.70010846     2.25147470     6.62362126
O      3.82876252     2.21285656     1.76196664
O      3.87182205     0.01553199     4.99443610
O      5.71960606     0.95416961     8.19014090
O      7.65492518     0.00382715     0.19995339
O      9.56245103     1.11394163     3.33201582
O      7.71448632     2.20407112     6.58452619
O      7.65492518     2.21285656     1.76196664
O      7.64855533     0.01729679     4.96751889
O      9.62879020     1.06227576     8.18025456
O     -1.91046424     3.31737126     0.19995339
O      0.03452205     4.39443890     3.35547721
O     -1.93591434     5.57226511     6.44675455
O     -1.91046998     5.52641062     1.76196664
O     -1.87016864     3.29881850     4.99448268
O     -0.38081191     4.64916686     8.36751012
O      1.91568694     3.31737126     0.19995339
O      3.80150839     4.40031910     3.36816054
O      1.95139888     5.63099415     6.53087901
O      1.91568120     5.52641062     1.76196664
O      1.91966297     3.23517626     5.06115308
O      4.18610498     4.80831795     8.74803146
O      5.74184959     3.31737126     0.19995339
O      7.65731799     4.42501975     3.36752978
O      5.69142406     5.57802464     6.52488029
O      5.74184385     5.52641062     1.76196664
O      5.72751578     3.28725378     4.97942252
O      7.74680966     4.55127178     8.20427604
O     -3.82354556     6.63092532     0.19995339
O     -1.92141559     7.74907404     3.34577235
O     -3.82320373     8.92233004     6.57273294
O     -3.82354556     8.83995473     1.76196664
O     -3.84966236     6.67552679     4.98162935
O     -1.91366051     7.75570623     8.15990447
O      0.00260561     6.63092532     0.19995339
O      1.91470223     7.73447385     3.33900763
O      0.04439984     8.78304185     6.50309399
O      0.00260561     8.83995473     1.76196664
O      0.00505311     6.61333305     4.93772710
O      1.94818103     7.77758168     8.22659744
O      3.82876826     6.63092532     0.19995339
O      5.74910490     7.75353579     3.33731900
O      3.79612131     8.84157426     6.50021143
O      3.82876826     8.83995473     1.76196664
O      3.83478341     6.65373770     4.93011225
O      5.71952096     7.80807391     8.16834714
Ce     1.91568694     1.10834185     0.98097142
Ce    -0.03082578     2.20460301     4.12302357
Ce     5.63718761     9.88887899     7.33700919
Ce     5.74184959     1.10834185     0.98097142
Ce     3.87702493     2.20304004     4.13041353
Ce    -1.79053737     9.83381020     7.33016367
Ce     9.56800076     1.10834185     0.98097142
Ce     7.65722374     2.22303553     4.20062513
Ce     7.65950222     0.00351597     7.35839394
Ce     0.00261135     4.42188597     0.98097142
Ce    -1.90839022     5.52908709     4.15317300
Ce    -1.89417348     3.42153815     7.41661968
Ce     3.82877400     4.42188597     0.98097142
Ce     1.91881834     5.54584083     4.21209509
Ce     7.65492518     4.42188597     0.98097142
Ce     5.73378930     5.52804776     4.18032348
Ce     5.77660988     3.34598389     7.46022520
Ce    -1.91046998     7.73544003     0.98097142
Ce    -3.82718724     8.85323431     4.16235345
Ce    -3.83484304     6.64720767     7.34500649
Ce     1.91569268     7.73544003     0.98097142
Ce     0.01549476     8.82645666     4.14088474
Ce     0.03206321     6.55954947     7.36970434
Ce     5.74184385     7.73544003     0.98097142
Ce     3.81972811     8.84106396     4.12640449
Ce     3.77634027     6.67505704     7.34383050
Fe     1.91535897     2.46615660     6.70941257
C      3.71241626     4.66017360    10.07825763
C      2.41025388     3.91389331    10.15121271
C      2.19347676     2.85480473    10.94542389
H      3.55544631     5.65985693    10.54031504
H      4.47411948     4.15365196    10.70679443
H      1.59342760     4.29272321     9.52007716
H      2.01604283     1.80033783     9.06757304
H      1.20514087     2.39275982    11.02269624
H      2.98355646     2.44518840    11.58288300
