86
CIF: 2-NH2+H+NO-NH2NO+H_ts.cif | data_image0
Ce     5.78825510    10.05213484     8.75350219
Ce     1.91466830     1.11897111     5.61401729
Ce     0.00000000     2.23543938     2.47426506
Ce    -1.96141315    10.05492932     8.76765146
Ce     5.79819907     1.10036571     5.61777953
Ce     3.87189458     2.23543938     2.47426506
Ce     7.75941394     0.01612219     8.73862164
Ce     9.69242813     1.11667479     5.59760888
Ce     7.74390532     2.23543938     2.47426506
Ce     9.62160920     3.28471754     8.78944140
Ce    -0.00053277     4.50886239     5.64989990
Ce    -1.93600537     5.58869904     2.47426506
Ce     1.89724210     3.26716208     8.81047596
Ce     3.85913802     4.47608709     5.65735186
Ce     1.93588921     5.58869904     2.47426506
Ce     5.78298507     3.32222072     8.77041723
Ce     7.74129934     4.47665627     5.62607699
Ce     5.80789995     5.58869904     2.47426506
Ce     7.71693369     6.65797024     8.83140759
Ce    -1.95168550     7.80254320     5.60622358
Ce    -3.87195266     8.94185811     2.47426506
Ce     1.95093360     7.80066265     5.59612528
Ce    -0.00005808     8.94185811     2.47426506
Ce     4.00974120     6.73148550     8.80766798
Ce     5.81364869     7.81495680     5.60725506
Ce     3.87195266     8.94185811     2.47426506
Rh     0.02075846     6.92628530     8.44350397
O      5.79595774    10.05349772     6.41475269
O     -0.14931233     2.19894817     9.51979583
O      1.93594729     1.11771969     3.26466483
O     -0.00766008     2.22714184     4.80234791
O      0.00000000     0.00000000     1.68386529
O      1.91847279     1.07020583     7.95976252
O     -1.94881211     9.96383996     6.47695111
O      3.95755727     2.10897183     9.60482178
O      5.80795803     1.11771969     3.26466483
O      3.86170690     2.21285640     4.84817864
O      3.87189458     0.00000000     1.68386529
O      5.81856264     1.17775502     7.90711503
O      1.93321369     9.94670980     6.46367250
O      7.73503053     2.16914533     9.55542545
O      9.67985261     1.11771969     3.26466483
O      7.74714168     2.21964419     4.85063769
O      7.74390532     0.00000000     1.68386529
O      9.63732600     1.10925844     7.89890541
O     -1.86449614     3.37225582     6.45888150
O     -2.40293354     5.19682973    10.11578088
O      0.00000000     4.47087876     3.26466483
O     -1.94712288     5.58065140     4.81583761
O      9.67985261     3.35315907     1.68386529
O     -0.01402165     4.89431407     8.09007900
O      1.86618036     3.35643699     6.42032848
O      3.87201074     4.47087876     3.26466483
O      1.94408421     5.58454593     4.82051586
O      1.93594729     3.35315907     1.68386529
O      3.84124915     4.47596636     8.03117142
O      5.78728000     3.38699678     6.42478002
O      5.90294575     5.53321039     9.61107111
O      7.74390532     4.47087876     3.26466483
O      5.81221916     5.58079976     4.80926019
O      5.80795803     3.35315907     1.68386529
O      7.76843484     4.44382617     7.95347192
O      7.73495762     6.71023109     6.42291549
O     -3.83146854     8.92943376     9.56880123
O     -1.93600537     7.82413842     3.26466483
O     -3.87575019     8.94651387     4.80374044
O      7.74384724     6.70641873     1.68386529
O     -1.90717477     7.45637173     8.12694006
O     -0.00432207     6.81150991     6.29446623
O      0.00249473     8.91953778     9.13437388
O      1.93600537     7.82413842     3.26466483
O     -0.00659481     8.98247957     4.77988662
O     -0.00005808     6.70641873     1.68386529
O      1.90003548     7.44078918     8.14133243
O      3.89822204     6.73206785     6.39200728
O      3.85945166     9.05342286     9.54857250
O      5.80789995     7.82413842     3.26466483
O      3.87417350     8.95204973     4.79468224
O      3.87195266     6.70641873     1.68386529
O      5.85828696     7.84110087     7.98605289
O      2.64512963     4.89469908    11.98208693
N      0.17148069     6.63548114    10.41612335
N      2.46624786     5.16530176    10.83952349
H     -1.53316999     5.50912716    10.45026556
H     -0.58318469     7.15755102    10.89139016
H      1.00346335     7.16699021    10.70424178
