83
CIF: O2—Olatt+Osur.cif | data_image0
Ce     1.93596140     1.11772783     0.89035214
Ce     0.02512436     2.24593635     4.05428690
Ce     0.01391661     0.00120818     7.23640622
Ce     5.80789581     1.11772783     0.89035214
Ce     3.81941775     2.19816825     3.96449476
Ce    -1.98605401     9.98249045     7.36100726
Ce     9.67981860     1.11772783     0.89035214
Ce     7.78888617     2.21594343     4.00846825
Ce     2.05684660     9.92645958     7.29920966
Ce     0.00000000     4.47091133     0.89035214
Ce    -1.93921631     5.58746390     4.09941899
Ce    -1.73319728     3.33030672     7.29123763
Ce     3.87193441     4.47091133     0.89035214
Ce     1.94428637     5.57391873     4.08594587
Ce     1.80925133     3.31679765     7.49028776
Ce     7.74385721     4.47091133     0.89035214
Ce     5.83497531     5.65835608     3.95371049
Ce    -1.93596721     7.82410489     0.89035214
Ce    -3.85243550     8.94096631     4.07290782
Ce    -3.80307949     6.79458520     7.34762025
Ce     1.93596721     7.82410489     0.89035214
Ce     0.00172456     8.96171140     4.10587473
Ce     0.00200411     6.71137599     7.24464113
Ce     5.80789000     7.82410489     0.89035214
Ce     3.87579733     8.95583667     4.01998144
Ce     3.81421287     6.87646468     7.23990541
W      5.06426777     3.80437277     6.72318289
Mo     6.79281854     2.79290197     8.21738506
O      0.00000000     0.00000000     0.09999685
O      1.93636101     1.10566261     3.20889639
O      0.08957606     2.25497408     6.37057900
O      0.00000000     2.23545567     1.68070743
O      0.01657591     0.00336705     4.82419405
O      1.80588159     1.09500941     8.08676753
O      3.87192279     0.00000000     0.09999685
O      5.81472051     1.16268654     3.23844509
O      3.94060720     2.33798133     6.50859459
O      3.87192279     2.23545567     1.68070743
O      3.86767662     0.06257278     4.85193356
O      6.24076618     1.20485204     8.81838384
O      7.74385721     0.00000000     0.09999685
O      9.68622484     1.11898930     3.21020467
O      7.70271983     2.28243838     6.66812495
O      7.74385721     2.23545567     1.68070743
O      7.76789520     0.08702766     4.83711239
O      9.86701018     1.01862819     8.06378099
O     -1.93596140     3.35318350     0.09999685
O     -0.00335957     4.47330276     3.26674228
O     -1.93847958     5.57250496     6.43149432
O     -1.93596721     5.58864923     1.68070743
O      9.63977772     3.29508443     4.83934303
O      0.08242706     4.55497399     8.14497133
O      1.93596140     3.35318350     0.09999685
O      3.91423026     4.47106068     3.21211937
O      1.94626634     5.60474460     6.39271458
O      1.93595559     5.58864923     1.68070743
O      2.01053264     3.32923728     4.80577528
O      5.80789581     3.35318350     0.09999685
O      7.71458442     4.44674756     3.23801786
O      5.81115502     5.49226537     6.50848150
O      5.80789000     5.58864923     1.68070743
O      5.76508722     3.38563096     4.95313457
O      7.86115608     4.09216613     8.82105822
O     -3.87192860     6.70637706     0.09999685
O     -1.93317126     7.83267050     3.26903449
O     -3.85083381     8.92143170     6.42784894
O     -3.87192860     8.94183273     1.68070743
O      7.69851409     6.68726199     4.83190485
O     -1.81068028     7.76466724     8.15553765
O     -0.00000581     6.70637706     0.09999685
O      1.94612836     7.83331242     3.26992106
O      0.02806702     8.96502732     6.44144984
O     -0.00000581     8.94183273     1.68070743
O     -0.00945419     6.71884565     4.86727218
O      3.87192860     6.70637706     0.09999685
O      5.81045273     7.83466002     3.20792135
O      3.89032770     8.90846992     6.32489584
O      3.87192860     8.94183273     1.68070743
O      3.94274857     6.67770177     4.86111862
O      5.66942818     7.84231584     8.04496871
O      1.98525502     7.71891542     8.11225111
O      3.82924206     4.54644708     8.00035161
O      3.17038250     3.48538448     9.25387793
