90
CIF: CH2CHCH2.cif | data_image0
O      0.00261135     0.00382715     0.19995339
O      1.91362152     1.09519841     3.33329064
O      0.08579018     2.13900645     6.46932652
O      0.00261135     2.21285656     1.76196664
O      5.70795043     9.91586670     4.94455393
O      1.75840635     1.44228803     8.44320295
O      3.82876252     0.00382715     0.19995339
O      5.74693352     1.11168717     3.33205457
O      3.61537010     2.51600893     6.72255104
O      3.82876252     2.21285656     1.76196664
O      3.84485126     0.09841907     4.99986772
O      5.85736188     1.21248603     8.17697428
O      7.65492518     0.00382715     0.19995339
O      9.54885544     1.10115103     3.32329525
O      7.70671295     2.22542016     6.50751852
O      7.65492518     2.21285656     1.76196664
O      7.65504247     0.01066807     4.96988247
O      9.58702148     1.11651712     8.15870239
O     -1.91046424     3.31737126     0.19995339
O     -0.01041369     4.44020557     3.32452848
O     -1.85905822     5.49554665     6.54297330
O     -1.91046998     5.52641062     1.76196664
O     -1.87899325     3.30325326     4.97462605
O      0.11169979     4.25748112     8.12769161
O      1.91568694     3.31737126     0.19995339
O      3.84118745     4.41643739     3.35216309
O      2.01697110     5.30891283     6.63516355
O      1.91568120     5.52641062     1.76196664
O      1.85600073     3.30535264     4.89968196
O      4.35607647     4.56375478     8.81242935
O      5.74184959     3.31737126     0.19995339
O      7.65470953     4.43182840     3.37282845
O      5.79572565     5.47896990     6.54139674
O      5.74184385     5.52641062     1.76196664
O      5.71943998     3.26239854     5.00832716
O      7.73783129     4.40656873     8.19194965
O     -3.82354556     6.63092532     0.19995339
O     -1.89156791     7.74268049     3.37980878
O     -3.85398695     8.93804402     6.56304750
O     -3.82354556     8.83995473     1.76196664
O     -3.79378396     6.66139127     5.01913472
O     -1.89457512     7.62780285     8.20157384
O      0.00260561     6.63092532     0.19995339
O      1.90294218     7.73833115     3.33864747
O      0.02282099     8.83971732     6.51991933
O      0.00260561     8.83995473     1.76196664
O      0.07256044     6.60615999     5.02892569
O      1.78957435     7.75834542     8.20375266
O      3.82876826     6.63092532     0.19995339
O      5.76207471     7.71832520     3.35200261
O      3.81139965     8.86457118     6.54595239
O      3.82876826     8.83995473     1.76196664
O      3.81836369     6.62915375     4.95832190
O      5.86897080     7.81890313     8.23392184
Ce     1.91568694     1.10834185     0.98097142
Ce    -0.02026384     2.19042512     4.09528211
Ce     5.67085758     9.87896346     7.32017606
Ce     5.74184959     1.10834185     0.98097142
Ce     3.81935140     2.22876595     4.16071735
Ce     3.87509760     0.04126969     7.42255511
Ce     9.56800076     1.10834185     0.98097142
Ce     7.65152287     2.21136808     4.14689377
Ce     7.64668711     0.00168408     7.33656337
Ce     0.00261135     4.42188597     0.98097142
Ce    -1.89099851     5.52635463     4.17040829
Ce    -1.88800814     3.29585486     7.34091537
Ce     3.82877400     4.42188597     0.98097142
Ce     1.93614988     5.52732669     4.15414821
Ce     7.65492518     4.42188597     0.98097142
Ce     5.74416555     5.53149829     4.18749324
Ce     5.84561988     3.33256358     7.37888677
Ce    -1.91046998     7.73544003     0.98097142
Ce    -3.81603400     8.85583513     4.18166466
Ce    -3.77975920     6.65258477     7.37797832
Ce     1.91569268     7.73544003     0.98097142
Ce     0.00607299     8.85824314     4.17141748
Ce     0.02563380     6.63370651     7.36953547
Ce     5.74184385     7.73544003     0.98097142
Ce     3.82208709     8.81424649     4.14859082
Ce     3.85509115     6.63610307     7.46487300
Sn     1.70743313     3.29514925     7.08529574
C      4.34077104     4.33233905    10.21289022
C      3.05550206     3.69703622    10.66514990
C      2.97625742     2.56589276    11.37701357
H      4.46969056     5.29558878    10.75316282
H      5.19535232     3.69525690    10.52305500
H      2.13946113     4.22609168    10.37243571
H      1.88205309     1.71453039     9.37483814
H      2.02017964     2.16540447    11.72281600
H      3.87611432     2.01792656    11.67158404
