81
CIF: Ta-CeO2.cif | data_image0
O      0.00261284     0.00382715     0.19994632
O      1.91552510     1.14847509     3.37803850
O     -0.08907624     2.13395402     6.44989014
O      0.00261284     2.21285656     1.76195957
O      5.74513206     9.89944181     4.95879724
O      1.85969915     1.50300509     8.09778490
O      3.82876402     0.00382715     0.19994632
O      5.73303091     1.11326579     3.34330579
O      3.80905174     2.11135443     6.46931033
O      3.82876402     2.21285656     1.76195957
O     -1.90000602     9.89075459     4.95231846
O      5.74026114     0.95595640     8.19932803
O      7.65492667     0.00382715     0.19994632
O      9.57421277     1.11346320     3.34279104
O      7.70056257     2.18137515     6.54158791
O      7.65492667     2.21285656     1.76195957
O      7.65416476     0.00312611     4.95395622
O      9.57951168     1.09264150     8.19546351
O     -1.91046274     3.31737126     0.19994632
O      0.03632874     4.39568235     3.36045132
O     -1.80887106     5.49921802     6.55836536
O     -1.91046848     5.52641062     1.76195957
O      9.54309299     3.33635690     4.95591457
O      0.36658437     4.21475577     7.97074163
O      1.91568843     3.31737126     0.19994632
O      3.79143391     4.40118433     3.37370927
O      1.92187706     5.74247926     6.41465955
O      1.91568269     5.52641062     1.76195957
O      1.89169549     3.34668960     5.23187439
O      3.35665217     4.21808266     8.03237352
O      5.74185108     3.31737126     0.19994632
O      7.65159839     4.44322673     3.34241276
O      5.67708428     5.56470178     6.61551451
O      5.74184534     5.52641062     1.76195957
O      5.75516791     3.32922770     4.96025896
O      7.79701279     4.49290841     8.17661479
O     -3.82354407     6.63092532     0.19994632
O     -1.93658896     7.72553981     3.32499689
O     -3.81949818     8.92023749     6.60968619
O     -3.82354407     8.83995473     1.76195957
O     -3.81371465     6.63439749     5.04322123
O     -1.87822668     7.72807027     8.13934059
O      0.00260710     6.63092532     0.19994632
O      1.92237148     7.73285393     3.33212947
O      0.02652214     8.81346451     6.49588310
O      0.00260710     8.83995473     1.76195957
O     -0.03320819     6.64671391     4.92163705
O      1.92458017     7.75221959     8.19459380
O      3.82876976     6.63092532     0.19994632
O      5.77035933     7.72308558     3.33325896
O      3.81374274     8.84608864     6.51822152
O      3.82876976     8.83995473     1.76195957
O      3.87386260     6.65629602     4.93984874
O      5.71805305     7.78439117     8.17180499
Ce     1.91568843     1.10834185     0.98096435
Ce    -0.01664293     2.20151726     4.15992087
Ce    11.43826933     0.01858656     7.33681985
Ce     5.74185108     1.10834185     0.98096435
Ce     3.84493936     2.20475172     4.18563784
Ce    -1.85619904     9.93766619     7.31737026
Ce     9.56800226     1.10834185     0.98096435
Ce     7.64464499     2.21555402     4.16379989
Ce     7.65101999     0.00347235     7.35507700
Ce     0.00261284     4.42188597     0.98096435
Ce    -1.90821418     5.52645981     4.15505265
Ce     9.57373058     3.28552944     7.31615220
Ce     3.82877550     4.42188597     0.98096435
Ce     1.91740284     5.55100746     4.15225250
Ce     7.65492667     4.42188597     0.98096435
Ce     5.74284068     5.52037036     4.18033632
Ce     5.71627409     3.28644294     7.41025252
Ce    -1.91046848     7.73544003     0.98096435
Ce    -3.82236724     8.83795325     4.16368672
Ce    -3.80388803     6.62667143     7.38225323
Ce     1.91569417     7.73544003     0.98096435
Ce     0.00527009     8.83925953     4.12874402
Ce     0.05692513     6.64759501     7.29420376
Ce     5.74184534     7.73544003     0.98096435
Ce     3.83374503     8.84318946     4.13454110
Ce     3.79512306     6.67909690     7.30868581
Ta     1.90534542     3.24145276     7.25502574
