86
CIF: 2-NH2+H+NO-NH2NO+H_ts.cif | data_image0
Ce     0.07084986     0.11721537     8.69965148
Ce     1.95615550     1.09879949     5.63945008
Ce     0.00000000     2.23543938     2.47426506
Ce    -1.44127023     8.98474237    10.04615435
Ce     5.71300180     1.08961378     5.62247690
Ce     3.87189458     2.23543938     2.47426506
Ce     7.64810844     0.20103495     8.74700500
Ce     9.66635317     1.10888955     5.59403287
Ce     7.74390532     2.23543938     2.47426506
Ce     9.56791238     3.29718104     8.75790879
Ce    -0.00209137     4.46669318     5.54250910
Ce    -1.93600537     5.58869904     2.47426506
Ce     1.86776918     3.58582224     8.82444321
Ce     3.89604944     4.47971079     5.65645575
Ce     1.93588921     5.58869904     2.47426506
Ce     5.82176764     3.44705346     8.81233659
Ce     7.71115066     4.46253929     5.57542640
Ce     5.80789995     5.58869904     2.47426506
Ce     7.74776291     6.59154248     8.83680971
Ce    -1.93033008     7.84003885     5.63167947
Ce    -3.87195266     8.94185811     2.47426506
Ce     1.98424847     7.78607400     5.58503049
Ce    -0.00005808     8.94185811     2.47426506
Ce     4.04992394     6.48713761     9.15145910
Ce     5.81647336     7.82602700     5.69862962
Ce     3.87195266     8.94185811     2.47426506
Ir     0.24542048     6.61470097     8.44815597
O      0.01904199     0.06452272     6.42324786
O     -0.17142785     2.31839448     9.52826284
O      1.93594729     1.11771969     3.26466483
O     -0.02210903     2.21877379     4.78464874
O      0.00000000     0.00000000     1.68386529
O      1.92574251     1.16361306     8.15976893
O     -1.95583371    10.00669884     6.26227603
O     -0.57797471     8.76571724    11.78668785
O      5.80795803     1.11771969     3.26466483
O      3.85247966     2.25590652     4.81175526
O      3.87189458     0.00000000     1.68386529
O      5.64085010     1.14324729     8.21555778
O      1.81530324     9.98511542     6.53027289
O      7.68881024     2.23940041     9.55727331
O      9.67985261     1.11771969     3.26466483
O      7.72012010     2.17912018     4.80490000
O      7.74390532     0.00000000     1.68386529
O      9.60708723     1.01559314     7.99081383
O     -1.91232816     3.33317090     6.36439415
O     -2.41992139     5.11499756     9.88204495
O      0.00000000     4.47087876     3.26466483
O     -1.91837009     5.59400593     4.81047218
O      9.67985261     3.35315907     1.68386529
O     -0.09578983     4.77690933     8.01107122
O      1.86871675     3.38740495     6.39128974
O      3.87201074     4.47087876     3.26466483
O      2.00622601     5.59558234     4.79409144
O      1.93594729     3.35315907     1.68386529
O      4.03390296     4.26738850     7.98937962
O      5.78422414     3.29588145     6.35112197
O      5.96353895     5.73192439     9.32978698
O      7.74390532     4.47087876     3.26466483
O      5.77719912     5.59326652     4.80911647
O      5.80795803     3.35315907     1.68386529
O      7.69431274     4.39160921     7.83891784
O     -3.83451714     6.70976255     6.39857103
O     -3.37710253     8.28576587    10.18833355
O     -1.93600537     7.82413842     3.26466483
O     -3.90681441     8.93502803     4.80851377
O      7.74384724     6.70641873     1.68386529
O     -1.69855762     7.49036806     8.05979112
O      0.10455730     6.72009433     6.30703770
O      0.65315261     8.42994127     8.92425528
O      1.93600537     7.82413842     3.26466483
O      0.02179890     8.93374311     4.79788038
O     -0.00005808     6.70641873     1.68386529
O      2.15949189     6.12016389     8.49314514
O      3.99348440     6.80386114     6.58046025
O      3.70516460     8.38577350     9.49434399
O      5.80789995     7.82413842     3.26466483
O      3.83162446     8.95377612     4.82635545
O      3.87195266     6.70641873     1.68386529
O      5.99362126     7.99661599     8.17684102
O      4.03085530     4.57719298    10.34630502
N     -0.05981229     6.35827051    10.56180920
N      3.11421780     5.61487137    12.13166138
H     -0.98305295     5.81062964    10.65095705
H     -0.17524730     7.24639078    11.14739186
H      0.69338677     5.89718191    11.05489421
