89
CIF: CH2+CH2CO.cif | data_image0
O      0.00261135     0.00382715     0.19995339
O      1.92180940     1.03112629     3.31255062
O      0.20462502     2.26370902     6.43621057
O      0.00261135     2.21285656     1.76196664
O      5.73546881     9.93526342     4.96658734
O      3.82876252     0.00382715     0.19995339
O      5.75681575     1.09898414     3.32409812
O      3.64962029     2.50305520     6.66615385
O      3.82876252     2.21285656     1.76196664
O      3.83694123     0.10515533     5.02637105
O      5.71989075     1.17491690     8.12407331
O      7.65492518     0.00382715     0.19995339
O      9.55629971     1.09524135     3.33076092
O      7.67419856     2.20529908     6.51025557
O      7.65492518     2.21285656     1.76196664
O      7.66194738     0.00061818     4.97778104
O      9.61415243     1.16826624     8.11350435
O     -1.91046424     3.31737126     0.19995339
O     -0.06595701     4.47072527     3.33759394
O     -1.76123617     5.46333620     6.65237599
O     -1.91046998     5.52641062     1.76196664
O      9.56839254     3.29983430     4.99466060
O      0.22250622     3.86826995     8.62755915
O      1.91568694     3.31737126     0.19995339
O      3.90457472     4.46578261     3.33453862
O      1.75140598     5.20885694     6.69492900
O      1.91568120     5.52641062     1.76196664
O      1.92701060     3.31958674     4.59046174
O      5.02668137     4.90373109     9.32298356
O      5.74184959     3.31737126     0.19995339
O      7.65948302     4.43042087     3.36042022
O      5.71752323     5.41317974     6.60947994
O      5.74184385     5.52641062     1.76196664
O      5.75255424     3.26130860     4.97817143
O      7.74746203     4.36900111     8.18097691
O     -3.82354556     6.63092532     0.19995339
O     -1.91343467     7.74489483     3.37512758
O     -3.79185466     8.88429256     6.51013520
O     -3.82354556     8.83995473     1.76196664
O     -3.79402897     6.59568317     5.06003396
O     -1.93512191     7.78934660     8.15570238
O      0.00260561     6.63092532     0.19995339
O      1.91300174     7.74688634     3.34487767
O     -0.02521168     8.90104505     6.53091500
O      0.00260561     8.83995473     1.76196664
O      0.03422288     6.67270128     5.01274670
O      1.85262080     7.86932820     8.14519496
O      3.82876826     6.63092532     0.19995339
O      5.75543037     7.70696262     3.37502466
O      3.85251933     8.87217497     6.55502230
O      3.82876826     8.83995473     1.76196664
O      3.78124361     6.61101073     5.02000203
O      5.90776392     7.77386434     8.19598184
O      2.32994449     4.31727630     9.19561187
O      1.88626746     1.16102836     8.19227124
Ce     1.91568694     1.10834185     0.98097142
Ce     0.03217645     2.21332887     4.11726906
Ce     0.04955578     0.01845211     7.31916225
Ce     5.74184959     1.10834185     0.98097142
Ce     3.79895875     2.24955371     4.13882156
Ce     3.77788933     0.10423270     7.34339936
Ce     9.56800076     1.10834185     0.98097142
Ce     7.66691957     2.20038124     4.10928418
Ce     7.67200100     0.00811709     7.30759961
Ce     0.00261135     4.42188597     0.98097142
Ce    -1.88901652     5.52477260     4.17464669
Ce     9.57142274     3.26280645     7.30380305
Ce     3.82877400     4.42188597     0.98097142
Ce     1.90811114     5.49206289     4.19939428
Ce     7.65492518     4.42188597     0.98097142
Ce     5.73430845     5.51699492     4.18185316
Ce     5.81689395     3.25610476     7.27604438
Ce    -1.91046998     7.73544003     0.98097142
Ce    -3.82001639     8.84740530     4.15576668
Ce    -3.78847384     6.65263239     7.36980637
Ce     1.91569268     7.73544003     0.98097142
Ce     0.00830845     8.85642554     4.14987036
Ce     0.02683873     6.75640894     7.36884975
Ce     5.74184385     7.73544003     0.98097142
Ce     3.82792011     8.81661110     4.16455894
Ce     3.78944213     6.65118954     7.42539555
Rh     1.77485984     3.14795081     7.50611135
C      0.56298550     5.75089758    10.03115598
C      1.06549123     4.65375204     9.36415873
C      5.76380576     5.12603230    10.27968481
H     -0.50253809     5.77014594    10.27263319
H      1.23455005     6.40210493    10.58566082
H      6.45474835     4.34952708    10.66123043
H      5.75840336     6.12079800    10.77097904
