89
CIF: CH2COCH2.cif | data_image0
O      0.00261135     0.00382715     0.19995339
O      1.93221236     1.14135316     3.35244405
O     -0.48110894     1.93699188     6.29980895
O      0.00261135     2.21285656     1.76196664
O      5.78143248     9.83378149     4.89468292
O      3.82876252     0.00382715     0.19995339
O      5.71677358     1.10818912     3.34154233
O      3.78798639     2.53434300     6.65167724
O      3.82876252     2.21285656     1.76196664
O      3.83643297     0.10171595     5.03787158
O      5.69702400     1.13023668     8.10901281
O      7.65492518     0.00382715     0.19995339
O      9.55150737     1.10138048     3.33928168
O      7.65477091     2.20856634     6.51465332
O      7.65492518     2.21285656     1.76196664
O      7.63935053     0.00304380     4.96447274
O      9.45263442     1.05079491     8.25493144
O     -1.91046424     3.31737126     0.19995339
O      0.03189534     4.42574940     3.34597439
O     -1.88077871     5.55824910     6.56345487
O     -1.91046998     5.52641062     1.76196664
O      9.48914978     3.40623110     4.89992418
O      0.18736621     4.17223055     7.71131021
O      1.91568694     3.31737126     0.19995339
O      3.78612307     4.39639450     3.38068301
O      2.18457006     5.35685517     6.69285415
O      1.91568120     5.52641062     1.76196664
O      1.78089122     3.28779009     5.17635365
O      4.50481315     4.85166770     8.75643686
O      5.74184959     3.31737126     0.19995339
O      7.62974480     4.44140712     3.31611910
O      5.75144532     5.51533439     6.49734181
O      5.74184385     5.52641062     1.76196664
O      5.74769019     3.29584141     4.96990345
O      7.68888265     4.42056453     8.15200353
O     -3.82354556     6.63092532     0.19995339
O     -1.87316972     7.75343111     3.38013868
O     -3.77294327     8.79413399     6.53494969
O     -3.82354556     8.83995473     1.76196664
O     -3.80835844     6.62171505     4.97030008
O     -1.87835717     7.74805885     8.18834753
O      0.00260561     6.63092532     0.19995339
O      1.90201638     7.72365291     3.34257237
O     -0.03133610     8.83139399     6.51854207
O      0.00260561     8.83995473     1.76196664
O      0.09685977     6.59482008     5.04844568
O      1.87796581     7.73269840     8.11739223
O      3.82876826     6.63092532     0.19995339
O      5.75415170     7.70096728     3.31815987
O      3.81321538     8.85656852     6.50244419
O      3.82876826     8.83995473     1.76196664
O      3.82502462     6.65027072     4.96000305
O      5.76785241     7.76161457     8.13743193
O      1.79893108     1.28579215     7.61693359
O      2.29319897     3.17452745     9.18314199
Ce     1.91568694     1.10834185     0.98097142
Ce    -0.03854041     2.19239370     4.14336298
Ce    11.43015090     0.01512942     7.28402498
Ce     5.74184959     1.10834185     0.98097142
Ce     3.81077217     2.23608269     4.18847969
Ce     3.80833321     0.03302776     7.33182666
Ce     9.56800076     1.10834185     0.98097142
Ce     7.63599870     2.22204754     4.13489883
Ce     7.64246033     0.01045287     7.35076916
Ce     0.00261135     4.42188597     0.98097142
Ce    -1.90254687     5.52905005     4.15859417
Ce     9.55983446     3.25496355     7.29739208
Ce     3.82877400     4.42188597     0.98097142
Ce     1.92734957     5.50848593     4.19142178
Ce     7.65492518     4.42188597     0.98097142
Ce     5.75029327     5.52519548     4.15056130
Ce     5.81772729     3.35213854     7.37575680
Ce    -1.91046998     7.73544003     0.98097142
Ce    -3.81503491     8.83758436     4.15743839
Ce    -3.77991372     6.64240401     7.35079050
Ce     1.91569268     7.73544003     0.98097142
Ce     0.02485303     8.85797568     4.16419616
Ce     0.03692134     6.61638751     7.33780145
Ce     5.74184385     7.73544003     0.98097142
Ce     3.82776311     8.82665894     4.12957711
Ce     3.90316191     6.69537272     7.34334938
Ir     1.99100941     3.33471217     7.22803853
H      3.07308602     6.06669000     9.66566161
H      4.24301803     5.31519706    10.75743318
H      1.37011358     3.13081615    11.58649749
H      2.46770461     4.52490137    12.20067354
C      3.66046100     5.11936660     9.83803396
C      2.64563242     4.02543769    10.13609945
C      2.13275386     3.88260218    11.38606044
