83
CIF: Re-Sc-CeO2-Ov-O2.cif | data_image0
Ce     1.93038582     1.11050507     0.88387043
Ce    -0.00433305     2.23673397     4.06277460
Ce    11.59321243     0.03611737     7.23285623
Ce     5.81181033     1.12175166     0.90127712
Ce     3.86951386     2.22331141     4.05641838
Ce    -2.09732063     9.99911610     7.24774000
Ce     9.66901012     1.12377363     0.90450652
Ce     7.74134871     2.22883802     3.96061982
Ce     2.06069845     9.80060257     7.37397535
Ce    -0.00709724     4.47602159     0.89067279
Ce    -1.96707078     5.58320719     4.08892485
Ce    -1.71178737     3.35019124     7.33910610
Ce     3.86254305     4.47635356     0.87798423
Ce     1.93906493     5.57226624     4.08297000
Ce     1.95277388     3.35558774     7.31034466
Ce     7.74213807     4.46545905     0.90125422
Ce     5.81958974     5.59965990     4.01815273
Ce    -1.94645625     7.83004003     0.90010904
Ce    -3.88334813     8.96714986     3.99155692
Ce    -3.89361347     6.88982933     7.13781294
Ce     1.92815559     7.82745473     0.89060408
Ce    -0.02015283     8.95759617     4.11911686
Ce    -0.02277155     6.69640114     7.25739682
Ce     5.81127600     7.83258510     0.88371011
Ce     3.86994311     8.95030269     4.05340724
Ce     3.88743792     6.68636262     7.22227593
Sc     5.37377080     3.63938648     6.91538237
Re     7.35114478     2.45200627     9.72094718
O     11.61334069     0.00154917     0.10141687
O      1.92364467     1.12417461     3.22031195
O      0.02473375     2.24668464     6.35522016
O     -0.00785227     2.23805103     1.69392277
O     11.58254589     0.01030819     4.82251661
O      1.75061792     1.01512888     8.11108502
O     -1.93899312    10.05733740     0.10496691
O      5.80353115     1.11593566     3.23205949
O      4.02972718     2.21143775     6.51878175
O      3.86763657     2.23577757     1.68132582
O      3.85261792     0.00573021     4.80931421
O      7.29563921     0.71251112     9.93503962
O      7.73821774     0.00761509     0.10924988
O      9.67091552     1.11226203     3.20935586
O      7.05634915     2.79310466     7.94980192
O      7.74357843     2.23531483     1.71563532
O      7.74419775     0.17157870     4.96520909
O      9.71331511     1.08273148     7.99885420
O      9.67032270     3.35425987     0.10911246
O     -0.03644049     4.46334961     3.28788161
O     -2.13021925     5.55947225     6.47999141
O     -1.94403436     5.59119430     1.70564938
O      9.52401724     3.27194899     4.92951836
O      0.02224261     4.64260187     8.10283861
O      1.92738314     3.35244915     0.09928684
O      3.90318673     4.45992342     3.22989148
O      1.93587037     5.64611922     6.33218846
O      1.92862022     5.59252216     1.67404250
O      1.99852385     3.33183803     4.82012020
O      5.81155478     3.35101064     0.10766953
O      7.73540276     4.47985383     3.21843808
O      5.94877454     5.54325551     6.45080373
O      5.80528807     5.59217007     1.68114259
O      5.87769899     3.33204171     4.91071888
O      8.87332748     3.19046583    10.14391658
O     -3.87155109     6.71022987     0.10512724
O     -1.93089239     7.82555284     3.24303367
O     -3.93077116     8.94802522     6.33204444
O     -3.87509971     8.94378428     1.69355631
O     -3.88888453     6.74867374     4.79456718
O     -2.04181888     7.72337654     8.07645393
O     -0.01209783     6.71325780     0.10434852
O      1.92276067     7.85518190     3.30903930
O     -0.01099426     8.96156822     6.52613764
O     -0.00628994     8.94736548     1.70514550
O     -0.08225742     6.71016340     4.90861037
O      1.98314277     7.63514591     8.11892842
O      3.86815347     6.71410280     0.09951587
O      5.78983609     7.83534049     3.21042603
O      3.89408035     8.84818695     6.38560399
O      3.86556896     8.94715423     1.69389986
O      3.93647957     6.66210021     4.84665499
O      5.83103146     7.82805740     8.01945994
O      3.96426335     4.57733384     7.98116506
O      6.09321697     3.16444402    10.66213274
