83
CIF: Rh-Ti-CeO2-Ov-O2.cif | data_image0
Ce     1.93038582     1.11050507     0.88387043
Ce     0.00401505     2.23317063     4.06148711
Ce    -5.75549876    10.02099208     7.19733522
Ce     5.81181033     1.12175166     0.90127712
Ce     3.82064459     2.21936220     3.98710842
Ce    -1.94727576    10.00933148     7.23688933
Ce     9.66901012     1.12377363     0.90450652
Ce     7.75471065     2.23485589     4.03653687
Ce     1.95177654    10.02332990     7.21269881
Ce    -0.00709724     4.47602159     0.89067279
Ce    -1.95204765     5.58813431     4.08038302
Ce    -1.85696208     3.36451540     7.24128583
Ce     3.86254305     4.47635356     0.87798423
Ce     1.94458057     5.58639273     4.09524424
Ce     1.91483774     3.31190102     7.29365996
Ce     7.74213807     4.46545905     0.90125422
Ce     5.80620974     5.64699812     3.99526151
Ce    -1.94645625     7.83004003     0.90010904
Ce    -3.86389235     8.92916257     4.05780979
Ce    -3.86273810     6.71958485     7.31982622
Ce     1.92815559     7.82745473     0.89060408
Ce    -0.00455942     8.95800059     4.05535358
Ce     0.00895461     6.70703521     7.24257904
Ce     5.81127600     7.83258510     0.88371011
Ce     3.87324723     8.94525424     4.05177276
Ce     3.87982583     6.79803028     7.28598598
Ti     5.66774479     3.43025702     6.53749795
Rh     6.59327026     2.84374428     8.79129406
O     11.61334069     0.00154917     0.10141687
O      1.91995682     1.10730223     3.21324365
O     -0.01640444     2.19025325     6.45819482
O     -0.00785227     2.23805103     1.69392277
O     -5.78858138    10.05021680     4.85650391
O      2.03933601     0.98913706     8.00593079
O     -1.93899312    10.05733740     0.10496691
O      5.80283095     1.09854251     3.23270060
O      4.14271100     2.34705006     6.38207637
O      3.86763657     2.23577757     1.68132582
O      3.84981661     0.04217634     4.86616587
O      5.91887552     1.07519815     8.43332046
O      7.73821774     0.00761509     0.10924988
O      9.68914984     1.11757347     3.24077896
O      7.39937991     2.43428724     6.39498645
O      7.74357843     2.23531483     1.71563532
O      7.76053455     0.04953419     4.87717507
O      9.50796093     1.21542213     7.98294555
O      9.67032270     3.35425987     0.10911246
O     -0.00912491     4.47769400     3.27410363
O     -1.96090129     5.52568396     6.43347707
O     -1.94403436     5.59119430     1.70564938
O      9.66278991     3.29986351     4.90036486
O     -0.09106007     4.50673551     8.07769663
O      1.92738314     3.35244915     0.09928684
O      3.83036872     4.49606139     3.21320458
O      1.96619413     5.57357042     6.46297138
O      1.92862022     5.59252216     1.67404250
O      1.94583507     3.30690893     4.84762519
O      5.81155478     3.35101064     0.10766953
O      7.76729138     4.47687463     3.23914391
O      5.81619295     5.28902670     6.39682283
O      5.80528807     5.59217007     1.68114259
O      5.76742811     3.37871221     4.63776765
O      7.83337084     4.26477474     8.54631971
O     -3.87155109     6.71022987     0.10512724
O     -1.92729187     7.82515215     3.26154233
O     -3.82728323     8.94553009     6.38294523
O     -3.87509971     8.94378428     1.69355631
O      7.70407799     6.70217907     4.83818866
O     -1.82047105     7.88015623     8.03407866
O     -0.01209783     6.71325780     0.10434852
O      1.92547378     7.82933233     3.26370219
O     -0.00437640     9.04808564     6.40394104
O     -0.00628994     8.94736548     1.70514550
O     -0.00525028     6.72500560     4.91212596
O      1.84073085     7.91654716     8.03766717
O      3.86815347     6.71410280     0.09951587
O      5.80633487     7.84798490     3.21186754
O      3.86979180     9.00977144     6.40898192
O      3.86556896     8.94715423     1.69389986
O      3.91615424     6.72771544     4.84337529
O      5.83298842     7.97611333     8.05088708
O      4.27173589     4.22733112     8.29588440
O      5.01987174     3.72946756     9.42185304
