86
CIF: 5-NHNO+2H-N2O+H_is.cif | data_image0
Ce     0.01974384     0.04536641     8.82169169
Ce     1.95901300     1.16047508     5.65874801
Ce     0.03157618     2.27354500     2.49742867
Ce     3.85728183     0.03771149     8.80942211
Ce     5.83736960     1.13947861     5.66498923
Ce     3.90841064     2.26938022     2.52186749
Ce     7.77790218     0.03275621     8.81456867
Ce     9.70171125     1.12794509     5.61235240
Ce     7.76004686     2.27061892     2.51449280
Ce     9.68741108     3.23396863     8.77525306
Ce     0.01977747     4.47999012     5.65895638
Ce    -1.90928545     5.61690654     2.51961981
Ce     1.95863478     3.34105771     8.89786163
Ce     3.88094829     4.51639713     5.69615614
Ce     1.96338504     5.61570055     2.51584928
Ce     5.82905601     3.38374560     8.82527781
Ce     7.78083266     4.50539214     5.67768952
Ce     5.83544370     5.60722356     2.51564312
Ce    -3.88800326     6.85683284     8.76781878
Ce    -1.90958836     7.85895922     5.69521113
Ce    -3.82950002     8.96830929     2.50014088
Ce     1.96667233     7.85488192     5.64892817
Ce     0.02480947     8.96836991     2.51671996
Ce     3.99719684     6.79353859     8.82558694
Ce     5.83208804     7.86980692     5.61200171
Ce     3.88525621     8.96471499     2.48652846
Ni     0.51444877     6.41000808     8.32353234
O      0.01483885     0.03888438     6.43671603
O     -0.10488246     2.15544639     9.65984694
O      1.99188724     1.16288653     3.29547433
O      0.02743561     2.25395481     4.82331436
O      0.03803831     0.03758612     1.73490340
O      1.95088558     1.10626859     8.01786436
O      3.89320218     0.03352065     6.45875208
O      4.02023004     2.21898217     9.58240725
O      5.83110863     1.16571817     3.30464464
O      3.91169988     2.28672632     4.88833350
O      3.90769531     0.01537101     1.73382810
O      5.86396477     1.08619081     7.98868594
O      1.97914810    10.05186671     6.45195192
O      7.75994664     2.25080828     9.59586613
O      9.69037677     1.15212511     3.27699508
O      7.75116014     2.25702849     4.85231365
O      7.76007980     0.01700855     1.72842434
O      9.67532662     1.10990020     7.97535571
O      9.69210219     3.32219926     6.42600204
O     -2.10233921     5.52092971    10.47198068
O      0.02804167     4.50694446     3.32591954
O     -1.92936887     5.60269467     4.87406909
O     -1.90982560     3.39969228     1.73617025
O     -0.20466615     4.51547024     8.10130507
O      1.92316654     3.39414229     6.47361480
O      3.91619073     4.48622286     3.31070604
O      2.00207663     5.60240188     4.84872673
O      1.95977071     3.39484806     1.73283293
O      3.91633673     4.58073498     8.05336246
O      5.86923649     3.40428039     6.53808631
O      5.89868459     5.68784136     9.59026356
O      7.75456136     4.49050038     3.32389870
O      5.81818172     5.61746105     4.86919399
O      5.83886605     3.38712035     1.72986048
O      7.91454022     4.57887103     8.09413088
O     -3.86815972     6.74474479     6.44178719
O     -3.89597979     8.99105669     9.67633488
O     -1.89911898     7.84461731     3.32904997
O     -3.84905809     8.97900149     4.83765517
O     -3.82951772     6.72517736     1.73692116
O     -2.01526925     7.89313501     8.06682958
O      0.06052448     6.72699049     6.32098849
O      0.00575029     9.40433648    10.04299559
O      1.95540708     7.84637525     3.31867171
O      0.02298277     8.99551243     4.85346100
O      0.02676306     6.73040753     1.73767802
O      1.92158583     7.88897735     8.15725787
O      3.88853238     6.79361358     6.48648620
O      3.93887519     8.97603116     9.61108538
O      5.83083187     7.83814692     3.27929959
O      3.90408658     8.96817137     4.80712357
O      3.88298798     6.72876283     1.72752428
O      5.85720842     7.88958039     7.98263643
O      2.58550918     5.50610447    10.38030395
N      0.48179597     6.26065483    10.28139891
N      1.41383668     5.87936856    11.00084477
H     -1.14515697     5.89996719    10.54225321
H     -2.40213592     5.37563388    11.38837862
H      0.02350762     8.50142110    10.41962589
