89
CIF: CH2CCH2+O2→CH2COOCH2.cif | data_VESTA_phase_1
O      0.00261135     0.00382715     0.19995339
O      1.91760958     1.10000165     3.33693603
O      0.00105602     2.25590948     6.53933805
O      0.00261135     2.21285656     1.76196664
O      0.00098141     0.01366838     4.98099723
O      1.92446796     1.00996926     8.10728193
O      3.82876252     0.00382715     0.19995339
O      5.74153967     1.10846114     3.32861034
O      3.82755729     2.29182502     6.58422834
O      3.82876252     2.21285656     1.76196664
O      3.83264799     0.03252578     4.98941416
O      5.75141115     1.12108576     8.15997327
O      7.65492518     0.00382715     0.19995339
O      9.57124917     1.10255640     3.32981927
O      7.67393925     2.21425819     6.53495851
O      7.65492518     2.21285656     1.76196664
O      7.65937308     0.01467239     4.96201922
O      9.56516558     1.07239649     8.15796598
O     -1.91046424     3.31737126     0.19995339
O      0.00676082     4.42583240     3.35564031
O     -1.81073933     5.50208586     6.53014558
O     -1.91046998     5.52641061     1.76196664
O      9.55884095     3.30341460     4.96785861
O      1.91568694     3.31737126     0.19995339
O      3.83185023     4.42286015     3.35265219
O      1.88771392     5.65433674     6.61488512
O      1.91568120     5.52641061     1.76196664
O      1.92112773     3.30713240     4.96199641
O      4.23574298     4.63022195     8.62101113
O      5.74184959     3.31737126     0.19995339
O      7.65498831     4.42294962     3.33495155
O      5.68032502     5.50427280     6.53461636
O      5.74184385     5.52641061     1.76196664
O      5.76014626     3.29814606     4.96852010
O      7.64642537     4.43450064     8.11957657
O     -3.82354556     6.63092532     0.19995339
O     -1.91933135     7.74227919     3.34884290
O     -3.81851226     8.79415819     6.50181542
O     -3.82354556     8.83995473     1.76196664
O      7.66185243     6.58955237     5.00200533
O     -1.89352776     7.76277679     8.13755094
O      0.00260561     6.63092532     0.19995339
O      1.91936005     7.73604640     3.34571792
O      0.01384303     8.86450812     6.51226245
O      0.00260561     8.83995473     1.76196664
O      0.00502757     6.66420659     4.95969259
O      1.91106112     7.84430000     8.19774681
O      3.82876826     6.63092532     0.19995339
O      5.75162924     7.73119537     3.35167136
O      3.82363739     8.83488500     6.51468032
O      3.82876826     8.83995473     1.76196664
O      3.82539933     6.63208837     4.97725637
O      5.74347379     7.74492340     8.14003724
O     -0.75586266     4.84927394     8.92187643
O     -0.06726954     3.67983690     8.96380141
Ce     1.91568694     1.10834185     0.98097142
Ce    -0.00589993     2.21775729     4.14263459
Ce     5.73473868     9.91929973     7.34314337
Ce     5.74184959     1.10834185     0.98097142
Ce     3.83540856     2.22212124     4.14295393
Ce     3.83686632     0.00134199     7.34102203
Ce     9.56800076     1.10834185     0.98097142
Ce     7.66607651     2.21254840     4.13912183
Ce     7.66913552     0.03162118     7.34679299
Ce     0.00261135     4.42188597     0.98097142
Ce    -1.89982370     5.51588347     4.16368832
Ce     9.56031019     3.28854340     7.37943425
Ce     3.82877400     4.42188597     0.98097142
Ce     1.91530815     5.52280216     4.21772546
Ce     7.65492518     4.42188597     0.98097142
Ce     5.73821666     5.51812012     4.15853323
Ce     5.78534149     3.29929917     7.32599017
Ce    -1.91046998     7.73544002     0.98097142
Ce    -3.82150240     8.83931853     4.15447304
Ce    -3.81842617     6.61543780     7.33151022
Ce     1.91569268     7.73544002     0.98097142
Ce     0.00808658     8.85093914     4.13132078
Ce     0.04660831     6.74592861     7.31857689
Ce     5.74184385     7.73544002     0.98097142
Ce     3.82728754     8.83780755     4.14393477
Ce     3.78913312     6.67891874     7.34813879
Cu     1.90987883     2.42362800     6.73422759
C      1.71744237     5.62892846    10.90802079
C      2.26437401     4.87927480     9.98929815
C      3.41592805     4.05996706     9.62636655
H      0.71033907     6.04616704    10.79853228
H      2.24996280     5.87148013    11.84216306
H      3.05340943     3.05139944     9.32766822
H      4.01439226     3.91308413    10.56007543
