83
CIF: Cr-W-CeO2-O.cif | data_image0
Ce     1.93596140     1.11772783     0.89035214
Ce     0.00940245     2.24402770     4.05463482
Ce    11.60664594     0.01494752     7.22127821
Ce     5.80789581     1.11772783     0.89035214
Ce     3.82836358     2.21445608     3.98406185
Ce    -2.05435167     9.97557352     7.32498729
Ce     9.67981860     1.11772783     0.89035214
Ce     7.79926618     2.19989461     3.96236525
Ce     2.03683142     9.97269452     7.29389870
Ce     0.00000000     4.47091133     0.89035214
Ce    -1.95881099     5.57683951     4.10464565
Ce    -1.80441041     3.31383059     7.29295516
Ce     3.87193441     4.47091133     0.89035214
Ce     1.94260318     5.58025488     4.08837719
Ce     1.86511454     3.34819187     7.35171970
Ce     7.74385721     4.47091133     0.89035214
Ce     5.80330034     5.62699709     3.97033798
Ce    -1.93596721     7.82410489     0.89035214
Ce    -3.88042636     8.93737357     4.06458832
Ce    -3.89272920     6.74989258     7.30954129
Ce     1.93596721     7.82410489     0.89035214
Ce    -0.00952903     8.95931332     4.11764984
Ce    -0.04050473     6.70832058     7.27887607
Ce     5.80789000     7.82410489     0.89035214
Ce     3.86630399     8.94114005     4.03283238
Ce     3.79964209     6.80196455     7.25200837
W      5.83188629     3.35162130     6.75345061
Cr     5.37472056     3.79645367     9.41333327
O      0.00000000     0.00000000     0.09999685
O      1.92876091     1.10961939     3.21547991
O      0.01520118     2.24685387     6.36853188
O      0.00000000     2.23545567     1.68070743
O      5.79894382    10.05911926     4.83432861
O      1.81243228     1.05794134     8.07590146
O      3.87192279     0.00000000     0.09999685
O      5.79753118     1.11145690     3.22149796
O      4.16795083     2.52469244     6.43805548
O      3.87192279     2.23545567     1.68070743
O      3.83588111     0.08530786     4.87527343
O      5.47402695     2.26158300     8.47834723
O      7.74385721     0.00000000     0.09999685
O      9.69645413     1.10568746     3.19763136
O      7.42802447     2.40845856     6.54391363
O      7.74385721     2.23545567     1.68070743
O      7.76504792     0.08167187     4.84634588
O      9.79030712     1.04566836     8.05254582
O     -1.93596140     3.35318350     0.09999685
O     -0.00548550     4.47817937     3.27546089
O     -2.01473452     5.54748993     6.42160395
O     -1.93596721     5.58864923     1.68070743
O      9.61840259     3.28373398     4.84064501
O      0.00216428     4.60666555     8.11368500
O      1.93596140     3.35318350     0.09999685
O      3.88846984     4.46551765     3.22855604
O      2.04872230     5.59761853     6.43914310
O      1.93595559     5.58864923     1.68070743
O      1.98631631     3.32152722     4.83519489
O      5.80789581     3.35318350     0.09999685
O      7.74098242     4.46916701     3.21256330
O      5.61622099     5.19616563     6.39145053
O      5.80789000     5.58864923     1.68070743
O      5.87491169     3.31134542     4.78538190
O      6.76213716     4.32294904     8.37271236
O     -3.87192860     6.70637706     0.09999685
O     -1.94333940     7.82581704     3.29658328
O     -3.91238254     8.91099694     6.40689381
O     -3.87192860     8.94183273     1.68070743
O      7.63728993     6.66663732     4.85666765
O     -1.87815372     7.74795452     8.13406706
O     -0.00000581     6.70637706     0.09999685
O      1.92448286     7.82517699     3.27561375
O      0.00001940     9.00234997     6.46407223
O     -0.00000581     8.94183273     1.68070743
O      0.00013018     6.69945706     4.91856441
O      3.87192860     6.70637706     0.09999685
O      5.80508309     7.83229415     3.20545306
O      3.84678068     8.90341772     6.35824842
O      3.87192860     8.94183273     1.68070743
O      3.93033165     6.70591777     4.84547050
O      5.63760895     7.77859721     7.99956793
O      1.95875165     7.74131430     8.10953716
O      4.00360141     4.59228834     8.76318846
O      5.68037690     3.67609116    10.97134329
