84
CIF: Y-CeO2+CO2.cif | data_image0
O      0.55978923     0.45000431     0.59999690
O      2.47364469     1.55364765     3.74427882
O      0.57060295     2.66221183     6.94591171
O      0.55978923     2.65902057     2.16203261
O      0.56175699     0.45108392     5.38092528
O      2.47179888     1.48105196     8.58509714
O      4.38603242     0.45000431     0.59999690
O      6.30178452     1.55323576     3.74283202
O      4.37819073     2.66017852     6.94464036
O      4.38603242     2.65902057     2.16203261
O      4.38654211     0.45089210     5.38054887
O      6.29962071     1.55475967     8.57313712
O      8.21216082     0.45000431     0.59999690
O     10.12607917     1.55507386     3.74393692
O      8.21269611     2.65720856     6.93336772
O      8.21216082     2.65902057     2.16203261
O      8.21348277     0.44973167     5.38273897
O     10.12995303     1.55934537     8.57497151
O     -1.35327498     3.76352871     0.59999690
O      0.55942683     4.87012777     3.74310588
O     -1.36374744     5.98227677     6.91644040
O     -1.35333237     5.97264438     2.16203261
O     -1.34954569     3.76294968     5.38113361
O      0.49764818     4.89995962     8.56351236
O      2.47296821     3.76352871     0.59999690
O      4.38725050     4.86996310     3.74302572
O      2.47146113     5.96900431     6.94604243
O      2.47291082     5.97264438     2.16203261
O      2.47446892     3.76666557     5.37835645
O      6.29909662     3.76352871     0.59999690
O      8.21315924     4.86616290     3.74166265
O      6.31602586     5.98083571     6.91471741
O      6.29903923     5.97264438     2.16203261
O      6.29734340     3.76124073     5.38016949
O      8.21551326     4.87317096     8.57200291
O     -3.26639657     7.07715251     0.59999690
O     -1.35315667     8.18213541     3.74181373
O     -3.26429003     9.27347454     6.92011564
O     -3.26639657     9.28616878     2.16203261
O     -3.26583297     7.07779694     5.37391223
O     -1.35630736     8.17834880     8.57542808
O      0.55984662     7.07715251     0.59999690
O      2.47324423     8.18391928     3.74309127
O      0.55979585     9.28782843     6.93563315
O      0.55984662     9.28616878     2.16203261
O      0.56133790     7.07834473     5.38087642
O      2.47422002     8.18610047     8.56938755
O      4.38597502     7.07715251     0.59999690
O      6.29850752     8.18170304     3.74063098
O      4.38787316     9.28998170     6.93626165
O      4.38597502     9.28616878     2.16203261
O      4.38479498     7.07863625     5.38221870
O      6.30482186     8.17657706     8.57210219
O      2.50772488     3.62247611    10.61879946
O      4.45132616     4.90329215     8.54837391
O      1.64836128     1.70693991    11.68106391
Ce     2.47285343     1.55451244     1.38101475
Ce     0.56751743     2.66313368     4.57848804
Ce     0.57237265     0.45941762     7.75845294
Ce     6.29909662     1.55451244     1.38101475
Ce     4.38103711     2.66226154     4.57640249
Ce     4.37533870     0.46017308     7.75619346
Ce    10.12522502     1.55451244     1.38101475
Ce     8.21358606     2.65824919     4.56388664
Ce     8.21335545     0.45068796     7.75969722
Ce     0.55978923     4.86803684     1.38101475
Ce    -1.35141776     5.97187830     4.55813569
Ce    -1.34064661     3.76542300     7.75244599
Ce     4.38603242     4.86803684     1.38101475
Ce     2.47349421     5.96784287     4.57513186
Ce     8.21216082     4.86803684     1.38101475
Ce     6.29766909     5.97116666     4.55791309
Ce     6.28928413     3.76524716     7.75201020
Ce    -1.35333237     8.18166064     1.38101475
Ce    -3.26651699     9.28776573     4.55831011
Ce    -3.26434581     7.07652538     7.75477384
Ce     2.47291082     8.18166064     1.38101475
Ce     0.56079978     9.28692774     4.56483584
Ce     0.56393974     7.06825443     7.75624309
Ce     6.29903923     8.18166064     1.38101475
Ce     4.38709119     9.28758752     4.56465514
Ce     4.38517682     7.06898892     7.75407020
Y      2.48012502     3.76691899     7.74154824
C      2.08014378     2.64826476    11.12995386
