90
CIF: CH2CHCH3→CH2CHCH2+H.cif | data_image0
O      0.00000000     0.00000000     0.00000000
O      1.91269080     1.01928796     3.11671047
O      0.21680174     2.30884587     6.32748301
O      0.00000000     2.20902941     1.56201325
O     11.45540136     0.03954165     4.81887755
O      1.79464477     1.32450336     8.10615826
O      3.82615117     0.00000000     0.00000000
O      5.74960008     1.09130746     3.13466586
O      3.48768221     2.45518392     6.46427824
O      3.82615117     2.20902941     1.56201325
O      3.84577078     0.08533052     4.83331683
O      5.66392075     0.98727447     7.96709055
O      7.65231383     0.00000000     0.00000000
O      9.55280022     1.10140345     3.13378800
O      7.68642967     2.16630771     6.36884480
O      7.65231383     2.20902941     1.56201325
O      1.90575664     9.93611241     4.78218561
O      9.63259683     1.13714622     7.96240307
O     -1.91307559     3.31354412     0.00000000
O     -0.07756639     4.45872279     3.11349876
O     -1.85284459     5.51921525     6.35878167
O     -1.91308133     5.52258347     1.56201325
O     -1.88434042     3.27979435     4.82644907
O      0.07347353     4.24626538     8.02784460
O      1.91307559     3.31354412     0.00000000
O      3.90159685     4.45879398     3.12822438
O      1.96075178     5.10957270     6.44977028
O      1.91306985     5.52258347     1.56201325
O      1.89659350     3.30594672     4.35048844
O      3.97368104     4.51136209     8.74945983
O      5.73923824     3.31354412     0.00000000
O      7.66066383     4.42575941     3.18647995
O      5.76777279     5.53992775     6.37852531
O      5.73923250     5.52258347     1.56201325
O      5.71745463     3.26716746     4.79101461
O      7.79690277     4.47352123     8.04273610
O     -3.82615691     6.62709817     0.00000000
O     -1.89954624     7.74010871     3.18380236
O     -3.80043442     8.92424921     6.37631224
O     -3.82615691     8.83612758     1.56201325
O     -3.80227855     6.65505821     4.83036105
O     -1.89746945     7.74417674     7.97350380
O     -0.00000574     6.62709817     0.00000000
O      1.90628466     7.74713309     3.13118525
O     -0.02146328     8.82049927     6.29721213
O     -0.00000574     8.83612758     1.56201325
O      0.08528420     6.59443119     4.83200088
O      1.77880930     7.71710091     7.96277901
O      3.82615691     6.62709817     0.00000000
O      5.74814398     7.73820600     3.18021875
O      3.80605611     8.88983403     6.36059821
O      3.82615691     8.83612758     1.56201325
O      3.77335179     6.63531910     4.78534773
O      5.84617785     7.83805867     8.03801776
Ce     1.91307559     1.10451471     0.78101803
Ce     0.01366117     2.21874154     3.88672724
Ce     5.72989381     9.93866543     7.18171057
Ce     5.73923824     1.10451471     0.78101803
Ce     3.80534542     2.24552948     3.94253117
Ce     3.83834111     0.01059424     7.13275862
Ce     9.56538941     1.10451471     0.78101803
Ce     7.64673057     2.20940578     3.97075433
Ce     1.88611051     9.92353889     7.12146210
Ce     0.00000000     4.41805882     0.78101803
Ce    -1.90292866     5.51892697     3.97338278
Ce    -1.90914453     3.32065652     7.18471381
Ce     3.82616265     4.41805882     0.78101803
Ce     1.93166468     5.48709336     3.93325468
Ce     7.65231383     4.41805882     0.78101803
Ce     5.74152652     5.52525509     4.00514035
Ce     5.78266164     3.30126824     7.20249368
Ce    -1.91308133     7.73161288     0.78101803
Ce    -3.82790869     8.85177823     3.97301908
Ce    -3.80490802     6.64023313     7.18583733
Ce     1.91308133     7.73161288     0.78101803
Ce     0.01115449     8.84111224     3.94689116
Ce     0.01232436     6.60202254     7.14396274
Ce     5.73923250     7.73161288     0.78101803
Ce     3.82150979     8.83461290     3.96377058
Ce     3.83460488     6.67395496     7.18609840
Pt     1.72238308     3.22929379     7.20122687
C      3.95629583     4.74956742    10.15786073
C      2.77427732     3.87586191    10.18658234
C      2.77950724     2.46607144    10.44703577
H      3.77939561     5.80576140    10.42608950
H      4.84878731     4.36618499    10.67741195
H      1.81961148     4.34044376     9.90933354
H      2.42163801     1.89249808     9.47743224
H      1.92221877     2.20501021    11.09285967
H      3.72912955     2.06812067    10.82920567
