81
CIF: Pd-Mo-CeO2-Ov.cif | data_image0
Ce     1.93596140     1.11772783     0.89035214
Ce     0.00040996     2.24757271     4.04071090
Ce     0.01812597     0.00052680     7.21608371
Ce     5.80789581     1.11772783     0.89035214
Ce     3.83146958     2.23313101     4.01027774
Ce    -2.00252632     9.97593761     7.21657522
Ce     9.67981860     1.11772783     0.89035214
Ce     7.77839076     2.21901359     4.00672506
Ce     7.79841874     0.04416114     7.35488526
Ce     0.00000000     4.47091133     0.89035214
Ce    -1.94299910     5.57815106     4.07647768
Ce    -1.86659505     3.42425954     7.30575445
Ce     3.87193441     4.47091133     0.89035214
Ce     1.95287034     5.59403187     4.09549463
Ce     1.79609389     3.31517471     7.21965827
Ce     7.74385721     4.47091133     0.89035214
Ce     5.78925512     5.62172845     3.94609146
Ce    -1.93596721     7.82410489     0.89035214
Ce    -3.88179160     8.93944703     4.05213358
Ce    -3.72415669     6.75220507     7.39248175
Ce     1.93596721     7.82410489     0.89035214
Ce     0.01878421     8.97297678     4.09288136
Ce     0.06593890     6.73847167     7.25299827
Ce     5.80789000     7.82410489     0.89035214
Ce     3.87427611     8.95014696     4.08172338
Ce     3.83840530     6.85543376     7.32340834
Mo     5.75413255     3.02717836     6.88809308
O      0.00000000     0.00000000     0.09999685
O      1.85778574     1.05952482     3.22352762
O     -0.01996166     2.21787950     6.38958134
O      0.00000000     2.23545567     1.68070743
O      5.81543976    10.03458512     4.88094207
O      1.97003460     0.98492822     8.00433526
O      3.87192279     0.00000000     0.09999685
O      5.87995855     1.10592237     3.24469763
O      4.05184508     2.30141339     6.53873381
O      3.87192279     2.23545567     1.68070743
O     -1.95446597    10.03484123     4.90060131
O      5.79158200     1.56926162     8.19880948
O      7.74385721     0.00000000     0.09999685
O      9.69057192     1.11685024     3.24023472
O      7.54303528     2.40885077     6.39331919
O      7.74385721     2.23545567     1.68070743
O      7.77407022     0.03251344     4.87935608
O      9.80465250     1.24199680     8.06368115
O     -1.93596140     3.35318350     0.09999685
O     -0.02555322     4.49987823     3.25956246
O     -1.89099138     5.66078349     6.38838830
O     -1.93596721     5.58864923     1.68070743
O      9.65093108     3.35356771     4.88996036
O     -0.06207980     4.52413096     8.08044588
O      1.93596140     3.35318350     0.09999685
O      3.88013011     4.55720062     3.21789146
O      1.98366545     5.59224086     6.48060773
O      1.93595559     5.58864923     1.68070743
O      1.88219922     3.37932595     4.84743367
O      5.80789581     3.35318350     0.09999685
O      7.73700329     4.47033639     3.22222838
O      5.28020621     4.71417282     7.30829969
O      5.80789000     5.58864923     1.68070743
O      5.82754499     3.44095739     4.96449733
O      8.23909659     4.77739733     8.45945584
O     -3.87192860     6.70637706     0.09999685
O     -1.98058012     7.78807043     3.29755336
O     -3.80983064     8.90180578     6.39582348
O     -3.87192860     8.94183273     1.68070743
O      7.54427265     6.56633929     5.04274446
O     -1.91674055     7.87271504     8.12100819
O     -0.00000581     6.70637706     0.09999685
O      1.97031534     7.82711475     3.28077255
O     -0.05250572     9.03524521     6.48208642
O     -0.00000581     8.94183273     1.68070743
O      0.04805759     6.75250479     4.89335669
O      3.87192860     6.70637706     0.09999685
O      5.82260016     7.82958163     3.21543360
O      3.91223210     8.99816732     6.46889425
O      3.87192860     8.94183273     1.68070743
O      4.00471032     6.69814315     4.92928287
O      5.97428288     7.78751040     8.00422084
O      1.82413843     7.80413192     8.15666610
Pd     7.05796376     3.19090961     8.99807962
