85
CIF: Fe-Mo-CeO2-O-CO.cif | data_image0
Ce     1.93596140     1.11772783     0.89035214
Ce     0.01243096     2.26270656     4.09418832
Ce    -0.00656090     0.02976266     7.20012508
Ce     5.80789581     1.11772783     0.89035214
Ce     3.83182493     2.22670010     3.96269195
Ce    -2.08951409     9.94379300     7.17594130
Ce     9.67981860     1.11772783     0.89035214
Ce     7.79332209     2.21819629     3.97208658
Ce     2.07095139    10.00497769     7.29634617
Ce     0.00000000     4.47091133     0.89035214
Ce    -1.95497383     5.58767310     4.10450310
Ce    -1.81847973     3.39061755     7.37345092
Ce     3.87193441     4.47091133     0.89035214
Ce     1.95183237     5.59086864     4.09340383
Ce     1.93610649     3.43405955     7.37815804
Ce     7.74385721     4.47091133     0.89035214
Ce     5.80042750     5.59346409     3.99333055
Ce    -1.93596721     7.82410489     0.89035214
Ce    -3.89568733     8.93049289     4.01410909
Ce    -3.84682490     6.76524982     7.31700407
Ce     1.93596721     7.82410489     0.89035214
Ce     0.00114314     8.97009073     4.08137556
Ce     0.01149059     6.72934608     7.27055699
Ce     5.80789000     7.82410489     0.89035214
Ce     3.87483107     8.93773644     4.05761066
Ce     3.82001923     6.74630572     7.32352350
Mo     5.83091709     3.19150819     6.76565269
O      0.00000000     0.00000000     0.09999685
O      1.92242647     1.11425197     3.20376213
O      0.04207860     2.25921916     6.43143801
O      0.00000000     2.23545567     1.68070743
O      0.01293142     0.01841436     4.83567375
O      2.02778608     1.01116181     7.99939818
O      3.87192279     0.00000000     0.09999685
O      5.80191577     1.08910517     3.20760986
O      4.21810654     2.32073936     6.46969809
O      3.87192279     2.23545567     1.68070743
O      3.81859052     0.05801171     4.84880564
O      5.91069854     2.49843390     8.48147922
O      7.74385721     0.00000000     0.09999685
O      9.69503653     1.11844024     3.22396194
O      7.48886793     2.42776302     6.44128106
O      7.74385721     2.23545567     1.68070743
O      7.75024428     0.05577696     4.84737415
O      9.81922945     1.06986816     8.10180604
O     -1.93596140     3.35318350     0.09999685
O      0.00290794     4.49132273     3.29633599
O     -1.99516861     5.63770316     6.45296370
O     -1.93596721     5.58864923     1.68070743
O      9.64262256     3.32833539     4.87077950
O      0.02263773     4.65044146     8.15446462
O      1.93596140     3.35318350     0.09999685
O      3.86807624     4.47297024     3.21062736
O      1.91786368     5.60283232     6.37624476
O      1.93595559     5.58864923     1.68070743
O      2.02596919     3.30600580     4.86332354
O      5.80789581     3.35318350     0.09999685
O      7.75557592     4.47642640     3.22191901
O      5.83045616     5.07176258     6.51499259
O      5.80789000     5.58864923     1.68070743
O      5.80681643     3.29432433     4.70454655
O      7.55619369     4.97109126     8.65244366
O     -3.87192860     6.70637706     0.09999685
O     -1.95774838     7.82163080     3.27098581
O     -3.86071516     8.92655973     6.34087482
O     -3.87192860     8.94183273     1.68070743
O      7.63555676     6.66460679     4.89699921
O     -1.99184302     7.88699255     8.08673196
O     -0.00000581     6.70637706     0.09999685
O      1.93774768     7.82684655     3.27500783
O     -0.09351758     9.13739840     6.50522326
O     -0.00000581     8.94183273     1.68070743
O     -0.02379835     6.78063027     4.91117778
O      3.87192860     6.70637706     0.09999685
O      5.81039406     7.82961285     3.20894112
O      3.90867920     8.97969112     6.37401309
O      3.87192860     8.94183273     1.68070743
O      3.96458859     6.67240797     4.85031261
O      5.92548251     7.85032707     7.98866641
O      1.80577662     7.80401536     8.10296612
O      3.97273615     4.66318035     8.55841428
O      5.80371804     4.36857234    11.34047732
O      6.26479056     6.03920100    12.93144604
Fe     5.77680315     4.44754092     8.88703344
C      6.03775547     5.20803502    12.13717180
