83
CIF: Re-Cu-CeO2-O.cif | data_image0
Ce     1.93038582     1.11050507     0.88387043
Ce    -0.01001939     2.23274736     4.05017007
Ce     0.03855787     0.00574276     7.19896073
Ce     5.81181033     1.12175166     0.90127712
Ce     3.87689348     2.23373916     4.03329101
Ce     3.81522046     0.00107500     7.28637253
Ce     9.66901012     1.12377363     0.90450652
Ce     7.72197369     2.24878973     4.03206783
Ce     2.10549926     9.82964678     7.21515024
Ce    -0.00709724     4.47602159     0.89067279
Ce    -1.96646354     5.58032319     4.08279035
Ce    -1.79254740     3.29926493     7.30066794
Ce     3.86254305     4.47635356     0.87798423
Ce     1.93523140     5.57994884     4.04142255
Ce     1.93423288     3.39370147     7.23488384
Ce     7.74213807     4.46545905     0.90125422
Ce     5.81395072     5.58510834     4.00816228
Ce    -1.94645625     7.83004003     0.90010904
Ce    -3.86381667     8.96620649     4.01622110
Ce    -3.86632880     6.85592122     7.16676164
Ce     1.92815559     7.82745473     0.89060408
Ce    -0.01754705     8.95775063     4.08772887
Ce    -0.02549330     6.68938922     7.22696904
Ce     5.81127600     7.83258510     0.88371011
Ce     3.89204608     8.93242597     4.02298945
Ce     3.87917501     6.64192547     7.22890271
Cu     5.20822844     3.73745681     6.63536206
Re     6.62550692     2.65439096     8.51990158
O     11.61334069     0.00154917     0.10141687
O      1.92598888     1.12404716     3.21968818
O      0.04214084     2.23205910     6.35902471
O     -0.00785227     2.23805103     1.69392277
O      5.80710317    10.05497994     4.83228159
O      1.82792403     1.16909246     8.02293326
O     -1.93899312    10.05733740     0.10496691
O      5.82285017     1.08834420     3.23937717
O      4.05852203     2.27974720     6.54716377
O      3.86763657     2.23577757     1.68132582
O      3.87192815     0.02524556     4.83849969
O      6.47452166     0.89325136     8.88188917
O      7.73821774     0.00761509     0.10924988
O      9.67709544     1.10809608     3.22186703
O      7.40878261     2.29356628     6.80281694
O      7.74357843     2.23531483     1.71563532
O      7.79556350     0.07910018     4.91109900
O      9.71852717     0.92084275     7.96113519
O      9.67032270     3.35425987     0.10911246
O     -0.01500984     4.46994251     3.27694053
O     -2.08850694     5.54546269     6.48281733
O     -1.94403436     5.59119430     1.70564938
O      9.58933975     3.28696785     4.87290054
O      0.09955264     4.55086988     8.02690790
O      1.92738314     3.35244915     0.09928684
O      3.83427168     4.48494062     3.19182582
O      1.86360600     5.65351199     6.27810809
O      1.92862022     5.59252216     1.67404250
O      1.99781919     3.32363167     4.87077254
O      5.81155478     3.35101064     0.10766953
O      7.76363417     4.49141946     3.22658919
O      5.98539178     5.42875127     6.57977349
O      5.80528807     5.59217007     1.68114259
O      5.79415194     3.37666947     4.65466814
O      8.01781091     3.57805236     9.12459476
O     -3.87155109     6.71022987     0.10512724
O     -1.94659492     7.83254253     3.24236075
O     -3.86034317     8.95281608     6.38011249
O     -3.87509971     8.94378428     1.69355631
O      7.70767191     6.74239879     4.84081043
O     -1.94312394     7.72259516     8.04406155
O     -0.01209783     6.71325780     0.10434852
O      1.93241083     7.83042760     3.28488670
O      0.08146203     8.99957035     6.49129274
O     -0.00628994     8.94736548     1.70514550
O     -0.10838911     6.74075384     4.89497644
O      1.99615556     7.75801535     8.03392220
O      3.86815347     6.71410280     0.09951587
O      5.80410020     7.83490066     3.20614907
O      3.91317888     8.83129326     6.34594318
O      3.86556896     8.94715423     1.69389986
O      3.95888423     6.63160999     4.86502004
O      5.86824708     7.84128788     7.98435744
O      3.49804882     4.71406348     8.07341387
O      5.29444535     3.28262474     9.43487503
