83
CIF: Co-CeO2+CO.cif | data_image0
O      0.35488233     0.50490714     0.54999875
O      2.27905578     1.65129095     3.71136321
O      0.26853133     2.65971564     6.87316473
O      0.35488233     2.71392340     2.11203447
O      0.37379576     0.49713508     5.29600603
O      2.30397060     1.10858364     8.73098801
O      4.18112552     0.50490714     0.54999875
O      6.09987909     1.60151111     3.68816177
O      4.05872488     2.81801791     6.95139760
O      4.18112552     2.71392340     2.11203447
O      4.19513363     0.55906759     5.36730782
O      6.10834785     1.66434670     8.48806311
O      8.00725393     0.50490714     0.54999875
O      9.92053641     1.61198205     3.71038770
O      8.05021787     2.71164834     6.87494394
O      8.00725393     2.71392340     2.11203447
O      7.98946734     0.49424397     5.34902164
O      9.88197995     1.58817115     8.57948864
O     -1.55818187     3.81843154     0.54999875
O      0.39540826     4.90882601     3.71141443
O     -1.61452696     6.06239283     6.82103809
O     -1.55823926     6.02754721     2.11203447
O     -1.55907345     3.83988357     5.30406915
O     -0.05507949     5.16918917     8.72872989
O      2.26806132     3.81843154     0.54999875
O      4.17885809     4.92147649     3.68906934
O      2.29340486     5.87567341     6.95551035
O      2.26800393     6.02754721     2.11203447
O      2.35740858     3.87236277     5.44047083
O      4.12197699     4.89060659     8.40457898
O      6.09418973     3.81843154     0.54999875
O      7.98819598     4.90999879     3.69170215
O      6.07779424     6.01707307     6.88891244
O      6.09413233     6.02754721     2.11203447
O      6.08562628     3.77861265     5.35784288
O      7.97016508     4.90984130     8.52814668
O     -3.47130346     7.13205534     0.54999875
O     -1.54249949     8.24583152     3.72087533
O     -3.47866499     9.27818321     6.80679627
O     -3.47130346     9.34107161     2.11203447
O     -3.50643693     7.11073282     5.28421700
O     -1.64022555     8.20973930     8.56061957
O      0.35493973     7.13205534     0.54999875
O      2.26516480     8.24665427     3.68746884
O      0.32013051     9.31241383     6.95551852
O      0.35493973     9.34107161     2.11203447
O      0.40855715     7.11444670     5.35954005
O      2.35031534     8.22951739     8.48177257
O      4.18106813     7.13205534     0.54999875
O      6.07407282     8.22583605     3.69087765
O      4.21167956     9.38376138     6.87082476
O      4.18106813     9.34107161     2.11203447
O      4.14279935     7.14499065     5.35573854
O      6.07242274     8.21348879     8.52814808
O      0.31162577     7.17055672    11.77738836
Ce     2.26794654     1.60941527     1.33101661
Ce     0.34412998     2.70778093     4.58757794
Ce     0.40581269     0.56880830     7.74895895
Ce     6.09418973     1.60941527     1.33101661
Ce     4.20415252     2.68844468     4.46829815
Ce     4.10285847     0.44825215     7.78855420
Ce     9.92031813     1.60941527     1.33101661
Ce     8.02114353     2.71363270     4.50518764
Ce     8.02805934     0.51464072     7.71819497
Ce     0.35488233     4.92293967     1.33101661
Ce    -1.55651036     6.02578710     4.51509520
Ce    -1.48278176     3.82202521     7.74590825
Ce     4.18112552     4.92293967     1.33101661
Ce     2.25479660     6.06179133     4.46946741
Ce     8.00725393     4.92293967     1.33101661
Ce     6.08917636     6.02381419     4.50718147
Ce     6.21973966     3.78183417     7.70750419
Ce    -1.55823926     8.23656347     1.33101661
Ce    -3.47470427     9.34188607     4.50922259
Ce    -3.49332438     7.12152407     7.68489947
Ce     2.26800393     8.23656347     1.33101661
Ce     0.35031463     9.33470649     4.56023248
Ce     0.26523561     7.09534411     7.82089050
Ce     6.09413233     8.23656347     1.33101661
Ce     4.18904206     9.35501413     4.50507902
Ce     4.22082652     7.26056666     7.70105572
Co     3.09910212     4.30363579     7.09484440
C      0.35002375     7.26066594    10.63930033
