81
CIF: Pt-W-CeO2-Ov.cif | data_image0
Ce     1.93596140     1.11772783     0.89035214
Ce     0.00162900     2.23617441     4.04350217
Ce    -5.79823085    10.05565805     7.30436978
Ce     5.80789581     1.11772783     0.89035214
Ce     3.78220855     2.17267123     3.93391264
Ce    -2.01070563     9.98730682     7.39442513
Ce     9.67981860     1.11772783     0.89035214
Ce     7.83537557     2.18370743     3.97340356
Ce     2.02842094     9.90780433     7.33537382
Ce     0.00000000     4.47091133     0.89035214
Ce    -1.94438237     5.57665069     4.12746689
Ce    -1.75713472     3.35202841     7.34611882
Ce     3.87193441     4.47091133     0.89035214
Ce     1.95174127     5.58066746     4.12062888
Ce     1.69488738     3.30287684     7.34138360
Ce     7.74385721     4.47091133     0.89035214
Ce     5.81824257     5.69871183     3.93250184
Ce    -1.93596721     7.82410489     0.89035214
Ce    -3.86909921     8.94084942     4.10083513
Ce    -3.84720061     6.81405367     7.39796497
Ce     1.93596721     7.82410489     0.89035214
Ce     0.00626110     8.95350051     4.12592132
Ce    -0.02716113     6.72196638     7.31020896
Ce     5.80789000     7.82410489     0.89035214
Ce     3.87488923     8.93910013     4.04509295
Ce     3.79281154     6.94009225     7.35018485
W      5.20139396     3.70426142     6.64195715
Re     6.79861744     2.77378531     8.06798400
O      0.00000000     0.00000000     0.09999685
O      1.93287284     1.09660675     3.19450384
O      0.00081089     2.23125481     6.34971282
O      0.00000000     2.23545567     1.68070743
O     -5.79009835    10.05041721     4.81043110
O      1.80589193     1.04441179     8.14965372
O      3.87192279     0.00000000     0.09999685
O      5.80500096     1.16879987     3.23370005
O      3.85110528     2.45547047     6.76391311
O      3.87192279     2.23545567     1.68070743
O      3.85611121     0.13571400     4.88649100
O      6.00510108     1.26931263     8.72952087
O      7.74385721     0.00000000     0.09999685
O      9.69714674     1.10756333     3.20187652
O      7.76748554     2.22427207     6.57801561
O      7.74385721     2.23545567     1.68070743
O      7.76119278     0.06183739     4.81927023
O      9.82952306     1.03120593     8.14234521
O     -1.93596140     3.35318350     0.09999685
O     -0.00449639     4.47799277     3.27024577
O     -1.97633032     5.57731855     6.42799582
O     -1.93596721     5.58864923     1.68070743
O      9.63339564     3.30735715     4.82010228
O     -0.00946891     4.63552323     8.21887380
O      1.93596140     3.35318350     0.09999685
O      3.93530151     4.43504687     3.24941347
O      2.06089604     5.51811295     6.46186017
O      1.93595559     5.58864923     1.68070743
O      1.98076483     3.29467086     4.80007224
O      5.80789581     3.35318350     0.09999685
O      7.70257688     4.45015992     3.23083628
O      5.60820984     5.49304091     6.80304441
O      5.80789000     5.58864923     1.68070743
O      5.88318434     3.32017033     4.98963816
O      7.69987009     4.19990069     8.75841620
O     -3.87192860     6.70637706     0.09999685
O     -1.94688792     7.82854566     3.31679659
O     -3.83097184     8.91917956     6.40161213
O     -3.87192860     8.94183273     1.68070743
O      7.61419692     6.65149896     4.89145736
O     -1.85610417     7.78092124     8.18561937
O     -0.00000581     6.70637706     0.09999685
O      1.93042071     7.82287849     3.27201111
O     -0.00914489     8.97853062     6.42125053
O     -0.00000581     8.94183273     1.68070743
O      0.02898678     6.68765667     4.90684409
O      3.87192860     6.70637706     0.09999685
O      5.82534919     7.83905212     3.19463025
O      3.88129899     8.94748140     6.34805670
O      3.87192860     8.94183273     1.68070743
O      3.95268539     6.69418301     4.80843146
O      5.80796445     7.98268849     8.15475560
O      1.78691561     7.75536704     8.21569118
