83
CIF: Ti-Fe-CeO2-O.cif | data_image0
Ce     1.93038582     1.11050507     0.88387043
Ce     0.00206080     2.23521678     4.02705616
Ce    -5.79066922    10.03438798     7.20713422
Ce     5.81181033     1.12175166     0.90127712
Ce     3.84773927     2.21954723     3.99777229
Ce    -1.91587589    10.01842626     7.24067895
Ce     9.66901012     1.12377363     0.90450652
Ce     7.75847216     2.23289759     4.10330756
Ce     7.80095439     0.02418575     7.18964209
Ce    -0.00709724     4.47602159     0.89067279
Ce    -1.94684272     5.59323508     4.08157822
Ce    -1.89507054     3.29325164     7.20789208
Ce     3.86254305     4.47635356     0.87798423
Ce     1.93388685     5.59467448     4.04266622
Ce     1.85237340     3.32950581     7.20275871
Ce     7.74213807     4.46545905     0.90125422
Ce     5.82325039     5.62453867     4.00334604
Ce    -1.94645625     7.83004003     0.90010904
Ce    -3.86997673     8.92838319     4.08299887
Ce     7.76797925     6.66319456     7.33996320
Ce     1.92815559     7.82745473     0.89060408
Ce    -0.00393580     8.95567843     4.05469829
Ce     0.00806062     6.71679119     7.20894671
Ce     5.81127600     7.83258510     0.88371011
Ce     3.87027252     8.94710766     4.01962086
Ce     3.83437693     6.81651394     7.19324389
Fe     4.93285021     3.85411502     6.52466722
Ti     6.44016061     2.97053113     8.60301299
O     11.61334069     0.00154917     0.10141687
O      1.93882782     1.11487308     3.22115450
O      0.01675069     2.20545306     6.37787458
O     -0.00785227     2.23805103     1.69392277
O     -5.78346622    10.04305983     4.84701840
O      1.98962356     1.13397676     7.96314898
O     -1.93899312    10.05733740     0.10496691
O      5.78910904     1.14747744     3.25376715
O      3.96827210     2.31043173     6.43820507
O      3.86763657     2.23577757     1.68132582
O      3.85459270     0.03632117     4.89363794
O      6.10537352     1.09367816     8.25231547
O      7.73821774     0.00761509     0.10924988
O      9.68577308     1.12019308     3.24682226
O      7.90225802     2.14753693     6.35151295
O      7.74357843     2.23531483     1.71563532
O      1.92461215    10.03298170     4.79712130
O      9.76498280     1.07009058     8.03434086
O      9.67032270     3.35425987     0.10911246
O      0.01906223     4.48763461     3.23814720
O     -1.90453711     5.54785429     6.44241909
O     -1.94403436     5.59119430     1.70564938
O     -1.90340019     3.37193567     4.81345704
O      0.06791723     4.43580850     8.00737362
O      1.92738314     3.35244915     0.09928684
O      3.86171578     4.47696424     3.21462207
O      1.91989034     5.60194235     6.39071591
O      1.92862022     5.59252216     1.67404250
O      1.94359392     3.33427325     4.86304999
O      3.89309781     4.44833161     7.85159554
O      5.81155478     3.35101064     0.10766953
O      7.71760990     4.46297866     3.25598621
O      5.74912881     5.46651311     6.43722523
O      5.80528807     5.59217007     1.68114259
O      5.73611020     3.39646084     4.90385757
O      7.94385605     4.13795953     8.30669162
O     -3.87155109     6.71022987     0.10512724
O     -1.94523902     7.83786327     3.26098612
O     -3.82956058     8.94907863     6.45396858
O     -3.87509971     8.94378428     1.69355631
O      7.71194737     6.69517698     4.86141528
O     -1.80441848     7.89652488     8.04606293
O     -0.01209783     6.71325780     0.10434852
O      1.93107972     7.80526609     3.22605876
O      0.00157046     9.01233662     6.41040337
O     -0.00628994     8.94736548     1.70514550
O     -0.00976444     6.73465252     4.87167655
O      1.95610500     7.82037993     7.97451904
O      3.86815347     6.71410280     0.09951587
O      5.81024432     7.82827790     3.21748036
O      3.87139817     8.97166214     6.34664363
O      3.86556896     8.94715423     1.69389986
O      3.88899341     6.72191561     4.85252018
O      5.67469211     7.86247555     7.98821076
O      5.80275749     3.34257066    10.06835285
