84
CIF: Ni-Cu-CeO2-CO.cif | data_image0
Ce     1.93038582     1.11050507     0.88387043
Ce     0.00254977     2.22725362     4.03351153
Ce    -5.75382000    10.02780352     7.20659097
Ce     5.81181033     1.12175166     0.90127712
Ce     3.86627860     2.23203034     4.02150595
Ce     3.90095397     0.00664172     7.20017277
Ce     9.66901012     1.12377363     0.90450652
Ce     7.72453464     2.24638460     4.09864073
Ce     2.01674141     9.99226663     7.22331691
Ce    -0.00709724     4.47602159     0.89067279
Ce    -1.94023395     5.58242388     4.05394280
Ce    -1.83735753     3.31649675     7.22326055
Ce     3.86254305     4.47635356     0.87798423
Ce     1.93185409     5.59073302     4.03208930
Ce     1.92689221     3.35131288     7.18560226
Ce     7.74213807     4.46545905     0.90125422
Ce     5.80771035     5.59473027     4.02143472
Ce    -1.94645625     7.83004003     0.90010904
Ce    -3.86540853     8.93767922     4.04861371
Ce     7.75197796     6.67622742     7.20038868
Ce     1.92815559     7.82745473     0.89060408
Ce     0.00300160     8.94828186     4.05399558
Ce    -0.00092556     6.70684426     7.19086822
Ce     5.81127600     7.83258510     0.88371011
Ce     3.88008341     8.94327638     4.03342146
Ce     3.86849404     6.71418099     7.18556426
Cu     4.99103146     3.82399696     6.57203171
Ni     6.85769227     2.74725995     8.07554837
O     11.61334069     0.00154917     0.10141687
O      1.93610227     1.11032647     3.22601765
O      0.04796524     2.21756342     6.38464632
O     -0.00785227     2.23805103     1.69392277
O     -5.78976819    10.04858875     4.85094443
O      1.98719157     1.08556923     7.98165609
O     -1.93899312    10.05733740     0.10496691
O      5.81250711     1.11773514     3.24824743
O      3.88401606     2.23652594     6.40364069
O      3.86763657     2.23577757     1.68132582
O      3.87753422     0.00756741     4.86577224
O      6.02130954     1.02906572     8.10127351
O      7.73821774     0.00761509     0.10924988
O      9.67827683     1.11833434     3.24714199
O      7.78265455     2.21349288     6.54014184
O      7.74357843     2.23531483     1.71563532
O      7.76241994     0.01601907     4.87318059
O      9.80383290     1.04554149     8.00743515
O      9.67032270     3.35425987     0.10911246
O     -0.00831224     4.46961071     3.23794089
O     -1.93145579     5.57677333     6.41582629
O     -1.94403436     5.59119430     1.70564938
O      9.67520996     3.32890516     4.87300214
O      0.04200044     4.46144526     7.99936919
O      1.92738314     3.35244915     0.09928684
O      3.85898034     4.47822202     3.20858168
O      1.89948820     5.60928394     6.35021567
O      1.92862022     5.59252216     1.67404250
O      1.94219939     3.35169491     4.83483776
O      3.76543163     4.53168248     7.94065640
O      5.81155478     3.35101064     0.10766953
O      7.74578468     4.46643413     3.24817452
O      5.81221656     5.57623233     6.40352264
O      5.80528807     5.59217007     1.68114259
O      5.78735474     3.36450060     4.80926085
O      7.92691208     4.33074568     8.10122934
O     -3.87155109     6.71022987     0.10512724
O     -1.94410130     7.82858745     3.24499183
O     -3.82970786     8.91666355     6.39987170
O     -3.87509971     8.94378428     1.69355631
O      7.73975977     6.69687661     4.86587720
O     -1.92257849     7.81561598     7.98828960
O     -0.01209783     6.71325780     0.10434852
O      1.93276864     7.83167369     3.23788881
O      0.01201626     8.94368212     6.41612214
O     -0.00628994     8.94736548     1.70514550
O     -0.02203727     6.71904384     4.84492253
O      1.96478047     7.79185963     7.99923781
O      3.86815347     6.71410280     0.09951587
O      5.81418374     7.82729282     3.22587662
O      3.91098801     8.90857005     6.38459945
O      3.86556896     8.94715423     1.69389986
O      3.87599218     6.70136084     4.83487417
O      5.86059344     7.79443896     7.98140357
O      5.61767738     3.44390468    10.60177345
C      6.08200397     3.18656268     9.57874943
