83
CIF: O2—Olatt+Osur.cif | data_image0
Ce     1.93038582     1.11050507     0.88387043
Ce    -0.02668728     2.23096349     4.02636471
Ce    11.60664576     0.00586842     7.20944708
Ce     5.81181033     1.12175166     0.90127712
Ce     3.83865984     2.20320524     3.98448111
Ce    -1.99091248     9.98751540     7.28617959
Ce     9.66901012     1.12377363     0.90450652
Ce     7.71941958     2.24952443     4.04365310
Ce     2.03190126     9.95243456     7.33593150
Ce    -0.00709724     4.47602159     0.89067279
Ce    -1.95194323     5.58144573     4.11074693
Ce    -1.79205021     3.32630545     7.33304742
Ce     3.86254305     4.47635356     0.87798423
Ce     1.94635782     5.58337126     4.06328784
Ce     1.83832058     3.28565667     7.19480370
Ce     7.74213807     4.46545905     0.90125422
Ce     5.81980612     5.63326814     3.98527851
Ce    -1.94645625     7.83004003     0.90010904
Ce    -3.86894013     8.93922869     4.05503494
Ce    -3.83626203     6.78665433     7.28976367
Ce     1.92815559     7.82745473     0.89060408
Ce    -0.00094013     8.96036359     4.11063929
Ce     0.00752888     6.70408487     7.25734687
Ce     5.81127600     7.83258510     0.88371011
Ce     3.86261779     8.96812771     4.02731147
Ce     3.88188442     6.82646096     7.19388295
Fe     4.97333332     3.83397239     6.47487509
Mo     6.54063728     2.93876553     8.34772662
O     11.61334069     0.00154917     0.10141687
O      1.91959622     1.11513854     3.20809669
O      0.04046580     2.23895095     6.33580774
O     -0.00785227     2.23805103     1.69392277
O     11.61255008     0.00222040     4.82363852
O      1.84953765     1.21691044     8.03083064
O     -1.93899312    10.05733740     0.10496691
O      5.79776613     1.13221264     3.23789341
O      4.02368938     2.30756327     6.46068842
O      3.86763657     2.23577757     1.68132582
O      3.84723541     0.02811594     4.83377458
O      6.35760780     1.28373237     8.97074908
O      7.73821774     0.00761509     0.10924988
O      9.66927117     1.12405476     3.21514162
O      7.39118568     2.43831192     6.77296982
O      7.74357843     2.23531483     1.71563532
O      7.75618574     0.12461353     4.87752328
O      9.84488534     1.02380988     8.03720705
O      9.67032270     3.35425987     0.10911246
O     -0.01521641     4.47081542     3.27168583
O     -1.94342504     5.55668107     6.44507140
O     -1.94403436     5.59119430     1.70564938
O      9.57801986     3.27995977     4.87766613
O      0.15602822     4.48557627     8.06912309
O      1.92738314     3.35244915     0.09928684
O      3.84843269     4.48471462     3.20048051
O      2.05755933     5.51978524     6.42085199
O      1.92862022     5.59252216     1.67404250
O      1.96199978     3.31632634     4.84351623
O      5.81155478     3.35101064     0.10766953
O      7.72645617     4.47190683     3.23846859
O      5.82131846     5.41878293     6.46018217
O      5.80528807     5.59217007     1.68114259
O      5.73461407     3.39430860     4.80488701
O      7.87760587     3.94538585     8.95036611
O     -3.87155109     6.71022987     0.10512724
O     -1.92278885     7.81651082     3.27742538
O     -3.88851539     8.94972167     6.43269532
O     -3.87509971     8.94378428     1.69355631
O      7.70744425     6.71215317     4.83478017
O     -1.79869416     7.74526369     8.12546243
O     -0.01209783     6.71325780     0.10434852
O      1.92947975     7.83772113     3.27116001
O      0.02475462     8.96926535     6.44815124
O     -0.00628994     8.94736548     1.70514550
O      0.02481368     6.69395774     4.91011830
O      2.00216238     7.68315032     8.07055983
O      3.86815347     6.71410280     0.09951587
O      5.80210683     7.83966653     3.20838170
O      3.88833469     8.90777149     6.33721413
O      3.86556896     8.94715423     1.69389986
O      3.91836712     6.70351212     4.84327347
O      5.67857664     7.84882369     8.03049684
O      4.06013160     4.36284008     7.97038313
O      5.02089491     3.80977677     9.12842695
