83
CIF: Os-Sc-CeO2-O.cif | data_image0
Ce     1.93038582     1.11050507     0.88387043
Ce    -0.01772643     2.23314519     4.05085546
Ce     0.00985341     0.02593704     7.21867308
Ce     5.81181033     1.12175166     0.90127712
Ce     3.86852487     2.21934031     4.03352596
Ce    -2.01426126    10.03270140     7.27400522
Ce     9.66901012     1.12377363     0.90450652
Ce     7.73542546     2.23330922     3.98319725
Ce     2.05409684     9.86999496     7.33833717
Ce    -0.00709724     4.47602159     0.89067279
Ce    -1.96500790     5.57730576     4.09600863
Ce    -1.77661902     3.30967526     7.36245598
Ce     3.86254305     4.47635356     0.87798423
Ce     1.93372724     5.57936134     4.05198973
Ce     1.94663790     3.35565596     7.19740144
Ce     7.74213807     4.46545905     0.90125422
Ce     5.81662549     5.60268597     4.02099731
Ce    -1.94645625     7.83004003     0.90010904
Ce    -3.86762393     8.96506879     4.01172056
Ce    -3.86788791     6.87481072     7.16693722
Ce     1.92815559     7.82745473     0.89060408
Ce    -0.01432904     8.95379420     4.11217699
Ce    -0.00398486     6.68575604     7.24066658
Ce     5.81127600     7.83258510     0.88371011
Ce     3.87461067     8.94855413     4.05671698
Ce     3.88901837     6.67437905     7.20908416
Sc     5.43068978     3.58329937     6.86080560
Os     6.84568092     2.62559486     9.25754953
O     11.61334069     0.00154917     0.10141687
O      1.92335578     1.12419406     3.21922307
O      0.05152703     2.26360970     6.35150703
O     -0.00785227     2.23805103     1.69392277
O     11.60356762     0.01196189     4.83154615
O      1.83426130     1.19938900     8.03465386
O     -1.93899312    10.05733740     0.10496691
O      5.81155559     1.11466398     3.23147034
O      3.96402681     2.24282117     6.43814875
O      3.86763657     2.23577757     1.68132582
O      3.86715647     0.00421751     4.80807036
O      6.43037143     0.87836175     9.17368682
O      7.73821774     0.00761509     0.10924988
O      9.67551992     1.11325979     3.21202600
O      7.21113120     2.50547465     7.30878615
O      7.74357843     2.23531483     1.71563532
O      7.76481709     0.14516278     4.92977688
O      9.82489739     1.01083487     8.01614991
O      9.67032270     3.35425987     0.10911246
O     -0.03346751     4.46201174     3.27642967
O     -2.08771837     5.54750509     6.49168438
O     -1.94403436     5.59119430     1.70564938
O      9.54218888     3.26435059     4.91846555
O      0.12599569     4.53634318     8.03701136
O      1.92738314     3.35244915     0.09928684
O      3.87322526     4.47094574     3.21359054
O      1.92096398     5.59292098     6.31925673
O      1.92862022     5.59252216     1.67404250
O      1.97617497     3.33475560     4.83351098
O      5.81155478     3.35101064     0.10766953
O      7.74067454     4.48331205     3.22781571
O      5.94843535     5.52618605     6.47082632
O      5.80528807     5.59217007     1.68114259
O      5.82487048     3.35826898     4.82621324
O      8.26499316     3.70239658     9.36401683
O     -3.87155109     6.71022987     0.10512724
O     -1.93334173     7.81746380     3.24797123
O     -3.88424417     8.96232365     6.37547436
O     -3.87509971     8.94378428     1.69355631
O     -3.88304559     6.74760099     4.82560803
O     -1.99134210     7.72488164     8.06383325
O     -0.01209783     6.71325780     0.10434852
O      1.92814200     7.84260294     3.29447463
O      0.01050776     8.94544361     6.48321699
O     -0.00628994     8.94736548     1.70514550
O     -0.06864846     6.69935448     4.89941114
O      1.98235969     7.63151542     8.06131956
O      3.86815347     6.71410280     0.09951587
O      5.79712611     7.83435241     3.21969830
O      3.92139349     8.84180722     6.37115546
O      3.86556896     8.94715423     1.69389986
O      3.92498285     6.65252934     4.85186929
O      5.85653882     7.82770801     8.01178208
O      3.84966235     4.51201013     7.87494971
O      5.77925597     3.22379468    10.47260479
