84
CIF: Re-Rh-CeO2-CO.cif | data_image0
Ce     1.93038582     1.11050507     0.88387043
Ce    -0.00320789     2.23157046     4.03102962
Ce     0.03071469     0.00759720     7.24524824
Ce     5.81181033     1.12175166     0.90127712
Ce     3.84986243     2.20007778     4.00778114
Ce    -1.98037702    10.02174282     7.30076896
Ce     9.66901012     1.12377363     0.90450652
Ce     7.75452403     2.22320910     4.05048033
Ce     2.06619693     9.90304829     7.29394728
Ce    -0.00709724     4.47602159     0.89067279
Ce    -1.94671072     5.57820755     4.07716683
Ce    -1.76328298     3.30939582     7.28235142
Ce     3.86254305     4.47635356     0.87798423
Ce     1.94385845     5.57851179     4.04745271
Ce     1.87455937     3.33646958     7.21791250
Ce     7.74213807     4.46545905     0.90125422
Ce     5.82496051     5.62538967     4.00228230
Ce    -1.94645625     7.83004003     0.90010904
Ce    -3.86052469     8.95342102     4.03731452
Ce    -3.83695858     6.82772650     7.20711004
Ce     1.92815559     7.82745473     0.89060408
Ce    -0.00094829     8.94733397     4.09843487
Ce     0.01081354     6.68775141     7.22109008
Ce     5.81127600     7.83258510     0.88371011
Ce     3.88048730     8.94130134     4.04213685
Ce     3.87255926     6.74796761     7.22709419
Rh     5.00075993     3.83426495     6.66292291
Re     6.58828198     2.90867534     8.08300310
O     11.61334069     0.00154917     0.10141687
O      1.93428830     1.11568236     3.21378744
O      0.06530888     2.23311166     6.34445750
O     -0.00785227     2.23805103     1.69392277
O     -5.79894586    10.05546950     4.82943046
O      1.82983822     1.18271378     8.07485391
O     -1.93899312    10.05733740     0.10496691
O      5.81502519     1.13596075     3.24752943
O      3.85483188     2.23942521     6.44175777
O      3.86763657     2.23577757     1.68132582
O      3.87059075     0.00737827     4.82533415
O      6.04914458     1.22340631     8.55794675
O      7.73821774     0.00761509     0.10924988
O      9.67768049     1.11284029     3.22725537
O      7.65568271     2.27053467     6.64474953
O      7.74357843     2.23531483     1.71563532
O      7.77543964     0.04700049     4.86819220
O      9.86116138     1.00996098     8.07160285
O      9.67032270     3.35425987     0.10911246
O     -0.01021114     4.47202317     3.24715101
O     -2.01922450     5.58014111     6.45781575
O     -1.94403436     5.59119430     1.70564938
O      9.63873238     3.30939651     4.85291662
O      0.12544446     4.52640434     8.05424733
O      1.92738314     3.35244915     0.09928684
O      3.89568305     4.46032727     3.22091784
O      1.94173515     5.59011712     6.33642026
O      1.92862022     5.59252216     1.67404250
O      1.96289725     3.34149412     4.82222536
O      3.75238621     4.55120455     8.06145495
O      5.81155478     3.35101064     0.10766953
O      7.72411074     4.46697076     3.24451582
O      5.88151867     5.61138802     6.46303159
O      5.80528807     5.59217007     1.68114259
O      5.81807588     3.35294519     4.90879736
O      7.78154103     4.20008046     8.56243313
O     -3.87155109     6.71022987     0.10512724
O     -1.93383510     7.81884406     3.24973267
O     -3.86525723     8.92816714     6.40574127
O     -3.87509971     8.94378428     1.69355631
O     -3.88093803     6.73011879     4.84585014
O     -1.96987313     7.70598878     8.09407475
O     -0.01209783     6.71325780     0.10434852
O      1.93347982     7.82390912     3.26336519
O      0.01947686     8.91590313     6.47137834
O     -0.00628994     8.94736548     1.70514550
O     -0.03439745     6.69583459     4.87690417
O      1.99162250     7.65917046     8.08448052
O      3.86815347     6.71410280     0.09951587
O      5.81134819     7.82562035     3.21564079
O      3.93764971     8.86174038     6.37972131
O      3.86556896     8.94715423     1.69389986
O      3.91478959     6.67094019     4.84468091
O      5.86518664     7.82241101     8.04977868
O      5.00668687     3.83503312    10.78634444
C      5.50186955     3.54453800     9.78954427
