83
CIF: O2—Olatt+Osur.cif | data_image0
Ce     1.93038582     1.11050507     0.88387043
Ce    -0.01327755     2.22894684     4.01051466
Ce    -5.77596518    10.04104232     7.20077661
Ce     5.81181033     1.12175166     0.90127712
Ce     3.84748474     2.21651934     3.99818082
Ce    -1.90121430    10.05862553     7.29178740
Ce     9.66901012     1.12377363     0.90450652
Ce     7.73659586     2.23828196     4.07738568
Ce     2.00054861     9.98329790     7.22629432
Ce    -0.00709724     4.47602159     0.89067279
Ce    -1.94200969     5.58031331     4.06219529
Ce    -1.87638053     3.31583925     7.22693758
Ce     3.86254305     4.47635356     0.87798423
Ce     1.94404267     5.58999800     4.06570436
Ce     1.78890882     3.30341291     7.18874313
Ce     7.74213807     4.46545905     0.90125422
Ce     5.79592928     5.62680944     4.00467216
Ce    -1.94645625     7.83004003     0.90010904
Ce    -3.85967726     8.94844735     4.06726792
Ce    -3.82122749     6.72838736     7.22685948
Ce     1.92815559     7.82745473     0.89060408
Ce    -0.00087444     8.95113889     4.07378942
Ce     0.00001561     6.70812636     7.21922353
Ce     5.81127600     7.83258510     0.88371011
Ce     3.87009443     8.93499163     4.03929301
Ce     3.86461597     6.79945362     7.30650998
Cr     5.17582699     3.75197780     6.70896467
Co     6.71364939     2.80606335     7.89967453
O     11.61334069     0.00154917     0.10141687
O      1.93114595     1.11477185     3.20954276
O     -0.01693958     2.23294706     6.34825082
O     -0.00785227     2.23805103     1.69392277
O     -5.79157493    10.05549948     4.83583569
O      1.85395216     1.20142038     7.97971363
O     -1.93899312    10.05733740     0.10496691
O      5.81222026     1.15372261     3.24683154
O      3.92750590     2.45590401     6.39412627
O      3.86763657     2.23577757     1.68132582
O      3.87526593     0.06476711     4.84665932
O      6.07417115     1.14107726     8.16053820
O      7.73821774     0.00761509     0.10924988
O      9.66971122     1.11962450     3.23692877
O      7.78919229     2.18708140     6.51734152
O      7.74357843     2.23531483     1.71563532
O      7.75287235     0.02045841     4.85244678
O      9.78007401     1.06786200     8.03033265
O      9.67032270     3.35425987     0.10911246
O     -0.00710674     4.47469260     3.23665130
O     -1.93037022     5.57352325     6.39599055
O     -1.94403436     5.59119430     1.70564938
O      9.65058198     3.33611313     4.84625465
O     -0.00274051     4.42941668     8.03636687
O      1.92738314     3.35244915     0.09928684
O      3.87542957     4.45966745     3.22770283
O      1.95103813     5.50539778     6.46081019
O      1.92862022     5.59252216     1.67404250
O      1.91657493     3.32460420     4.83170351
O      5.81155478     3.35101064     0.10766953
O      7.71488854     4.46287892     3.24749305
O      5.71999218     5.47566578     6.36039204
O      5.80528807     5.59217007     1.68114259
O      5.78328974     3.37440048     4.94667999
O      7.90812433     4.28403721     8.08442114
O     -3.87155109     6.71022987     0.10512724
O     -1.94031323     7.82259221     3.26999314
O     -3.84259398     8.91515227     6.38610825
O     -3.87509971     8.94378428     1.69355631
O      7.71354015     6.68591326     4.88657962
O     -1.93695431     7.70006739     8.04505193
O     -0.01209783     6.71325780     0.10434852
O      1.91976897     7.82723120     3.23807906
O      0.03407795     8.92323588     6.39450742
O     -0.00628994     8.94736548     1.70514550
O      0.01835697     6.68922470     4.87127322
O      1.83404145     7.86180132     8.07549525
O      3.86815347     6.71410280     0.09951587
O      5.81887408     7.82965086     3.22138753
O      3.89686698     8.96934988     6.39439406
O      3.86556896     8.94715423     1.69389986
O      3.85912792     6.72083890     4.80883244
O      5.96873550     7.83973311     8.00893243
O      3.91820459     4.29892247     8.18837077
O      5.48843673     4.11816956     8.51379082
