85
CIF: 1-NH3-NH2+H_fs.cif | data_image0
Ce     0.02628637     0.03201915     8.79400661
Ce     1.94140952     1.12141257     5.59756241
Ce     0.00000000     2.23543938     2.47426506
Ce    -1.96409783    10.05360369     8.75083074
Ce     5.80257166     1.11443929     5.62881732
Ce     3.87189458     2.23543938     2.47426506
Ce     2.02635238    10.04611286     8.73242315
Ce     9.68306879     1.12098439     5.59232533
Ce     7.74390532     2.23543938     2.47426506
Ce    -1.91573326     3.32375231     8.71534819
Ce    -0.00324544     4.45866347     5.62375431
Ce    -1.93600537     5.58869904     2.47426506
Ce     1.86821588     3.31273629     8.73332586
Ce     3.86816824     4.48865414     5.64066100
Ce     1.93588921     5.58869904     2.47426506
Ce     5.80848884     3.34792048     8.80095634
Ce     7.73536617     4.46805673     5.61702540
Ce     5.80789995     5.58869904     2.47426506
Ce    -3.85156739     6.72246107     8.73223238
Ce    -1.93483387     7.82776592     5.61129966
Ce    -3.87195266     8.94185811     2.47426506
Ce     1.96515335     7.82441040     5.67593123
Ce    -0.00005808     8.94185811     2.47426506
Ce     3.98912828     6.80040772     8.82376290
Ce     5.81153365     7.82933415     5.60574768
Ce     3.87195266     8.94185811     2.47426506
Ti    -0.32489541     6.86083224     8.65926683
O      0.00973977     0.00481809     6.40425784
O      0.01683722     2.19802462     9.63476724
O      1.93594729     1.11771969     3.26466483
O      0.00952291     2.24530583     4.80890804
O      0.00000000     0.00000000     1.68386529
O      1.93115921     1.13696906     7.95572695
O      3.87278912     0.03705471     6.41449513
O      3.86952130     2.21899274     9.54712087
O      5.80795803     1.11771969     3.26466483
O      3.89489174     2.24007273     4.79891433
O      3.87189458     0.00000000     1.68386529
O      5.82284605     1.04068689     8.04231286
O      7.74040278     0.04578622     6.40420721
O      7.76496134     2.22893391     9.54784032
O      9.67985261     1.11771969     3.26466483
O      7.70141507     2.24093736     4.80041915
O      7.74390532     0.00000000     1.68386529
O      9.70099218     1.14671525     7.93207637
O      9.61284523     3.33542299     6.34777252
O     -1.75595575     5.77965942     9.33047300
O      0.00000000     4.47087876     3.26466483
O     -1.90055740     5.61700123     4.83196081
O     -1.93594729     3.35315907     1.68386529
O     -0.03206380     4.12069263     7.81915278
O      2.00699637     3.34197184     6.39530537
O      1.11768047     5.74613928     9.45822838
O      3.87201074     4.47087876     3.26466483
O      1.89626892     5.61733225     4.85210098
O      1.93594729     3.35315907     1.68386529
O      3.74887298     4.56103309     8.12014179
O      5.76509714     3.35712202     6.50591244
O      5.92681022     5.55807826     9.52404339
O      7.74390532     4.47087876     3.26466483
O      5.81746557     5.56264073     4.79892683
O      5.80795803     3.35315907     1.68386529
O      7.79848492     4.45987835     7.97846762
O      7.71875415     6.68757042     6.40345590
O     -3.83650025     8.97995280     9.58247127
O     -1.93600537     7.82413842     3.26466483
O     -3.85654305     8.93977253     4.80793560
O     -3.87195266     6.70641873     1.68386529
O     -2.04167423     7.89009675     7.88444372
O     -0.01083172     6.71236647     6.71880434
O     -0.07929196     8.54734656     9.39510909
O      1.93600537     7.82413842     3.26466483
O      0.00414331     8.90229380     4.84830099
O     -0.00005808     6.70641873     1.68386529
O      2.21172492     7.95602810     7.92944379
O      3.93829159     6.68064210     6.36925528
O      3.96112385     9.10696373     9.62217762
O      5.80789995     7.82413842     3.26466483
O      3.86579208     8.94378244     4.81635823
O      3.87195266     6.70641873     1.68386529
O      5.84783427     7.86085902     7.98496299
N      3.18075086     6.47491972    11.00810372
H      3.06398851     7.30864534    11.59229399
H      3.53653632     5.73565435    11.62285547
H      1.73044702     6.08467751    10.21342036
