90
CIF: CH2CHCH3.cif | data_image0
O      0.00261135     0.00382715     0.19995339
O      1.92904666     1.09730374     3.34100068
O      0.03849878     2.24457178     6.56942711
O      0.00261135     2.21285656     1.76196664
O     -0.00237569     0.01952474     4.97840950
O      1.94571003     0.99581708     8.12725386
O      3.82876252     0.00382715     0.19995339
O      5.74195100     1.09888396     3.33752870
O      3.86047002     2.32465038     6.64295023
O      3.82876252     2.21285656     1.76196664
O      3.84232672     0.03742626     5.01765521
O      5.79718772     1.09953595     8.18459290
O      7.65492518     0.00382715     0.19995339
O      9.57203229     1.10979613     3.32852443
O      7.69979392     2.21049867     6.53102140
O      7.65492518     2.21285656     1.76196664
O      7.65189473     0.01063696     4.96928961
O      9.59610844     1.08743883     8.17841183
O     -1.91046424     3.31737126     0.19995339
O      0.01380516     4.42143551     3.34949512
O     -1.96263334     5.55628857     6.47243180
O     -1.91046998     5.52641062     1.76196664
O     -1.88678411     3.30922108     4.97581706
O     -0.39281211     4.68185594     8.38694570
O      1.91568694     3.31737126     0.19995339
O      3.83411737     4.41670777     3.36081891
O      1.98562262     5.64161231     6.58734640
O      1.91568120     5.52641062     1.76196664
O      1.93479141     3.29074918     4.97065231
O      4.29065513     4.71971817     9.03764080
O      5.74184959     3.31737126     0.19995339
O      7.65744123     4.41823845     3.33872605
O      5.61445885     5.44518242     6.59901317
O      5.74184385     5.52641062     1.76196664
O      5.78003178     3.28742808     4.96299795
O      7.63058367     4.42577522     8.17302083
O     -3.82354556     6.63092532     0.19995339
O     -1.92101316     7.74204541     3.36751275
O     -3.82833077     8.79877835     6.49965569
O     -3.82354556     8.83995473     1.76196664
O      7.58571876     6.60456480     4.98520527
O     -1.95879238     7.75104766     8.17420921
O      0.00260561     6.63092532     0.19995339
O      1.91046103     7.73366172     3.35292602
O      0.02269926     8.81844147     6.55103758
O      0.00260561     8.83995473     1.76196664
O      0.00599236     6.61214617     4.98442846
O      1.96986100     7.80669703     8.24860945
O      3.82876826     6.63092532     0.19995339
O      5.74665104     7.74449689     3.33109741
O      3.81672892     8.86394414     6.50018326
O      3.82876826     8.83995473     1.76196664
O      3.85207332     6.66557524     4.94468478
O      5.71658396     7.74825839     8.15763635
Ce     1.91568694     1.10834185     0.98097142
Ce     0.00507570     2.22375250     4.14957718
Ce    -0.00367871     0.00690909     7.34757425
Ce     5.74184959     1.10834185     0.98097142
Ce     3.84441558     2.21427996     4.14901141
Ce    -1.88555191     9.89096378     7.35204874
Ce     9.56800076     1.10834185     0.98097142
Ce     7.67952196     2.20604090     4.13891569
Ce     7.67684954     0.00929730     7.36706640
Ce     0.00261135     4.42188597     0.98097142
Ce    -1.91039383     5.51915440     4.15634910
Ce    -1.83943956     3.37734708     7.40005598
Ce     3.82877400     4.42188597     0.98097142
Ce     1.91507421     5.51868058     4.22350790
Ce     7.65492518     4.42188597     0.98097142
Ce     5.73236934     5.51985223     4.15340771
Ce     5.86481905     3.24062103     7.28485740
Ce    -1.91046998     7.73544003     0.98097142
Ce    -3.83146206     8.84070337     4.15592858
Ce     7.63339483     6.62613313     7.33405093
Ce     1.91569268     7.73544003     0.98097142
Ce     0.01148395     8.83033006     4.16865992
Ce     0.00199486     6.57978956     7.39236329
Ce     5.74184385     7.73544003     0.98097142
Ce     3.82690434     8.85217782     4.12202463
Ce     3.76486801     6.75171242     7.27955684
Cu     1.94199821     2.41972586     6.75308622
C      4.74676728     5.06500655    10.39089724
C      3.52408198     4.26180979    10.22566815
C      3.49079675     2.78409545    10.44190957
H      4.68979998     6.13476850    10.60893703
H      5.68489066     4.57302841    10.66455483
H      2.56669164     4.78927016    10.29242459
H      2.77352747     2.30097735     9.75749661
H      3.17610710     2.57301931    11.47550746
H      4.48364877     2.33365631    10.28149947
