90
CIF: CH2CHCH2→CH2CCH2+H.cif | data_image0
O      0.00264005     0.00379733     0.19974810
O      1.91220267     1.09799173     3.34297763
O      0.16596757     2.24708341     6.54573749
O      0.00266300     2.21282674     1.76171573
O     11.46205812     0.00795782     4.98192764
O      1.90140501     1.25235552     8.39699433
O      3.82880270     0.00377744     0.19974810
O      5.74750824     1.10629228     3.32464554
O      3.63458429     2.26823723     6.55671354
O      3.82883140     2.21281680     1.76167011
O      3.85321574     0.02659793     4.97217209
O      5.69458422     0.96172048     8.18705028
O      7.65495961     0.00380727     0.19977091
O      9.56611261     1.10535691     3.33463488
O      7.68462813     2.16179161     6.57224995
O      7.65498257     2.21283668     1.76167011
O      7.64913523     0.00170451     4.95658851
O      9.61745137     1.00839692     8.20610418
O     -1.91043554     3.31736132     0.19979372
O     -0.00439714     4.42011925     3.33855711
O     -1.79861131     5.53108377     6.56256920
O     -1.91042406     5.52637085     1.76180697
O     -1.89458411     3.29854252     4.98161458
O      0.15469957     4.29506018     8.39110876
O      1.91571563     3.31736132     0.19977091
O      3.83548174     4.41633408     3.34184315
O      1.86192782     5.33057998     6.53790867
O      1.91571563     5.52637085     1.76171573
O      1.90804414     3.31207064     4.92660503
O      3.50106747     4.23215601     8.48563359
O      5.74188976     3.31736132     0.19972529
O      7.66119793     4.43420435     3.36905705
O      5.73578083     5.53000465     6.54650684
O      5.74190124     5.52639073     1.76171573
O      5.73365544     3.27950861     4.96741313
O      7.71518309     4.54991016     8.23774301
O     -3.82349391     6.63089550     0.19979372
O     -1.91554756     7.73369146     3.35062549
O     -3.80292881     8.95521793     6.56527179
O     -3.82350539     8.83990503     1.76169292
O     -3.79468324     6.64935919     5.02888885
O     -1.87866550     7.76725154     8.16098122
O      0.00262283     6.63089550     0.19979372
O      1.91416803     7.74228802     3.31721445
O     -0.00161270     8.82904307     6.47374358
O      0.00264579     8.83990503     1.76171573
O      0.04068715     6.63887094     4.96020157
O      1.77730618     7.75181561     8.17762700
O      3.82880270     6.63090544     0.19979372
O      5.75829528     7.73073625     3.36238220
O      3.80600312     8.85888876     6.51459171
O      3.82881992     8.83994479     1.76173854
O      3.79127488     6.62652065     4.94332647
O      5.83055002     7.81944952     8.20929239
Ce     1.91572711     1.10831203     0.98074332
Ce    -0.01521481     2.20095341     4.13517458
Ce     5.67944276     9.90098766     7.35047558
Ce     5.74189550     1.10832197     0.98069770
Ce     3.84580813     2.21175700     4.14116811
Ce    -1.84933195     9.91947772     7.32602739
Ce     9.56803520     1.10832197     0.98074332
Ce     7.65648096     2.21507999     4.17069331
Ce     1.90957102     9.92793211     7.33521993
Ce     0.00263431     4.42186609     0.98081175
Ce    -1.89843048     5.52081022     4.17282679
Ce     9.56213676     3.29530057     7.40387513
Ce     3.82880844     4.42186609     0.98076613
Ce     1.92147070     5.53446897     4.13215367
Ce     7.65495961     4.42186609     0.98078894
Ce     5.73996881     5.52011490     4.19788926
Ce     5.77747862     3.29502422     7.41337344
Ce    -1.91044128     7.73539032     0.98081175
Ce    -3.82109383     8.84702062     4.16654139
Ce    -3.81833487     6.62388020     7.38268261
Ce     1.91572711     7.73542015     0.98078894
Ce     0.00968066     8.84381716     4.12143730
Ce     0.01024621     6.67933294     7.32225318
Ce     5.74187255     7.73543009     0.98076613
Ce     3.82466462     8.83028462     4.14469915
Ce     3.81104441     6.65415728     7.37909474
Zr     1.88306620     3.29606116     7.03121017
C      3.20441669     4.45731540     9.86579486
C      1.94348386     3.79450193    10.29977267
C      1.75134336     2.93306128    11.29222887
H      3.11040327     5.54873483    10.07954112
H      4.04842667     4.09479713    10.49961316
H      0.71436246     4.16579746     9.29089825
H      1.90941615     1.53072449     9.33680560
H      0.76873960     2.51043361    11.52826725
H      2.58174215     2.61243383    11.94557302
