83
CIF: O2.cif | data_image0
Ce    -5.80652293    10.05790009     8.71659694
Ce     1.93570808     1.11598968     5.63238722
Ce     0.00000000     2.23543938     2.47426506
Ce    -1.89720862    10.00795352     8.77526693
Ce     5.80810917     1.11318890     5.63473223
Ce     3.87189458     2.23543938     2.47426506
Ce     1.89874353    10.00983025     8.77563879
Ce     9.68157617     1.11607104     5.63268255
Ce     7.74390532     2.23543938     2.47426506
Ce    -1.90931258     3.40837140     8.77302040
Ce     0.00109581     4.50520670     5.59293139
Ce    -1.93600537     5.58869904     2.47426506
Ce     1.91425585     3.40606500     8.77639889
Ce     3.86958666     4.47250909     5.63607033
Ce     1.93588921     5.58869904     2.47426506
Ce     5.81212005     3.35069414     8.82205935
Ce     7.74810761     4.47152719     5.63412868
Ce     5.80789995     5.58869904     2.47426506
Ce    -3.80731714     6.69436550     8.77444631
Ce    -1.90461530     7.80581975     5.59377173
Ce    -3.87195266     8.94185811     2.47426506
Ce     1.90667972     7.80502100     5.59516352
Ce    -0.00005808     8.94185811     2.47426506
Ce     3.81441757     6.69777136     8.78148386
Ce     5.80739805     7.82427755     5.63377978
Ce     3.87195266     8.94185811     2.47426506
Pt     0.00044205     6.70335455     8.83679104
O      5.80835380    10.05864037     6.44113109
O      0.00255545     2.34203641     9.48579868
O      1.93594729     1.11771969     3.26466483
O      0.00190398     2.21656895     4.81568292
O      0.00000000     0.00000000     1.68386529
O      1.91757602     1.10465600     7.99990370
O     -1.95581443    10.02678717     6.47375248
O      3.88700267     2.24230919     9.54703385
O      5.80795803     1.11771969     3.26466483
O      3.87418555     2.23539187     4.84746762
O      3.87189458     0.00000000     1.68386529
O      5.80809846     1.05036750     8.01804035
O      1.95694416    10.02578649     6.47471919
O      7.73130275     2.24138212     9.54850037
O      9.67985261     1.11771969     3.26466483
O      7.74147914     2.23513873     4.84788140
O      7.74390532     0.00000000     1.68386529
O      9.70134385     1.10868999     8.00048913
O     -1.89561644     3.34830781     6.46857698
O     -1.76474463     5.68487092     9.58312381
O      0.00000000     4.47087876     3.26466483
O     -2.02383902     5.53758624     4.79473012
O     -1.93594729     3.35315907     1.68386529
O     -0.00368422     4.78811875     7.94770345
O      1.89959366     3.34961429     6.47354939
O      1.75453119     5.68206025     9.57812344
O      3.87201074     4.47087876     3.26466483
O      2.02446487     5.53690148     4.79456572
O      1.93594729     3.35315907     1.68386529
O      3.81550353     4.50653750     8.02254492
O      5.80766486     3.35182201     6.49557303
O      5.82493098     5.56697178     9.53650097
O      7.74390532     4.47087876     3.26466483
O      5.80810773     5.58511401     4.84792722
O      5.80795803     3.35315907     1.68386529
O      7.80931000     4.49894662     8.01133856
O     -3.85492781     6.74084593     6.47199085
O     -3.77599107     8.88582196     9.48302903
O     -1.93600537     7.82413842     3.26466483
O     -3.88664138     8.95138923     4.81584651
O     -3.87195266     6.70641873     1.68386529
O     -1.65683562     7.66225253     7.94897654
O      0.00160606     6.70658984     5.91855214
O      0.00196222     8.74384558     9.58150595
O      1.93600537     7.82413842     3.26466483
O      0.00087119     9.04428925     4.79457246
O     -0.00005808     6.70641873     1.68386529
O      1.66115070     7.66014791     7.95121436
O      3.85553568     6.73967842     6.47392447
O      3.77824558     8.88873585     9.48090992
O      5.80789995     7.82413842     3.26466483
O      3.88683382     8.95082115     4.81656808
O      3.87195266     6.70641873     1.68386529
O      5.80599669     7.84504783     8.00215368
O      3.22351584     7.22218392    12.67919194
O      3.74459284     6.44690549    11.87049544
