90
CIF: CH2CCH2+H.cif | data_image0
O      0.00261135     0.00382715     0.19995339
O      1.91564834     1.10862006     3.36438994
O      0.23824762     2.19576937     6.61054673
O      0.00261135     2.21285656     1.76196664
O     11.45923379     0.01099746     4.97684636
O      1.90451862     0.56622250     8.68673557
O      3.82876252     0.00382715     0.19995339
O      5.73899720     1.11047479     3.34908263
O      3.61435198     2.21261256     6.65328379
O      3.82876252     2.21285656     1.76196664
O      3.84676731     0.01294818     4.98158676
O      5.72314276     0.95976263     8.22939563
O      7.65492518     0.00382715     0.19995339
O      9.56205412     1.10531037     3.32844093
O      7.64780882     2.15011857     6.56388551
O      7.65492518     2.21285656     1.76196664
O      1.92722899     9.93637002     4.95653247
O      9.61439147     0.95578153     8.21008653
O     -1.91046424     3.31737126     0.19995339
O     -0.00397086     4.42795729     3.33004743
O     -1.75578008     5.53465880     6.55884251
O     -1.91046998     5.52641062     1.76196664
O     -1.87730681     3.27997605     4.98480147
O      0.36757406     4.29133022     8.30356400
O      1.91568694     3.31737126     0.19995339
O      3.82280636     4.41359433     3.35324017
O      2.00491209     5.38076742     6.55171488
O      1.91568120     5.52641062     1.76196664
O      1.85832847     3.35646774     4.93940596
O      4.10221323     4.78907864     8.76224387
O      5.74184959     3.31737126     0.19995339
O      7.66246192     4.41898536     3.36777823
O      5.66504682     5.56494409     6.51405105
O      5.74184385     5.52641062     1.76196664
O      5.71220452     3.29254541     4.98196093
O      7.68431435     4.59779012     8.22172516
O     -3.82354556     6.63092532     0.19995339
O     -1.90679407     7.72605133     3.35916664
O     -3.81999517     8.87002886     6.53592162
O     -3.82354556     8.83995473     1.76196664
O     -3.79163374     6.60305830     5.01955605
O     -1.83662068     7.73300257     8.15256788
O      0.00260561     6.63092532     0.19995339
O      1.91593965     7.74951910     3.30879934
O      0.02573441     8.84288420     6.48921456
O      0.00260561     8.83995473     1.76196664
O      0.07282190     6.64088159     4.97276279
O      1.90969802     7.70058825     8.13782162
O      3.82876826     6.63092532     0.19995339
O      5.76500630     7.72634834     3.35725920
O      3.82454439     8.82294207     6.50432075
O      3.82876826     8.83995473     1.76196664
O      3.79683878     6.65085861     4.94089838
O      5.72529519     7.74297145     8.16620022
Ce     1.91568694     1.10834185     0.98097142
Ce    -0.02194847     2.18510731     4.13312664
Ce     5.72316886     9.88733530     7.37390383
Ce     5.74184959     1.10834185     0.98097142
Ce     3.82867913     2.20581764     4.22610025
Ce     3.85812637     0.02613825     7.36147245
Ce     9.56800076     1.10834185     0.98097142
Ce     7.64724290     2.21289162     4.18517799
Ce     7.65780004     0.00778636     7.34136720
Ce     0.00261135     4.42188597     0.98097142
Ce    -1.89065151     5.50680288     4.17665175
Ce     9.54043896     3.26621809     7.43058485
Ce     3.82877400     4.42188597     0.98097142
Ce     1.93380131     5.55564296     4.10283186
Ce     7.65492518     4.42188597     0.98097142
Ce     5.74226638     5.51061025     4.17499777
Ce     5.69761629     3.29163132     7.43895230
Ce    -1.91046998     7.73544003     0.98097142
Ce    -3.81677880     8.83616106     4.17243256
Ce    -3.79635551     6.60706462     7.37307591
Ce     1.91569268     7.73544003     0.98097142
Ce     0.00955056     8.85615549     4.12775227
Ce     0.01864668     6.72966878     7.29559592
Ce     5.74184385     7.73544003     0.98097142
Ce     3.83324849     8.84398072     4.13404725
Ce     3.86538897     6.68822143     7.31643786
Mn     1.49976668     3.57086803     6.76702315
C      3.62752314     4.76088424    10.08073890
C      2.49365923     3.84046562    10.33271780
C      2.23279534     2.78372949    11.07548929
H      3.32780640     5.77448660    10.43043799
H      4.43846992     4.44226984    10.78450422
H      0.92832809     4.24713771     9.12312699
H      1.95917777     1.39058562     9.20807033
H      1.24077590     2.32556954    11.14000621
H      3.02045092     2.30950702    11.68236530
