83
CIF: Fe-Sc-CeO2-O.cif | data_image0
Ce     1.93038582     1.11050507     0.88387043
Ce     0.01516381     2.24124222     4.04209616
Ce     0.00988727     0.00527641     7.19490434
Ce     5.81181033     1.12175166     0.90127712
Ce     3.88022193     2.24809300     4.06080286
Ce     3.81265498     0.00914705     7.19250152
Ce     9.66901012     1.12377363     0.90450652
Ce     7.73977404     2.22947873     4.07622577
Ce     2.02279958    10.02678657     7.18405933
Ce    -0.00709724     4.47602159     0.89067279
Ce    -1.96540786     5.58988160     4.05881440
Ce     9.70699971     3.25522451     7.16898818
Ce     3.86254305     4.47635356     0.87798423
Ce     1.92954775     5.57901554     4.06167895
Ce     1.95511296     3.36646816     7.27761305
Ce     7.74213807     4.46545905     0.90125422
Ce     5.81062444     5.59555889     4.01737805
Ce    -1.94645625     7.83004003     0.90010904
Ce    -3.87834201     8.96498653     4.00081353
Ce    -3.90967292     6.84234984     7.14010253
Ce     1.92815559     7.82745473     0.89060408
Ce    -0.01624607     8.95192585     4.06408936
Ce    -0.02507188     6.70481227     7.23775122
Ce     5.81127600     7.83258510     0.88371011
Ce     3.87165118     8.93852304     4.02374284
Ce     3.86510165     6.71203956     7.18507001
Sc     5.55893540     3.60618835     6.94671590
Fe     6.72118344     2.49981980     9.31008482
O     11.61334069     0.00154917     0.10141687
O      1.93707671     1.12783284     3.21885637
O     -0.04309840     2.20524528     6.40174269
O     -0.00785227     2.23805103     1.69392277
O      0.00640442     0.00090252     4.83111142
O      1.95028694     0.97479315     8.01203004
O     -1.93899312    10.05733740     0.10496691
O      5.80225237     1.12238970     3.26115074
O      4.05321311     2.17364694     6.48346727
O      3.86763657     2.23577757     1.68132582
O      3.84651959     0.00215420     4.84837740
O      6.08202638     1.17013345     8.42990801
O      7.73821774     0.00761509     0.10924988
O      9.67946718     1.11926750     3.24650082
O      7.81347759     2.16475802     6.33766880
O      7.74357843     2.23531483     1.71563532
O      1.93786108    10.00936048     4.82781924
O      9.71967201     1.07365377     8.01651381
O      9.67032270     3.35425987     0.10911246
O      0.00780474     4.49542385     3.24983367
O     -2.19585253     5.48861421     6.50275299
O     -1.94403436     5.59119430     1.70564938
O     -1.90481209     3.36966488     4.83938976
O     -0.14852168     4.55183924     7.98354705
O      1.92738314     3.35244915     0.09928684
O      3.85722772     4.48591880     3.21843064
O      1.88694515     5.67532916     6.38152013
O      1.92862022     5.59252216     1.67404250
O      1.97176389     3.33887169     4.85298105
O      5.81155478     3.35101064     0.10766953
O      7.74236878     4.47441396     3.24913679
O      5.94042733     5.58185300     6.39237180
O      5.80528807     5.59217007     1.68114259
O      5.77335248     3.40580686     4.84554177
O      7.27222614     3.82576880     8.36225507
O     -3.87155109     6.71022987     0.10512724
O     -1.93193758     7.83486750     3.22514835
O     -3.87374912     8.94880350     6.35706429
O     -3.87509971     8.94378428     1.69355631
O     -3.87036388     6.76423869     4.80430776
O     -1.96735904     7.84049662     7.96083881
O     -0.01209783     6.71325780     0.10434852
O      1.91043636     7.79148104     3.25385567
O     -0.01005376     9.07093007     6.47775657
O     -0.00628994     8.94736548     1.70514550
O     -0.11053227     6.72587871     4.93758743
O      1.94341262     7.84050833     7.98865593
O      3.86815347     6.71410280     0.09951587
O      5.79542331     7.83196251     3.20877916
O      3.89282655     8.93887860     6.37556423
O      3.86556896     8.94715423     1.69389986
O      3.89980327     6.69023883     4.86004694
O      5.82645651     7.84965187     7.97605120
O      3.98224993     4.58333749     7.84434089
O      6.61953829     2.59070830    10.89745368
