84
CIF: W-Ti-CeO2-Ov-CO2.cif | data_image0
Ce     1.93038582     1.11050507     0.88387043
Ce     0.00514426     2.23567285     4.05603138
Ce     0.01272851     0.00011089     7.24575847
Ce     5.81181033     1.12175166     0.90127712
Ce     3.80823192     2.20567312     3.96977253
Ce    -2.04498603     9.97668657     7.30101269
Ce     9.66901012     1.12377363     0.90450652
Ce     7.79343556     2.19641581     3.95059494
Ce     1.98520599     9.96736169     7.36955323
Ce    -0.00709724     4.47602159     0.89067279
Ce    -1.96811092     5.58294077     4.11223633
Ce    -1.74368694     3.35712524     7.30258636
Ce     3.86254305     4.47635356     0.87798423
Ce     1.93948254     5.58892497     4.12607816
Ce     1.86579274     3.32334130     7.33034481
Ce     7.74213807     4.46545905     0.90125422
Ce     5.79703701     5.66143141     3.97917112
Ce    -1.94645625     7.83004003     0.90010904
Ce    -3.87965699     8.93918237     4.06523735
Ce    -3.87285160     6.79527306     7.34628211
Ce     1.92815559     7.82745473     0.89060408
Ce    -0.01235298     8.96545220     4.12138005
Ce    -0.00924177     6.73006424     7.28929872
Ce     5.81127600     7.83258510     0.88371011
Ce     3.86263184     8.94862497     4.08385032
Ce     3.83316600     6.82766809     7.33894646
Ti     5.62495709     3.45612468     6.52304236
W      6.78241977     2.93282831     8.97460553
O     11.61334069     0.00154917     0.10141687
O      1.91430064     1.11016927     3.20294115
O      0.00892453     2.27993743     6.36158329
O     -0.00785227     2.23805103     1.69392277
O     -0.00385988     0.01149169     4.83829662
O      1.81134884     1.04732088     8.08127117
O     -1.93899312    10.05733740     0.10496691
O      5.79615004     1.11389604     3.21667082
O      4.11806383     2.45490178     6.62148987
O      3.86763657     2.23577757     1.68132582
O      3.83579640     0.09671226     4.85073275
O      6.56977230     1.18106715     9.28226268
O      7.73821774     0.00761509     0.10924988
O      9.69485311     1.11501605     3.20756024
O      7.25832569     2.55036955     7.03073109
O      7.74357843     2.23531483     1.71563532
O      7.75556070     0.14873716     4.88889092
O      9.75786796     1.25367369     8.00959554
O      9.67032270     3.35425987     0.10911246
O     -0.02886147     4.46411853     3.29884602
O     -2.00048377     5.47361511     6.45858281
O     -1.94403436     5.59119430     1.70564938
O      9.55671547     3.25052219     4.93046783
O     -0.05911035     4.50633010     8.13074102
O      1.92738314     3.35244915     0.09928684
O      3.87662341     4.47719712     3.22927703
O      1.95826471     5.56410652     6.42244574
O      1.92862022     5.59252216     1.67404250
O      1.99870631     3.29485893     4.83038612
O      3.87677651     4.46837782     9.00613857
O      5.81155478     3.35101064     0.10766953
O      7.74967995     4.47470230     3.22018432
O      5.69499294     5.26425936     6.61015928
O      5.80528807     5.59217007     1.68114259
O      5.85725730     3.32408468     4.71911943
O      8.18268484     4.09577287     9.03172420
O     -3.87155109     6.71022987     0.10512724
O     -1.95424827     7.82418655     3.29341225
O     -3.87861440     8.92326217     6.36644573
O     -3.87509971     8.94378428     1.69355631
O      7.65210832     6.65906311     4.87060532
O     -1.85458633     7.75671661     8.10875491
O     -0.01209783     6.71325780     0.10434852
O      1.92369324     7.84237561     3.30156825
O     -0.00198845     9.01941380     6.42850444
O     -0.00628994     8.94736548     1.70514550
O     -0.03686670     6.71045074     4.91305015
O      1.80172606     7.75941674     8.15369024
O      3.86815347     6.71410280     0.09951587
O      5.80531326     7.84268140     3.21416575
O      3.86739239     8.97187855     6.40661830
O      3.86556896     8.94715423     1.69389986
O      3.94051439     6.70558994     4.84364352
O      5.81032826     7.97090768     8.10800038
O      5.55042382     3.84263084    10.48106858
C      4.96043536     3.93940397     9.33613754
