86
CIF: 4-NHNO+2H-N2+OH+2H_fs.cif | data_image0
Ce    -5.78260361    10.04904623     8.76256884
Ce     1.93261383     1.11336233     5.62792147
Ce     0.00000000     2.23543938     2.47426506
Ce     3.87537830     0.06048222     8.80011675
Ce     5.81123585     1.11944129     5.62045547
Ce     3.87189458     2.23543938     2.47426506
Ce     7.75681186     0.04362137     8.78448647
Ce     9.67587060     1.09972991     5.57559214
Ce     7.74390532     2.23543938     2.47426506
Ce     9.65314899     3.17728203     8.71940163
Ce    -0.01828126     4.43575856     5.60618179
Ce    -1.93600537     5.58869904     2.47426506
Ce     1.88747946     3.33747014     8.83067865
Ce     3.84396636     4.48685088     5.64408183
Ce     1.93588921     5.58869904     2.47426506
Ce     5.77966968     3.38306489     8.77656569
Ce     7.74970349     4.47631648     5.63787115
Ce     5.80789995     5.58869904     2.47426506
Ce    -3.86715720     6.74926978     8.80801938
Ce    -1.92019491     7.81525875     5.65774729
Ce    -3.87195266     8.94185811     2.47426506
Ce     1.95019661     7.86197107     5.59701011
Ce    -0.00005808     8.94185811     2.47426506
Ce     3.91273719     6.74996875     8.75886394
Ce     5.83135527     7.83106920     5.61312470
Ce     3.87195266     8.94185811     2.47426506
Rh     0.38913936     6.51420981     8.27478249
O      5.80706163    10.05259144     6.40651031
O     -0.11940620     2.11189914     9.60863952
O      1.93594729     1.11771969     3.26466483
O      0.00589049     2.22166040     4.79331358
O      0.00000000     0.00000000     1.68386529
O      1.92795036     1.10118287     7.93889578
O     -1.94206244     9.99611854     6.47153504
O      3.95951301     2.20467975     9.58305166
O      5.80795803     1.11771969     3.26466483
O      3.86380930     2.23719936     4.85132944
O      3.87189458     0.00000000     1.68386529
O      5.83095350     1.10129272     7.94697959
O      7.75785486     0.02620945     6.36947057
O      7.75353138     2.19859933     9.60463935
O      9.67985261     1.11771969     3.26466483
O      7.72365125     2.25069384     4.80069586
O      7.74390532     0.00000000     1.68386529
O      9.66815271     1.06084640     7.92903913
O      9.68181893     3.29013245     6.37541593
O     -2.27120783     5.22039351    10.62156750
O      0.00000000     4.47087876     3.26466483
O     -1.93376128     5.57644422     4.82213372
O     -1.93594729     3.35315907     1.68386529
O     -0.35706918     4.60729478     8.14903026
O      1.85257475     3.39244524     6.43487829
O      3.87201074     4.47087876     3.26466483
O      1.94747836     5.59555719     4.80512108
O      1.93594729     3.35315907     1.68386529
O      3.88065975     4.51925384     7.96149656
O      5.81871222     3.37214330     6.44921468
O      5.71462553     5.54952148     9.62252563
O      7.74390532     4.47087876     3.26466483
O      5.80082148     5.59861854     4.84174565
O      5.80795803     3.35315907     1.68386529
O      7.83038674     4.44405084     8.02337963
O     -3.82673874     6.74137218     6.42315349
O     -3.78255240     9.04182551     9.56546426
O     -1.93600537     7.82413842     3.26466483
O     -3.86497276     8.94802263     4.81256337
O     -3.87195266     6.70641873     1.68386529
O     -1.51698734     7.60909527     8.13435928
O      0.02769883     6.67510412     6.33544010
O     -0.00514983     9.39185600    10.05677183
O      1.93600537     7.82413842     3.26466483
O     -0.00307729     8.94164179     4.81607913
O     -0.00005808     6.70641873     1.68386529
O      1.76303796     8.00091589     8.01116208
O      3.83606720     6.76562262     6.45775051
O      3.89085732     8.91372537     9.56921178
O      5.80789995     7.82413842     3.26466483
O      3.88374409     8.93243711     4.79214397
O      3.87195266     6.70641873     1.68386529
O      5.81071658     7.83725067     7.96830427
O      1.77474742     5.78256702     9.38773623
N      0.21955780     6.42202708    12.01850021
N      1.15483703     6.74081630    12.53871924
H     -2.67670088     4.94664796    11.46540790
H     -1.40803368     5.63197918    10.84786027
H     -0.03144941     8.41262366    10.00752376
