85
CIF: 7-2H+OH-H2O_ts.cif | data_image0
Ce     0.02426201     0.00365331     8.73491039
Ce     1.93151757     1.10363194     5.61052562
Ce     0.00000000     2.23543938     2.47426506
Ce     3.86130418     0.00377701     8.77719637
Ce     5.76950831     1.11226837     5.63342429
Ce     3.87189458     2.23543938     2.47426506
Ce     7.74431052     0.00961046     8.80572796
Ce     9.68851263     1.11132999     5.59519336
Ce     7.74390532     2.23543938     2.47426506
Ce     9.61807915     3.23670117     8.69348584
Ce    -0.03849221     4.49884852     5.58365013
Ce    -1.93600537     5.58869904     2.47426506
Ce     1.87264864     3.38898634     8.75481937
Ce     3.85318038     4.49896239     5.61720096
Ce     1.93588921     5.58869904     2.47426506
Ce     5.80508871     3.35762581     8.77306118
Ce     7.77613877     4.51479963     5.63224942
Ce     5.80789995     5.58869904     2.47426506
Ce     7.64418876     6.75277139     8.90747850
Ce    -1.93926393     7.80998814     5.62224055
Ce    -3.87195266     8.94185811     2.47426506
Ce     0.07747191     6.81130401     8.71064330
Ce     1.93695226     7.83632594     5.57529760
Ce    -0.00005808     8.94185811     2.47426506
Ce     3.87202384     6.69437800     8.77655092
Ce     5.80663357     7.83707585     5.64782875
Ce     3.87195266     8.94185811     2.47426506
O      5.82108638    10.02884515     6.40099398
O     -0.11141078     2.22285189     9.52542270
O      1.93594729     1.11771969     3.26466483
O     -0.00997152     2.24525004     4.80500472
O      0.00000000     0.00000000     1.68386529
O      1.90368294     1.10823332     7.96539423
O     -1.95422085    10.05502969     6.44194073
O      3.80780065     2.27019546     9.47590939
O      5.80795803     1.11771969     3.26466483
O      3.84465541     2.26859505     4.82338406
O      3.87189458     0.00000000     1.68386529
O      5.78673990     1.14506676     7.93142360
O      7.72015622     0.02655327     6.37766658
O      7.75500161     2.18840217     9.55911017
O      9.67985261     1.11771969     3.26466483
O      7.71368692     2.24053014     4.78654189
O      7.74390532     0.00000000     1.68386529
O      9.67154214     1.04096161     7.93526885
O      9.64511031     3.28178359     6.39204908
O     -1.84148878     5.55491889     9.99750355
O      0.00000000     4.47087876     3.26466483
O     -1.95118779     5.58870274     4.83901604
O      9.67985261     3.35315907     1.68386529
O     -0.18571308     4.57176885     7.98603496
O      1.82492656     3.40496683     6.48406012
O      1.93450268     5.67330092     9.54225613
O      3.87201074     4.47087876     3.26466483
O      1.92726802     5.60862058     4.80657589
O      1.93594729     3.35315907     1.68386529
O      3.85361937     4.48243578     7.92787327
O      5.80804982     3.38426304     6.40736195
O      5.69019093     5.48798948     9.62789084
O      7.74390532     4.47087876     3.26466483
O      5.81398100     5.57549801     4.81751238
O      5.80795803     3.35315907     1.68386529
O      7.79527746     4.43366328     8.00729923
O      7.74450995     6.69106373     6.43804890
O     -3.81983074     9.07272649     9.67125559
O     -1.93600537     7.82413842     3.26466483
O     -3.85949582     8.95209730     4.82193651
O      7.74384724     6.70641873     1.68386529
O     -1.86183535     7.81028268     8.03499190
O      0.04860125     6.76569484     6.39947140
O      0.04733987     8.99641428     9.55157545
O      1.93600537     7.82413842     3.26466483
O     -0.01646342     8.96799770     4.79074323
O     -0.00005808     6.70641873     1.68386529
O      2.00251883     7.87649476     7.92404344
O      3.91391408     6.73925757     6.41517525
O      3.91496366     8.90929481     9.58060487
O      5.80789995     7.82413842     3.26466483
O      3.89573087     8.94071534     4.78880344
O      3.87195266     6.70641873     1.68386529
O      5.81171152     7.87852938     7.98743965
O      2.91266635     2.61366021    11.88073822
H     -1.77688074     5.52656536    10.96285073
H      3.42294931     2.47437704    11.01565630
H      3.03460734     3.59106133    12.04934427
