84
CIF: Mo-Cr-CeO2-Ov-CO2.cif | data_image0
Ce     1.93038582     1.11050507     0.88387043
Ce     0.00352675     2.22765170     4.03783371
Ce     5.82873500    10.02300343     7.23293222
Ce     5.81181033     1.12175166     0.90127712
Ce     3.83887960     2.19988625     3.97752965
Ce    -1.96843929     9.97227658     7.24273332
Ce     9.66901012     1.12377363     0.90450652
Ce     7.77953887     2.21726201     4.09180947
Ce     2.04501218     9.98712966     7.30141558
Ce    -0.00709724     4.47602159     0.89067279
Ce    -1.93545717     5.57532541     4.10993726
Ce    -1.79880773     3.29304163     7.30673043
Ce     3.86254305     4.47635356     0.87798423
Ce     1.95688798     5.58078942     4.04765321
Ce     1.85542937     3.31088166     7.20398439
Ce     7.74213807     4.46545905     0.90125422
Ce     5.83008650     5.63389322     3.98340482
Ce    -1.94645625     7.83004003     0.90010904
Ce    -3.86625157     8.92202892     4.06641925
Ce    -3.84741281     6.71553093     7.33493881
Ce     1.92815559     7.82745473     0.89060408
Ce     0.01511625     8.95404769     4.08564988
Ce     0.02866047     6.69447860     7.23772022
Ce     5.81127600     7.83258510     0.88371011
Ce     3.87483002     8.94343361     4.02945507
Ce     3.85431162     6.81307971     7.20196130
Cr     5.05245553     3.77621690     6.51071695
Mo     6.50286124     2.93145186     8.01110613
O     11.61334069     0.00154917     0.10141687
O      1.94321682     1.10260163     3.21056587
O      0.09132140     2.19949522     6.37435475
O     -0.00785227     2.23805103     1.69392277
O     -5.77859443    10.03879749     4.83443070
O      2.02252988     1.11104236     7.99560401
O     -1.93899312    10.05733740     0.10496691
O      5.79696505     1.13650656     3.25448941
O      3.96659218     2.31735131     6.46138582
O      3.86763657     2.23577757     1.68132582
O      3.85315108     0.03856051     4.89111776
O      6.00568026     1.23322798     8.47167457
O      7.73821774     0.00761509     0.10924988
O      9.69040831     1.11514264     3.23807482
O      7.71798028     2.25064045     6.52811284
O      7.74357843     2.23531483     1.71563532
O      7.75726792     0.01261104     4.82133519
O      9.91518449     0.97843432     8.09918214
O      9.67032270     3.35425987     0.10911246
O      0.01155855     4.48177300     3.25394669
O     -1.89484466     5.58727284     6.46692535
O     -1.94403436     5.59119430     1.70564938
O      9.68627107     3.32412678     4.83639344
O      0.18422002     4.49510732     8.06102348
O      1.92738314     3.35244915     0.09928684
O      3.87642464     4.46514938     3.20893503
O      2.03905620     5.52375837     6.38719230
O      1.92862022     5.59252216     1.67404250
O      1.96738703     3.31709698     4.83710178
O      3.94739890     4.40582624     8.13546318
O      5.81155478     3.35101064     0.10766953
O      7.72884075     4.45650202     3.25680237
O      5.72751117     5.45380877     6.46074507
O      5.80528807     5.59217007     1.68114259
O      5.76605893     3.37339843     4.87551572
O      7.73763905     4.18816839     8.50326589
O     -3.87155109     6.71022987     0.10512724
O     -1.93097251     7.82567726     3.28217887
O     -3.82555672     8.92841996     6.44194220
O     -3.87509971     8.94378428     1.69355631
O      7.70505275     6.68124708     4.86415147
O     -1.83411918     7.89656712     8.10118962
O     -0.01209783     6.71325780     0.10434852
O      1.93177551     7.81269635     3.24006065
O     -0.03490750     8.99757018     6.45095868
O     -0.00628994     8.94736548     1.70514550
O      0.03507882     6.71432099     4.90295517
O      1.95815260     7.67493680     8.03317848
O      3.86815347     6.71410280     0.09951587
O      5.82158950     7.82512859     3.20796809
O      3.91496437     8.89850549     6.34066314
O      3.86556896     8.94715423     1.69389986
O      3.91146731     6.70184164     4.82455684
O      5.69570362     7.82523363     8.02710708
O      4.49852753     4.06832242    10.34176501
C      4.83363593     3.88872493     9.20031599
