84
CIF: CO+O2.cif | data_image0
O      0.00910816     0.01496067     0.19922347
O      1.91615992     1.07092708     3.34321911
O      0.08902918     2.27275592     6.67570741
O      0.00910816     2.22399008     1.76123671
O     -0.01720936     0.05122621     5.00833265
O      3.83525934     0.01496067     0.19922347
O      5.74290282     1.11216834     3.34208500
O      3.97392172     2.19004536     6.55254330
O      3.83525934     2.22399008     1.76123671
O      3.81872529     0.00145988     4.98177479
O      5.77918735     1.06701225     8.20716609
O      7.66142199     0.01496067     0.19922347
O      9.58201523     1.12521352     3.32542803
O      7.63910445     2.19156229     6.50663835
O      7.66142199     2.22399008     1.76123671
O      7.65485319     0.01207070     4.95539091
O      9.52624967     1.09447932     8.13112897
O     -1.90396742     3.32850478     0.19922347
O     -0.03860509     4.45304672     3.34382706
O     -1.91082026     5.52562066     6.53634107
O     -1.90397316     5.53754413     1.76123671
O     -1.88807598     3.28960910     5.00977363
O      1.92218375     3.32850478     0.19922347
O      3.87220857     4.45383800     3.34424093
O      1.96052327     5.67669439     6.55227229
O      1.92217801     5.53754413     1.76123671
O      1.92324703     3.33075188     4.76030540
O      1.94790527     3.36048595    11.17721155
O      5.74834640     3.32850478     0.19922347
O      7.67849040     4.43550214     3.33999177
O      5.53898082     5.41876030     6.67794275
O      5.74834066     5.53754413     1.76123671
O      5.79138014     3.33524733     4.94299484
O      7.65621817     4.40763815     8.12254786
O     -3.81704875     6.64205884     0.19922347
O     -1.93473983     7.73008371     3.35956313
O     -3.83225827     8.85616677     6.53784018
O     -3.81704875     8.85108825     1.76123671
O      7.58844370     6.60253618     5.04862725
O     -1.93019844     7.73438132     8.12903996
O      0.00910242     6.64205884     0.19922347
O      1.91267179     7.74687835     3.34218894
O     -0.00298726     8.84764361     6.52012312
O      0.00910242     8.85108825     1.76123671
O     -0.01160758     6.63743698     4.98114950
O      1.88931991     7.80207484     8.20475599
O      3.83526508     6.64205884     0.19922347
O      5.75869308     7.76075851     3.33981521
O      3.79485586     8.85290238     6.50531968
O      3.83526508     8.85108825     1.76123671
O      3.86177294     6.67715298     4.94214451
O      5.72146420     7.75913724     8.12158061
O      1.86996398     0.99958181     8.28971779
O     -0.12529788     4.45511871     8.28708675
O      4.55388749     4.11332326     9.51285864
O      3.94533411     5.23375671     9.52226240
Ce     1.92218375     1.11947537     0.98024150
Ce     0.05965933     2.25477849     4.16575205
Ce     5.70425887     9.90877029     7.33225165
Ce     5.74834640     1.11947537     0.98024150
Ce     3.80925084     2.23866138     4.19229177
Ce     3.84278852     0.02949605     7.32365415
Ce     9.57449758     1.11947537     0.98024150
Ce     7.66797194     2.20702196     4.11418441
Ce     7.63582646     0.00280851     7.35682797
Ce     0.00910816     4.43301949     0.98024150
Ce    -1.91168470     5.52720878     4.15937508
Ce     9.50875409     3.31795080     7.33246203
Ce     3.83527081     4.43301949     0.98024150
Ce     1.92092913     5.50889580     4.19276351
Ce     7.66142199     4.43301949     0.98024150
Ce     5.72838033     5.52673871     4.15446804
Ce     5.79857853     3.20147257     7.27726060
Ce    -1.90397316     7.74657355     0.98024150
Ce    -3.83066595     8.85195151     4.15904505
Ce     7.64307945     6.63444425     7.35762858
Ce     1.92218949     7.74657355     0.98024150
Ce     0.00261156     8.84881814     4.14093708
Ce     0.02315246     6.64592079     7.32209442
Ce     5.74834066     7.74657355     0.98024150
Ce     3.82284731     8.86695490     4.11357871
Ce     3.74861963     6.75294350     7.27609384
Pt     1.01875776     2.81195109     8.38473681
C      1.64999225     3.18134597    10.07233389
