86
CIF: 3-NH2NO+H-NHNO+2H_fs.cif | data_image0
Ce     5.78959550    10.05321895     8.75507683
Ce     1.94360134     1.11024163     5.65712797
Ce     0.00000000     2.23543938     2.47426506
Ce    -1.90213216    10.05117466     8.92490153
Ce     5.80301110     1.10542181     5.64698636
Ce     3.87189458     2.23543938     2.47426506
Ce     7.78728379     0.08602931     8.79519475
Ce     9.68274407     1.11995885     5.60071369
Ce     7.74390532     2.23543938     2.47426506
Ce     9.64590856     3.29096772     8.80386662
Ce     0.01196849     4.43121497     5.58526871
Ce    -1.93600537     5.58869904     2.47426506
Ce     1.97100522     3.22316933     8.89509856
Ce     3.85099589     4.47859276     5.67568644
Ce     1.93588921     5.58869904     2.47426506
Ce     5.78505572     3.36010096     8.79508960
Ce     7.75097513     4.48474742     5.63418079
Ce     5.80789995     5.58869904     2.47426506
Ce     7.66264083     6.70355590     8.84021069
Ce    -1.96673274     7.84783925     5.58025475
Ce    -3.87195266     8.94185811     2.47426506
Ce     1.96748388     7.83968613     5.58507783
Ce    -0.00005808     8.94185811     2.47426506
Ce     3.92149238     6.75122529     8.85091174
Ce     5.80111677     7.82449720     5.62406257
Ce     3.87195266     8.94185811     2.47426506
Ti     0.00864712     6.71962201     8.16380113
O     11.60448023     0.00144532     6.40803645
O     -0.16943291     2.19642928     9.56455955
O      1.93594729     1.11771969     3.26466483
O     -0.00131035     2.22551479     4.79358408
O      0.00000000     0.00000000     1.68386529
O      1.89600767     1.05002000     8.01085613
O     -1.93869407     9.97114723     6.45003973
O      4.03769381     2.27836120     9.63401835
O      5.80795803     1.11771969     3.26466483
O      3.86560030     2.22384844     4.85669825
O      3.87189458     0.00000000     1.68386529
O      5.89691483     1.10476069     7.94278604
O      1.96779843     9.98998207     6.42419371
O      7.79082278     2.26293156     9.58562583
O      9.67985261     1.11771969     3.26466483
O      7.74977990     2.24321956     4.84604573
O      7.74390532     0.00000000     1.68386529
O      9.65362413     1.14791076     7.90290084
O     -1.84999049     3.38414810     6.45043007
O     -2.41562089     5.26364603    10.19393146
O      0.00000000     4.47087876     3.26466483
O     -1.95235472     5.58585019     4.80284428
O     -1.93594729     3.35315907     1.68386529
O     -0.02771404     4.85602671     8.15643803
O      1.85973448     3.34738587     6.43452820
O      3.87201074     4.47087876     3.26466483
O      1.93994890     5.57603739     4.80853606
O      1.93594729     3.35315907     1.68386529
O      3.82632837     4.51218471     7.99878262
O      5.79349115     3.36937452     6.44899742
O      5.91213666     5.56012866     9.62251837
O      7.74390532     4.47087876     3.26466483
O      5.81954370     5.59946245     4.84765278
O      5.80795803     3.35315907     1.68386529
O      7.80219224     4.49304361     7.93412571
O     -3.81500550     6.77088083     6.47102824
O     -3.94660544     8.79049447     9.61074878
O     -1.93600537     7.82413842     3.26466483
O     -3.87780789     8.94310714     4.80095669
O     -3.87195266     6.70641873     1.68386529
O     -1.62093385     7.56019544     8.20207701
O     -0.00906508     6.70348442     6.27368863
O      0.19292142     9.39175286    10.09735566
O      1.93600537     7.82413842     3.26466483
O     -0.00001307     8.95211289     4.80078783
O     -0.00005808     6.70641873     1.68386529
O      1.61622338     7.69283717     8.05951151
O      3.82651821     6.76413144     6.40584275
O      3.83194248     9.08655600     9.54331508
O      5.80789995     7.82413842     3.26466483
O      3.88210458     8.95256228     4.78559087
O      3.87195266     6.70641873     1.68386529
O      5.81126354     7.83705429     7.95095212
O      1.98821935     4.87254158    10.91023214
N      0.50389826     6.44863554    10.42308746
N      1.72027689     6.03696044    10.41055268
H      0.28724445     8.49176221    10.48184059
H     -0.12414182     5.75397012    10.88547913
H     -2.78030528     5.06107347    11.07535985
