84
CIF: CO+Olatt—CO2.cif | data_image0
Ce     1.93038582     1.11050507     0.88387043
Ce     0.00049131     2.22326698     4.02171694
Ce    -5.78228549    10.02248164     7.21737972
Ce     5.81181033     1.12175166     0.90127712
Ce     3.83866055     2.18733960     3.97428120
Ce    -2.03278919     9.91668631     7.20359580
Ce     9.66901012     1.12377363     0.90450652
Ce     7.74300592     2.23821140     4.13369169
Ce     2.03736057    10.05580420     7.37913703
Ce    -0.00709724     4.47602159     0.89067279
Ce    -1.93488354     5.58379516     4.09434636
Ce    -1.74052669     3.33019729     7.25102672
Ce     3.86254305     4.47635356     0.87798423
Ce     1.96347598     5.58816145     4.04808362
Ce     1.89527477     3.29667696     7.18923302
Ce     7.74213807     4.46545905     0.90125422
Ce     5.84264285     5.63558306     3.99477137
Ce    -1.94645625     7.83004003     0.90010904
Ce    -3.87492749     8.90439762     4.05436252
Ce    -3.82394764     6.65305218     7.37599221
Ce     1.92815559     7.82745473     0.89060408
Ce     0.02763062     8.96508285     4.09322348
Ce     0.04866351     6.71455104     7.24686704
Ce     5.81127600     7.83258510     0.88371011
Ce     3.86121853     8.96669096     4.04907790
Ce     3.87017845     6.81794422     7.20848889
Fe     4.96867468     3.78955122     6.49347441
Ti     6.84521994     3.00872813     8.26917799
O     11.61334069     0.00154917     0.10141687
O      1.93386485     1.09840322     3.21094998
O      0.10852693     2.21894954     6.37273835
O     -0.00785227     2.23805103     1.69392277
O     -5.76706606    10.03831960     4.86841782
O      1.99576333     1.10012992     7.98814096
O     -1.93899312    10.05733740     0.10496691
O      5.73294964     1.09662370     3.25866663
O      4.04063696     2.24043773     6.50289213
O      3.86763657     2.23577757     1.68132582
O      3.81317605     0.00052611     4.89843136
O      6.71062541     1.42128685     8.98211185
O      7.73821774     0.00761509     0.10924988
O      9.73573628     1.09534343     3.24801435
O      7.68792702     2.41225792     6.67599996
O      7.74357843     2.23531483     1.71563532
O      1.94305311    10.01249280     4.88022852
O      9.93783224     1.16105260     8.01865680
O      9.67032270     3.35425987     0.10911246
O      0.02355731     4.49275450     3.26287219
O     -1.86787883     5.54292544     6.47870386
O     -1.94403436     5.59119430     1.70564938
O     -1.85949310     3.35143855     4.91007227
O      0.13761626     4.43044407     8.03491802
O      1.92738314     3.35244915     0.09928684
O      3.86451034     4.48250420     3.20566194
O      2.01364575     5.52785642     6.40771528
O      1.92862022     5.59252216     1.67404250
O      1.99425717     3.30763478     4.86184508
O      3.97630933     4.36747140     8.02375768
O      5.81155478     3.35101064     0.10766953
O      7.73771907     4.53083886     3.25965014
O      5.79961929     5.38274448     6.50458837
O      5.80528807     5.59217007     1.68114259
O      5.68134212     3.40345105     4.87617915
O      8.19366180     4.18811252     8.62067858
O     -3.87155109     6.71022987     0.10512724
O     -1.92711205     7.81598408     3.28218895
O     -3.84975090     8.89601367     6.46454332
O     -3.87509971     8.94378428     1.69355631
O      7.72014697     6.68960276     4.89392288
O     -1.83207110     7.84904814     8.09884836
O     -0.01209783     6.71325780     0.10434852
O      1.94036544     7.80261630     3.24739784
O     -0.05377184     9.06771198     6.52450371
O     -0.00628994     8.94736548     1.70514550
O      0.03811355     6.74874241     4.93643704
O      1.95964764     7.68162619     8.04133597
O      3.86815347     6.71410280     0.09951587
O      5.81803783     7.82767779     3.22139414
O      3.93145767     8.93037473     6.40622844
O      3.86556896     8.94715423     1.69389986
O      3.92844583     6.71059111     4.87632951
O      5.70374705     7.81109982     8.04202134
O      4.67053713     4.41259220    10.28890587
C      5.05718953     4.04228992     9.23046585
