82
CIF: Cr-Y-CeO2.cif | data_image0
Ce     1.93596140     1.11772783     0.89035214
Ce     0.01805231     2.21771805     4.01271482
Ce     5.78614751    10.04418443     7.22694372
Ce     5.80789581     1.11772783     0.89035214
Ce     3.86923401     2.21858691     4.02254002
Ce    -2.07712378     9.96623727     7.15555544
Ce     9.67981860     1.11772783     0.89035214
Ce     7.73873392     2.24438787     4.06440426
Ce     2.00699612    10.03215784     7.18714906
Ce     0.00000000     4.47091133     0.89035214
Ce    -1.94924232     5.59824244     4.05727572
Ce    -1.78459037     3.31992922     7.12414001
Ce     3.87193441     4.47091133     0.89035214
Ce     1.94347224     5.58768100     4.03868543
Ce     1.97709138     3.34991364     7.20721697
Ce     7.74385721     4.47091133     0.89035214
Ce     5.81524781     5.59458258     4.04730953
Ce    -1.93596721     7.82410489     0.89035214
Ce    -3.89207374     8.91647876     4.01436075
Ce     7.71326983     6.75279019     7.29166995
Ce     1.93596721     7.82410489     0.89035214
Ce    -0.00724045     8.95669129     4.05262165
Ce     0.01184483     6.71323072     7.21959697
Ce     5.80789000     7.82410489     0.89035214
Ce     3.87062897     8.95121265     4.03047319
Ce     3.85955127     6.68650276     7.20529059
Y      5.67235115     3.41141686     6.99688329
O      0.00000000     0.00000000     0.09999685
O      1.93098707     1.11418923     3.21150263
O      0.03629468     2.20197791     6.37305231
O      0.00000000     2.23545567     1.68070743
O      5.81145197    10.05112529     4.83527093
O      1.91760067     1.08593824     8.01594738
O      3.87192279     0.00000000     0.09999685
O      5.79200310     1.10609147     3.24152109
O      3.98230230     2.10629158     6.47487365
O      3.87192279     2.23545567     1.68070743
O     -1.99478146    10.02466315     4.82338963
O      6.29921595     1.53027292     8.73842630
O      7.74385721     0.00000000     0.09999685
O      9.68962744     1.11889820     3.22732028
O      7.70603699     2.36614585     6.39186652
O      7.74385721     2.23545567     1.68070743
O      7.74943524     0.00935961     4.80275845
O      9.72124397     1.25390407     8.11847270
O     -1.93596140     3.35318350     0.09999685
O      0.02076734     4.48536167     3.25173231
O     -1.97001825     5.50408075     6.47182278
O     -1.93596721     5.58864923     1.68070743
O     -1.89218610     3.33756423     4.81426625
O      0.06768993     4.44665684     7.98552856
O      1.93596140     3.35318350     0.09999685
O      3.84971848     4.48373247     3.22132707
O      1.92003033     5.57139872     6.34637632
O      1.93595559     5.58864923     1.68070743
O      1.98980464     3.31132584     4.87396123
O      5.80789581     3.35318350     0.09999685
O      7.75321716     4.47015925     3.24895962
O      5.84240164     5.52928289     6.45156887
O      5.80789000     5.58864923     1.68070743
O      5.74736732     3.36476430     4.77200727
O      7.88802941     4.09369130     8.68742557
O     -3.87192860     6.70637706     0.09999685
O     -1.92640619     7.81661916     3.22320136
O     -3.91665928     8.94514846     6.41374279
O     -3.87192860     8.94183273     1.68070743
O     -3.86654735     6.71613050     4.81698568
O     -1.85044045     7.88008906     8.04362476
O     -0.00000581     6.70637706     0.09999685
O      1.92713562     7.81019434     3.24560755
O     -0.05372138     9.10031515     6.46253748
O     -0.00000581     8.94183273     1.68070743
O     -0.03804012     6.75274008     4.90788507
O      3.87192860     6.70637706     0.09999685
O      5.79615651     7.82147502     3.22121692
O      3.89154817     8.97400517     6.38848662
O      3.87192860     8.94183273     1.68070743
O      3.89513902     6.70800234     4.86813394
O      5.66886008     7.89905502     8.06531987
O      3.79850226     4.46232018     7.95399369
O      1.92040638     7.70994417     7.98399367
Cr     7.50859151     2.55780004     9.36340345
