86
CIF: 3-NH2NO+H-NHNO+2H_fs.cif | data_image0
Ce    -0.00656089     0.03400508     8.78438984
Ce     1.93384875     1.12189379     5.60835395
Ce     0.00000000     2.23543938     2.47426506
Ce    -1.97494414    10.04033740     8.77295492
Ce     5.80046260     1.10533984     5.62301942
Ce     3.87189458     2.23543938     2.47426506
Ce     7.76719199     0.03292976     8.77995315
Ce     9.67511087     1.11437481     5.60034821
Ce     7.74390532     2.23543938     2.47426506
Ce     9.61579092     3.28040878     8.76875220
Ce    -0.00664509     4.44752506     5.61134434
Ce    -1.93600537     5.58869904     2.47426506
Ce     1.91776710     3.23897193     8.81601498
Ce     3.84577314     4.48553108     5.65023251
Ce     1.93588921     5.58869904     2.47426506
Ce     5.78327209     3.34943678     8.77255984
Ce     7.73997188     4.47182201     5.62790049
Ce     5.80789995     5.58869904     2.47426506
Ce    -3.88680421     6.77863643     8.76237905
Ce    -1.92874664     7.82279905     5.67509270
Ce    -3.87195266     8.94185811     2.47426506
Ce     1.95766977     7.83454846     5.60590874
Ce    -0.00005808     8.94185811     2.47426506
Ce     4.03207477     6.80596226     8.76351197
Ce     5.82224641     7.84035796     5.58583570
Ce     3.87195266     8.94185811     2.47426506
Ni     0.65416409     6.28851649     8.31225144
O     11.60208398     0.02006780     6.39690431
O     -0.13729884     2.14890590     9.60252588
O      1.93594729     1.11771969     3.26466483
O     -0.00174345     2.23727850     4.79774681
O      0.00000000     0.00000000     1.68386529
O      1.92473453     1.07365786     7.96348689
O      3.87294996     0.00625987     6.41541549
O      3.97503672     2.17202489     9.53800986
O      5.80795803     1.11771969     3.26466483
O      3.87109655     2.24595764     4.82016284
O      3.87189458     0.00000000     1.68386529
O      5.84377295     1.05632180     7.94884638
O      1.95097986    10.01703039     6.41863601
O      7.72301225     2.23158042     9.56497883
O      9.67985261     1.11771969     3.26466483
O      7.71886965     2.23519837     4.82264062
O      7.74390532     0.00000000     1.68386529
O      9.63518824     1.11383267     7.93611898
O      9.67365229     3.32524984     6.39949242
O     -2.15984041     5.50700166     9.87051956
O      0.00000000     4.47087876     3.26466483
O     -1.92190075     5.59584573     4.83863243
O     -1.93594729     3.35315907     1.68386529
O     -0.17195274     4.48806547     8.02962072
O      1.91313129     3.35307788     6.41648401
O      3.87201074     4.47087876     3.26466483
O      1.95453517     5.58417417     4.80640077
O      1.93594729     3.35315907     1.68386529
O      3.82878901     4.58419662     8.06588905
O      5.76290146     3.35859344     6.47184208
O      5.87867001     5.65916550     9.52835532
O      7.74390532     4.47087876     3.26466483
O      5.79711940     5.58387955     4.82413447
O      5.80795803     3.35315907     1.68386529
O      7.75673087     4.46167436     7.95827971
O      7.73991984     6.70234339     6.41175186
O     -3.89872077     8.96867129     9.62124100
O     -1.93600537     7.82413842     3.26466483
O     -3.86179611     8.94028605     4.81737072
O     -3.87195266     6.70641873     1.68386529
O     -2.01023414     7.86980439     8.00768744
O      0.09412195     6.68990642     6.41350163
O      0.00302237     9.37764676    10.00418205
O      1.93600537     7.82413842     3.26466483
O     -0.00169473     8.92701869     4.82484497
O     -0.00005808     6.70641873     1.68386529
O      1.92734931     7.85026122     8.15069842
O      3.87639835     6.75891325     6.42720625
O      3.93489852     8.99477997     9.55843005
O      5.80789995     7.82413842     3.26466483
O      3.87774017     8.94287689     4.78938358
O      3.87195266     6.70641873     1.68386529
O      5.84826994     7.87951154     7.93501557
O      2.90486759     5.99935777    10.78138776
N      0.78270187     5.89847538    10.30099608
N      1.70582377     5.84609448    11.19936827
H     -0.12678385     5.69632066    10.75055239
H     -1.45850974     6.02134752     9.40878020
H      0.03380958     8.51263672    10.45170311
