84
CIF: Y-Mo-CeO2-CO.cif | data_image0
Ce     1.93596140     1.11772783     0.89035214
Ce    -0.02801212     2.21853249     4.04205846
Ce    -5.61209931     9.94071071     7.20036884
Ce     5.80789581     1.11772783     0.89035214
Ce     3.80734130     2.17157387     3.94475525
Ce    -1.91259480    10.03855871     7.31807146
Ce     9.67981860     1.11772783     0.89035214
Ce     7.73928165     2.25291536     4.04277613
Ce     2.01168921     9.93982029     7.24941679
Ce     0.00000000     4.47091133     0.89035214
Ce    -1.93813994     5.60069377     4.05931527
Ce    -1.75828185     3.52592968     7.24091236
Ce     3.87193441     4.47091133     0.89035214
Ce     1.94996103     5.59375038     4.07298954
Ce     1.87252328     3.31282652     7.19758463
Ce     7.74385721     4.47091133     0.89035214
Ce     5.83304411     5.63847182     4.02043076
Ce    -1.93596721     7.82410489     0.89035214
Ce    -3.83652355     8.90985199     4.05651369
Ce    -3.73853382     6.69644700     7.43178686
Ce     1.93596721     7.82410489     0.89035214
Ce     0.01792205     8.96780279     4.07213607
Ce     0.05998977     6.77431438     7.25004380
Ce     5.80789000     7.82410489     0.89035214
Ce     3.89283792     8.95732284     4.06235483
Ce     3.92687745     6.74210197     7.31185875
Mo     5.41317653     3.38530062     6.84686845
O      0.00000000     0.00000000     0.09999685
O      1.91073426     1.10520234     3.20560255
O     -0.08182906     2.15332813     6.51112847
O      0.00000000     2.23545567     1.68070743
O     -5.73258895    10.03460790     4.86972047
O      1.90829165     1.22883446     8.06122146
O      3.87192279     0.00000000     0.09999685
O      5.74756275     1.10240644     3.22003629
O      3.93797682     2.28550813     6.31778423
O      3.87192279     2.23545567     1.68070743
O      3.85708663     0.00817300     4.81924865
O      5.57350820     1.97614664     8.32904310
O      7.74385721     0.00000000     0.09999685
O      9.75217752     1.08672988     3.23639240
O      7.27923771     2.89354649     6.83105258
O      7.74385721     2.23545567     1.68070743
O      7.79301341     0.00714520     4.89501896
O      9.02923677     1.65076989     8.54514611
O     -1.93596140     3.35318350     0.09999685
O     -0.00087087     4.47469956     3.26129936
O     -1.84170100     5.60032882     6.40818269
O     -1.93596721     5.58864923     1.68070743
O     -1.91440381     3.35526784     4.93641433
O      0.09648958     4.44852098     8.07498142
O      1.93596140     3.35318350     0.09999685
O      3.85275460     4.47576064     3.23783051
O      1.97515798     5.49723661     6.42750531
O      1.93595559     5.58864923     1.68070743
O      1.88566775     3.28001418     4.88315001
O      5.80789581     3.35318350     0.09999685
O      7.72336376     4.54479094     3.24200238
O      5.90919850     5.21907527     6.58618263
O      5.80789000     5.58864923     1.68070743
O      5.63849085     3.36246351     4.90621694
O      8.34710132     4.57245152     8.71190708
O     -3.87192860     6.70637706     0.09999685
O     -1.92436902     7.80399791     3.25624883
O     -3.80265956     8.94843407     6.45201546
O     -3.87192860     8.94183273     1.68070743
O      7.70381682     6.69742234     4.88995891
O     -1.71808577     7.78297201     8.17312591
O     -0.00000581     6.70637706     0.09999685
O      1.97140634     7.82112609     3.26471607
O      0.02931556     9.00623094     6.43665029
O     -0.00000581     8.94183273     1.68070743
O      0.04869249     6.73822372     4.87469764
O      3.87192860     6.70637706     0.09999685
O      5.81635518     7.82559847     3.22785433
O      3.98908469     9.06833892     6.50553672
O      3.87192860     8.94183273     1.68070743
O      3.96379442     6.72099952     4.90644759
O      5.89258024     7.92206114     8.14386517
O      4.09122417     4.19544638     7.96805625
O      1.90692138     7.77313337     8.11927134
O      4.28840928     4.05581537    11.21173484
Y      7.40670260     2.80325752     9.20560922
C      5.28458834     3.73329582    10.75885371
