85
CIF: 6-OH+2H-H2O+H_fs.cif | data_image0
Ce     0.01685400     0.00898709     8.78868379
Ce     1.92863192     1.11430880     5.60271997
Ce     0.00000000     2.23543938     2.47426506
Ce     3.73331232     0.04694001     8.80830533
Ce     5.79878099     1.08773666     5.64677282
Ce     3.87189458     2.23543938     2.47426506
Ce     7.94488233     0.05364007     8.70219447
Ce     9.70518299     1.12670911     5.56869092
Ce     7.74390532     2.23543938     2.47426506
Ce     9.67832588     3.31818697     8.75838654
Ce     0.00826567     4.48955740     5.61463168
Ce    -1.93600537     5.58869904     2.47426506
Ce     1.95751828     3.33763757     8.77718943
Ce     3.85792642     4.46943865     5.62746504
Ce     1.93588921     5.58869904     2.47426506
Ce     5.80005152     3.32065868     8.78822843
Ce     7.73992428     4.47198066     5.63761129
Ce     5.80789995     5.58869904     2.47426506
Ce     7.63480788     6.70222997     8.84903771
Ce    -1.95971577     7.83207808     5.61755591
Ce    -3.87195266     8.94185811     2.47426506
Ce     1.96024504     7.83227596     5.66623636
Ce    -0.00005808     8.94185811     2.47426506
Ce     3.88551717     6.76082877     8.79723100
Ce     5.80396329     7.81226595     5.61457024
Ce     3.87195266     8.94185811     2.47426506
Cr    -0.60391380     6.43988837     8.47562487
O     -5.79313002    10.05053908     6.39705030
O     -0.00446358     2.30143670     9.52216282
O      1.93594729     1.11771969     3.26466483
O      0.00187354     2.24584070     4.79392873
O      0.00000000     0.00000000     1.68386529
O      1.90669250     1.16308018     7.94526100
O     -1.95358509    10.04800712     6.40835545
O      3.85817800     2.34684829     9.57576467
O      5.80795803     1.11771969     3.26466483
O      3.86069486     2.23084285     4.81443173
O      3.87189458     0.00000000     1.68386529
O      5.89097209     0.93095452     8.13099157
O      7.76577027     0.04772971     6.37523494
O      7.84724159     2.21850349     9.59654047
O      9.67985261     1.11771969     3.26466483
O      7.74845404     2.25889309     4.82115942
O      7.74390532     0.00000000     1.68386529
O      9.71482462     1.13792098     7.90447713
O     -1.86945076     3.38138669     6.44157709
O     -1.89397073     5.54849708     9.40963234
O      0.00000000     4.47087876     3.26466483
O     -1.91816230     5.60048807     4.82393132
O     -1.93594729     3.35315907     1.68386529
O      0.03235078     4.69063055     8.07162984
O      1.88729493     3.37023581     6.43148034
O      2.24008186     5.30140248    10.04173625
O      3.87201074     4.47087876     3.26466483
O      1.88923213     5.61295027     4.83215130
O      1.93594729     3.35315907     1.68386529
O      3.81417946     4.53565400     7.94705556
O      5.75585816     3.26731241     6.47116955
O      5.75046408     5.42197818     9.63810536
O      7.74390532     4.47087876     3.26466483
O      5.81668737     5.54797556     4.82327897
O      5.80795803     3.35315907     1.68386529
O      7.71167667     4.36979643     7.93589676
O     -3.87880569     6.72259155     6.40635469
O     -4.04349091     9.02306128     9.63224286
O     -1.93600537     7.82413842     3.26466483
O     -3.87113465     8.94211786     4.79744539
O     -3.87195266     6.70641873     1.68386529
O     -1.84883413     7.73960772     8.04200248
O     -0.06468034     6.70694466     6.61374829
O      0.27556941     7.15599710     9.60465421
O      1.93600537     7.82413842     3.26466483
O      0.00330489     8.90651814     4.84366198
O     -0.00005808     6.70641873     1.68386529
O      2.17624086     7.95395020     7.94353807
O      3.87858719     6.68098427     6.35141648
O      3.91781905     9.08964570     9.62936219
O      5.80789995     7.82413842     3.26466483
O      3.86893750     8.94733280     4.80851610
O      3.87195266     6.70641873     1.68386529
O      5.69088566     7.81854883     7.96464071
O      4.17612510     6.54728088    11.44408983
H      4.94137286     5.97578098    11.16299267
H      1.43155959     5.84721266    10.17359949
H      3.40819000     5.92542484    11.42897483
