83
CIF: Co-Fe-CeO2-Ov-O2.cif | data_image0
Ce     1.93038582     1.11050507     0.88387043
Ce    -0.00428371     2.23535548     4.01132899
Ce    -5.79231150    10.05036220     7.20775439
Ce     5.81181033     1.12175166     0.90127712
Ce     3.83156397     2.19860646     3.99861364
Ce    -1.89595934    10.05187815     7.32996538
Ce     9.66901012     1.12377363     0.90450652
Ce     7.76557485     2.22296401     4.07061026
Ce     7.80630573     0.02113677     7.18104876
Ce    -0.00709724     4.47602159     0.89067279
Ce    -1.94367626     5.58645871     4.08023013
Ce     9.69258955     3.28718872     7.18098148
Ce     3.86254305     4.47635356     0.87798423
Ce     1.94256884     5.58492836     4.05963778
Ce     1.77518677     3.28844205     7.21784157
Ce     7.74213807     4.46545905     0.90125422
Ce     5.81887226     5.64147251     3.99837786
Ce    -1.94645625     7.83004003     0.90010904
Ce    -3.85960193     8.93527721     4.10747324
Ce    -3.84521003     6.67548817     7.32757787
Ce     1.92815559     7.82745473     0.89060408
Ce    -0.00258936     8.95010805     4.08025112
Ce    -0.00452482     6.70932330     7.24618555
Ce     5.81127600     7.83258510     0.88371011
Ce     3.86986586     8.94452931     4.01143130
Ce     3.84821197     6.87705564     7.21845110
Fe     5.02402672     3.80669528     6.54401822
Co     6.46651713     2.97382163     8.28549551
O     11.61334069     0.00154917     0.10141687
O      1.93495434     1.11380904     3.21882712
O     -0.03216301     2.21699849     6.35025844
O     -0.00785227     2.23805103     1.69392277
O     -5.79154560    10.04999799     4.83643738
O      1.82521454     1.22234867     8.03489745
O     -1.93899312    10.05733740     0.10496691
O      5.79265330     1.15574727     3.25328462
O      3.90470958     2.38806683     6.43688475
O      3.86763657     2.23577757     1.68132582
O      3.86455907     0.04170155     4.86237167
O      6.10091511     1.20440288     8.25623927
O      7.73821774     0.00761509     0.10924988
O      9.68355328     1.11539240     3.22985794
O      7.90214800     2.14234665     6.31897607
O      7.74357843     2.23531483     1.71563532
O      1.93816710    10.03652815     4.78736722
O      9.74009973     1.08188685     8.02645904
O      9.67032270     3.35425987     0.10911246
O      0.01648852     4.49371677     3.23028028
O     -1.93261762     5.50685400     6.41844492
O     -1.94403436     5.59119430     1.70564938
O     -1.91536430     3.36316154     4.78821742
O      0.00765225     4.41674365     8.01906945
O      1.92738314     3.35244915     0.09928684
O      3.86806174     4.47275324     3.23061528
O      2.05498322     5.52012358     6.49814854
O      1.92862022     5.59252216     1.67404250
O      1.91278169     3.33360466     4.85086089
O      5.81155478     3.35101064     0.10766953
O      7.70302491     4.46447913     3.25354827
O      5.69572842     5.48353323     6.43870754
O      5.80528807     5.59217007     1.68114259
O      5.74125938     3.39112095     4.92502286
O      7.81957484     4.17364161     8.25376992
O     -3.87155109     6.71022987     0.10512724
O     -1.92995185     7.82104754     3.27835566
O     -3.88049299     8.94714937     6.46534505
O     -3.87509971     8.94378428     1.69355631
O      7.70416058     6.69185676     4.86179466
O     -1.76109646     7.72316534     8.09161089
O     -0.01209783     6.71325780     0.10434852
O      1.92508968     7.79805657     3.23000342
O      0.07343260     8.98151218     6.41912374
O     -0.00628994     8.94736548     1.70514550
O      0.03129062     6.68871589     4.91615804
O      1.98556249     7.84340520     8.01899401
O      3.86815347     6.71410280     0.09951587
O      5.80974168     7.82683311     3.21852991
O      3.87121816     8.97778806     6.35044805
O      3.86556896     8.94715423     1.69389986
O      3.87767911     6.73470097     4.85115483
O      5.66363587     7.86855944     8.03403595
O      4.02203071     4.38662477     8.12570434
O      4.95720648     3.85808900     9.10781424
