83
CIF: O2—Olatt+Osur.cif | data_image0
Ce     1.93596140     1.11772783     0.89035214
Ce    -0.01064305     2.24436954     4.09378429
Ce    11.59598829     0.01412459     7.24293952
Ce     5.80789581     1.11772783     0.89035214
Ce     3.80107793     2.20082243     3.93829978
Ce    -2.06642817     9.94782599     7.25774194
Ce     9.67981860     1.11772783     0.89035214
Ce     7.81179380     2.20696743     3.98851098
Ce     2.02653996     9.92140566     7.39408193
Ce     0.00000000     4.47091133     0.89035214
Ce    -1.95714207     5.56879620     4.10248234
Ce    -1.75655577     3.35157289     7.41049741
Ce     3.87193441     4.47091133     0.89035214
Ce     1.95789134     5.58169159     4.11020420
Ce     1.85593972     3.34464521     7.36227208
Ce     7.74385721     4.47091133     0.89035214
Ce     5.81840075     5.64776472     3.98645769
Ce    -1.93596721     7.82410489     0.89035214
Ce    -3.88898168     8.94623816     4.01638942
Ce    -3.82071365     6.88346587     7.24509696
Ce     1.93596721     7.82410489     0.89035214
Ce     0.00361984     8.97088070     4.10161466
Ce     0.01519642     6.69325610     7.30049189
Ce     5.80789000     7.82410489     0.89035214
Ce     3.86029414     8.93825102     4.07993032
Ce     3.82839329     6.78617639     7.32393634
Mo     5.49698925     3.52493073     6.77005849
Mo     6.69248480     2.87002510     9.00066843
O      0.00000000     0.00000000     0.09999685
O      1.92103937     1.10980642     3.21263967
O      0.05450158     2.19617643     6.46811462
O      0.00000000     2.23545567     1.68070743
O      0.02262273     0.00531570     4.89353670
O      2.01821773     0.97092701     8.08578745
O      3.87192279     0.00000000     0.09999685
O      5.72553800     1.08447771     3.23317211
O      4.13769575     2.30759246     6.68705029
O      3.87192279     2.23545567     1.68070743
O      3.81232073     0.08943398     4.92836766
O      6.52544738     1.13886713     9.33502633
O      7.74385721     0.00000000     0.09999685
O      9.76221311     1.07390831     3.23684249
O      7.16358755     2.58712011     7.06576539
O      7.74385721     2.23545567     1.68070743
O      1.92037747    10.04972720     4.95547964
O      9.79691846     1.05313686     8.10917622
O     -1.93596140     3.35318350     0.09999685
O      0.00651844     4.47951905     3.30620560
O     -2.07448408     5.62617182     6.58134384
O     -1.93596721     5.58864923     1.68070743
O     -1.91930638     3.35235872     4.97463895
O      0.02487786     4.61937586     8.18903676
O      1.93596140     3.35318350     0.09999685
O      3.83153678     4.41767578     3.23486112
O      1.94880176     5.55248873     6.45739159
O      1.93595559     5.58864923     1.68070743
O      2.01644490     3.27451594     4.90511745
O      5.80789581     3.35318350     0.09999685
O      7.81299670     4.52345123     3.23075018
O      5.88313295     5.30733668     6.65837769
O      5.80789000     5.58864923     1.68070743
O      5.79830319     3.30416783     4.93373147
O      8.10712958     3.89203563     9.31713292
O     -3.87192860     6.70637706     0.09999685
O     -1.93521506     7.84083091     3.28689564
O     -3.84907952     8.94843628     6.39528104
O     -3.87192860     8.94183273     1.68070743
O     -3.88837201     6.75512347     4.95068597
O     -2.02363953     7.88101771     8.14603547
O     -0.00000581     6.70637706     0.09999685
O      1.90935691     7.82412223     3.28442139
O     -0.12315389     9.06602438     6.56828677
O     -0.00000581     8.94183273     1.68070743
O     -0.02840967     6.73455935     4.97445064
O      3.87192860     6.70637706     0.09999685
O      5.81200133     7.90134672     3.22178241
O      3.93381705     8.93977550     6.45809111
O      3.87192860     8.94183273     1.68070743
O      3.86980849     6.70965150     4.90013771
O      5.97292284     7.82330860     8.04683420
O      1.81820107     7.73844434     8.15780161
O      4.08900889     4.34835789     8.26923044
O      5.08655261     3.79620867     9.39633544
