81
CIF: Cr-Cr-CeO2-Ov.cif | data_image0
Ce     1.93596140     1.11772783     0.89035214
Ce     0.00317480     2.22538265     4.03257130
Ce    -5.76299446    10.03238759     7.27017974
Ce     5.80789581     1.11772783     0.89035214
Ce     3.81364136     2.19402550     3.94178821
Ce    -1.98009359    10.02298914     7.39037994
Ce     9.67981860     1.11772783     0.89035214
Ce     7.78044809     2.21522085     4.02668386
Ce     2.03363080     9.91963708     7.23340367
Ce     0.00000000     4.47091133     0.89035214
Ce    -1.95826874     5.57847780     4.10280706
Ce    -1.76672616     3.33879734     7.23200331
Ce     3.87193441     4.47091133     0.89035214
Ce     1.94906620     5.58145479     4.11367749
Ce     1.77513218     3.29635939     7.30750698
Ce     7.74385721     4.47091133     0.89035214
Ce     5.81466597     5.65987744     3.94115814
Ce    -1.93596721     7.82410489     0.89035214
Ce    -3.86727251     8.93843077     4.11223171
Ce    -3.86111532     6.76298514     7.39480864
Ce     1.93596721     7.82410489     0.89035214
Ce    -0.00204602     8.96547744     4.10426124
Ce    -0.03147659     6.72319371     7.27997331
Ce     5.80789000     7.82410489     0.89035214
Ce     3.88241393     8.94343012     4.03389221
Ce     3.83980039     6.87395351     7.30913362
Cr     5.37951685     3.59967272     6.59280056
Cr     6.92676675     2.70869884     8.07782730
O      0.00000000     0.00000000     0.09999685
O      1.92943529     1.09810183     3.21098883
O     -0.01262850     2.22348461     6.39098540
O      0.00000000     2.23545567     1.68070743
O     -5.77495307    10.04023310     4.86396579
O      1.80700152     1.04252610     8.13135674
O      3.87192279     0.00000000     0.09999685
O      5.73892753     1.09132736     3.22920095
O      4.06102332     2.54597703     6.96692818
O      3.87192279     2.23545567     1.68070743
O      3.85017781     0.13979972     4.93604239
O      6.28581241     1.25785144     8.67030313
O      7.74385721     0.00000000     0.09999685
O      9.75708989     1.07220656     3.21998267
O      7.67541960     2.27030338     6.57050332
O      7.74385721     2.23545567     1.68070743
O      1.95942878    10.01770664     4.89954114
O      9.69814878     1.10785720     7.99575613
O     -1.93596140     3.35318350     0.09999685
O      0.01751595     4.48310839     3.27859655
O     -1.98356413     5.50864170     6.46862272
O     -1.93596721     5.58864923     1.68070743
O     -1.89059113     3.35317496     4.89677199
O     -0.10851034     4.49476252     8.14606039
O      1.93596140     3.35318350     0.09999685
O      3.87139605     4.47081107     3.21838687
O      1.95021971     5.58013475     6.50237689
O      1.93595559     5.58864923     1.68070743
O      2.00404191     3.28822650     4.86535343
O      5.80789581     3.35318350     0.09999685
O      7.73246942     4.54581729     3.22693076
O      5.62623225     5.26763039     6.96926256
O      5.80789000     5.58864923     1.68070743
O      5.73982370     3.39380023     4.88795714
O      7.86351733     3.99422795     8.65951535
O     -3.87192860     6.70637706     0.09999685
O     -1.95463128     7.83516946     3.32005655
O     -3.82845901     8.91351526     6.43145504
O     -3.87192860     8.94183273     1.68070743
O      7.61126043     6.65246499     4.93589768
O     -1.80312776     7.74417683     8.15701496
O     -0.00000581     6.70637706     0.09999685
O      1.93381900     7.80359504     3.27772638
O      0.04505684     9.02459101     6.47218351
O     -0.00000581     8.94183273     1.68070743
O     -0.01732662     6.71786979     4.92984052
O      1.85955463     7.90539815     8.14693936
O      3.87192860     6.70637706     0.09999685
O      5.82119599     7.84043867     3.21013867
O      3.87529234     8.95845825     6.39383935
O      3.87192860     8.94183273     1.68070743
O      3.96071162     6.68046951     4.86564950
O      5.80762456     7.97241721     8.13330958
