82
CIF: Os-Sc-CeO2.cif | data_image0
Ce     1.93038582     1.11050507     0.88387043
Ce    -0.00921117     2.23151287     4.04323816
Ce     0.02459778     0.02132023     7.21608321
Ce     5.81181033     1.12175166     0.90127712
Ce     3.87716969     2.22305934     4.04516544
Ce    -1.98563977    10.04906742     7.30747049
Ce     9.66901012     1.12377363     0.90450652
Ce     7.73447045     2.23312426     3.97728334
Ce     2.06515424     9.85136056     7.35513973
Ce    -0.00709724     4.47602159     0.89067279
Ce    -1.96298677     5.57817513     4.09540761
Ce    -1.76535097     3.28123005     7.32469471
Ce     3.86254305     4.47635356     0.87798423
Ce     1.93477245     5.57866920     4.05484943
Ce     1.94652403     3.35909461     7.20348323
Ce     7.74213807     4.46545905     0.90125422
Ce     5.81673535     5.59870031     4.02685423
Ce    -1.94645625     7.83004003     0.90010904
Ce    -3.86206307     8.96995912     4.01386575
Ce    -3.86682604     6.89241326     7.15419352
Ce     1.92815559     7.82745473     0.89060408
Ce    -0.01525507     8.95438550     4.11781045
Ce    -0.00892501     6.68120681     7.24199730
Ce     5.81127600     7.83258510     0.88371011
Ce     3.87741334     8.94692861     4.05850135
Ce     3.88672158     6.68078746     7.21460215
Sc     5.41298401     3.61284674     6.90366286
Os     6.59066085     2.31223044     9.18593353
O     11.61334069     0.00154917     0.10141687
O      1.92899230     1.12623302     3.22254378
O      0.06190305     2.26408729     6.34175824
O     -0.00785227     2.23805103     1.69392277
O     11.60514591     0.01148653     4.82650819
O      1.83717165     1.20639103     8.03935251
O     -1.93899312    10.05733740     0.10496691
O      5.81362794     1.11530448     3.23284767
O      3.95725065     2.26635336     6.43822264
O      3.86763657     2.23577757     1.68132582
O      3.87603635     0.01129080     4.81549479
O      5.80606908     0.72990343     8.98886186
O      7.73821774     0.00761509     0.10924988
O      9.67556959     1.11140400     3.21214330
O      7.27527126     2.70474860     7.42342177
O      7.74357843     2.23531483     1.71563532
O      7.76665151     0.16445172     4.95308618
O      9.84639634     1.00197161     8.01467940
O      9.67032270     3.35425987     0.10911246
O     -0.03296119     4.46020065     3.27203898
O     -2.09453159     5.53990996     6.50219083
O     -1.94403436     5.59119430     1.70564938
O      9.54903395     3.26085737     4.92142334
O      0.11658659     4.53077042     8.05287491
O      1.92738314     3.35244915     0.09928684
O      3.88404907     4.46718065     3.22177815
O      1.91779623     5.59565583     6.32678866
O      1.92862022     5.59252216     1.67404250
O      1.97723280     3.34220866     4.83124271
O      3.83234075     4.53502446     7.91451762
O      5.81155478     3.35101064     0.10766953
O      7.74240092     4.48419213     3.22997358
O      5.93116300     5.54592230     6.47861097
O      5.80528807     5.59217007     1.68114259
O      5.84991708     3.34990462     4.85865537
O      6.99318581     3.48366294    10.36151987
O     -3.87155109     6.71022987     0.10512724
O     -1.93148303     7.82037806     3.25075601
O     -3.87966309     8.96690888     6.36991942
O     -3.87509971     8.94378428     1.69355631
O     -3.88025728     6.74818709     4.82601440
O     -1.98743042     7.71758951     8.06485825
O     -0.01209783     6.71325780     0.10434852
O      1.92743678     7.84804018     3.29891869
O      0.02363545     8.91986437     6.46880685
O     -0.00628994     8.94736548     1.70514550
O     -0.07138800     6.68552014     4.89756015
O      1.98836635     7.63598868     8.08535373
O      3.86815347     6.71410280     0.09951587
O      5.79772957     7.83147721     3.22521953
O      3.92493328     8.83410650     6.36993329
O      3.86556896     8.94715423     1.69389986
O      3.92049916     6.64829946     4.85101328
O      5.86750260     7.83871486     8.02115341
