82
CIF: Cr-Fe-CeO2.cif | data_image0
Ce     1.93038582     1.11050507     0.88387043
Ce    -0.01006852     2.23442229     4.03562559
Ce    -5.77842843    10.03827163     7.21047859
Ce     5.81181033     1.12175166     0.90127712
Ce     3.83961216     2.21486785     4.00118195
Ce    -1.94103560    10.04114340     7.32433425
Ce     9.66901012     1.12377363     0.90450652
Ce     7.74510705     2.24256489     4.05640593
Ce     2.07627846     9.91665817     7.22695147
Ce    -0.00709724     4.47602159     0.89067279
Ce    -1.95222592     5.58620773     4.09854741
Ce    -1.78242308     3.32058969     7.29029720
Ce     3.86254305     4.47635356     0.87798423
Ce     1.93150158     5.59363350     4.05167290
Ce     1.86566158     3.33165625     7.21709514
Ce     7.74213807     4.46545905     0.90125422
Ce     5.81178660     5.62595755     3.99583566
Ce    -1.94645625     7.83004003     0.90010904
Ce    -3.85768569     8.93865053     4.07495520
Ce    -3.84533151     6.74640046     7.29671264
Ce     1.92815559     7.82745473     0.89060408
Ce    -0.00475830     8.96129994     4.08617484
Ce    -0.00527213     6.70899668     7.24004244
Ce     5.81127600     7.83258510     0.88371011
Ce     3.87984918     8.94591459     4.00912674
Ce     3.87125391     6.76504726     7.19773622
Fe     4.94541076     3.85219381     6.55134892
Cr     6.76203916     2.72464996     7.97777511
O     11.61334069     0.00154917     0.10141687
O      1.93090875     1.11664559     3.22246656
O      0.03947754     2.21195924     6.36283652
O     -0.00785227     2.23805103     1.69392277
O     -5.80068393    10.04757354     4.83533679
O      1.85581153     1.20889132     8.04668330
O     -1.93899312    10.05733740     0.10496691
O      5.81247563     1.14844310     3.25304942
O      3.96118292     2.33599724     6.43822775
O      3.86763657     2.23577757     1.68132582
O      3.87633772     0.02554324     4.85467434
O      6.16481864     1.23259944     8.53942288
O      7.73821774     0.00761509     0.10924988
O      9.67401591     1.11884873     3.22619360
O      7.66273027     2.21108350     6.54401975
O      7.74357843     2.23531483     1.71563532
O      7.77827991     0.04852097     4.86070677
O      9.73588400     0.92440111     8.01882106
O      9.67032270     3.35425987     0.10911246
O     -0.00524319     4.48185721     3.25805717
O     -1.93156117     5.54510494     6.44725244
O     -1.94403436     5.59119430     1.70564938
O      9.63636896     3.31047261     4.84054688
O      0.15595150     4.49700542     8.08278047
O      1.92738314     3.35244915     0.09928684
O      3.85873740     4.47532823     3.20290085
O      1.94294706     5.61801714     6.37808675
O      1.92862022     5.59252216     1.67404250
O      1.94687513     3.34198798     4.84821033
O      3.90401526     4.45683614     7.89603410
O      5.81155478     3.35101064     0.10766953
O      7.71357352     4.45678845     3.24989491
O      5.77090920     5.46301719     6.43269619
O      5.80528807     5.59217007     1.68114259
O      5.72402688     3.40284600     4.89503605
O      7.64769550     4.01095353     8.58803211
O     -3.87155109     6.71022987     0.10512724
O     -1.93565222     7.82940815     3.26226197
O     -3.86773835     8.94767314     6.44828877
O     -3.87509971     8.94378428     1.69355631
O      7.71231574     6.70379686     4.84381043
O     -1.77808407     7.75407044     8.10217329
O     -0.01209783     6.71325780     0.10434852
O      1.92759250     7.82934402     3.24980290
O      0.10980281     9.01133509     6.46614722
O     -0.00628994     8.94736548     1.70514550
O     -0.02304072     6.73851830     4.88379136
O      2.02357566     7.80520329     8.05806205
O      3.86815347     6.71410280     0.09951587
O      5.80878928     7.83235097     3.20988411
O      3.87897621     8.89850213     6.32820721
O      3.86556896     8.94715423     1.69389986
O      3.90247202     6.70103071     4.83352606
O      5.68130857     7.84485112     8.01740039
