85
CIF: Cr-Ti-CeO2-O-CO.cif | data_image0
Ce     1.93038582     1.11050507     0.88387043
Ce    -0.00525857     2.23140371     4.07861748
Ce     5.80850437    10.04275886     7.19187381
Ce     5.81181033     1.12175166     0.90127712
Ce     3.86432026     2.21711558     4.05224438
Ce    -2.04361787     9.98551739     7.30702798
Ce     9.66901012     1.12377363     0.90450652
Ce     7.74553533     2.24847135     3.96908097
Ce     2.06368553     9.77575090     7.28951065
Ce    -0.00709724     4.47602159     0.89067279
Ce    -1.96215117     5.58184200     4.10880309
Ce    -1.77111915     3.34163483     7.37872241
Ce     3.86254305     4.47635356     0.87798423
Ce     1.93331811     5.57623966     4.08723126
Ce     1.92860235     3.32507736     7.31944884
Ce     7.74213807     4.46545905     0.90125422
Ce     5.81489005     5.60850767     3.99606090
Ce    -1.94645625     7.83004003     0.90010904
Ce    -3.86625334     8.94373127     4.03201939
Ce    -3.88123818     6.80046933     7.22831571
Ce     1.92815559     7.82745473     0.89060408
Ce    -0.02239140     8.96063952     4.10238503
Ce    -0.04173481     6.66670269     7.27102217
Ce     5.81127600     7.83258510     0.88371011
Ce     3.87411410     8.94742985     4.01616927
Ce     3.89579811     6.69858814     7.18266032
Ti     5.35899044     3.69163256     6.85429615
Cr     7.14922432     2.47154752     9.43817764
O     11.61334069     0.00154917     0.10141687
O      1.92965703     1.11939227     3.23496954
O     -0.00557161     2.23026072     6.37464260
O     -0.00785227     2.23805103     1.69392277
O      5.78563109    10.05459151     4.82888069
O      1.77424358     1.00929346     8.08695140
O     -1.93899312    10.05733740     0.10496691
O      5.80946258     1.12711479     3.23743801
O      4.15294145     2.24764521     6.54516675
O      3.86763657     2.23577757     1.68132582
O      3.87439291     0.01492166     4.84131114
O      6.75069101     0.88713678     9.19984107
O      7.73821774     0.00761509     0.10924988
O      9.67156024     1.11213252     3.21254537
O      6.94621477     3.19507829     7.75615440
O      7.74357843     2.23531483     1.71563532
O      7.75432043     0.19527893     4.99258792
O      9.60407459     0.96133898     7.83924442
O      9.67032270     3.35425987     0.10911246
O     -0.02596641     4.45669795     3.29959044
O     -1.99732543     5.52140935     6.44687021
O     -1.94403436     5.59119430     1.70564938
O      9.51507460     3.25458154     4.92476195
O      0.02985275     4.59437225     8.13771761
O      1.92738314     3.35244915     0.09928684
O      3.88921554     4.44815908     3.22735876
O      1.94610987     5.64956971     6.36438510
O      1.92862022     5.59252216     1.67404250
O      2.00417446     3.31794933     4.85690487
O      5.81155478     3.35101064     0.10766953
O      7.72717406     4.46440029     3.21439839
O      5.81166514     5.49852143     6.36303191
O      5.80528807     5.59217007     1.68114259
O      5.84722990     3.35279683     4.93591509
O      8.65605988     2.88440694     9.82257888
O     -3.87155109     6.71022987     0.10512724
O     -1.92443821     7.83423766     3.25333059
O     -3.90710610     8.93177197     6.36482845
O     -3.87509971     8.94378428     1.69355631
O      7.72649645     6.70893885     4.78477443
O     -1.84138935     7.73940911     8.09094992
O     -0.01209783     6.71325780     0.10434852
O      1.91616880     7.87075002     3.29021530
O      0.08922749     9.00825005     6.51528128
O     -0.00628994     8.94736548     1.70514550
O     -0.05201566     6.73583955     4.89783699
O      2.02811875     7.74849864     8.10025770
O      3.86815347     6.71410280     0.09951587
O      5.79430417     7.84081008     3.20751910
O      3.84112712     8.83087002     6.31394177
O      3.86556896     8.94715423     1.69389986
O      3.90428461     6.67515985     4.79745909
O      5.67205543     7.85362509     8.00437136
O      4.03152832     4.49731745     7.88435110
O      5.79602537     3.78550902    10.04038769
O      5.85048951     2.83924460    12.19576918
C      6.08907451     3.03874943    11.03902303
