81
CIF: Pd-Cu-CeO2-Ov.cif | data_image0
Ce     1.93038582     1.11050507     0.88387043
Ce     0.00229268     2.23224796     4.03134547
Ce    -5.76240576    10.04464865     7.21657424
Ce     5.81181033     1.12175166     0.90127712
Ce     3.87248911     2.23555521     4.03563568
Ce    -1.90728895    10.05475723     7.22057469
Ce     9.66901012     1.12377363     0.90450652
Ce     7.71384079     2.25336768     4.06212443
Ce     1.98187617    10.02167567     7.23898415
Ce    -0.00709724     4.47602159     0.89067279
Ce    -1.93647198     5.57679293     4.05359819
Ce    -1.87101067     3.35639429     7.22616276
Ce     3.86254305     4.47635356     0.87798423
Ce     1.94570820     5.57694760     4.05862412
Ce     1.85129304     3.25695466     7.21558763
Ce     7.74213807     4.46545905     0.90125422
Ce     5.80494577     5.58118735     4.01422335
Ce    -1.94645625     7.83004003     0.90010904
Ce    -3.87065874     8.93768208     4.05839986
Ce     7.75805540     6.67074355     7.21398331
Ce     1.92815559     7.82745473     0.89060408
Ce     0.01050756     8.94567916     4.06270645
Ce    -0.00428756     6.70125305     7.22482441
Ce     5.81127600     7.83258510     0.88371011
Ce     3.87592865     8.96665474     4.00491943
Ce     3.89224016     6.87257245     7.12002072
Cu     5.00558697     3.80041373     6.56656716
Pd     6.78004736     2.79427562     8.11528756
O     11.61334069     0.00154917     0.10141687
O      1.93689954     1.10435180     3.22821515
O     -0.01707919     2.19882247     6.39625029
O     -0.00785227     2.23805103     1.69392277
O     -5.78816168    10.04876710     4.84573993
O      1.95957696     0.95428717     8.03590115
O     -1.93899312    10.05733740     0.10496691
O      5.80533259     1.08231608     3.23814222
O      3.92722525     2.27663661     6.47088065
O      3.86763657     2.23577757     1.68132582
O      3.87460573     0.02484050     4.88348255
O      5.91521579     0.97151843     8.17922882
O      7.73821774     0.00761509     0.10924988
O      9.67899542     1.12238401     3.23592978
O      7.78343973     2.21922180     6.47875272
O      7.74357843     2.23531483     1.71563532
O      7.75134376     0.01489873     4.86931705
O      9.75167411     1.06046669     8.02938584
O      9.67032270     3.35425987     0.10911246
O     -0.00739456     4.48035255     3.23630871
O     -1.95096949     5.59943238     6.38259986
O     -1.94403436     5.59119430     1.70564938
O      9.67234960     3.34447558     4.86701862
O     -0.09515471     4.54102183     8.03052769
O      1.92738314     3.35244915     0.09928684
O      3.83778701     4.49942021     3.21686178
O      2.09046194     5.57959874     6.52292692
O      1.92862022     5.59252216     1.67404250
O      1.92010317     3.34809961     4.80877172
O      5.81155478     3.35101064     0.10766953
O      7.77370065     4.49181529     3.22671940
O      5.67773606     5.53733215     6.51082776
O      5.80528807     5.59217007     1.68114259
O      5.81070531     3.36747467     4.63929217
O      7.89769684     4.47896728     8.14791012
O     -3.87155109     6.71022987     0.10512724
O     -1.93449605     7.81531076     3.27809422
O     -3.83419816     8.88933597     6.38867981
O     -3.87509971     8.94378428     1.69355631
O      7.68507694     6.66595515     4.89180717
O     -1.91678751     7.79339695     8.00594423
O     -0.01209783     6.71325780     0.10434852
O      1.92816470     7.82699590     3.23709784
O      0.01124066     8.93375790     6.41855963
O     -0.00628994     8.94736548     1.70514550
O      0.04994779     6.67475566     4.90547362
O      1.98481811     7.85786565     8.02636023
O      3.86815347     6.71410280     0.09951587
O      5.81658595     7.83068748     3.21646799
O      3.89591935     8.95730371     6.36769807
O      3.86556896     8.94715423     1.69389986
O      3.88317320     6.74877639     4.82130762
O      5.82343434     7.83094607     7.98994219
