84
CIF: Ru-Y-CeO2-CO.cif | data_image0
Ce     1.93596140     1.11772783     0.89035214
Ce    -0.00823239     2.23705007     4.05153838
Ce     0.00486989     0.01545050     7.20317221
Ce     5.80789581     1.11772783     0.89035214
Ce     3.88227538     2.23025623     4.03599869
Ce     3.83921981     0.00691161     7.22558585
Ce     9.67981860     1.11772783     0.89035214
Ce     7.74106454     2.23057913     4.08143384
Ce     2.02866309     9.96614976     7.14998594
Ce     0.00000000     4.47091133     0.89035214
Ce    -1.95243343     5.57943576     4.06725718
Ce     9.70658298     3.28677221     7.27300303
Ce     3.87193441     4.47091133     0.89035214
Ce     1.94032509     5.57916373     4.03158557
Ce     1.95645323     3.37723759     7.20164844
Ce     7.74385721     4.47091133     0.89035214
Ce     5.82399507     5.59752052     4.01711552
Ce    -1.93596721     7.82410489     0.89035214
Ce    -3.86415800     8.96596859     4.00242606
Ce    -3.87271338     6.87993406     7.16010908
Ce     1.93596721     7.82410489     0.89035214
Ce    -0.00914391     8.94221462     4.04821315
Ce     0.00888780     6.69256884     7.21501045
Ce     5.80789000     7.82410489     0.89035214
Ce     3.88635291     8.93420407     4.01341786
Ce     3.88164888     6.68572329     7.17516003
Y      5.69658348     3.48517634     7.00810440
O      0.00000000     0.00000000     0.09999685
O      1.93791231     1.12716837     3.22448186
O      0.04859964     2.20477549     6.41547768
O      0.00000000     2.23545567     1.68070743
O      0.00608051     0.00150823     4.83540391
O      1.96538707     1.10747497     8.01293658
O      3.87192279     0.00000000     0.09999685
O      5.80939123     1.10445452     3.24801658
O      3.97071969     2.16814238     6.45893008
O      3.87192279     2.23545567     1.68070743
O     -1.94283622    10.05336611     4.84516518
O      5.99937079     0.90023144     8.50455100
O      7.74385721     0.00000000     0.09999685
O      9.68454234     1.11472751     3.23588751
O      7.60612621     2.16482101     6.40678259
O      7.74385721     2.23545567     1.68070743
O      1.96121308    10.01863422     4.81824820
O      9.67281539     0.94905273     8.03514143
O     -1.93596140     3.35318350     0.09999685
O      0.00615873     4.47706705     3.25273067
O     -2.09106010     5.60118582     6.51801550
O     -1.93596721     5.58864923     1.68070743
O      9.67757858     3.34882514     4.84104628
O      0.12726897     4.56126715     7.99776164
O      1.93596140     3.35318350     0.09999685
O      3.85314834     4.47616268     3.21369749
O      1.92787103     5.61965340     6.32805386
O      1.93595559     5.58864923     1.68070743
O      1.97466691     3.33310226     4.87319968
O      5.80789581     3.35318350     0.09999685
O      7.75577935     4.48701851     3.24437475
O      5.95688281     5.59968288     6.44216625
O      5.80789000     5.58864923     1.68070743
O      5.77469864     3.39827426     4.76322015
O      7.54075639     3.87554869     8.65475521
O     -3.87192860     6.70637706     0.09999685
O     -1.92668878     7.82605008     3.22293650
O     -3.85967567     8.98608429     6.38296916
O     -3.87192860     8.94183273     1.68070743
O     -3.86275175     6.76904860     4.82360140
O     -1.96035746     7.89547361     8.01048546
O     -0.00000581     6.70637706     0.09999685
O      1.92724721     7.79859209     3.24438752
O     -0.00073160     9.01558602     6.44365143
O     -0.00000581     8.94183273     1.68070743
O     -0.06325524     6.71181214     4.90264075
O      3.87192860     6.70637706     0.09999685
O      5.81170063     7.83147360     3.21138751
O      3.91120763     8.89325457     6.34877438
O      3.87192860     8.94183273     1.68070743
O      3.92108196     6.67119294     4.84606545
O      5.84449401     7.87103920     7.98968229
O      3.82516681     4.54008965     7.87887109
O      1.96476727     7.77708420     7.95689115
O      4.49991885     3.35905168    11.05864139
Ru     6.76062850     2.36501539     9.40609079
C      5.40784241     2.93691839    10.43873534
