84
CIF: Fe-CeO2-O2+CO2.cif | data_image0
O      0.55978923     0.45000431     0.59999690
O      2.46827584     1.57488276     3.77308121
O      0.47329477     2.49485773     6.96340693
O      0.55978923     2.65902057     2.16203261
O      0.52192112     0.39609781     5.33096276
O      3.61992603     1.52074353    10.26390863
O      4.38603242     0.45000431     0.59999690
O      6.30138248     1.55667315     3.73499503
O      4.27009417     2.70652115     7.01444408
O      4.38603242     2.65902057     2.16203261
O      4.40496439     0.44977546     5.35983972
O      6.41488073     1.63947140     8.61804676
O      8.21216082     0.45000431     0.59999690
O     10.12419378     1.55560656     3.74413481
O      8.25901018     2.65979941     6.92131086
O      8.21216082     2.65902057     2.16203261
O      8.19255056     0.45216712     5.36684805
O     10.05783040     1.48682674     8.63999156
O     -1.35327498     3.76352871     0.59999690
O      0.58491912     4.85104692     3.75753809
O     -1.36406193     5.93441012     6.88503565
O     -1.35333237     5.97264438     2.16203261
O     -1.33360922     3.75649510     5.36923309
O      2.47296821     3.76352871     0.59999690
O      4.39049874     4.86184894     3.74068916
O      2.50163568     5.87591106     6.94740679
O      2.47291082     5.97264438     2.16203261
O      2.51499934     3.78135679     5.45676402
O      4.34606714     4.83291024     8.47204949
O      6.29909662     3.76352871     0.59999690
O      8.20368095     4.88542405     3.76705761
O      6.30024782     5.99229467     6.92064949
O      6.29903923     5.97264438     2.16203261
O      6.29528718     3.73236736     5.39876202
O      8.14270997     4.88558972     8.56322775
O     -3.26639657     7.07715251     0.59999690
O     -1.35229600     8.17615470     3.75283073
O     -3.36021983     9.43726952     7.06283729
O     -3.26639657     9.28616878     2.16203261
O     -3.26518117     7.14381201     5.42131780
O     -1.41320391     8.07328397     8.57660763
O      0.55984662     7.07715251     0.59999690
O      2.46129289     8.17693098     3.72676721
O      0.60064290     9.23893975     6.96837382
O      0.55984662     9.28616878     2.16203261
O      0.58532750     7.05946897     5.40037785
O      2.49014825     8.12406275     8.57672525
O      4.38597502     7.07715251     0.59999690
O      6.30104544     8.16344229     3.73523900
O      4.32970123     9.28577995     6.89863057
O      4.38597502     9.28616878     2.16203261
O      4.36544189     7.08997117     5.37287442
O      6.20507014     8.17402060     8.58121295
O     -0.41503646     5.36274690     9.38363109
O      0.64852762     4.76875750     8.58702134
O      4.99094218     2.98000137    11.49792218
Ce     2.47285343     1.55451244     1.38101475
Ce     0.55002557     2.65045358     4.62757635
Ce     0.37606893     0.40648122     7.67483780
Ce     6.29909662     1.55451244     1.38101475
Ce     4.40144609     2.64076591     4.53841722
Ce     4.47982972     0.38451672     7.78577555
Ce    10.12522502     1.55451244     1.38101475
Ce     8.22489926     2.65707926     4.55592569
Ce     8.18324433     0.44710272     7.77265041
Ce     0.55978923     4.86803684     1.38101475
Ce    -1.34027445     5.97047813     4.57209760
Ce    -1.32429583     3.74699313     7.80629424
Ce     4.38603242     4.86803684     1.38101475
Ce     2.46557673     5.98111630     4.53317305
Ce     8.21216082     4.86803684     1.38101475
Ce     6.29525848     5.98037205     4.56619439
Ce     6.38978676     3.76446421     7.74148083
Ce    -1.35333237     8.18166064     1.38101475
Ce    -3.26509294     9.29865991     4.57973596
Ce    -3.26866879     7.08039409     7.77474931
Ce     2.47291082     8.18166064     1.38101475
Ce     0.55769960     9.27518097     4.57114235
Ce     0.51027054     7.00096935     7.83846814
Ce     6.29903923     8.18166064     1.38101475
Ce     4.36304899     9.27914411     4.51108653
Ce     4.37003364     7.10540891     7.75161877
Fe     3.26626307     4.21307435     7.13984612
C      4.31829251     2.25818694    10.87223057
