83
CIF: CO+Olat — CO2.cif | data_image0
O      0.56058124     0.45058087     0.59908449
O      2.48598097     1.55546999     3.74109094
O      0.54855503     2.65331912     6.87752312
O      0.56082229     2.65957725     2.16089211
O      0.56972663     0.44213415     5.36512581
O      2.41222265     1.64997103     8.43194620
O      4.38643416     0.45032241     0.59890201
O      6.30165390     1.55513818     3.74738996
O      4.31156509     2.85526820     7.01399215
O      4.38680148     2.65939832     2.16059558
O      4.40534631     0.52160751     5.42305256
O      6.28685864     1.57194559     8.52800502
O      8.21277492     0.45043176     0.59858267
O     10.12166279     1.55229832     3.73508404
O      8.22985034     2.66110082     6.92794576
O      8.21308484     2.65934862     2.16032186
O      8.22493419     0.45685370     5.37751195
O     10.12977496     1.55481449     8.55127200
O     -1.35234522     3.76392633     0.59922135
O      0.56758788     4.87839942     3.73987249
O     -1.31720713     5.99478410     6.93007245
O     -1.35235096     5.97299230     2.16123426
O     -1.35459336     3.77664404     5.36440149
O      0.61322783     4.77004294     8.43299268
O      2.47354788     3.76385675     0.59910730
O      4.38313319     4.86701786     3.76118891
O      2.60885292     5.80844945     7.01650659
O      2.47361675     5.97307183     2.16061839
O      2.42338279     3.73548224     5.39298958
O      4.78952330     5.09919478     8.88394460
O      6.29968776     3.76385675     0.59901606
O      8.22137969     4.87969678     3.74192936
O      6.33912212     5.99539594     6.89610573
O      6.29988290     5.97307183     2.16036748
O      6.31232173     3.76075715     5.37761825
O      8.26498362     4.89017526     8.54731839
O     -3.26577099     7.07744079     0.59903887
O     -1.32167883     8.19962167     3.76904017
O     -3.22828313     9.30553486     6.92997196
O     -3.26562177     9.28679504     2.16098335
O     -3.23502128     7.09547751     5.37233383
O     -1.31486227     8.20313208     8.55491994
O      0.56027706     7.07730162     0.59897044
O      2.47485556     8.18204765     3.74723031
O      0.57284178     9.29367857     6.92700080
O      0.56039759     9.28650676     2.16016218
O      0.63320752     7.05721417     5.42338799
O      2.47993186     8.16013478     8.52951028
O      4.38653747     7.07741097     0.59897044
O      6.31207337     8.18305221     3.74207991
O      4.39597643     9.29654238     6.92887468
O      4.38670391     9.28673539     2.16018500
O      4.38954304     7.08800061     5.37854181
O      6.34722519     8.21464467     8.54936198
O      3.47210382     4.28834348    10.77794181
Ce     2.47354214     1.55494983     1.37985144
Ce     0.54644862     2.65158032     4.51621979
Ce     0.56563929     0.45116250     7.74148546
Ce     6.29973368     1.55480072     1.37939524
Ce     4.39225200     2.68343006     4.58764447
Ce     4.39242693     0.51234930     7.75449900
Ce    10.12614904     1.55501941     1.37969177
Ce     8.21233586     2.66829804     4.55261616
Ce     8.22117420     0.45472249     7.73990574
Ce     0.56051237     4.86839470     1.37994268
Ce    -1.33397520     5.97842270     4.56180754
Ce    -1.34792330     3.76648391     7.74073051
Ce     4.38666373     4.86835494     1.37976020
Ce     2.49749716     5.96579921     4.58694551
Ce     8.21298727     4.86839470     1.37966896
Ce     6.31757066     5.98292929     4.55808354
Ce     6.34210435     3.80704474     7.76902056
Ce    -1.35287323     8.18197874     1.37989706
Ce    -3.25231238     9.29914915     4.56102775
Ce    -3.21543352     7.10537100     7.75453131
Ce     2.47344457     8.18202845     1.37934962
Ce     0.58222039     9.29825648     4.56943109
Ce     0.61683549     7.05172571     7.75585560
Ce     6.29975663     8.18210797     1.37953210
Ce     4.39317448     9.28037018     4.55339265
Ce     4.44303345     7.09116963     7.76829015
Zr     2.26977364     3.64746815     7.56079567
C      3.41730763     4.28772386     9.59896178
