85
CIF: W-Rh-CeO2-O-CO.cif | data_image0
Ce     1.93038582     1.11050507     0.88387043
Ce     0.00755777     2.22768971     4.02853438
Ce     5.82367163    10.02840137     7.22789921
Ce     5.81181033     1.12175166     0.90127712
Ce     3.84923773     2.21512276     4.01339807
Ce    -2.01441870    10.00744098     7.20819137
Ce     9.66901012     1.12377363     0.90450652
Ce     7.73433673     2.24566083     4.09642775
Ce     2.03698874    10.03187083     7.17795288
Ce    -0.00709724     4.47602159     0.89067279
Ce    -1.95805003     5.59674766     4.07893214
Ce    -1.82580711     3.29246261     7.18847222
Ce     3.86254305     4.47635356     0.87798423
Ce     1.93076081     5.59455333     4.05264318
Ce     1.87473793     3.34314268     7.23685237
Ce     7.74213807     4.46545905     0.90125422
Ce     5.81569605     5.61851723     4.02222713
Ce    -1.94645625     7.83004003     0.90010904
Ce    -3.87907235     8.92447887     4.04868810
Ce    -3.88391945     6.72901791     7.31612376
Ce     1.92815559     7.82745473     0.89060408
Ce    -0.01347193     8.96075886     4.05813702
Ce    -0.01200043     6.73009561     7.20771696
Ce     5.81127600     7.83258510     0.88371011
Ce     3.87308200     8.94423672     4.01986644
Ce     3.83027296     6.78145381     7.22064437
Rh     4.91559437     3.84442526     6.60657054
W      6.42067791     2.99921928     8.25309725
O     11.61334069     0.00154917     0.10141687
O      1.93327492     1.11991491     3.22225546
O      0.03306611     2.21511080     6.37783787
O     -0.00785227     2.23805103     1.69392277
O     -5.79599358    10.04862787     4.83820864
O      1.92036927     1.07440762     8.03232783
O     -1.93899312    10.05733740     0.10496691
O      5.79534188     1.12669593     3.24915070
O      3.85909729     2.14541053     6.45768258
O      3.86763657     2.23577757     1.68132582
O     -1.96580366    10.04594561     4.85197521
O      6.19935694     1.15053984     8.39907706
O      7.73821774     0.00761509     0.10924988
O      9.68158044     1.12241203     3.23987211
O      7.75853159     2.23221465     6.52065763
O      7.74357843     2.23531483     1.71563532
O      7.75339568     0.02164824     4.84281528
O      9.75374038     1.08153589     7.99714423
O      9.67032270     3.35425987     0.10911246
O     -0.00094932     4.48242526     3.25707707
O     -1.93621626     5.52056225     6.46220669
O     -1.94403436     5.59119430     1.70564938
O      9.68039173     3.32670946     4.85945653
O      0.02444121     4.42959870     8.02227839
O      1.92738314     3.35244915     0.09928684
O      3.86281630     4.47271466     3.22394883
O      1.85744780     5.62944262     6.36616661
O      1.92862022     5.59252216     1.67404250
O      1.96020656     3.34943141     4.86706603
O      5.81155478     3.35101064     0.10766953
O      7.73594579     4.46445212     3.25253502
O      5.77673565     5.63318996     6.43636570
O      5.80528807     5.59217007     1.68114259
O      5.79493323     3.35384785     4.84471233
O      7.90993307     4.13052545     8.37710907
O     -3.87155109     6.71022987     0.10512724
O     -1.94115238     7.82863557     3.23750769
O     -3.85686841     8.94774414     6.42442361
O     -3.87509971     8.94378428     1.69355631
O      7.73786409     6.71113188     4.83302740
O     -1.82568096     7.89310050     8.03500357
O     -0.01209783     6.71325780     0.10434852
O      1.91961296     7.82484923     3.24061145
O      0.00345527     9.07208728     6.44610061
O     -0.00628994     8.94736548     1.70514550
O     -0.05209330     6.76234387     4.88625527
O      1.93787257     7.84952401     7.98477672
O      3.86815347     6.71410280     0.09951587
O      5.80049137     7.82493235     3.21962805
O      3.87265130     8.94862329     6.34822318
O      3.86556896     8.94715423     1.69389986
O      3.86344847     6.70663232     4.84416603
O      5.68163170     7.92301820     8.05088651
O      3.66282131     4.57499131     8.00163536
O      5.59607593     3.48835347     9.69545756
O      5.35465333     3.56892717    12.89968790
C      6.42672674     3.43068656    12.52502291
