89
CIF: CH2CHCO.cif | data_VESTA_phase_1
O      0.00781110     0.10540063     0.08330251
O      1.92667183     1.21174441     3.26323657
O     -0.03329329     2.31830689     6.44410586
O      0.01574271     2.31584161     1.70373244
O      0.01415295     0.11551026     4.89199219
O      1.76444668     1.28164701     8.18463099
O      3.84129127     0.11103697     0.08530980
O      5.74834066     1.20577009     3.27936332
O      3.79232988     2.40904507     6.55375404
O      3.83922515     2.32370466     1.72029257
O      3.82923314     0.11872109     4.91254410
O      5.87531544     1.14652386     8.54888558
O      7.65754227     0.10492348     0.08626782
O      9.57813051     1.21419975     3.24371112
O      7.66464170     2.24594896     6.50133641
O      7.66234600     2.31676609     1.70838570
O      7.69254011     0.09750776     4.88727050
O      9.58207910     1.18346329     8.12575811
O     -1.90110355     3.42072412     0.08378152
O      0.00381085     4.53289312     3.26903034
O     -1.87031830     5.61384850     6.42841250
O     -1.90404777     5.63439581     1.71066671
O     -1.92897326     3.41034609     4.90305509
O      0.00960748     4.52040767     8.10422537
O      1.92842229     3.42237427     0.08432896
O      3.83098361     4.52728660     3.29111052
O      1.99549097     5.59273458     6.50361742
O      1.92690714     5.62752683     1.72271045
O      1.89104267     3.41037591     4.90296385
O      3.73994216     4.64797594     8.54001245
O      5.74835214     3.41961077     0.08389557
O      7.66729322     4.53152131     3.25972382
O      5.68943892     5.66843257     6.51212559
O      5.75226056     5.62391837     1.71520592
O      5.76847963     3.42642011     4.88863911
O     -3.81633135     6.73036156     0.07944760
O     -1.89911203     7.83519437     3.28476931
O     -3.87029735     8.91379382     6.49114029
O     -3.80977140     8.93952020     1.69764214
O     -3.82290277     6.71792582     4.92283146
O     -1.87771044     7.69609496     8.13127816
O      0.01394633     6.73088842     0.08419210
O      1.91839012     7.83621826     3.26351030
O      0.08230633     8.98664879     6.51027797
O      0.00835058     8.93481828     1.71477253
O      0.04036976     6.74446733     4.93971094
O      1.98296222     7.84270949     8.11923442
O      3.83563239     6.72947685     0.08708898
O      5.75997409     7.83720238     3.25728314
O      3.86293965     8.95699585     6.44328469
O      3.82798773     8.94089201     1.70418864
O      3.83233807     6.76132666     4.89434163
O      5.70841282     7.85710354     8.15659737
O      5.78912365     2.55286629    11.72286621
O      7.78805241     4.59061843     8.13839491
Ce     1.92927744     1.21572067     0.89107679
Ce    -0.00003444     2.30893287     4.06307294
Ce     0.00979113     0.11207080     7.30438900
Ce     5.74745108     1.21134679     0.90013240
Ce     3.83807730     2.31728300     4.12794488
Ce     3.77728161     0.08335229     7.36050186
Ce     9.57472141     1.21141637     0.88494087
Ce     7.65514901     2.31728300     4.08615677
Ce     7.75094254     0.06802382     7.25566662
Ce     0.01310267     4.52632236     0.90031488
Ce    -1.90551128     5.62804374     4.08437758
Ce    -1.91344290     3.42839830     7.27690283
Ce     3.83761816     4.52354892     0.90289243
Ce     1.92946683     5.63235798     4.09655818
Ce     1.82556951     3.37095132     7.25176609
Ce     7.66191556     4.52514936     0.89146456
Ce     5.75102662     5.62480309     4.09518957
Ce     5.80489506     3.45517839     7.33262792
Ce    -1.90040910     7.83513473     0.89604939
Ce    -3.81168257     8.94917257     4.09594230
Ce    -3.79050480     6.72652448     7.29339453
Ce     1.91952075     7.83302731     0.90257308
Ce     0.01069793     8.95413295     4.11008457
Ce     0.01415295     6.73325429     7.28098584
Ce     5.74795039     7.83357404     0.88886421
Ce     3.84767903     8.94835743     4.04623908
Ce     3.85822774     6.82956917     7.25696679
C      3.62912906     4.73887317     9.96046618
C      3.70370465     3.37609064    10.62620193
C      4.79524354     2.93815564    11.21422365
H      2.66020313     5.19865770    10.23245388
H      4.42357084     5.39118806    10.36890393
H      2.86039330     2.68314834    10.55574151
H      5.97469025     1.15955604     9.51849756
