85
CIF: Os-Cr-CeO2-O-CO.cif | data_image0
Ce     1.93038582     1.11050507     0.88387043
Ce     0.00063225     2.22586713     4.01041474
Ce    -5.77858013    10.05065978     7.21580017
Ce     5.81181033     1.12175166     0.90127712
Ce     3.84398570     2.21808780     4.02007954
Ce    -1.94452293    10.01998668     7.29786026
Ce     9.66901012     1.12377363     0.90450652
Ce     7.74728891     2.22450730     4.02877233
Ce     2.01897660     9.92701840     7.28546974
Ce    -0.00709724     4.47602159     0.89067279
Ce    -1.95336507     5.58357396     4.08141221
Ce    -1.73898788     3.32665302     7.23653515
Ce     3.86254305     4.47635356     0.87798423
Ce     1.92770909     5.59120267     4.05148940
Ce     1.89069648     3.31875649     7.18884125
Ce     7.74213807     4.46545905     0.90125422
Ce     5.80778962     5.62771378     4.02424331
Ce    -1.94645625     7.83004003     0.90010904
Ce    -3.86234951     8.93569520     4.07654620
Ce    -3.85553747     6.72385804     7.31458340
Ce     1.92815559     7.82745473     0.89060408
Ce    -0.00676733     8.95297762     4.08994213
Ce    -0.00147749     6.70758843     7.22888099
Ce     5.81127600     7.83258510     0.88371011
Ce     3.87042071     8.95149522     4.03348143
Ce     3.86575609     6.78434146     7.20438770
Cr     5.13405615     3.75534766     6.76071061
Os     6.65183782     2.88912252     7.96812972
O     11.61334069     0.00154917     0.10141687
O      1.93336977     1.11696179     3.21597786
O      0.03702521     2.25717579     6.33157529
O     -0.00785227     2.23805103     1.69392277
O      0.00630847     0.00796836     4.82936984
O      1.84079742     1.21657048     8.03642337
O     -1.93899312    10.05733740     0.10496691
O      5.80925933     1.17090192     3.25272647
O      3.93515237     2.33340308     6.44586356
O      3.86763657     2.23577757     1.68132582
O      3.86677013     0.03071885     4.83787927
O      5.97083959     1.20193485     8.44061306
O      7.73821774     0.00761509     0.10924988
O      9.67515800     1.12423853     3.21641804
O      7.71716479     2.29278109     6.54783875
O      7.74357843     2.23531483     1.71563532
O      7.76460138     0.06767291     4.83848084
O      9.84458530     1.18604285     8.02407219
O      9.67032270     3.35425987     0.10911246
O     -0.01406997     4.46715798     3.24690187
O     -1.90873154     5.47375377     6.44054599
O     -1.94403436     5.59119430     1.70564938
O      9.63999491     3.28769286     4.86999897
O      0.05984401     4.40427997     8.07137790
O      1.92738314     3.35244915     0.09928684
O      3.88165675     4.46946411     3.22258180
O      1.91453043     5.56848794     6.37134264
O      1.92862022     5.59252216     1.67404250
O      1.95371331     3.33448481     4.82936072
O      5.81155478     3.35101064     0.10766953
O      7.70593986     4.43953967     3.25501306
O      5.75036432     5.50958505     6.43942900
O      5.80528807     5.59217007     1.68114259
O      5.73526686     3.40351992     5.00095486
O      7.85626982     4.27915439     8.41588636
O     -3.87155109     6.71022987     0.10512724
O     -1.94131607     7.82314365     3.25848722
O     -3.89261905     8.94848257     6.43399280
O     -3.87509971     8.94378428     1.69355631
O      7.73185175     6.68661229     4.84653223
O     -1.78341411     7.71939704     8.10281170
O     -0.01209783     6.71325780     0.10434852
O      1.92630121     7.82844496     3.25173599
O      0.04662610     8.92719672     6.41286661
O     -0.00628994     8.94736548     1.70514550
O     -0.03013564     6.70275542     4.85672147
O      1.99370815     7.68343215     8.08420555
O      3.86815347     6.71410280     0.09951587
O      5.80656855     7.82674561     3.22844266
O      3.91299524     8.92414998     6.35993569
O      3.86556896     8.94715423     1.69389986
O      3.87766996     6.70611551     4.83957700
O      5.68426133     7.87079660     8.06934927
O      3.88985682     4.46604328     7.87898039
O      5.58213666     3.55406887    10.07769761
O      5.80443559     3.36791096    12.41074581
C      5.70585967     3.45229876    11.24709395
