82
CIF: Cr-Ti-CeO2.cif | data_image0
Ce     1.93038582     1.11050507     0.88387043
Ce    -0.01325364     2.23136671     4.03465306
Ce    -5.78088363    10.04039856     7.20725651
Ce     5.81181033     1.12175166     0.90127712
Ce     3.84450840     2.21700801     4.00343612
Ce    -1.94923743    10.03890050     7.31996094
Ce     9.66901012     1.12377363     0.90450652
Ce     7.73592100     2.24770161     4.05342233
Ce     2.08272264     9.88090769     7.21872522
Ce    -0.00709724     4.47602159     0.89067279
Ce    -1.95468820     5.58650525     4.09605970
Ce    -1.76884053     3.32721800     7.29448634
Ce     3.86254305     4.47635356     0.87798423
Ce     1.92935537     5.59281279     4.04880269
Ce     1.87506868     3.32969943     7.21137928
Ce     7.74213807     4.46545905     0.90125422
Ce     5.81328245     5.61821835     4.00014093
Ce    -1.94645625     7.83004003     0.90010904
Ce    -3.85696903     8.93964932     4.06357312
Ce    -3.84608528     6.76903098     7.28550802
Ce     1.92815559     7.82745473     0.89060408
Ce    -0.00723573     8.96158128     4.08227837
Ce    -0.00645309     6.70320116     7.23371132
Ce     5.81127600     7.83258510     0.88371011
Ce     3.88328706     8.94540126     4.00586690
Ce     3.88364617     6.74838350     7.19417948
Ti     5.15466681     3.72426569     6.75047461
Cr     6.89105590     2.61222966     8.18514800
O     11.61334069     0.00154917     0.10141687
O      1.92860814     1.11778164     3.22272892
O      0.04591808     2.21187643     6.35629041
O     -0.00785227     2.23805103     1.69392277
O      5.81195578    10.04746810     4.83165132
O      1.84749926     1.20959259     8.05356212
O     -1.93899312    10.05733740     0.10496691
O      5.81695149     1.14077973     3.24963227
O      3.94379578     2.31188848     6.42144128
O      3.86763657     2.23577757     1.68132582
O      3.88080190     0.01578143     4.84187296
O      6.21040741     1.14566767     8.67497669
O      7.73821774     0.00761509     0.10924988
O      9.67372239     1.11733269     3.21993649
O      7.57714347     2.24684490     6.61090231
O      7.74357843     2.23531483     1.71563532
O      7.78719989     0.06839307     4.87340232
O      9.72773605     0.92414399     7.99128053
O      9.67032270     3.35425987     0.10911246
O     -0.01193459     4.47709289     3.26254866
O     -1.93993224     5.54238919     6.44116864
O     -1.94403436     5.59119430     1.70564938
O      9.61694410     3.29380985     4.85114553
O      0.15715857     4.49993369     8.07363160
O      1.92738314     3.35244915     0.09928684
O      3.85276555     4.47610982     3.20038951
O      1.94005864     5.61613407     6.36435604
O      1.92862022     5.59252216     1.67404250
O      1.95228451     3.34481318     4.84510505
O      3.87446286     4.47031375     7.88608756
O      5.81155478     3.35101064     0.10766953
O      7.72143685     4.45761541     3.24603078
O      5.79618116     5.48008034     6.42894902
O      5.80528807     5.59217007     1.68114259
O      5.72096456     3.40332816     4.85945453
O      7.72321132     3.93698533     8.76829719
O     -3.87155109     6.71022987     0.10512724
O     -1.93385808     7.82822769     3.25453172
O     -3.86946716     8.95607423     6.43976265
O     -3.87509971     8.94378428     1.69355631
O      7.72016122     6.71025680     4.82970411
O     -1.77668383     7.75538269     8.09137268
O     -0.01209783     6.71325780     0.10434852
O      1.92962766     7.83533812     3.25518120
O      0.11077096     9.01154187     6.45973186
O     -0.00628994     8.94736548     1.70514550
O     -0.02927848     6.73995478     4.88049247
O      2.02603011     7.78909435     8.04961985
O      3.86815347     6.71410280     0.09951587
O      5.80697864     7.83298255     3.20955272
O      3.88375340     8.88127345     6.32190880
O      3.86556896     8.94715423     1.69389986
O      3.90701197     6.68528034     4.83297746
O      5.68209425     7.85307112     8.02388199
