83
CIF: Rh-W-CeO2-Ov-O2.cif | data_image0
Ce     1.93596140     1.11772783     0.89035214
Ce    -0.00453429     2.24937027     4.04963746
Ce     0.00471683     0.02670391     7.20636578
Ce     5.80789581     1.11772783     0.89035214
Ce     3.80673527     2.20731785     3.95470743
Ce    -2.01024843    10.03507604     7.29446899
Ce     9.67981860     1.11772783     0.89035214
Ce     7.81059135     2.21208344     3.96181984
Ce     2.01251949    10.03701412     7.30105712
Ce     0.00000000     4.47091133     0.89035214
Ce    -1.94472588     5.58303666     4.07820762
Ce    -1.86697720     3.39994675     7.31688200
Ce     3.87193441     4.47091133     0.89035214
Ce     1.95414365     5.59174415     4.08710662
Ce     1.79107077     3.35541368     7.27868210
Ce     7.74385721     4.47091133     0.89035214
Ce     5.79687268     5.61387881     4.03974098
Ce    -1.93596721     7.82410489     0.89035214
Ce    -3.87429586     8.93501861     4.06492121
Ce    -3.77384737     6.77070320     7.31232068
Ce     1.93596721     7.82410489     0.89035214
Ce     0.00564009     8.96782226     4.08972732
Ce     0.02390997     6.75078540     7.25829002
Ce     5.80789000     7.82410489     0.89035214
Ce     3.87608416     8.92514793     4.07879075
Ce     3.84179923     6.74448285     7.36160866
W      5.79740836     3.16983021     6.71014277
Rh     6.33043668     3.77932880     9.08757841
O      0.00000000     0.00000000     0.09999685
O      1.90927874     1.10977282     3.21104609
O     -0.01520027     2.28657025     6.40916564
O      0.00000000     2.23545567     1.68070743
O      0.01110022     0.03525629     4.89134012
O      1.84289107     1.23450349     8.01677282
O      3.87192279     0.00000000     0.09999685
O      5.81387994     1.09202542     3.20851723
O      4.07985283     2.45643000     6.47453394
O      3.87192279     2.23545567     1.68070743
O      3.84123975     0.08425858     4.85640845
O      5.87286096     1.98302899     8.29290063
O      7.74385721     0.00000000     0.09999685
O      9.70587420     1.11549942     3.22179978
O      7.52892667     2.46929593     6.40731102
O      7.74385721     2.23545567     1.68070743
O      7.78223196     0.05995844     4.86638361
O      9.75157960     1.26524823     8.03668751
O     -1.93596140     3.35318350     0.09999685
O      0.00027206     4.47787700     3.27944023
O     -1.93394997     5.56215750     6.45714198
O     -1.93596721     5.58864923     1.68070743
O      9.66208325     3.31413796     4.90539224
O     -0.01813561     4.45776182     8.10417762
O      1.93596140     3.35318350     0.09999685
O      3.79077048     4.42599328     3.23299106
O      1.92554218     5.48164213     6.47860798
O      1.93595559     5.58864923     1.68070743
O      1.95320953     3.27864444     4.90438067
O      5.80789581     3.35318350     0.09999685
O      7.82162341     4.43621740     3.23356576
O      5.75391293     5.03859893     6.63061249
O      5.80789000     5.58864923     1.68070743
O      5.80148562     3.22762350     4.75267473
O      8.05651490     4.56101061     8.54484218
O     -3.87192860     6.70637706     0.09999685
O     -1.94045442     7.82158690     3.28401216
O     -3.86868307     8.96512629     6.43946955
O     -3.87192860     8.94183273     1.68070743
O     -3.86898031     6.71026718     4.98614666
O     -1.93416198     7.75372552     8.10251279
O     -0.00000581     6.70637706     0.09999685
O      1.92997369     7.83108458     3.26824580
O     -0.01761333     9.02836595     6.45961396
O     -0.00000581     8.94183273     1.68070743
O      0.01588147     6.72849769     4.91946185
O      3.87192860     6.70637706     0.09999685
O      5.81639855     7.90657895     3.24379833
O      3.93284274     8.99135670     6.48905821
O      3.87192860     8.94183273     1.68070743
O      3.83885227     6.73317941     4.92529988
O      5.97629184     7.76619518     8.01827740
O      1.81559493     7.77679534     8.11356203
O      3.57140105     4.47253118     8.63636596
O      4.58164392     4.27661851     9.62262647
