82
CIF: Ru-Cu-CeO2.cif | data_image0
Ce     1.93038582     1.11050507     0.88387043
Ce    -0.00102599     2.23165845     4.02030854
Ce    -5.75555046    10.05341845     7.21603161
Ce     5.81181033     1.12175166     0.90127712
Ce     3.86686065     2.23595611     4.03635828
Ce     3.84847000     0.02280619     7.29356458
Ce     9.66901012     1.12377363     0.90450652
Ce     7.71669570     2.24660133     4.04932084
Ce     2.08024293     9.91328250     7.22127139
Ce    -0.00709724     4.47602159     0.89067279
Ce    -1.95902614     5.58413441     4.06226982
Ce    -1.78131609     3.29363040     7.20944369
Ce     3.86254305     4.47635356     0.87798423
Ce     1.92456060     5.59208136     4.04289075
Ce     1.92374905     3.36049252     7.19622569
Ce     7.74213807     4.46545905     0.90125422
Ce     5.80062868     5.59017469     4.02561026
Ce    -1.94645625     7.83004003     0.90010904
Ce    -3.85861849     8.95314441     4.04606032
Ce    -3.88593184     6.76676973     7.19947368
Ce     1.92815559     7.82745473     0.89060408
Ce    -0.01194269     8.95971378     4.08273126
Ce    -0.03021356     6.70558868     7.21885599
Ce     5.81127600     7.83258510     0.88371011
Ce     3.88357941     8.93798846     4.02799554
Ce     3.87666568     6.69180396     7.20992730
Cu     5.00371713     3.83468684     6.61457012
Ru     6.87286365     2.75355131     8.06884393
O     11.61334069     0.00154917     0.10141687
O      1.92927661     1.11780463     3.22469761
O      0.01811120     2.23885670     6.35881330
O     -0.00785227     2.23805103     1.69392277
O     -5.79547547    10.05535676     4.84871440
O      1.82459187     1.18774145     8.03809125
O     -1.93899312    10.05733740     0.10496691
O      5.81712861     1.10874243     3.24683301
O      3.87629451     2.28692941     6.41850530
O      3.86763657     2.23577757     1.68132582
O      3.87514220     0.00319706     4.84028762
O      6.12725939     1.17758924     8.53107981
O      7.73821774     0.00761509     0.10924988
O      9.67779920     1.11450642     3.23207077
O      7.74719007     2.21846877     6.45878457
O      7.74357843     2.23531483     1.71563532
O      7.78128369     0.01093530     4.88195119
O      9.78828432     1.04636009     7.98930141
O      9.67032270     3.35425987     0.10911246
O     -0.01515519     4.48556824     3.24417887
O     -2.04006318     5.49731643     6.46367648
O     -1.94403436     5.59119430     1.70564938
O      9.66896560     3.32385385     4.86639936
O      0.00603502     4.45735245     8.00751493
O      1.92738314     3.35244915     0.09928684
O      3.84166654     4.48948132     3.20750785
O      1.87144760     5.62836622     6.36247661
O      1.92862022     5.59252216     1.67404250
O      1.93038134     3.35842610     4.83588162
O      3.72724060     4.57305372     7.98140869
O      5.81155478     3.35101064     0.10766953
O      7.74899349     4.47862593     3.24094327
O      5.85243421     5.56904135     6.43868852
O      5.80528807     5.59217007     1.68114259
O      5.78279153     3.37700928     4.75734625
O      7.82721189     4.23310381     8.46736902
O     -3.87155109     6.71022987     0.10512724
O     -1.94243746     7.82417534     3.24344813
O     -3.86479808     8.91979081     6.42859867
O     -3.87509971     8.94378428     1.69355631
O     -3.87759877     6.72408417     4.86335415
O     -1.93062538     7.68439018     8.02788567
O     -0.01209783     6.71325780     0.10434852
O      1.92028759     7.82402705     3.25780669
O      0.08381586     8.99190833     6.49196910
O     -0.00628994     8.94736548     1.70514550
O     -0.07854686     6.73012605     4.90301680
O      1.99783296     7.79820815     8.04465807
O      3.86815347     6.71410280     0.09951587
O      5.80724859     7.82955218     3.22541479
O      3.91459668     8.89384749     6.39132498
O      3.86556896     8.94715423     1.69389986
O      3.88244111     6.69044258     4.85428287
O      5.84989885     7.80935855     8.01796949
