93
CIF: Fe-CeO2(110)+CO2.cif | data_image0
O      1.35544287     2.41496245     4.33566721
O      1.31994470     6.27678217     8.23053740
O      1.35275000     6.24576514     0.45001077
O      1.28082202     2.45102218     8.29198137
O      1.35275000     2.41961430     0.45001077
O      1.34874710     6.24679655     4.34609987
O      4.07001428     0.44496931     6.23804262
O      4.05825000     4.33269546     2.36308887
O      4.05825000     0.50653314     2.36308887
O      4.14931236     4.40558984     6.42554245
O      4.05957170     2.46005169     4.38210332
O      4.16799436     6.20473354     8.22785073
O      4.05825000     6.24576514     0.45001077
O      4.05825000     2.41961430     0.45001077
O      4.04432130     6.22855342     4.35816339
O      1.34252539     0.52560440     6.32934295
O      1.35275000     4.33269546     2.36308887
O      1.35275000     0.50653314     2.36308887
O      1.36354465     4.32903553     6.29776721
O      6.76372812     2.45993995     4.38238257
O      6.64776157     6.20508803     8.22762793
O      6.76375000     6.24576514     0.45001077
O      6.82081267     2.15400241     8.24294665
O      6.76375000     2.41961430     0.45001077
O      6.77738977     6.22784189     4.35914522
O      9.47747915     0.52518886     6.33089746
O      9.46925000     4.33269546     2.36308887
O      9.46925000     0.50653314     2.36308887
O      9.45739266     4.32750476     6.29921446
O      9.46813639     2.41443362     4.33621824
O      9.50083529     6.27466174     8.23243889
O      9.46925000     6.24576514     0.45001077
O      9.54749217     2.45130213     8.29499198
O      9.46925000     2.41961430     0.45001077
O      9.47155693     6.24557527     4.34708149
O      6.75032805     0.44350852     6.23577202
O      6.76375000     4.33269546     2.36308887
O      6.76375000     0.50653314     2.36308887
O      6.66945173     4.40329523     6.42879616
O      1.35439618    10.08764496     4.34821964
O      1.29730906    10.06983140     8.25016268
O      1.35275000    10.07192746     0.45001077
O      4.06280366     8.15159792     6.31045113
O      4.05825000     8.15884630     2.36308887
O      4.05630983    10.04264196     4.32757496
O      4.08577760    10.02098820     8.27234690
O      4.05825000    10.07192746     0.45001077
O      1.33108796     8.16989218     6.27561341
O      1.35275000     8.15884630     2.36308887
O      6.76585281    10.04163557     4.32696424
O      6.73491257    10.02064351     8.27216651
O      6.76375000    10.07192746     0.45001077
O      9.48959860     8.16796332     6.27672057
O      9.46925000     8.15884630     2.36308887
O      9.46697795    10.08758065     4.34914135
O      9.52427017    10.06808284     8.25083529
O      9.46925000    10.07192746     0.45001077
O      6.75698666     8.15148714     6.31079347
O      6.76375000     8.15884630     2.36308887
O      4.01348060     2.16365093     8.24163653
O      5.44298154     1.66101093    10.82162589
O      5.42562768     3.97198655    10.37563095
Ce     0.00026019     0.53483522     4.32890529
Ce     0.00076368     4.32396138     8.11652240
Ce     0.00000000     4.33269546     0.45001077
Ce     2.76968434     2.39827950     6.49030138
Ce     2.70550000     6.24576514     2.36308887
Ce     2.70550000     2.41961430     2.36308887
Ce     2.64428124     6.25694219     6.33581652
Ce     0.00021478     0.51989876     8.13423340
Ce     0.00000000     0.50653314     0.45001077
Ce    10.82184250     4.29647740     4.32035311
Ce     5.41096380     0.50307311     4.32621406
Ce     5.41100000     4.33269546     0.45001077
Ce     8.05371897     2.39729331     6.48976852
Ce     8.11650000     6.24576514     2.36308887
Ce     8.11650000     2.41961430     2.36308887
Ce     8.17555250     6.25511302     6.33847213
Ce     5.41178561     0.51343646     8.13977361
Ce     5.41100000     0.50653314     0.45001077
Ce     5.41131131     4.31704320     4.31595469
Ce    10.82110688     8.17584408     4.30422201
Ce     2.69297922    10.08237686     6.36355919
Ce     2.70550000    10.07192746     2.36308887
Ce    10.82115871     8.18473498     8.11319882
Ce     0.00000000     8.15884630     0.45001077
Ce     5.41106117     8.15716010     4.31919306
Ce     8.12768656    10.08095627     6.36441586
Ce     8.11650000    10.07192746     2.36308887
Ce     5.40976967     8.29164702     8.12102740
Ce     5.41100000     8.15884630     0.45001077
Fe     5.40872024     5.06365766     7.63088778
C      5.43525812     2.81027833    10.53963455
