81
CIF: Co-Rh-CeO2-Ov.cif | data_image0
Ce     1.93038582     1.11050507     0.88387043
Ce    -0.00443242     2.23182451     4.02962881
Ce    -5.76778869    10.03592315     7.22342094
Ce     5.81181033     1.12175166     0.90127712
Ce     3.83417394     2.21475153     4.01255867
Ce    -1.96189103    10.02149186     7.20549736
Ce     9.66901012     1.12377363     0.90450652
Ce     7.74737137     2.23288426     4.06979391
Ce     1.98774456    10.02724331     7.23324610
Ce    -0.00709724     4.47602159     0.89067279
Ce    -1.94331256     5.58294785     4.06201358
Ce    -1.88321446     3.32296150     7.23363669
Ce     3.86254305     4.47635356     0.87798423
Ce     1.95292387     5.57898101     4.08111300
Ce     1.81763251     3.26763184     7.21510932
Ce     7.74213807     4.46545905     0.90125422
Ce     5.80592895     5.63125821     4.01259635
Ce    -1.94645625     7.83004003     0.90010904
Ce    -3.86810905     8.93939290     4.02861400
Ce    -3.85269026     6.74783829     7.20535111
Ce     1.92815559     7.82745473     0.89060408
Ce     0.00099780     8.95058979     4.06168435
Ce     0.00881669     6.70116820     7.23553093
Ce     5.81127600     7.83258510     0.88371011
Ce     3.87246487     8.94645620     4.03011090
Ce     3.88723251     6.85079472     7.21671898
Rh     5.10910384     3.75501277     6.60710591
Co     6.72539949     2.82190694     7.98232173
O     11.61334069     0.00154917     0.10141687
O      1.92823982     1.10995293     3.20986092
O     -0.02540302     2.19701373     6.39498609
O     -0.00785227     2.23805103     1.69392277
O     -5.78925233    10.04808615     4.83786620
O      1.93420335     0.95291890     8.04346470
O     -1.93899312    10.05733740     0.10496691
O      5.80920647     1.12564381     3.25065612
O      3.93386953     2.15407047     6.48100357
O      3.86763657     2.23577757     1.68132582
O      3.85909665     0.00287207     4.83511718
O      6.05727084     1.18677035     8.29155270
O      7.73821774     0.00761509     0.10924988
O      9.67378231     1.12100244     3.24284366
O      7.78946488     2.20815912     6.43506686
O      7.74357843     2.23531483     1.71563532
O      1.94048502    10.05748258     4.85452032
O      9.71810950     1.09534766     8.04228261
O      9.67032270     3.35425987     0.10911246
O     -0.00070932     4.48705720     3.24816516
O     -2.01836451     5.56703732     6.43683625
O     -1.94403436     5.59119430     1.70564938
O     -1.93276483     3.35036474     4.85507697
O     -0.11753638     4.51211120     8.05166332
O      1.92738314     3.35244915     0.09928684
O      3.84297271     4.48789532     3.21229226
O      1.97525093     5.56670731     6.49104152
O      1.92862022     5.59252216     1.67404250
O      1.92975537     3.32266261     4.82036396
O      5.81155478     3.35101064     0.10766953
O      7.73685314     4.46533099     3.25015349
O      5.90603755     5.57494452     6.48306271
O      5.80528807     5.59217007     1.68114259
O      5.73736747     3.39337474     4.76626723
O      7.80789378     4.21593293     8.29360596
O     -3.87155109     6.71022987     0.10512724
O     -1.92316537     7.81663057     3.24452906
O     -3.82109110     8.91255145     6.36127881
O     -3.87509971     8.94378428     1.69355631
O      7.73347055     6.71538848     4.83596699
O     -1.93070877     7.82001307     8.00792915
O     -0.01209783     6.71325780     0.10434852
O      1.92163051     7.81593421     3.24878733
O     -0.02248446     9.02246692     6.43517128
O     -0.00628994     8.94736548     1.70514550
O      0.00069702     6.70494638     4.92172924
O      1.84071594     7.90399591     8.05343458
O      3.86815347     6.71410280     0.09951587
O      5.80957278     7.83441887     3.21019379
O      3.89203088     8.98315649     6.39525577
O      3.86556896     8.94715423     1.69389986
O      3.89680068     6.72592232     4.81979408
O      5.94917078     7.90619562     8.04385412
