85
CIF: V-CeO2-O2+CO.cif | data_image0
O      0.55978923     0.45000431     0.59999690
O      2.47646351     1.59744466     3.75920468
O      0.29232802     2.54619149     6.88194097
O      0.55978923     2.65902057     2.16203261
O      0.58484715     0.43026358     5.32131202
O      2.46025519     0.94011307     8.80006959
O      4.38603242     0.45000431     0.59999690
O      6.28557691     1.55393067     3.73554040
O      4.23772788     2.76030707     7.03555419
O      4.38603242     2.65902057     2.16203261
O      4.38440141     0.50190912     5.40963990
O      6.29349970     1.61049525     8.53615295
O      8.21216082     0.45000431     0.59999690
O     10.11958335     1.55227557     3.74771744
O      8.23655930     2.64221384     6.91328026
O      8.21216082     2.65902057     2.16203261
O      8.19796241     0.43932973     5.37456847
O     10.02666039     1.48215475     8.64575100
O     -1.35327498     3.76352871     0.59999690
O      0.59066096     4.85635434     3.76674896
O     -1.23345234     5.86100996     7.03176185
O     -1.35333237     5.97264438     2.16203261
O     -1.41023976     3.78800747     5.32608564
O      1.99362175     3.67171198     8.55225273
O      2.47296821     3.76352871     0.59999690
O      4.37421137     4.86260676     3.75517455
O      2.47838945     5.89996999     7.01501193
O      2.47291082     5.97264438     2.16203261
O      2.50217669     3.81853537     5.53526136
O      4.41437500     4.91987367     8.43518614
O      6.29909662     3.76352871     0.59999690
O      8.18321585     4.85925943     3.72932235
O      6.32841520     5.97561491     6.89917328
O      6.29903923     5.97264438     2.16203261
O      6.27299420     3.72088765     5.40789499
O      8.17481087     4.81611131     8.54923634
O     -3.26639657     7.07715251     0.59999690
O     -1.33834377     8.18744759     3.75380008
O     -3.29422619     9.20519217     6.82797540
O     -3.26639657     9.28616878     2.16203261
O     -3.20505604     7.00995459     5.38042192
O     -1.42689147     8.17531095     8.53002328
O      0.55984662     7.07715251     0.59999690
O      2.47192891     8.18067613     3.73893084
O      0.53500183     9.29617136     6.97142352
O      0.55984662     9.28616878     2.16203261
O      0.58433078     7.08870282     5.39944839
O      2.54744625     8.22757272     8.52654211
O      4.38597502     7.07715251     0.59999690
O      6.30652902     8.14903595     3.75115684
O      4.42372136     9.31547126     6.90207608
O      4.38597502     9.28616878     2.16203261
O      4.36199845     7.07614112     5.39558213
O      6.29899269     8.13020578     8.56101970
O      0.25058750     5.44491994     9.50406127
O      0.43948897     6.57612124    10.16804523
O     -1.07513155     3.06423235    11.71301009
Ce     2.47285343     1.55451244     1.38101475
Ce     0.53863353     2.65061230     4.61735860
Ce     0.60045710     0.44408941     7.78393295
Ce     6.29909662     1.55451244     1.38101475
Ce     4.36609671     2.65399109     4.55836227
Ce     4.28591643     0.42502031     7.81780260
Ce    10.12522502     1.55451244     1.38101475
Ce     8.20468032     2.65069013     4.52610501
Ce     8.20729022     0.44714135     7.75647476
Ce     0.55978923     4.86803684     1.38101475
Ce    -1.32998504     5.95587813     4.57811860
Ce    -1.41654642     3.64405086     7.76286082
Ce     4.38603242     4.86803684     1.38101475
Ce     2.46214308     5.98587508     4.55197170
Ce     8.21216082     4.86803684     1.38101475
Ce     6.30729470     5.95972444     4.55413326
Ce     6.34421353     3.72690517     7.74563463
Ce    -1.35333237     8.18166064     1.38101475
Ce    -3.25874944     9.28250270     4.55030924
Ce    -3.25003562     7.04510333     7.73219123
Ce     2.47291082     8.18166064     1.38101475
Ce     0.55366733     9.29312192     4.57100808
Ce     0.54809630     7.18896075     7.82791164
Ce     6.29903923     8.18166064     1.38101475
Ce     4.39592457     9.29209076     4.54735663
Ce     4.43993678     7.17841390     7.73280269
V      3.05197262     4.17038192     7.46209328
C     -1.21600250     3.37240772    10.62169538
