84
CIF: Ni-Mo-CeO2-CO.cif | data_image0
Ce     1.93596140     1.11772783     0.89035214
Ce     0.00199701     2.23330284     4.04301142
Ce     5.80934035    10.05002987     7.17587229
Ce     5.80789581     1.11772783     0.89035214
Ce     3.85217215     2.21151372     3.97796423
Ce    -2.09278008     9.88658987     7.13994370
Ce     9.67981860     1.11772783     0.89035214
Ce     7.74103019     2.24877467     4.07610590
Ce     7.84244191     0.03717328     7.24929113
Ce     0.00000000     4.47091133     0.89035214
Ce    -1.93600607     5.59321350     4.05155649
Ce    -1.87658585     3.37995935     7.22953461
Ce     3.87193441     4.47091133     0.89035214
Ce     1.96352787     5.58628754     4.08052923
Ce     1.87300901     3.34204821     7.26126324
Ce     7.74385721     4.47091133     0.89035214
Ce     5.81826734     5.58773523     4.01045804
Ce    -1.93596721     7.82410489     0.89035214
Ce    -3.88975326     8.91225097     3.99522441
Ce    -3.80396205     6.68669315     7.27062808
Ce     1.93596721     7.82410489     0.89035214
Ce     0.00874727     8.96273116     4.06762688
Ce     0.04465363     6.71615678     7.22858507
Ce     5.80789000     7.82410489     0.89035214
Ce     3.87547966     8.94583307     4.04852579
Ce     3.85558860     6.75113670     7.28630256
Mo     5.57860043     3.39425143     6.96237828
O      0.00000000     0.00000000     0.09999685
O      1.92222850     1.10825780     3.19807865
O     -0.01091661     2.21171934     6.35570060
O      0.00000000     2.23545567     1.68070743
O     -5.79117801    10.04351806     4.82854800
O      1.97067411     0.97151067     7.95485339
O      3.87192279     0.00000000     0.09999685
O      5.80135821     1.12086521     3.23941042
O      4.33291122     2.05715897     6.49313392
O      3.87192279     2.23545567     1.68070743
O     -1.99668897    10.05795333     4.81778067
O      6.15699939     2.68646318     8.52025665
O      7.74385721     0.00000000     0.09999685
O      9.68523805     1.11709500     3.24007478
O      7.52476662     2.47154895     6.40586428
O      7.74385721     2.23545567     1.68070743
O      7.75032933     0.03141588     4.84636748
O      9.78759409     1.21774572     8.01957731
O     -1.93596140     3.35318350     0.09999685
O      0.02358216     4.48117856     3.27616434
O     -1.93853388     5.60935728     6.35482270
O     -1.93596721     5.58864923     1.68070743
O      9.67161213     3.34277162     4.85045650
O     -0.06194388     4.51386911     8.02689160
O      1.93596140     3.35318350     0.09999685
O      3.86654721     4.47503054     3.20449642
O      1.89440781     5.59868746     6.37252230
O      1.93595559     5.58864923     1.68070743
O      2.03567638     3.28113021     4.86551036
O      5.80789581     3.35318350     0.09999685
O      7.73146530     4.45864765     3.24053368
O      6.13564385     5.16649070     6.51415649
O      5.80789000     5.58864923     1.68070743
O      5.68660120     3.37162461     4.84381121
O      8.25236757     4.70476412     8.47274597
O     -3.87192860     6.70637706     0.09999685
O     -1.93502792     7.81732819     3.23441618
O     -3.86753608     8.87695322     6.33319752
O     -3.87192860     8.94183273     1.68070743
O      7.69752154     6.68684829     4.84266567
O     -1.96964159     7.81896406     8.04479823
O     -0.00000581     6.70637706     0.09999685
O      1.95671831     7.81976497     3.26582030
O     -0.08527748     9.09454520     6.49351623
O     -0.00000581     8.94183273     1.68070743
O      0.00071206     6.78336720     4.87467256
O      3.87192860     6.70637706     0.09999685
O      5.80084586     7.82111575     3.20596897
O      3.90765191     8.98641593     6.41030882
O      3.87192860     8.94183273     1.68070743
O      3.97580563     6.66743106     4.88035569
O      5.95573900     7.79808999     7.97486899
O      4.12186571     4.29834382     7.74114024
O      1.82587867     7.78016651     8.07247859
O      6.17759652     3.25416800    12.32851639
Ni     7.21270236     3.85755342     9.67739850
C      6.58571210     3.47524047    11.26254340
