84
CIF: Fe-Y-CeO2-CO.cif | data_image0
Ce     1.93596140     1.11772783     0.89035214
Ce     0.01270925     2.23128236     4.02173174
Ce    11.58969956     0.00905339     7.20678661
Ce     5.80789581     1.11772783     0.89035214
Ce     3.88240101     2.22550374     4.03443564
Ce    -2.08945870     9.98652581     7.15042394
Ce     9.67981860     1.11772783     0.89035214
Ce     7.74810904     2.23525676     4.05390772
Ce     7.78601763     0.03475573     7.27141875
Ce     0.00000000     4.47091133     0.89035214
Ce    -1.94398294     5.59788819     4.04621292
Ce    -1.86671575     3.32655364     7.14696466
Ce     3.87193441     4.47091133     0.89035214
Ce     1.94335815     5.59002769     4.03314849
Ce     1.96829759     3.36374911     7.18372173
Ce     7.74385721     4.47091133     0.89035214
Ce     5.81293993     5.58696638     4.03461220
Ce    -1.93596721     7.82410489     0.89035214
Ce    -3.89373222     8.93273871     4.00039795
Ce     7.70361943     6.74814336     7.21010701
Ce     1.93596721     7.82410489     0.89035214
Ce    -0.00214877     8.95735340     4.06580450
Ce     0.00668723     6.70239628     7.22141901
Ce     5.80789000     7.82410489     0.89035214
Ce     3.85918613     8.94988478     4.05411256
Ce     3.85184943     6.68379869     7.20095241
Y      5.74585037     3.40277393     7.03691202
O      0.00000000     0.00000000     0.09999685
O      1.93118145     1.11706172     3.21571709
O      0.03005233     2.23023274     6.36392019
O      0.00000000     2.23545567     1.68070743
O     11.61199210     0.00058915     4.84076237
O      1.90696392     1.08476368     7.98802024
O      3.87192279     0.00000000     0.09999685
O      5.79433815     1.10318575     3.24383675
O      3.97494032     2.11081466     6.47000275
O      3.87192279     2.23545567     1.68070743
O     -1.99152011    10.02938198     4.82668859
O      6.29397712     1.70541926     8.60850740
O      7.74385721     0.00000000     0.09999685
O      9.68718196     1.11642503     3.23617462
O      7.76580922     2.33277735     6.31097346
O      7.74385721     2.23545567     1.68070743
O      1.92843969    10.03570198     4.82174297
O      9.78808339     1.24166124     8.08684109
O     -1.93596140     3.35318350     0.09999685
O      0.02464335     4.49251036     3.24392757
O     -2.03585221     5.54894601     6.46093362
O     -1.93596721     5.58864923     1.68070743
O     -1.88088902     3.37249370     4.81095788
O      0.03194540     4.47808715     7.96160035
O      1.93596140     3.35318350     0.09999685
O      3.85484184     4.48582272     3.22013463
O      1.90772761     5.57562853     6.33887367
O      1.93595559     5.58864923     1.68070743
O      1.99264087     3.32143587     4.86763179
O      5.80789581     3.35318350     0.09999685
O      7.75316949     4.48365589     3.24157441
O      5.90431745     5.57305665     6.43747755
O      5.80789000     5.58864923     1.68070743
O      5.75838394     3.37432304     4.77846678
O      7.76109817     4.24045564     8.38835662
O     -3.87192860     6.70637706     0.09999685
O     -1.93302976     7.81895793     3.22336377
O     -3.91772351     8.92315047     6.38553982
O     -3.87192860     8.94183273     1.68070743
O     -3.86803580     6.72768335     4.84145162
O     -2.02602821     7.81346101     8.01290073
O     -0.00000581     6.70637706     0.09999685
O      1.92646191     7.80518646     3.24780562
O     -0.09969398     9.06946606     6.51618736
O     -0.00000581     8.94183273     1.68070743
O     -0.04438839     6.74976135     4.91273963
O      3.87192860     6.70637706     0.09999685
O      5.79758454     7.82206565     3.22570920
O      3.91357371     8.94210537     6.43010739
O      3.87192860     8.94183273     1.68070743
O      3.89524628     6.69734272     4.87396773
O      5.82173433     7.81902309     8.02320870
O      3.81352489     4.49212031     7.90392902
O      1.90530036     7.67011110     8.00525059
O      7.01090080     3.16598799    12.51763522
Fe     7.35571104     2.84623653     9.51899106
C      7.24317074     2.99779086    11.39304889
