84
CIF: CO+Olatt—CO2.cif | data_image0
Ce     1.93596140     1.11772783     0.89035214
Ce    -0.03236836     2.21735484     4.04372311
Ce    -5.61272121     9.92747986     7.18857875
Ce     5.80789581     1.11772783     0.89035214
Ce     3.79191939     2.16332648     3.94198103
Ce    -1.89838538    10.04315328     7.30047012
Ce     9.67981860     1.11772783     0.89035214
Ce     7.75768746     2.24530794     4.02948071
Ce     1.96185450     9.98437323     7.26619157
Ce     0.00000000     4.47091133     0.89035214
Ce    -1.93406662     5.58802486     4.06650464
Ce    -1.82130313     3.50098072     7.25711646
Ce     3.87193441     4.47091133     0.89035214
Ce     1.95330998     5.58455524     4.08142972
Ce     1.82397168     3.29784766     7.22067824
Ce     7.74385721     4.47091133     0.89035214
Ce     5.82883985     5.64525249     4.00918250
Ce    -1.93596721     7.82410489     0.89035214
Ce    -3.83671299     8.90320068     4.05733934
Ce    -3.73905268     6.70012361     7.43249839
Ce     1.93596721     7.82410489     0.89035214
Ce     0.02366013     8.96364045     4.07071689
Ce     0.05045576     6.75927786     7.25905827
Ce     5.80789000     7.82410489     0.89035214
Ce     3.88494566     8.95266646     4.07418959
Ce     3.90867789     6.77638564     7.35058063
Mo     5.55001392     3.32839667     6.74230913
O      0.00000000     0.00000000     0.09999685
O      1.90669193     1.09671966     3.20091364
O     -0.11136547     2.13708737     6.53744955
O      0.00000000     2.23545567     1.68070743
O     -5.73344148    10.02744519     4.86822426
O      1.92216617     1.22542891     8.03949110
O      3.87192279     0.00000000     0.09999685
O      5.74483023     1.08825239     3.21190666
O      3.95791658     2.37126639     6.34027190
O      3.87192279     2.23545567     1.68070743
O      3.85303082     0.03181935     4.83007265
O      5.77768539     1.80966332     8.10740919
O      7.74385721     0.00000000     0.09999685
O      9.75435131     1.07703881     3.23476198
O      7.37768703     2.91068685     6.59909019
O      7.74385721     2.23545567     1.68070743
O      7.78854245     0.00355917     4.89587792
O      8.90422786     1.71778790     8.57592796
O     -1.93596140     3.35318350     0.09999685
O      0.00759095     4.47477888     3.25626934
O     -1.85729563     5.58560776     6.41409024
O     -1.93596721     5.58864923     1.68070743
O     -1.89153296     3.35432665     4.91872700
O      0.05576815     4.43541651     8.07678019
O      1.93596140     3.35318350     0.09999685
O      3.83940517     4.48004931     3.24250107
O      2.02452908     5.44808923     6.48095464
O      1.93595559     5.58864923     1.68070743
O      1.86850436     3.26122878     4.89618631
O      5.80789581     3.35318350     0.09999685
O      7.72736294     4.54915493     3.23919364
O      5.85940971     5.18069266     6.54784955
O      5.80789000     5.58864923     1.68070743
O      5.64566003     3.33428657     4.81616949
O      8.25199547     4.55917637     8.67102418
O     -3.87192860     6.70637706     0.09999685
O     -1.92062038     7.80200695     3.27134874
O     -3.79496060     8.94469520     6.43952939
O     -3.87192860     8.94183273     1.68070743
O      7.68948711     6.68893836     4.89485509
O     -1.72463746     7.78311633     8.16220113
O     -0.00000581     6.70637706     0.09999685
O      1.96991285     7.81339142     3.26926592
O      0.01514720     8.98014255     6.41037697
O     -0.00000581     8.94183273     1.68070743
O      0.06837160     6.70652868     4.89104415
O      3.87192860     6.70637706     0.09999685
O      5.81370537     7.82218888     3.22845631
O      3.97504573     9.08866923     6.53291698
O      3.87192860     8.94183273     1.68070743
O      3.95716141     6.73065230     4.92256151
O      5.89735064     7.91162922     8.12330868
O      4.31746426     4.10621702     8.18553201
O      1.88115778     7.78471425     8.10830164
O      4.14421377     4.56957475    10.52259627
Y      7.28625793     2.87197446     9.33790618
C      4.92303594     4.05745111     9.78401893
