90
CIF: H+OH.cif | data_image0
O      0.00261135     0.00382715     0.19995339
O      1.92082020     1.12111407     3.31879307
O      0.42674774     2.48998292     6.95748096
O      0.00261135     2.21285656     1.76196664
O      0.01320026     0.13515242     5.01468133
O      2.07105169     0.55136881     8.83666561
O      3.82876252     0.00382715     0.19995339
O      5.75821998     1.08997750     3.31635325
O      3.35878962     2.42492199     6.94362163
O      3.82876252     2.21285656     1.76196664
O      3.84620971     0.14400870     5.02597265
O      5.66530830     0.97264190     8.19003124
O      7.65492518     0.00382715     0.19995339
O      9.54696590     1.09681739     3.32904405
O      7.64233654     2.21481871     6.52756849
O      7.65492518     2.21285656     1.76196664
O      1.90385969     9.93748553     4.97553554
O      9.49922173     1.22923403     8.22460229
O     -1.91046424     3.31737126     0.19995339
O      0.00066234     4.40401456     3.31943591
O     -1.92835451     5.45509475     6.52884724
O     -1.91046998     5.52641062     1.76196664
O     -1.80310184     3.21768118     5.04975358
O     -0.59086248     4.59081943     8.85228568
O      1.91568694     3.31737126     0.19995339
O      3.81630046     4.41977254     3.31972162
O      1.95170840     4.97197745     7.02683204
O      1.91568120     5.52641062     1.76196664
O      1.90906729     3.32868630     4.90213849
O      4.42432239     4.66515022     9.00435882
O      5.74184959     3.31737126     0.19995339
O      7.66425452     4.39146772     3.42379760
O      5.75226739     5.51987702     6.50101940
O      5.74184385     5.52641062     1.76196664
O      5.62249967     3.23136197     4.99801581
O      7.70599735     4.44899962     8.28156408
O     -3.82354556     6.63092532     0.19995339
O     -1.88640159     7.74395524     3.41017362
O     -3.76032265     8.86695248     6.51432802
O     -3.82354556     8.83995473     1.76196664
O     -3.80962508     6.64050184     4.97577462
O     -1.98233522     7.74387603     8.25954587
O      0.00260561     6.63092532     0.19995339
O      1.91184769     7.75832050     3.32261720
O     -0.04313001     8.81546420     6.48962658
O      0.00260561     8.83995473     1.76196664
O      0.12021648     6.54395952     5.01933964
O      1.88333059     7.88736331     8.23556850
O      3.82876826     6.63092532     0.19995339
O      5.72203042     7.74822080     3.42166724
O      3.83715346     8.87559793     6.54100735
O      3.82876826     8.83995473     1.76196664
O      3.69710962     6.57994795     5.02001023
O      5.90360172     7.67977238     8.29558086
Ce     1.91568694     1.10834185     0.98097142
Ce    -0.06095869     2.16726112     4.05750844
Ce    -5.71571072     9.90853173     7.54433684
Ce     5.74184959     1.10834185     0.98097142
Ce     3.89078539     2.18196792     4.05250979
Ce    -1.86825378     9.81275589     7.45575673
Ce     9.56800076     1.10834185     0.98097142
Ce     7.64488727     2.20743494     4.21037076
Ce     1.90296892     9.91822291     7.36266059
Ce     0.00261135     4.42188597     0.98097142
Ce    -1.89528481     5.50972313     4.22762362
Ce     9.43357599     3.32219048     7.48230658
Ce     3.82877400     4.42188597     0.98097142
Ce     1.91847652     5.60381592     4.05319870
Ce     7.65492518     4.42188597     0.98097142
Ce     5.72477894     5.52051119     4.24140163
Ce     5.75033928     3.32337590     7.52821268
Ce    -1.91046998     7.73544003     0.98097142
Ce    -3.82271159     8.85413045     4.21674055
Ce     7.64374760     6.62019175     7.40233899
Ce     1.91569268     7.73544003     0.98097142
Ce     0.00043545     8.82659649     4.20091795
Ce    -0.02573006     6.63108593     7.55261296
Ce     5.74184385     7.73544003     0.98097142
Ce     3.83523467     8.83312771     4.24416495
Ce     3.88978957     6.68822910     7.58745715
V      1.90940196     3.30185719     6.65588965
C      3.53829541     7.35119176    11.12211613
C      3.47159535     6.13775890    10.61931314
C      4.29566228     4.93620749    10.38177311
H      2.69745134     8.04887041    11.06056083
H      4.45364239     7.72090919    11.61216331
H     -0.10417867     4.24339996     9.61844528
H      2.18517418     1.29204069     9.45617688
H      3.85554358     4.07118119    10.92170295
H      5.29542789     5.12102033    10.84627186
