83
CIF: CH2.cif | data_image0
O      0.00261135     0.00382715     0.19995339
O      1.91478711     1.13387925     3.34782273
O      0.03096834     2.29273164     6.52441965
O      0.00261135     2.21285656     1.76196664
O     -0.00436595     0.04898179     4.96878578
O      1.80708022     1.29095127     8.23513378
O      3.82876252     0.00382715     0.19995339
O      5.74063012     1.09849068     3.33482725
O      3.80803206     2.47199183     6.68137657
O      3.82876252     2.21285656     1.76196664
O      3.81401642     0.09664104     4.99478095
O      5.87086139     1.22373619     8.26300662
O      7.65492518     0.00382715     0.19995339
O      9.56938276     1.08986573     3.32267630
O      7.67398086     2.18819233     6.48566218
O      7.65492518     2.21285656     1.76196664
O      1.93047682     9.93492901     4.95174238
O      9.60409444     0.99106033     8.22476699
O     -1.91046424     3.31737126     0.19995339
O     -0.00019331     4.42545607     3.32123311
O     -1.87431758     5.50539502     6.58623834
O     -1.91046998     5.52641062     1.76196664
O      9.56213700     3.30603921     4.90693511
O      1.91568694     3.31737126     0.19995339
O      3.84167318     4.41551467     3.32783320
O      1.67942845     4.85810756     7.74235688
O      1.91568120     5.52641062     1.76196664
O      1.91908847     3.37094278     4.99934794
O      4.33210796     4.43471236     9.27154680
O      5.74184959     3.31737126     0.19995339
O      7.64198571     4.44608061     3.35930419
O      5.67766453     5.44058958     6.61645365
O      5.74184385     5.52641062     1.76196664
O      5.75789195     3.28528628     4.95745737
O      7.58647163     4.43648036     8.26612137
O     -3.82354556     6.63092532     0.19995339
O     -1.88976138     7.72996487     3.42044109
O     -3.87397162     8.86218131     6.53115176
O     -3.82354556     8.83995473     1.76196664
O      7.63746678     6.61229498     5.03187956
O     -2.04598801     7.68651072     8.32509663
O      0.00260561     6.63092532     0.19995339
O      1.91472073     7.74240417     3.31353478
O      0.01189831     8.89182982     6.53088797
O      0.00260561     8.83995473     1.76196664
O      0.15346429     6.57003995     5.05124443
O      1.93691113     7.91566600     8.28721297
O      3.82876826     6.63092532     0.19995339
O      5.71105750     7.70866648     3.40491324
O      3.87012961     8.84641358     6.50577047
O      3.82876826     8.83995473     1.76196664
O      3.66566471     6.53790228     5.07618719
O      5.80966775     7.80043427     8.27578049
Ce     1.91568694     1.10834185     0.98097142
Ce    -0.02450876     2.21110107     4.12040754
Ce     5.72859845     9.93441481     7.38690671
Ce     5.74184959     1.10834185     0.98097142
Ce     3.85199467     2.21437792     4.14488549
Ce     3.82297827     0.03754242     7.48352577
Ce     9.56800076     1.10834185     0.98097142
Ce     7.66376293     2.20805842     4.11265229
Ce     1.94108820     9.93492856     7.38206769
Ce     0.00261135     4.42188597     0.98097142
Ce    -1.90431270     5.52482565     4.22534958
Ce     9.48033913     3.26119432     7.35081651
Ce     3.82877400     4.42188597     0.98097142
Ce     1.90944075     5.53936125     4.04561375
Ce     7.65492518     4.42188597     0.98097142
Ce     5.72771840     5.51538823     4.21896317
Ce     5.90266333     3.26852705     7.34435924
Ce    -1.91046998     7.73544003     0.98097142
Ce    -3.82503249     8.85593291     4.21036208
Ce    -3.81350685     6.64829587     7.42296962
Ce     1.91569268     7.73544003     0.98097142
Ce     0.00786179     8.84791789     4.20505725
Ce    -0.01789385     6.76669562     7.47965361
Ce     5.74184385     7.73544003     0.98097142
Ce     3.81846113     8.82566557     4.17769398
Ce     3.84500710     6.74279092     7.51803894
Zr     1.86643920     3.00860938     7.06996341
C      3.53569608     3.88800626    10.03486738
H      3.51267316     2.78415053    10.14362824
H      2.82318112     4.48755524    10.63442482
