84
CIF: CO+Olatt—CO2.cif | data_image0
Ce     1.93596140     1.11772783     0.89035214
Ce     0.01270048     2.23938137     4.04880681
Ce    -5.78946044    10.03378117     7.20241465
Ce     5.80789581     1.11772783     0.89035214
Ce     3.81110027     2.20256466     3.94837266
Ce    -2.03776749     9.94631332     7.18793519
Ce     9.67981860     1.11772783     0.89035214
Ce     7.78266991     2.23426800     4.00203125
Ce     7.79503153     0.00245379     7.29944878
Ce     0.00000000     4.47091133     0.89035214
Ce    -1.93631363     5.59140182     4.08470099
Ce    -1.73628253     3.38876026     7.26096741
Ce     3.87193441     4.47091133     0.89035214
Ce     1.95824895     5.59018133     4.09840130
Ce     1.94343579     3.33318831     7.29111517
Ce     7.74385721     4.47091133     0.89035214
Ce     5.81754730     5.61741426     4.01371757
Ce    -1.93596721     7.82410489     0.89035214
Ce    -3.87664302     8.90664312     4.03160092
Ce    -3.82946340     6.71015158     7.35447427
Ce     1.93596721     7.82410489     0.89035214
Ce     0.00299709     8.97055770     4.07312803
Ce     0.04364226     6.73559424     7.25112155
Ce     5.80789000     7.82410489     0.89035214
Ce     3.87825552     8.95075954     4.06844332
Ce     3.87111735     6.78468937     7.30473564
Mo     5.55370459     3.31210006     6.77269716
O      0.00000000     0.00000000     0.09999685
O      1.91828265     1.09917747     3.19957651
O      0.05022714     2.23068723     6.38338144
O      0.00000000     2.23545567     1.68070743
O     -5.79505189    10.05253051     4.83490382
O      2.00400549     0.97105632     8.00611111
O      3.87192279     0.00000000     0.09999685
O      5.80794649     1.12275070     3.21383866
O      4.03956419     2.23782862     6.33392009
O      3.87192279     2.23545567     1.68070743
O      3.83736833     0.01459853     4.81652108
O      5.79481866     1.83234711     8.19507289
O      7.74385721     0.00000000     0.09999685
O      9.68652791     1.11929153     3.21875063
O      7.45841183     2.71872047     6.62207702
O      7.74385721     2.23545567     1.68070743
O      7.74836260     0.13263924     4.88248209
O      9.75034423     1.26024672     8.00117874
O     -1.93596140     3.35318350     0.09999685
O     -0.00917942     4.48480391     3.27355761
O     -1.89849885     5.54811481     6.41801230
O     -1.93596721     5.58864923     1.68070743
O      9.65862001     3.29250706     4.88219305
O     -0.00408735     4.52393505     8.09380456
O      1.93596140     3.35318350     0.09999685
O      3.88974644     4.47324465     3.22196311
O      1.95841986     5.57695082     6.40672856
O      1.93595559     5.58864923     1.68070743
O      1.97968978     3.32222016     4.80216456
O      5.80789581     3.35318350     0.09999685
O      7.73997083     4.44979143     3.24073465
O      5.88139997     5.18779252     6.48259501
O      5.80789000     5.58864923     1.68070743
O      5.76281417     3.29539384     4.81699921
O      8.18338927     4.39873748     8.72222084
O     -3.87192860     6.70637706     0.09999685
O     -1.93050067     7.81099824     3.25187725
O     -3.83854215     8.91949524     6.35370224
O     -3.87192860     8.94183273     1.68070743
O      7.69777600     6.66461779     4.84513967
O     -1.85109100     7.89174928     8.07168860
O     -0.00000581     6.70637706     0.09999685
O      1.94872232     7.84906435     3.28324959
O     -0.05773928     9.07901711     6.43487414
O     -0.00000581     8.94183273     1.68070743
O      0.00988118     6.75676214     4.89131346
O      3.87192860     6.70637706     0.09999685
O      5.80679326     7.82411831     3.21605307
O      3.87806819     8.98632081     6.39262507
O      3.87192860     8.94183273     1.68070743
O      3.96339744     6.69203787     4.86088661
O      5.83435181     7.95420879     8.04152613
O      4.29166597     4.13302084     8.10503942
O      1.82226407     7.80904582     8.09164955
O      5.08493226     4.78484088    10.45908726
Fe     6.91032788     3.21993841     8.73732745
C      5.52352281     4.12013745     9.59728257
