83
CIF: O2.cif | data_image0
Ce    11.58638194     0.02031867     8.76089797
Ce     1.94290673     1.11122563     5.62443960
Ce     0.00000000     2.23543938     2.47426506
Ce     3.95760892     0.03497938     8.83761174
Ce     5.80399492     1.11971475     5.60709190
Ce     3.87189458     2.23543938     2.47426506
Ce     7.68453045     0.05300323     8.83713165
Ce     9.67194107     1.12406243     5.64275545
Ce     7.74390532     2.23543938     2.47426506
Ce     9.60754499     3.38313675     8.83787473
Ce    -0.01532900     4.44984695     5.60976452
Ce    -1.93600537     5.58869904     2.47426506
Ce     1.94998080     3.28454375     8.77060394
Ce     3.87127922     4.47320075     5.61533534
Ce     1.93588921     5.58869904     2.47426506
Ce     5.78906571     3.36623516     8.74411491
Ce     7.74178189     4.47543707     5.60683873
Ce     5.80789995     5.58869904     2.47426506
Ce     7.75796057     6.61732246     8.83685703
Ce    -1.95510216     7.83662967     5.67164006
Ce    -3.87195266     8.94185811     2.47426506
Ce     1.94810765     7.84950070     5.61070959
Ce    -0.00005808     8.94185811     2.47426506
Ce     3.93966236     6.73169833     8.77492289
Ce     5.81707783     7.82278856     5.62501712
Ce     3.87195266     8.94185811     2.47426506
Cu     0.83807249     6.22219896     8.15346914
O     11.60276371     0.00839127     6.43554953
O      0.01761315     2.22876719     9.53006495
O      1.93594729     1.11771969     3.26466483
O     -0.00370147     2.23319527     4.81398264
O      0.00000000     0.00000000     1.68386529
O      1.94873355     1.09358581     7.97157634
O     -1.92396419    10.05335572     6.42394860
O      3.85940304     2.27139628     9.58252215
O      5.80795803     1.11771969     3.26466483
O      3.85401570     2.23180416     4.80716275
O      3.87189458     0.00000000     1.68386529
O      5.80578234     1.20367300     7.88652073
O      1.93789926    10.02300545     6.45254271
O      7.70527166     2.25929346     9.58546940
O      9.67985261     1.11771969     3.26466483
O      7.75744843     2.22795578     4.82209358
O      7.74390532     0.00000000     1.68386529
O      9.64685649     1.14479112     7.98792172
O     -1.90264738     3.37358669     6.44880812
O     -2.37926855     5.31302606     9.76956058
O      0.00000000     4.47087876     3.26466483
O     -1.90722113     5.60555212     4.82368870
O     -1.93594729     3.35315907     1.68386529
O      0.03410194     4.55952693     8.02697604
O      1.91692612     3.34046219     6.43872285
O      1.96434672     5.57106484     9.47437514
O      3.87201074     4.47087876     3.26466483
O      1.91696227     5.60008319     4.82984707
O      1.93594729     3.35315907     1.68386529
O      3.88847679     4.46477806     7.94219149
O      5.78296977     3.36950528     6.35573158
O      5.77673562     5.58051034     9.57894648
O      7.74390532     4.47087876     3.26466483
O      5.80321567     5.60783976     4.80662019
O      5.80795803     3.35315907     1.68386529
O      7.67214209     4.43136171     7.88597533
O     -3.85948995     6.70117908     6.42411665
O     -3.87601138     8.94506598     9.59573970
O     -1.93600537     7.82413842     3.26466483
O     -3.87094833     8.94203972     4.82667741
O     -3.87195266     6.70641873     1.68386529
O     -2.07105483     7.90444935     8.04549410
O      0.00343725     6.70624357     6.54309000
O      0.01903775     9.46548287     9.76781451
O      1.93600537     7.82413842     3.26466483
O      0.00154680     8.91080538     4.82458621
O     -0.00005808     6.70641873     1.68386529
O      1.87896559     7.75015733     8.02914972
O      3.87376261     6.73140061     6.43652002
O      3.88642946     8.94372282     9.51738430
O      5.80789995     7.82413842     3.26466483
O      3.87222626     8.94824773     4.81461532
O      3.87195266     6.70641873     1.68386529
O      5.83509753     7.82599670     7.97291189
O      3.87716362     6.88932093    11.98866477
O      3.39357821     6.05736914    12.76292517
