81
CIF: Re-Ti-CeO2-Ov.cif | data_image0
Ce     1.93038582     1.11050507     0.88387043
Ce    -0.01590962     2.23949959     4.05779693
Ce    -5.77260000    10.05207189     7.22588277
Ce     5.81181033     1.12175166     0.90127712
Ce     3.82490343     2.22501802     3.98585245
Ce    -1.99046160    10.04758683     7.39180717
Ce     9.66901012     1.12377363     0.90450652
Ce     7.77823153     2.21613436     3.97036531
Ce     2.09891625     9.89278891     7.23139854
Ce    -0.00709724     4.47602159     0.89067279
Ce    -1.96730890     5.58372962     4.13315298
Ce    -1.82300539     3.34551824     7.38906430
Ce     3.86254305     4.47635356     0.87798423
Ce     1.93840411     5.58541011     4.11632477
Ce     1.77643663     3.31140698     7.26910002
Ce     7.74213807     4.46545905     0.90125422
Ce     5.81250851     5.63217824     3.96117993
Ce    -1.94645625     7.83004003     0.90010904
Ce    -3.86217522     8.95934780     4.06617908
Ce    -3.84818377     6.86029720     7.30402475
Ce     1.92815559     7.82745473     0.89060408
Ce    -0.00925829     8.97490152     4.11867092
Ce    -0.01351621     6.71968666     7.29027337
Ce     5.81127600     7.83258510     0.88371011
Ce     3.88919541     8.93332997     4.01670006
Ce     3.89215786     6.81484388     7.26557485
Ti     5.63921439     3.43542437     6.62466813
Re     6.72674773     2.29473838     8.74450763
O     11.61334069     0.00154917     0.10141687
O      1.92978616     1.11559964     3.20741092
O     -0.03109878     2.25213695     6.37492483
O     -0.00785227     2.23805103     1.69392277
O      0.00427366     0.00467593     4.81533187
O      1.80606029     1.06427574     8.09070025
O     -1.93899312    10.05733740     0.10496691
O      5.80974157     1.11817100     3.22226458
O      4.05367341     2.57266913     6.63765851
O      3.86763657     2.23577757     1.68132582
O      3.87768022     0.12904964     4.87540618
O      5.46205319     1.15367225     9.22859424
O      7.73821774     0.00761509     0.10924988
O      9.69005310     1.11462452     3.20176564
O      7.20128285     2.24348162     6.83840669
O      7.74357843     2.23531483     1.71563532
O      7.79344193     0.10173712     4.87205771
O      9.70463541     0.96495250     7.96500285
O      9.67032270     3.35425987     0.10911246
O     -0.03294728     4.47766119     3.30234445
O     -2.00608078     5.54602431     6.44257940
O     -1.94403436     5.59119430     1.70564938
O      9.53499152     3.26828728     4.90650686
O     -0.01724243     4.61336312     8.16054505
O      1.92738314     3.35244915     0.09928684
O      3.87065433     4.46505389     3.21573002
O      1.99176705     5.57582150     6.43268780
O      1.92862022     5.59252216     1.67404250
O      1.96128438     3.30542464     4.81528276
O      5.81155478     3.35101064     0.10766953
O      7.74739948     4.48170784     3.21001083
O      5.75064753     5.23587903     6.79085354
O      5.80528807     5.59217007     1.68114259
O      5.86205904     3.35098039     4.75375703
O      7.93668432     3.40111006     9.41528415
O     -3.87155109     6.71022987     0.10512724
O     -1.94511503     7.83838401     3.30756758
O     -3.83775703     8.96035726     6.36534056
O     -3.87509971     8.94378428     1.69355631
O      7.62935344     6.67585311     4.86480449
O     -1.81326459     7.78984125     8.11885548
O     -0.01209783     6.71325780     0.10434852
O      1.93242886     7.83133378     3.28826675
O      0.07625808     9.07721809     6.46038443
O     -0.00628994     8.94736548     1.70514550
O     -0.01293519     6.73515774     4.92706147
O      1.90619653     7.86009493     8.11190296
O      3.86815347     6.71410280     0.09951587
O      5.81487586     7.83938916     3.19233304
O      3.87860709     8.89672383     6.32006650
O      3.86556896     8.94715423     1.69389986
O      3.97252476     6.66407399     4.82219513
O      5.81336846     7.97957705     8.08233470
