83
CIF: Y-Cr-CeO2-O.cif | data_image0
Ce     1.93038582     1.11050507     0.88387043
Ce    -0.01199018     2.22757631     4.08852468
Ce    -5.78690707    10.02360769     7.16816188
Ce     5.81181033     1.12175166     0.90127712
Ce     3.91577463     2.18320197     4.02935961
Ce     3.79795326     0.02342493     7.36907976
Ce     9.66901012     1.12377363     0.90450652
Ce     7.74259027     2.22318149     4.06647697
Ce     1.70199857     9.97205015     7.19833600
Ce    -0.00709724     4.47602159     0.89067279
Ce    -1.94821839     5.57932379     4.03064295
Ce    -1.96531912     3.40440410     7.12940005
Ce     3.86254305     4.47635356     0.87798423
Ce     1.92108658     5.65899230     4.03725129
Ce     0.52624951     2.60904703     9.34590593
Ce     7.74213807     4.46545905     0.90125422
Ce     5.75636081     5.56823068     3.96862188
Ce    -1.94645625     7.83004003     0.90010904
Ce    -3.89308088     8.94348620     4.06121941
Ce    -3.77801981     6.76107905     7.29667679
Ce     1.92815559     7.82745473     0.89060408
Ce    -0.04537721     8.93032028     4.05500778
Ce    -0.05638572     6.66321662     7.27027804
Ce     5.81127600     7.83258510     0.88371011
Ce     3.85333213     8.94374244     4.06557823
Ce     3.79642818     6.83663650     7.42089823
Cr     2.73218365     3.79048933     6.61081895
Y      5.94743295     3.21993310     7.23066682
O     11.61334069     0.00154917     0.10141687
O      1.92541357     1.15319318     3.26082084
O     -0.08789868     2.18265192     6.32556266
O     -0.00785227     2.23805103     1.69392277
O      5.78882914    10.00047948     4.81305210
O      1.59795055     0.77379087     8.51898695
O     -1.93899312    10.05733740     0.10496691
O      5.81130483     1.13547592     3.22315116
O      3.77546310     2.24854235     6.39510060
O      3.86763657     2.23577757     1.68132582
O      3.88356934     0.01884446     4.77944055
O      5.86981780     1.11850707     8.07488580
O      7.73821774     0.00761509     0.10924988
O      9.67076275     1.10950926     3.26741375
O      7.88551493     2.07982029     6.47768101
O      7.74357843     2.23531483     1.71563532
O      1.85417916    10.00909290     4.83950901
O     10.32088492     1.59772149     8.57801650
O      9.67032270     3.35425987     0.10911246
O      0.03637777     4.46409220     3.25835093
O     -1.86200629     5.64368742     6.32426132
O     -1.94403436     5.59119430     1.70564938
O      9.64230585     3.38873343     4.78563766
O     -0.42775300     4.50794416     8.40280545
O      1.92738314     3.35244915     0.09928684
O      3.86464280     4.47700382     3.22486926
O      1.83153807     5.49604685     6.40669150
O      1.92862022     5.59252216     1.67404250
O      2.03371040     3.41005590     4.95124653
O      5.81155478     3.35101064     0.10766953
O      7.72308684     4.49876181     3.20485560
O      4.24385219     4.67327068     6.44448191
O      5.80528807     5.59217007     1.68114259
O      5.92165127     3.35870619     4.88712480
O      7.74869382     4.54148759     7.73141279
O     -3.87155109     6.71022987     0.10512724
O     -2.01031318     7.78306939     3.27228665
O     -3.83983087     8.96090124     6.34957696
O     -3.87509971     8.94378428     1.69355631
O      7.53257270     6.58555057     5.00923214
O     -1.96326723     7.68496331     8.14351527
O     -0.01209783     6.71325780     0.10434852
O      1.94350915     7.81855926     3.21862738
O     -0.08803155     8.87833719     6.41483187
O     -0.00628994     8.94736548     1.70514550
O      0.02273477     6.72371235     4.81186089
O      1.71036343     7.81926602     8.13765669
O      3.86815347     6.71410280     0.09951587
O      5.81539466     7.80190476     3.20032055
O      3.76903390     9.16506560     6.58616250
O      3.86556896     8.94715423     1.69389986
O      3.92398940     6.81157044     4.89091041
O      5.92259999     7.81291789     7.88190509
O      2.31221644     3.58262912     8.18516012
O      5.06779582     4.96313246     8.43787447
