87
CIF: 6-OH+2H-H2O+H_fs.cif | data_image0
Ce     5.80436394    10.05546262     8.79376802
Ce     1.94795678     1.10041846     5.61539427
Ce     0.00000000     2.23543938     2.47426506
Ce    -1.87516976    10.01287878     8.80829468
Ce     5.80947771     1.11950327     5.61168022
Ce     3.87189458     2.23543938     2.47426506
Ce     7.66840051     0.04784094     8.84706656
Ce     9.66948276     1.10939103     5.63260431
Ce     7.74390532     2.23543938     2.47426506
Ce     9.63400989     3.28354610     8.78661014
Ce    -0.01302947     4.42098459     5.59714006
Ce    -1.93600537     5.58869904     2.47426506
Ce     1.96471694     3.19506488     8.77576292
Ce     3.86143619     4.48611349     5.62971559
Ce     1.93588921     5.58869904     2.47426506
Ce     5.81037867     3.37208623     8.75084599
Ce     7.74539583     4.47817682     5.62166829
Ce     5.80789995     5.58869904     2.47426506
Ce    -3.86439622     6.77707503     8.76666138
Ce    -1.95652174     7.83867334     5.67059500
Ce    -3.87195266     8.94185811     2.47426506
Ce     1.96684807     7.85509745     5.60624228
Ce    -0.00005808     8.94185811     2.47426506
Ce     3.97261850     6.71399681     8.82350723
Ce     5.80324176     7.82197826     5.60821157
Ce     3.87195266     8.94185811     2.47426506
Pt     0.89380028     6.18462996     8.16067150
O     11.60508862     0.00189503     6.42181407
O      0.01850132     2.17883667     9.57249701
O      1.93594729     1.11771969     3.26466483
O      0.00292759     2.23392302     4.80857467
O      0.00000000     0.00000000     1.68386529
O      1.95631348     1.06804018     7.96399330
O      3.89433807     0.00163882     6.40312328
O      3.85865090     2.24449233     9.56474300
O      5.80795803     1.11771969     3.26466483
O      3.86722721     2.24803744     4.81628611
O      3.87189458     0.00000000     1.68386529
O      5.81374268     1.20103194     7.89291636
O      1.93651373    10.03247208     6.43039993
O      7.72687918     2.27313259     9.58200911
O      9.67985261     1.11771969     3.26466483
O      7.74484744     2.23557826     4.81847821
O      7.74390532     0.00000000     1.68386529
O      9.64786506     1.12442232     7.97862452
O     -1.92206699     3.33394013     6.42330174
O     -2.27035629     5.37915669     9.94819249
O      0.00000000     4.47087876     3.26466483
O     -1.91045701     5.59121375     4.83555851
O     -1.93594729     3.35315907     1.68386529
O     -0.05952265     4.42704780     8.04967724
O      1.92241845     3.32383627     6.44700016
O      1.95207402     5.49701708     9.61239778
O      3.87201074     4.47087876     3.26466483
O      1.91664900     5.58745227     4.81934184
O      1.93594729     3.35315907     1.68386529
O      3.86933392     4.48198271     8.00068686
O      5.80306393     3.40495576     6.41453619
O      5.83708176     5.59847614     9.55182662
O      7.74390532     4.47087876     3.26466483
O      5.79702582     5.59509177     4.80061055
O      5.80795803     3.35315907     1.68386529
O      7.78479971     4.47716135     7.96090964
O      7.71330097     6.69839728     6.40319137
O     -3.93539221     8.93074371     9.63334156
O     -1.93600537     7.82413842     3.26466483
O     -3.87060899     8.94034336     4.81935185
O     -3.87195266     6.70641873     1.68386529
O     -2.07245271     7.86853754     7.96930783
O      0.01874990     6.70784068     6.48755102
O      0.00208527     9.44635730     9.76386549
O      1.93600537     7.82413842     3.26466483
O      0.00770053     8.91362893     4.82145802
O     -0.00005808     6.70641873     1.68386529
O      1.99113436     7.85838686     8.08490748
O      3.87836473     6.72009733     6.42080384
O      3.93677691     9.03195469     9.65835702
O      5.80789995     7.82413842     3.26466483
O      3.87125694     8.94379350     4.80306478
O      3.87195266     6.70641873     1.68386529
O      5.79419426     7.83182789     7.97364501
O      3.88201112     7.10758801    11.39128767
H     -1.47677319     5.82609239    10.29692622
H      4.72673055     6.87312060    11.81861485
H      3.95338583     8.07144220    11.09410633
N      6.76441411     8.08248699    13.02668359
N     -4.15493386     7.47615050    12.39811712
