81
CIF: Mn-CeO2.cif | data_image0
O      0.00261284     0.00382715     0.19994632
O      1.91683102     1.06685164     3.34795331
O     -0.17939690     2.10661294     6.47008334
O      0.00261284     2.21285656     1.76195957
O      5.74411393     9.88788655     4.97075259
O      1.92473731     1.59308668     8.28619854
O      3.82876402     0.00382715     0.19994632
O      5.73662534     1.11105211     3.34441829
O      4.01422860     2.10354314     6.46545487
O      3.82876402     2.21285656     1.76195957
O     -1.91214568     9.88557523     4.97100030
O      5.77819389     1.08843590     8.21903243
O      7.65492667     0.00382715     0.19994632
O      9.57248443     1.11091244     3.34444649
O      7.65620909     2.18985642     6.53893391
O      7.65492667     2.21285656     1.76195957
O      7.65435903     0.00368040     4.96832013
O      9.53323758     1.08852282     8.22038946
O     -1.91046274     3.31737126     0.19994632
O     -0.03412060     4.44317535     3.34728819
O     -1.78550729     5.45284482     6.65773350
O     -1.91046848     5.52641062     1.76195957
O      9.51951431     3.34703716     4.97088262
O      0.43294528     4.18127058     8.28404001
O      1.91568843     3.31737126     0.19994632
O      3.86584742     4.44207602     3.34703436
O      1.91446106     5.74766916     6.46239808
O      1.91568269     5.52641062     1.76195957
O      1.91620435     3.31844873     4.82334659
O      3.42152179     4.18671806     8.26492796
O      5.74185108     3.31737126     0.19994632
O      7.65462667     4.45235117     3.33742368
O      5.62266553     5.45750773     6.65383407
O      5.74184534     5.52641062     1.76195957
O      5.79036308     3.34727026     4.97093974
O      7.65461633     4.41149759     8.13435894
O     -3.82354407     6.63092532     0.19994632
O     -1.93840982     7.72073973     3.33629694
O     -3.82464670     8.98232107     6.65712553
O     -3.82354407     8.83995473     1.76195957
O     -3.82155082     6.63150703     5.11023973
O     -1.90153372     7.74005646     8.13357309
O      0.00260710     6.63092532     0.19994632
O      1.91573080     7.72999731     3.34461966
O      0.02264569     8.85084229     6.53988482
O      0.00260710     8.83995473     1.76195957
O     -0.05177736     6.65956109     4.96892871
O      1.91617370     7.77638311     8.22109667
O      3.82876976     6.63092532     0.19994632
O      5.77013353     7.72002454     3.33749602
O      3.80845955     8.85235343     6.53832093
O      3.82876976     8.83995473     1.76195957
O      3.88185254     6.65715527     4.96925880
O      5.73114853     7.74116032     8.13465110
Ce     1.91568843     1.10834185     0.98096435
Ce     0.03068637     2.22907223     4.17385907
Ce    11.41583476     0.03356685     7.30945604
Ce     5.74185108     1.10834185     0.98096435
Ce     3.80100767     2.22870935     4.17177114
Ce     3.89314923     0.03428409     7.30949351
Ce     9.56800226     1.10834185     0.98096435
Ce     7.65462321     2.20893185     4.13023997
Ce     7.65441611     0.00347073     7.36904096
Ce     0.00261284     4.42188597     0.98096435
Ce    -1.90850461     5.52520031     4.16185537
Ce     9.56115222     3.24531335     7.30875969
Ce     3.82877550     4.42188597     0.98096435
Ce     1.91572048     5.49481032     4.17067878
Ce     7.65492667     4.42188597     0.98096435
Ce     5.74056624     5.52514363     4.16201181
Ce     5.74632922     3.24770948     7.30809626
Ce    -1.91046848     7.73544003     0.98096435
Ce    -3.82325770     8.84259012     4.16246011
Ce    -3.82395478     6.63068293     7.39977857
Ce     1.91569417     7.73544003     0.98096435
Ce     0.00459229     8.84149840     4.12977966
Ce     0.06121234     6.67269461     7.30864320
Ce     5.74184534     7.73544003     0.98096435
Ce     3.82615989     8.84134319     4.13011638
Ce     3.77080911     6.67030426     7.30828871
Mn     1.92437258     3.31761060     8.05887714
