    41
 Tv_1:   7.865150   0.000000   0.000000 Tv_2:  -3.932575   6.811420   0.000000 Tv_3:   0.000000   0.000000  23.027330
Pd      1.96667289      4.16025168      6.63654559
Ce      3.93257893      2.27047096      0.80273272
Ce     -0.00361404      4.53237997      3.97378028
Ce     -3.86411673      6.80606593      7.16435502
Ce      1.96629143      5.67618082      0.80273272
Ce      1.96575267      1.14110352      4.01142997
Ce     -1.96107291      3.41312068      7.19272469
Ce     -1.96628357      5.67618082      0.80273272
Ce      5.89999508      1.12155475      3.99828136
Ce      0.00000393      2.27047096      0.80273272
Ce      3.93969689      4.52807516      3.97104003
Ce      3.85454485      0.01834996      7.16548336
O       3.93257107      4.54094874      1.60546545
O      -0.00839605      6.79502462      4.81653451
O      -0.27076959      2.08250303      8.35581210
O      -1.96628750      3.40570985      0.00000000
O       1.96574480      5.70118554      3.17314305
O       1.96888300      1.06241800      6.40848291
O       5.89885857      1.13523889      1.60546545
O       1.96621278      3.41638335      4.61905212
O      -1.96702682      5.67746817      8.01102389
O       0.00000000      0.00000000      0.00000000
O       3.95743674      2.25602394      3.18723577
O      -0.03058364      4.51498361      6.47749582
O       1.96628357      1.13523889      1.60546545
O      -1.96154875      3.41557960      4.81929779
O       1.96796278      6.17704494      8.58808878
O       3.93257500      0.00000000      0.00000000
O      -0.02229377      2.25259780      3.18820292
O       3.97181423      4.47773195      6.47091000
O      -0.00000393      4.54094874      1.60546545
O       3.94060139      6.78198756      4.81913660
O       4.31610724      2.04976734      8.50369361
O       1.96628750      3.40570985      0.00000000
O      -1.96476559      5.67039111      3.18272242
O       5.89620015      1.13376762      6.37635979
H       0.56701833      2.51686726      8.59960244
H       4.76119215      1.75689673      9.32272969
H       1.06921995      4.36997529      9.05020124
H       2.88942016      4.34286584      9.00412355
C       1.97623691      4.80662817      8.58212470
