81
CIF: Co-CeO2.cif | data_image0
O      0.42318991     0.48660209     0.25000008
O      2.34509168     1.63180939     3.41349143
O      0.34056827     2.64834609     6.58488976
O      0.42318991     2.69561835     1.81203579
O      0.44043902     0.48042706     5.00797700
O      2.37400245     1.08350127     8.43442228
O      4.24943310     0.48660209     0.25000008
O      6.16934443     1.58321977     3.38907174
O      4.13124476     2.79785430     6.65384457
O      4.24943310     2.69561835     1.81203579
O      4.26354920     0.54121443     5.06674846
O      6.17618290     1.65179741     8.18928026
O      8.07556151     0.48660209     0.25000008
O      9.98986736     1.59170701     3.41499860
O      8.12330395     2.69598235     6.58264206
O      8.07556151     2.69561835     1.81203579
O      8.06126406     0.47783617     5.05141836
O      9.95512987     1.57307035     8.28639344
O     -1.48987429     3.80012648     0.25000008
O      0.46419832     4.89113197     3.41329943
O     -1.55038699     6.04333205     6.50783886
O     -1.48993168     6.00924216     1.81203579
O     -1.48753525     3.81812553     5.00765783
O      0.00274890     5.19360196     8.43352517
O      2.33636890     3.80012648     0.25000008
O      4.24622371     4.90205829     3.38904257
O      2.36990375     5.85781693     6.65290590
O      2.33631151     6.00924216     1.81203579
O      2.42803040     3.85284948     5.13799382
O      4.19538366     4.87300887     8.09667183
O      6.16249730     3.80012648     0.25000008
O      8.05889777     4.89011177     3.39327861
O      6.15315659     6.00332208     6.59318271
O      6.16243991     6.00924216     1.81203579
O      6.15523397     3.76162444     5.06034145
O      8.04585382     4.89689848     8.23118940
O     -3.40299589     7.11375029     0.25000008
O     -1.46978578     8.22954268     3.42178929
O     -3.40346093     9.25461225     6.50863381
O     -3.40299589     9.32276655     1.81203579
O     -3.43786235     7.09408812     4.97740295
O     -1.54509928     8.18722938     8.26348492
O      0.42324730     7.11375029     0.25000008
O      2.33360845     8.22823320     3.38896141
O      0.39218068     9.30573812     6.65258403
O      0.42324730     9.32276655     1.81203579
O      0.47944168     7.09778516     5.06708381
O      2.39629296     8.19989165     8.18924703
O      4.24937571     7.11375029     0.25000008
O      6.14178396     8.21185215     3.39273965
O      4.27512795     9.36233012     6.58350195
O      4.24937571     9.32276655     1.81203579
O      4.21412331     7.12667766     5.05930348
O      6.14235310     8.19447652     8.23210548
Ce     2.33625411     1.59111022     1.03101793
Ce     0.41097595     2.68847413     4.29295011
Ce     0.47528597     0.55095403     7.45718756
Ce     6.16249730     1.59111022     1.03101793
Ce     4.27274791     2.66829287     4.16976429
Ce     4.17715588     0.42852729     7.49427174
Ce     9.98862571     1.59111022     1.03101793
Ce     8.09146430     2.69525751     4.20970251
Ce     8.09730908     0.49876566     7.42644510
Ce     0.42318991     4.90463462     1.03101793
Ce    -1.48952806     6.00603159     4.21041353
Ce    -1.40823002     3.81304320     7.45682561
Ce     4.24943310     4.90463462     1.03101793
Ce     2.32555220     6.04280557     4.16941572
Ce     8.07556151     4.90463462     1.03101793
Ce     6.15877214     6.00696901     4.21042986
Ce     6.29251884     3.76729928     7.41005189
Ce    -1.48993168     8.21825842     1.03101793
Ce    -3.40537911     9.32429035     4.21045593
Ce    -3.41732141     7.10529727     7.38943383
Ce     2.33631151     8.21825842     1.03101793
Ce     0.42027151     9.32060301     4.25929487
Ce     0.33705813     7.08129988     7.49375314
Ce     6.16243991     8.21825842     1.03101793
Ce     4.25779621     9.33642124     4.20968876
Ce     4.28684639     7.24218434     7.41030949
Co     3.17261072     4.28267651     6.78929836
