83
CIF: W-CeO2-Ov+CO2.cif | data_image0
O      0.55978923     0.45000431     0.59999690
O      2.54411716     1.57408240     3.79001046
O      0.66090095     2.74685726     7.05743419
O      0.55978923     2.65902057     2.16203261
O      0.56680272     0.36092668     5.41556401
O      2.51770513     2.11374862     8.73759168
O      4.38603242     0.45000431     0.59999690
O      6.29854304     1.54107866     3.73623893
O      4.18954278     2.56082059     6.88500260
O      4.38603242     2.65902057     2.16203261
O      4.43147090     0.42127875     5.35772220
O      6.25557141     1.43239772     8.60503084
O      8.21216082     0.45000431     0.59999690
O     10.05827366     1.51630072     3.76585619
O      8.18944427     2.62263565     6.91772894
O      8.21216082     2.65902057     2.16203261
O      8.17884018     0.42218562     5.40061009
O      9.97850549     1.66213350     8.65358170
O     -1.35327498     3.76352871     0.59999690
O      0.57014661     4.94130880     3.74069036
O     -1.28033278     5.96711093     7.03292975
O     -1.35333237     5.97264438     2.16203261
O     -1.43074557     3.80212500     5.43652551
O      1.25110465     4.93403882     8.27526788
O      2.47296821     3.76352871     0.59999690
O      4.35717835     4.84921565     3.74160880
O      3.84736269     4.72151281     8.29389559
O      2.47291082     5.97264438     2.16203261
O      2.50705237     4.04368698     5.75139797
O      4.13482877     6.44939067    10.76594212
O      6.29909662     3.76352871     0.59999690
O      8.20617066     4.89136013     3.76772536
O      6.33602099     5.98192581     6.95543340
O      6.29903923     5.97264438     2.16203261
O      6.25872140     3.74032223     5.35948380
O      8.30827983     4.86975616     8.62518378
O     -3.26639657     7.07715251     0.59999690
O     -1.31068773     8.13927635     3.78447905
O     -3.16911838     9.36358457     7.02675199
O     -3.26639657     9.28616878     2.16203261
O     -3.23218307     7.09577828     5.43534665
O     -1.32073569     8.18892770     8.68522482
O      0.55984662     7.07715251     0.59999690
O      2.47178509     8.19243159     3.71602393
O      0.50993993     9.28135219     6.92493979
O      0.55984662     9.28616878     2.16203261
O      0.72532190     7.01924013     5.52743658
O      2.32622636     8.10091439     8.56258386
O      4.38597502     7.07715251     0.59999690
O      6.27707931     8.13760286     3.78996113
O      4.33705113     9.33588961     7.01912307
O      4.38597502     9.28616878     2.16203261
O      4.24783421     7.02068075     5.47209701
O      6.45857736     8.11909984     8.72186764
O      2.09419336     5.46887811    11.40413828
Ce     2.47285343     1.55451244     1.38101475
Ce     0.54208431     2.65196971     4.60297916
Ce     0.53405444     0.47953442     7.87910203
Ce     6.29909662     1.55451244     1.38101475
Ce     4.41102762     2.63223267     4.54690266
Ce     4.43249014     0.43817280     7.74568098
Ce    10.12522502     1.55451244     1.38101475
Ce     8.20216522     2.65276320     4.54493909
Ce     8.18693506     0.45048598     7.76002274
Ce     0.55978923     4.86803684     1.38101475
Ce    -1.34405292     5.96277559     4.58978079
Ce    -1.46097347     3.70917145     7.73896256
Ce     4.38603242     4.86803684     1.38101475
Ce     2.48221002     6.01191943     4.44044967
Ce     8.21216082     4.86803684     1.38101475
Ce     6.28735769     5.96647384     4.61445520
Ce     6.25760318     3.73221787     7.77805714
Ce    -1.35333237     8.18166064     1.38101475
Ce    -3.27003435     9.29267318     4.60713760
Ce    -3.26729863     7.07156782     7.82111939
Ce     2.47291082     8.18166064     1.38101475
Ce     0.57238598     9.27623850     4.55100997
Ce     0.47771005     7.18107821     7.83043004
Ce     6.29903923     8.18166064     1.38101475
Ce     4.39281127     9.28897109     4.61252124
Ce     4.49018299     7.15376953     7.91970578
W      2.46359146     3.61688043     7.65446307
C      3.10756336     5.95337034    11.07133507
