83
CIF: Re-Y-CeO2-O.cif | data_image0
Ce     1.93596140     1.11772783     0.89035214
Ce    -0.00649747     2.23400054     4.04166370
Ce    11.60941790     0.00417698     7.21525715
Ce     5.80789581     1.11772783     0.89035214
Ce     3.87010061     2.22086641     4.00917388
Ce    -2.07532887     9.98906060     7.15103155
Ce     9.67981860     1.11772783     0.89035214
Ce     7.74468978     2.23598755     4.10288874
Ce     2.06111109    10.00247432     7.27361601
Ce     0.00000000     4.47091133     0.89035214
Ce    -1.94866926     5.58202443     4.07235451
Ce    -1.82187561     3.27435266     7.27389980
Ce     3.87193441     4.47091133     0.89035214
Ce     1.94531332     5.58399482     4.03227164
Ce     1.95929007     3.37364100     7.19240228
Ce     7.74385721     4.47091133     0.89035214
Ce     5.81983129     5.59791050     4.00942090
Ce    -1.93596721     7.82410489     0.89035214
Ce    -3.88598410     8.95069322     3.97240694
Ce    -3.87965586     6.86479080     7.14883814
Ce     1.93596721     7.82410489     0.89035214
Ce    -0.00040266     8.95724334     4.07261999
Ce     0.02518333     6.69327489     7.23733358
Ce     5.80789000     7.82410489     0.89035214
Ce     3.87062323     8.94942722     4.04157779
Ce     3.86662082     6.67735384     7.19282207
Y      5.64932157     3.44425967     6.94057174
O      0.00000000     0.00000000     0.09999685
O      1.93052544     1.12329511     3.20896232
O      0.09284617     2.22477265     6.37515770
O      0.00000000     2.23545567     1.68070743
O     11.61095688     0.00346834     4.81808049
O      1.96155816     1.07605014     8.00633662
O      3.87192279     0.00000000     0.09999685
O      5.80513096     1.10330419     3.25021987
O      3.99636337     2.10780705     6.47465424
O      3.87192279     2.23545567     1.68070743
O     -1.97632750    10.03832249     4.81215273
O      6.41910313     1.19685447     9.18487137
O      7.74385721     0.00000000     0.09999685
O      9.67791898     1.11928182     3.23545900
O      7.57958224     2.33434014     6.52853671
O      7.74385721     2.23545567     1.68070743
O      7.75892516     0.00926033     4.83774491
O      9.87324839     1.00587913     8.08771849
O     -1.93596140     3.35318350     0.09999685
O      0.00817914     4.48739532     3.26126937
O     -2.08816791     5.58797643     6.52097620
O     -1.93596721     5.58864923     1.68070743
O      9.68152869     3.33647365     4.83619794
O      0.15470743     4.55153193     8.01224749
O      1.93596140     3.35318350     0.09999685
O      3.85298570     4.48232429     3.20090201
O      1.92388731     5.59739821     6.31039616
O      1.93595559     5.58864923     1.68070743
O      2.00720971     3.32697811     4.85907006
O      5.80789581     3.35318350     0.09999685
O      7.75535516     4.48111259     3.25057391
O      5.98277025     5.54437082     6.47609765
O      5.80789000     5.58864923     1.68070743
O      5.74781949     3.38798366     4.73847584
O      8.02062652     3.87485360     9.21649403
O     -3.87192860     6.70637706     0.09999685
O     -1.92529008     7.81828416     3.22330542
O     -3.89142405     8.95441573     6.34234608
O     -3.87192860     8.94183273     1.68070743
O     -3.87329062     6.75296974     4.81211608
O     -2.02031405     7.87389906     8.03255666
O     -0.00000581     6.70637706     0.09999685
O      1.92670454     7.80976426     3.26188036
O     -0.07499438     9.07422190     6.51998393
O     -0.00000581     8.94183273     1.68070743
O     -0.06232455     6.74268100     4.92507644
O      3.87192860     6.70637706     0.09999685
O      5.80097248     7.82649828     3.20901130
O      3.92755837     8.86799364     6.37437140
O      3.87192860     8.94183273     1.68070743
O      3.93207579     6.65832892     4.85932715
O      5.85699868     7.82414379     8.00567976
O      1.94369408     7.65321352     8.01324862
O      3.81053979     4.50694228     7.88161439
O      5.64710510     3.46143889    10.97020430
Re     6.76274339     2.80311509     9.84894821
