    86
 Tv_1:  11.598200   0.000000   0.000000 Tv_2:  -5.799100  10.044336   0.000000 Tv_3:   0.000000   0.000000  22.891600
Ce      2.14531905      1.20773094      3.19108904
Ce      0.15539268      2.34886794      9.69802634
Ce      0.21726328      0.09368352      6.41903356
Ce      6.01134706      1.20773094      3.19108904
Ce      4.08072229      0.13816988      6.42459621
Ce      9.87749105      1.20773094      3.19108904
Ce      7.95406296      2.30596858      9.66160580
Ce      7.94058005      0.07286161      6.42738899
Ce      0.21230505      4.55580941      3.19108904
Ce     -1.73056742      5.62068980      9.75816257
Ce     -1.72178179      3.43513272      6.41521066
Ce      4.07833306      4.55580941      3.19108904
Ce      2.16011836      3.40038937      6.47811678
Ce      7.94447705      4.55580941      3.19108904
Ce      6.13809799      5.58656919      9.64333831
Ce      6.01972096      3.43409816      6.42844200
Ce     -1.72076694      7.90398831      3.19108904
Ce     -3.67708173      9.00952818      9.70077333
Ce     -3.63322314      6.80064816      6.43169261
Ce      2.14526106      7.90398831      3.19108904
Ce      0.13815196      9.21596942      9.74431316
Ce      0.15197701      6.80528864      6.39263954
Ce      6.01140505      7.90398831      3.19108904
Ce      4.15234697      9.08217886      9.67637089
Ce      4.12487083      6.78951903      6.37622626
Ga      3.37543574      2.01973514      9.75124931
O       0.21230505      2.32375710      2.40201559
O       1.94800468      1.08174484     10.66114463
O       2.11969863      1.18752174      5.60853357
O       0.17462250      2.32831722      7.22097209
O       0.20727723      0.09185545      8.81965276
O       0.21230505      0.09170479      3.98039141
O       4.07833306      2.32375710      2.40201559
O       6.38972094      1.08128280     10.73453510
O       6.03803452      1.16088416      5.58555040
O       4.11245496      2.34537251      7.02405854
O       4.02318362      0.38835420      8.97002768
O       4.07833306      0.09170479      3.98039141
O       7.94436106      2.32375710      2.40201559
O       9.88357430      1.16931136     10.47782869
O       9.88589974      1.16602686      5.59878174
O       7.96313855      2.26537942      7.18143829
O       7.96869409      0.06149142      8.80095032
O       7.94436106      0.09170479      3.98039141
O      -1.72076694      5.67193600      2.40201559
O      -0.24740700      4.32178643     10.72494352
O       0.24453645      4.58943784      5.62139865
O      -1.68693499      5.71406195      7.25814805
O      -1.78937610      3.44109906      8.77890571
O      -1.72070895      3.43978325      3.98039141
O       2.14526106      5.67193600      2.40201559
O       4.43007747      3.09115440     10.82834487
O       4.04758043      4.62564767      5.61235646
O       2.12394937      5.67951948      7.39696271
O       2.18403964      3.14123546      8.83345639
O       2.14531905      3.43978325      3.98039141
O       6.01128907      5.67193600      2.40201559
O       7.93336597      4.56898757     10.58619753
O       7.95245081      4.57596839      5.62066611
O       6.00524061      5.75035213      7.25091430
O       6.23730899      3.55492147      8.73916589
O       6.01134706      3.43978325      3.98039141
O      -3.65378095      9.02001447      2.40201559
O      -1.73962562      8.00826861     10.45578408
O      -1.72375928      7.91915526      5.58603112
O      -3.61396433      9.01589629      7.28992159
O      -3.62927395      6.73751950      8.86690102
O      -3.65378095      6.78796216      3.98039141
O       0.21224706      9.02001447      2.40201559
O       2.15164587      7.99654687     10.57953607
O       2.12676773      7.86703520      5.63208902
O       0.13420277      9.01521328      7.32597586
O       0.20545631      6.79201003      8.97840600
O       0.21224706      6.78796216      3.98039141
O       4.07827507      9.02001447      2.40201559
O       6.02491115      7.87219799     10.45809613
O       6.03091902      7.91703591      5.58790823
O       4.10001589      8.93856495      7.28520592
O       4.10976418      6.64856687      9.00706629
O       4.07827507      6.78796216      3.98039141
Au      2.14262247      6.53087738      9.19287740
H       5.18419823      2.49029218     11.06504402
H       1.39329177      5.09711875     11.13081158
H       3.18470914      4.73908840     10.75859417
H       2.73970361      6.21768495     11.79475955
C       2.43161482      5.47535831     11.05723798
