90
CIF: H+H→H2O.cif | data_VESTA_phase_1
O     -0.00101584     0.09961518     0.10145935
O      1.91799985     1.20773833     3.23575040
O     -0.00796605     2.27147653     6.45993607
O     -0.00101584     2.30864459     1.66347260
O     -0.00611802     0.10034084     4.84924605
O      1.89555945     1.04045721     8.14589943
O      3.82513533     0.09961518     0.10145935
O      5.73712046     1.19880170     3.25205962
O      3.87766652     2.34191592     6.53489008
O      3.82513533     2.30864459     1.66347260
O      3.82142205     0.11988415     4.89187814
O      5.72879858     1.16508304     8.20297032
O      7.65129798     0.09961518     0.10145935
O      9.55315911     1.20733077     3.23709619
O      7.57884591     2.34914276     6.53559719
O      7.65129798     2.30864459     1.66347260
O      7.64966804     0.12118637     4.89564181
O      9.55590820     1.05532841     8.15062113
O     -1.91409143     3.41315929     0.10145935
O     -0.00369033     4.53334045     3.25199119
O     -2.05643014     5.64343185     6.49262295
O     -1.91409717     5.62219864     1.66347260
O     -1.92035867     3.40423259     4.86343394
O     -0.00790866     4.70627780     8.16487744
O      1.91205974     3.41315929     0.10145935
O      3.82510663     4.51857860     3.25053135
O      2.03492523     5.64338215     6.48968045
O      1.91205400     5.62219864     1.66347260
O      1.91367247     3.40471969     4.85960184
O      4.12930317     4.83446239     8.64290883
O      5.73822240     3.41315929     0.10145935
O      7.64721739     4.51597415     3.25290360
O      5.73491086     5.56523876     6.47891408
O      5.73821666     5.62219864     1.66347260
O      5.73073270     3.40130011     4.88414552
O      7.61138736     4.70449843     8.67091964
O     -3.82717276     6.72671335     0.10145935
O     -1.89733287     7.82587005     3.25899389
O     -3.83620631     8.94401337     6.39905590
O     -3.82717276     8.93574276     1.66347260
O     -3.86299131     6.74881140     4.85654529
O     -1.95423736     7.86715353     8.09266065
O     -0.00102158     6.72671335     0.10145935
O      1.89384916     7.82532331     3.26325938
O     -0.00288683     8.94835743     6.46705282
O     -0.00102158     8.93574276     1.66347260
O     -0.00679525     6.69188134     4.94438701
O      1.94285646     7.85797832     8.10504653
O      3.82514107     6.72671335     0.10145935
O      5.73474442     7.83431959     3.22384352
O      3.82091125     8.94348652     6.40637794
O      3.82514107     8.93574276     1.66347260
O      3.85814740     6.74405977     4.86420948
O      5.73470425     7.86411170     8.07854119
Ce     1.91205974     1.20412988     0.88247738
Ce    -0.00398303     2.31541416     4.06033573
Ce    -0.00810954     0.10728935     7.26702605
Ce     5.73822240     1.20412988     0.88247738
Ce     3.81534420     2.30959889     4.05933208
Ce     3.80349842     0.08237810     7.30108154
Ce     9.56437357     1.20412988     0.88247738
Ce     7.65452917     2.30917144     4.06220616
Ce     7.66131868     0.08424694     7.30425214
Ce    -0.00101584     4.51767400     0.88247738
Ce    -1.92583390     5.61159198     4.08221062
Ce    -1.85446654     3.38094167     7.34136419
Ce     3.82514681     4.51767400     0.88247738
Ce     1.91809168     5.61062773     4.08522155
Ce     1.84387192     3.37887402     7.34026930
Ce     7.65129798     4.51767400     0.88247738
Ce     5.73577748     5.62310324     4.05803191
Ce     5.72815004     3.31380257     7.24916574
Ce    -1.91409717     7.83122805     0.88247738
Ce    -3.83295790     8.94761188     4.03168624
Ce    -3.84538908     6.83411205     7.22236386
Ce     1.91206548     7.83122805     0.88247738
Ce    -0.00338041     8.93762154     4.07730645
Ce    -0.00696743     6.72514273     7.28935714
Ce     5.73821666     7.83122805     0.88247738
Ce     3.82553708     8.94670729     4.03510775
Ce     3.83494368     6.83003638     7.22619596
C      3.94684723     4.82665898    10.06356786
C      2.69669891     4.05527508    10.39990287
C      2.71210301     2.80472240    10.79449489
H      3.84626718     5.84928267    10.48452836
H      4.80615382     4.34305667    10.56835550
H      1.74250560     4.58493238    10.21929245
H      7.29986756     3.17720821     9.03654283
H      2.01658265     2.00832784    11.02884592
H      7.48552599     4.92217861     9.61375257
