87
CIF: 3-NH2NO+H-NHNO+2H_fs.cif | data_image0
Ce     5.78976575    10.03762310     8.77051722
Ce     1.93469666     1.10912936     5.64588950
Ce     0.00000000     2.23543938     2.47426506
Ce     3.93880136     0.00972429     8.82803436
Ce     5.80624924     1.11509769     5.60755653
Ce     3.87189458     2.23543938     2.47426506
Ce     7.65882618     0.02262221     8.81226698
Ce     9.67954672     1.11239837     5.63317747
Ce     7.74390532     2.23543938     2.47426506
Ce     9.66523089     3.30459596     8.78343268
Ce     0.00412820     4.44235339     5.59667753
Ce    -1.93600537     5.58869904     2.47426506
Ce     1.96986904     3.30933472     8.81486038
Ce     3.86343967     4.48840423     5.63158053
Ce     1.93588921     5.58869904     2.47426506
Ce     5.81163908     3.36872650     8.73453591
Ce     7.75640947     4.48802778     5.62510186
Ce     5.80789995     5.58869904     2.47426506
Ce     7.70271085     6.72925186     8.81486448
Ce    -1.95695546     7.83237705     5.60593763
Ce    -3.87195266     8.94185811     2.47426506
Ce     1.95735580     7.82898449     5.61014061
Ce    -0.00005808     8.94185811     2.47426506
Ce     3.89307138     6.72483006     8.85120566
Ce     5.80148911     7.82705804     5.62928281
Ce     3.87195266     8.94185811     2.47426506
Fe    -0.00212380     6.68714270     8.12129614
O      5.80584261    10.05391600     6.44246852
O     -0.00986243     2.26885381     9.52641709
O      1.93594729     1.11771969     3.26466483
O      0.00247659     2.21550301     4.80444153
O      0.00000000     0.00000000     1.68386529
O      1.92252327     1.11324366     7.99009730
O     -1.95166062     9.98210815     6.46634625
O      3.87447678     2.25101004     9.53439062
O      5.80795803     1.11771969     3.26466483
O      3.85920674     2.22777329     4.84812844
O      3.87189458     0.00000000     1.68386529
O      5.79725833     1.18701880     7.86452107
O      1.94184092     9.98746754     6.45952420
O      7.73875173     2.25496503     9.51770640
O      9.67985261     1.11771969     3.26466483
O      7.75562940     2.22953915     4.84202131
O      7.74390532     0.00000000     1.68386529
O      9.69026919     1.15639082     7.95084726
O     -1.86113062     3.36492499     6.43951494
O     -2.39734715     5.31306443    10.07016436
O      0.00000000     4.47087876     3.26466483
O     -1.96633951     5.57688159     4.80299395
O     -1.93594729     3.35315907     1.68386529
O     -0.00490626     4.76847295     8.12107697
O      1.85989654     3.35074836     6.46100579
O      2.37037057     5.24860074    10.07464647
O      3.87201074     4.47087876     3.26466483
O      1.96165302     5.56890719     4.80567748
O      1.93594729     3.35315907     1.68386529
O      3.80232988     4.48189050     7.92135107
O      5.81872904     3.40717186     6.40970026
O      5.84823281     5.51077353     9.41151286
O      7.74390532     4.47087876     3.26466483
O      5.81192737     5.61283217     4.82761415
O      5.80795803     3.35315907     1.68386529
O      7.84263987     4.49462030     7.93338520
O     -3.85205782     6.76216873     6.46179180
O     -3.79725135     8.89685687     9.46419763
O     -1.93600537     7.82413842     3.26466483
O     -3.88129653     8.94913957     4.80920158
O     -3.87195266     6.70641873     1.68386529
O     -1.68684525     7.59270948     8.09178269
O     -0.00310031     6.69523233     6.19126461
O     -0.02035298     9.43947664     9.76300906
O      1.93600537     7.82413842     3.26466483
O     -0.00282792     8.96994562     4.80124479
O     -0.00005808     6.70641873     1.68386529
O      1.67368580     7.59257151     8.08649381
O      3.84817809     6.75894469     6.44011159
O      3.76569375     8.99000211     9.37487387
O      5.80789995     7.82413842     3.26466483
O      3.87867896     8.95292031     4.80778509
O      3.87195266     6.70641873     1.68386529
O      5.80542347     7.83756356     7.98955269
O      5.46422987     7.70268056    11.43980855
H     -1.80030142     5.65855010    10.75812934
H      4.16394120     6.77401915    13.15597962
H      2.53384634     5.45712443    11.03041897
N      3.71806876     6.51797347    12.24669940
N      4.39737752     7.01030038    11.29464487
