84
CIF: CO+Olatt—CO2.cif | data_image0
Ce     1.93596140     1.11772783     0.89035214
Ce    -0.00041851     2.22979008     4.06731753
Ce    -5.60771223     9.93554887     7.16889458
Ce     5.80789581     1.11772783     0.89035214
Ce     3.84471195     2.21168107     4.03119017
Ce    -1.89934307    10.03211127     7.21379955
Ce     9.67981860     1.11772783     0.89035214
Ce     7.74801783     2.22924149     4.01667607
Ce     7.72142326     0.03714706     7.24627680
Ce     0.00000000     4.47091133     0.89035214
Ce    -1.92283513     5.56996754     4.03538919
Ce     9.63179334     3.36970664     7.23495682
Ce     3.87193441     4.47091133     0.89035214
Ce     1.94607587     5.57215620     4.08294401
Ce     1.93191065     3.29654875     7.33160943
Ce     7.74385721     4.47091133     0.89035214
Ce     5.81747694     5.61816368     3.99637298
Ce    -1.93596721     7.82410489     0.89035214
Ce    -3.83598165     8.92099579     4.00270961
Ce    -3.84388360     6.67247211     7.18533596
Ce     1.93596721     7.82410489     0.89035214
Ce     0.02507548     8.93713193     4.04854400
Ce     0.02653668     6.68046982     7.24485108
Ce     5.80789000     7.82410489     0.89035214
Ce     3.87563110     8.95584337     4.05574400
Ce     3.90353727     6.73892760     7.23447339
Y      5.69750482     3.43709643     6.83833008
O      0.00000000     0.00000000     0.09999685
O      1.93417932     1.10582192     3.22206310
O     -0.16808881     2.05442099     6.61642029
O      0.00000000     2.23545567     1.68070743
O     -5.74628513    10.02583419     4.85458716
O      2.02422167     0.90725255     8.05592316
O      3.87192279     0.00000000     0.09999685
O      5.80861666     1.07048556     3.23469920
O      3.92806717     2.17733492     6.36560116
O      3.87192279     2.23545567     1.68070743
O     -1.93184540    10.02424917     4.84284163
O      5.90428386     1.10969768     8.25684570
O      7.74385721     0.00000000     0.09999685
O      9.70361362     1.10155335     3.24377195
O      7.67742317     2.27160107     6.23326105
O      7.74385721     2.23545567     1.68070743
O      1.96766636    10.00993190     4.85864448
O      8.80433130     1.62056058     8.52813081
O     -1.93596140     3.35318350     0.09999685
O      0.01606961     4.48028580     3.23935476
O     -2.02521716     5.55886861     6.40203750
O     -1.93596721     5.58864923     1.68070743
O     -1.87619217     3.34942574     4.84893043
O     -0.09447467     4.55920809     7.99900492
O      1.93596140     3.35318350     0.09999685
O      3.81675983     4.50752010     3.24802462
O      2.08198803     5.56650002     6.47953978
O      1.93595559     5.58864923     1.68070743
O      1.86453562     3.30097139     4.88702786
O      5.80789581     3.35318350     0.09999685
O      7.78093163     4.48324527     3.22231184
O      5.84327281     5.61045202     6.32430904
O      5.80789000     5.58864923     1.68070743
O      5.76453262     3.38388030     4.63262254
O      7.76019285     4.41285679     8.20742975
O     -3.87192860     6.70637706     0.09999685
O     -1.89668723     7.80878727     3.22872143
O     -3.80847656     8.87019730     6.37222760
O     -3.87192860     8.94183273     1.68070743
O     -3.85327745     6.71234108     4.80558524
O     -1.90053562     7.78657254     7.98399437
O     -0.00000581     6.70637706     0.09999685
O      1.94043722     7.80398396     3.24626859
O      0.01409437     9.00813250     6.45183898
O     -0.00000581     8.94183273     1.68070743
O      0.02592713     6.68626090     4.93222604
O      3.87192860     6.70637706     0.09999685
O      5.80569086     7.83408167     3.21505499
O      3.94056220     9.10436073     6.57223406
O      3.87192860     8.94183273     1.68070743
O      3.88739570     6.79658528     4.90860912
O      5.88828599     7.76827426     8.00440492
O      4.20951826     4.42278907     8.25000025
O      1.97124436     7.81301584     7.99109363
O      4.78209068     3.93084759    10.63622965
Rh     6.94168302     2.71048097     9.04182562
C      5.28010813     3.69519040     9.59144190
