81
CIF: Fe-Mo-CeO2-Ov.cif | data_image0
Ce     1.93596140     1.11772783     0.89035214
Ce    -0.00291954     2.24545096     4.05013243
Ce    -5.79590946    10.05673697     7.22338142
Ce     5.80789581     1.11772783     0.89035214
Ce     3.83413576     2.20856329     3.97065224
Ce    -2.05792871     9.95259933     7.24140751
Ce     9.67981860     1.11772783     0.89035214
Ce     7.79103289     2.23081008     4.03174252
Ce     2.04550604    10.03688568     7.32643188
Ce     0.00000000     4.47091133     0.89035214
Ce    -1.94103486     5.57216258     4.10399320
Ce    -1.81448010     3.40649105     7.35424716
Ce     3.87193441     4.47091133     0.89035214
Ce     1.95722712     5.59389044     4.08418652
Ce     1.82538992     3.31482580     7.22810866
Ce     7.74385721     4.47091133     0.89035214
Ce     5.80179980     5.61248513     3.95177161
Ce    -1.93596721     7.82410489     0.89035214
Ce    -3.89035511     8.92963325     4.05062008
Ce    -3.77001408     6.75497358     7.38879450
Ce     1.93596721     7.82410489     0.89035214
Ce     0.01144446     8.97193775     4.10068890
Ce     0.05170269     6.72059831     7.27837346
Ce     5.80789000     7.82410489     0.89035214
Ce     3.87328749     8.95057918     4.04749046
Ce     3.84023915     6.84799371     7.26974678
Mo     5.74538725     3.13846270     6.83908887
O      0.00000000     0.00000000     0.09999685
O      1.93283340     1.09358793     3.21524436
O      0.05478717     2.18912052     6.39524381
O      0.00000000     2.23545567     1.68070743
O     -5.76826188    10.03121247     4.86185769
O      1.99009828     0.97932493     8.04872404
O      3.87192279     0.00000000     0.09999685
O      5.72935298     1.08380208     3.23794915
O      4.08658257     2.29172851     6.55481590
O      3.87192279     2.23545567     1.68070743
O      3.81522631     0.05942166     4.90104980
O      5.79778065     1.98768526     8.47236551
O      7.74385721     0.00000000     0.09999685
O      9.75923735     1.07427840     3.23374761
O      7.48292818     2.46329054     6.55347722
O      7.74385721     2.23545567     1.68070743
O      1.93412097    10.01360343     4.90121733
O      9.85036085     1.05286552     8.10292135
O     -1.93596140     3.35318350     0.09999685
O      0.01492173     4.50579791     3.27002919
O     -1.94891284     5.70489924     6.45874789
O     -1.93596721     5.58864923     1.68070743
O     -1.87567466     3.39871604     4.89319997
O      0.06136439     4.62224062     8.12787940
O      1.93596140     3.35318350     0.09999685
O      3.87783598     4.46554685     3.21415628
O      2.00337712     5.57061756     6.43023084
O      1.93595559     5.58864923     1.68070743
O      1.99393714     3.31063510     4.82596104
O      5.80789581     3.35318350     0.09999685
O      7.74232944     4.56422220     3.22418205
O      5.40393942     4.91273797     7.01407585
O      5.80789000     5.58864923     1.68070743
O      5.74968624     3.38589680     4.88290637
O      8.01099181     4.71644999     8.61858107
O     -3.87192860     6.70637706     0.09999685
O     -1.97839119     7.80458539     3.31990664
O     -3.81286252     8.89369968     6.39772234
O     -3.87192860     8.94183273     1.68070743
O      7.53296610     6.59757716     5.05264636
O     -1.97713012     7.86983947     8.16766577
O     -0.00000581     6.70637706     0.09999685
O      1.94722645     7.81445522     3.26156415
O     -0.10506189     9.09162074     6.54207712
O     -0.00000581     8.94183273     1.68070743
O      0.03826308     6.76105944     4.92760110
O      3.87192860     6.70637706     0.09999685
O      5.83290922     7.82458907     3.20758518
O      3.92521395     8.96405753     6.41079327
O      3.87192860     8.94183273     1.68070743
O      3.98258921     6.68586315     4.85985176
O      5.96880347     7.78004474     8.01831131
O      1.84209846     7.80153088     8.13360261
Fe     6.94238490     3.33843439     8.98561893
