86
CIF: 3-NH2NO+H-NHNO+2H_ts.cif | data_image0
Ce    -4.58712355     9.31228411     8.18579242
Ce     3.14226597     0.35484143     5.02307215
Ce     1.19526581     1.50793071     1.85426733
Ce    -0.78066568     9.31221351     8.36083111
Ce     6.97312287     0.36225804     5.11462372
Ce     5.05821623     1.48076985     1.91060994
Ce     3.21827547     9.46462185     8.14501780
Ce    10.89140943     0.38238398     4.98358347
Ce     8.92964618     1.48459249     1.88930968
Ce    -0.66560171     2.59093210     8.22026402
Ce     1.19350210     3.70141210     5.14299168
Ce    -0.74567627     4.83654441     1.91198415
Ce     3.10708673     2.41996229     8.24993192
Ce     5.04565978     3.71143860     5.10534660
Ce     3.11036274     4.84449148     1.96603641
Ce     6.96169214     2.57623726     8.29685326
Ce     8.93805791     3.73902336     5.08707916
Ce     6.99671899     4.83915990     1.91083897
Ce    -2.72324716     6.00831799     8.23639099
Ce    -0.78768762     7.13449959     4.96661781
Ce    -2.70851414     8.20348510     1.80937647
Ce     3.15292874     7.10834394     5.02364629
Ce     1.18922559     8.18829514     1.91221318
Ce     5.16654690     6.04912974     8.17728259
Ce     7.01658330     7.09881203     4.98357949
Ce     5.04265105     8.17139505     1.85472540
Cr     1.06938896     6.80191719     7.59875594
O     -4.63788209     9.29029857     5.76046885
O      1.14532639     1.36320013     9.05800486
O      3.10112818     0.38055383     2.65566078
O      1.17526302     1.51081761     4.21036914
O     -4.60822014     9.30007968     1.06409659
O      2.95916889     0.36482296     7.30350205
O     -0.77164232     9.29979519     5.69368840
O      4.93749724     1.63427455     9.02636310
O      6.99393120     0.31577015     2.70352909
O      5.07691082     1.50557308     4.22492000
O     -0.75740823     9.32814590     1.11356815
O      7.20703241     0.32065909     7.37032695
O      3.18993313     9.27464017     5.82479981
O      9.09931051     1.43525205     9.02714969
O     10.87372453     0.36224540     2.61993132
O      8.93176250     1.49712247     4.23154530
O      3.11994578     9.27885397     1.11562947
O     10.91980878     0.37863890     7.32894438
O     -0.73584564     2.59874016     5.83514714
O     -1.14223966     4.66611595     9.50759512
O      1.18986446     3.73964805     2.71795830
O     -0.72965349     4.88040880     4.27127675
O     -0.72488399     2.61901108     1.11562947
O      1.19128548     3.62744001     7.46531106
O      3.14401909     2.58189848     5.82584012
O      5.00002107     3.75322848     2.77086538
O      3.09567802     4.87026780     4.32086223
O      3.13080655     2.60402231     1.12799736
O      4.85919181     3.92274391     7.53238473
O      6.95126133     2.63959319     5.89593263
O      6.98148494     5.03238976     8.99823657
O      8.97349582     3.74568379     2.70169681
O      7.01117553     4.84743954     4.23887119
O      7.00142339     2.59738299     1.15593962
O      9.04132168     3.82140938     7.39689747
O     -2.67139606     6.03126090     5.85645079
O     -2.87688253     8.01508172     9.00675335
O     -0.76617816     7.08274754     2.63733798
O     -2.69444137     8.18063337     4.16228722
O     -2.70653946     5.95275516     1.11333912
O     -0.52143118     6.91646300     7.44896458
O      1.21796315     6.02225184     5.88250802
O      1.34140234     8.12704649     9.07090995
O      3.10711032     7.06061647     2.71818733
O      1.20442671     8.16291401     4.25049586
O      1.19143260     5.95265457     1.11906499
O      3.05827725     6.99814613     7.43469670
O      5.07009798     5.99941643     5.84752439
O      5.06887547     8.18370413     8.96579656
O      6.97122231     7.08335111     2.65634788
O      5.04886343     8.18916754     4.18805980
O      5.06065554     5.94682001     1.12822639
O      6.96111392     7.08617115     7.33198653
O      3.09116551     4.02867505    10.08150052
N      1.84999564     5.98856289    10.31759288
N      3.22279213     5.22742385     9.90992584
H     -1.08701155     4.73239700    10.46555098
H      1.28437350     5.26651700    10.53301328
H      1.60504498     7.49663635     9.77985173
