83
CIF: Mo-Cu-CeO2-O.cif | data_image0
Ce     1.93038582     1.11050507     0.88387043
Ce    -0.00025613     2.22245751     4.01748293
Ce    -5.76876804    10.03882091     7.20381357
Ce     5.81181033     1.12175166     0.90127712
Ce     3.86431435     2.22830057     4.03625084
Ce    -2.01439496    10.03738908     7.26494028
Ce     9.66901012     1.12377363     0.90450652
Ce     7.71057965     2.25308716     4.03004007
Ce     2.09317777     9.83547316     7.23993950
Ce    -0.00709724     4.47602159     0.89067279
Ce    -1.96729312     5.59178054     4.08266254
Ce    -1.66371923     3.33194121     7.23881480
Ce     3.86254305     4.47635356     0.87798423
Ce     1.92858994     5.59312895     4.05133528
Ce     1.96100398     3.34171861     7.19800716
Ce     7.74213807     4.46545905     0.90125422
Ce     5.81168770     5.59905543     4.03698329
Ce    -1.94645625     7.83004003     0.90010904
Ce    -3.86314021     8.93616897     4.03971478
Ce    -3.88989233     6.78395882     7.27243924
Ce     1.92815559     7.82745473     0.89060408
Ce    -0.01655752     8.96722109     4.08246804
Ce    -0.01363092     6.71513553     7.24035268
Ce     5.81127600     7.83258510     0.88371011
Ce     3.88347362     8.94848763     4.01809501
Ce     3.89664967     6.69184749     7.19916973
Cu     4.96117605     3.84188620     6.55766200
Mo     7.12502768     2.58324076     8.74406457
O     11.61334069     0.00154917     0.10141687
O      1.92577905     1.11642536     3.22149204
O      0.06416545     2.25728336     6.33978163
O     -0.00785227     2.23805103     1.69392277
O     11.61170574     0.00268710     4.83341529
O      1.81280237     1.16484338     8.04118658
O     -1.93899312    10.05733740     0.10496691
O      5.81379228     1.11170607     3.23719306
O      3.92861416     2.24149158     6.44374930
O      3.86763657     2.23577757     1.68132582
O     -1.93578759    10.04999091     4.82285584
O      7.02441575     0.85003007     9.21694315
O      7.73821774     0.00761509     0.10924988
O      9.67657146     1.11943219     3.21349193
O      7.39604444     2.40500266     6.94034306
O      7.74357843     2.23531483     1.71563532
O      7.78779405     0.12394025     4.91935171
O      9.73902521     1.08909636     7.84269874
O      9.67032270     3.35425987     0.10911246
O     -0.03365889     4.47260556     3.27501222
O     -1.97748414     5.43915755     6.49332894
O     -1.94403436     5.59119430     1.70564938
O      9.58916580     3.25158729     4.92319658
O      0.08857480     4.44045653     8.03911563
O      1.92738314     3.35244915     0.09928684
O      3.85666229     4.48034401     3.21216444
O      1.86006483     5.63227702     6.31857640
O      1.92862022     5.59252216     1.67404250
O      1.96298226     3.34519029     4.82676157
O      5.81155478     3.35101064     0.10766953
O      7.75224492     4.46759781     3.23680173
O      5.83583610     5.53401049     6.44583805
O      5.80528807     5.59217007     1.68114259
O      5.80623307     3.35468649     4.79365323
O      8.55070716     3.59311973     9.18615362
O     -3.87155109     6.71022987     0.10512724
O     -1.93576270     7.82404063     3.23442364
O     -3.88286538     8.94925266     6.40797825
O     -3.87509971     8.94378428     1.69355631
O     -3.86385088     6.71168459     4.82326515
O     -1.78011661     7.73292514     8.05383616
O     -0.01209783     6.71325780     0.10434852
O      1.91846227     7.85095099     3.27330462
O      0.10919318     9.05629563     6.49747388
O     -0.00628994     8.94736548     1.70514550
O     -0.09327431     6.76227287     4.90178039
O      2.00809125     7.76108855     8.03818978
O      3.86815347     6.71410280     0.09951587
O      5.80417332     7.83378891     3.22169847
O      3.88735038     8.87861100     6.34289986
O      3.86556896     8.94715423     1.69389986
O      3.89400392     6.68812318     4.82933991
O      5.70735587     7.90717816     8.04355162
O      3.68579609     4.58060146     7.90942834
O      5.67038353     3.38784738     9.16885473
