90
CIF: H2O.cif | data_image0
O      0.00261135     0.00382715     0.19995339
O      1.91384979     1.10216825     3.32722410
O      0.04759998     2.42518547     6.65747786
O      0.00261135     2.21285656     1.76196664
O     -0.00298693     0.09547328     5.01626465
O      1.87922415     1.20359506     8.08873162
O      3.82876252     0.00382715     0.19995339
O      5.74098496     1.09764578     3.32490372
O      3.73659964     2.25697471     6.56601649
O      3.82876252     2.21285656     1.76196664
O      3.83422490     0.02702574     4.98345454
O      5.70085937     0.97188516     8.21662206
O      7.65492518     0.00382715     0.19995339
O      9.56461147     1.10684901     3.32058918
O      7.64428258     2.19360289     6.53135178
O      7.65492518     2.21285656     1.76196664
O      7.65642229     0.00874171     4.95612746
O      9.56890566     1.12650191     8.16570768
O     -1.91046424     3.31737126     0.19995339
O      0.01321605     4.40878941     3.36147973
O     -1.83819674     5.42657806     6.58684237
O     -1.91046998     5.52641062     1.76196664
O      9.54489813     3.27733325     4.96165180
O     -0.10190721     4.27341805     9.04015252
O      1.91568694     3.31737126     0.19995339
O      3.81356842     4.42394553     3.36302214
O      2.03527065     5.50640905     6.62638349
O      1.91568120     5.52641062     1.76196664
O      1.90960206     3.24283919     4.98931640
O      4.26632001     4.78408509     8.81477606
O      5.74184959     3.31737126     0.19995339
O      7.66078032     4.43373528     3.34967610
O      5.70707603     5.58993695     6.54157001
O      5.74184385     5.52641062     1.76196664
O      5.73194120     3.30994616     4.94591094
O      7.75361524     4.47104658     8.23355241
O     -3.82354556     6.63092532     0.19995339
O     -1.91623446     7.73711015     3.35354255
O     -3.84608748     8.86322583     6.51705681
O     -3.82354556     8.83995473     1.76196664
O     -3.78077672     6.61752855     5.01624725
O     -2.01912761     7.79204544     8.20432395
O      0.00260561     6.63092532     0.19995339
O      1.92311255     7.73424094     3.34728891
O      0.00376518     8.85180259     6.49608076
O      0.00260561     8.83995473     1.76196664
O      0.02450831     6.61843186     4.95314741
O      2.01229397     7.87694182     8.21368320
O      3.82876826     6.63092532     0.19995339
O      5.76335186     7.75634928     3.37108970
O      3.84724721     8.86995846     6.50504133
O      3.82876826     8.83995473     1.76196664
O      3.82887277     6.66214248     4.96099891
O      5.75635139     7.82569454     8.19502496
Ce     1.91568694     1.10834185     0.98097142
Ce    -0.02367863     2.22242263     4.11264152
Ce     5.70300954     9.93601850     7.35502451
Ce     5.74184959     1.10834185     0.98097142
Ce     3.85956987     2.21470650     4.12404693
Ce    -1.87734657     9.90064031     7.35776582
Ce     9.56800076     1.10834185     0.98097142
Ce     7.62964841     2.21335815     4.13745874
Ce     7.63329050     0.00372746     7.34690152
Ce     0.00261135     4.42188597     0.98097142
Ce    -1.89379091     5.52284628     4.17601879
Ce     9.41729672     3.27968435     7.29838542
Ce     3.82877400     4.42188597     0.98097142
Ce     1.93517349     5.52945282     4.24158599
Ce     7.65492518     4.42188597     0.98097142
Ce     5.74370546     5.52694556     4.18753453
Ce     5.72573872     3.32742682     7.45086207
Ce    -1.91046998     7.73544003     0.98097142
Ce    -3.81379268     8.85181063     4.16360982
Ce    -3.81743151     6.64744617     7.36789299
Ce     1.91569268     7.73544003     0.98097142
Ce     0.01144612     8.82724100     4.14526145
Ce     0.08070036     6.68564769     7.37202877
Ce     5.74184385     7.73544003     0.98097142
Ce     3.82433622     8.84847752     4.14393343
Ce     3.81534704     6.70193135     7.36990120
Mn     1.91910646     2.54981851     6.77310615
C      3.26713131     7.09590845    11.14606026
C      3.16437245     5.89363827    10.62323082
C      4.05891346     4.79343223    10.20999493
H      2.41508682     7.77547014    11.23348028
H      4.23996577     7.48416696    11.48943694
H     -0.13606065     4.37664919    10.00931089
H      0.61379099     3.62259757     8.86819889
H      3.66085264     3.81669180    10.55875026
H      5.02805621     4.94317677    10.75126293
