81
CIF: Co-Fe-CeO2-Ov.cif | data_image0
Ce     1.93038582     1.11050507     0.88387043
Ce    -0.00262683     2.23356104     4.02678744
Ce    -5.78573399    10.05451518     7.20534998
Ce     5.81181033     1.12175166     0.90127712
Ce     3.83221804     2.21922685     4.01530356
Ce    -1.96831065    10.02883564     7.33899647
Ce     9.66901012     1.12377363     0.90450652
Ce     7.73566444     2.24031319     4.02693277
Ce     1.96495642    10.02499540     7.22681097
Ce    -0.00709724     4.47602159     0.89067279
Ce    -1.96276611     5.58392687     4.07671295
Ce    -1.86513178     3.36286529     7.20822736
Ce     3.86254305     4.47635356     0.87798423
Ce     1.93374577     5.58523735     4.07323667
Ce     1.82374800     3.26355196     7.23310821
Ce     7.74213807     4.46545905     0.90125422
Ce     5.79378087     5.61928738     3.99462189
Ce    -1.94645625     7.83004003     0.90010904
Ce    -3.87310414     8.93074515     4.09784749
Ce     7.72618320     6.66573360     7.33770157
Ce     1.92815559     7.82745473     0.89060408
Ce    -0.01309358     8.96231587     4.09078958
Ce    -0.02715753     6.70971085     7.26420728
Ce     5.81127600     7.83258510     0.88371011
Ce     3.86994641     8.96844441     4.00358863
Ce     3.85584254     6.88931955     7.14244174
Fe     5.64990653     3.42150627     6.54624642
Co     6.98604883     2.71468459     8.45299147
O     11.61334069     0.00154917     0.10141687
O      1.92572012     1.10749360     3.22071502
O     -0.03578928     2.22071017     6.36237997
O     -0.00785227     2.23805103     1.69392277
O     -5.80386207    10.05440230     4.83394161
O      1.78058698     1.03441589     8.09412155
O     -1.93899312    10.05733740     0.10496691
O      5.79255749     1.09004274     3.23122074
O      4.06350074     2.43572489     6.57127162
O      3.86763657     2.23577757     1.68132582
O      3.85126015     0.06201868     4.87811066
O      6.23132702     1.12173655     8.55979977
O      7.73821774     0.00761509     0.10924988
O      9.68155483     1.11895970     3.21605883
O      7.46203099     2.40585512     6.48768757
O      7.74357843     2.23531483     1.71563532
O      7.75704905     0.07058240     4.86206914
O      9.64170507     1.13455257     7.92411550
O      9.67032270     3.35425987     0.10911246
O     -0.00914795     4.48597607     3.25784156
O     -1.98045280     5.51561406     6.39089179
O     -1.94403436     5.59119430     1.70564938
O      9.63400042     3.30486533     4.85523403
O     -0.09290964     4.51340913     8.04243019
O      1.92738314     3.35244915     0.09928684
O      3.82418064     4.50600933     3.21656920
O      2.09132128     5.58295211     6.51779836
O      1.92862022     5.59252216     1.67404250
O      1.93910277     3.32871967     4.82219532
O      5.81155478     3.35101064     0.10766953
O      7.75934816     4.48793127     3.21935948
O      5.57527655     5.30603947     6.60698252
O      5.80528807     5.59217007     1.68114259
O      5.78508280     3.37301322     4.60450762
O      7.94399631     4.20177691     8.49617640
O     -3.87155109     6.71022987     0.10512724
O     -1.94175364     7.81904900     3.29767593
O     -3.89463261     8.90641724     6.42680081
O     -3.87509971     8.94378428     1.69355631
O      7.63908760     6.65437808     4.87823198
O     -1.79875724     7.71044705     8.09494972
O     -0.01209783     6.71325780     0.10434852
O      1.92144957     7.82822942     3.25956960
O      0.05993446     9.00393468     6.43809226
O     -0.00628994     8.94736548     1.70514550
O      0.02187529     6.69426005     4.92830981
O      1.98426685     7.87187058     8.04305127
O      3.86815347     6.71410280     0.09951587
O      5.80368678     7.83832164     3.20837075
O      3.85356786     8.97011396     6.34336326
O      3.86556896     8.94715423     1.69389986
O      3.90896972     6.74513669     4.83404852
O      5.65400181     7.85826350     8.02666649
