84
CIF: Cu-CeO2-O2+CO.cif | data_image0
O      0.37318325     0.57320900     0.59999690
O      2.28325647     1.70574244     3.76025114
O      0.24179332     2.73451091     6.96143295
O      0.37318325     2.78222527     2.16203261
O      0.38393059     0.56324360     5.36992672
O      2.28183388     1.17029694     8.77775383
O      4.19942644     0.57320900     0.59999690
O      6.11049401     1.67744790     3.72984509
O      4.10304128     2.85027146     6.97180386
O      4.19942644     2.78222527     2.16203261
O      4.19966393     0.61652046     5.39564814
O      6.09361584     1.71331788     8.52913684
O      8.02555485     0.57320900     0.59999690
O      9.94011725     1.67564019     3.76035173
O      8.03764653     2.77016136     6.92528171
O      8.02555485     2.78222527     2.16203261
O      8.00834768     0.56813107     5.37949873
O      9.85820030     1.61603531     8.62243980
O     -1.53988095     3.88673340     0.59999690
O      0.39550524     4.98657662     3.76835732
O     -1.45643815     6.06116434     6.97933418
O     -1.53993834     6.09584907     2.16203261
O     -1.57071385     3.90032168     5.35219658
O      2.28636224     3.88673340     0.59999690
O      4.19326051     4.99200709     3.74026544
O      2.22463261     6.00180361     7.01660253
O      2.28630485     6.09584907     2.16203261
O      2.31340038     3.92040369     5.44729827
O      4.17273671     5.00294194     8.46188988
O      6.11249065     3.88673340     0.59999690
O      8.01150207     4.98635312     3.73495182
O      6.10310890     6.10897698     6.89570275
O      6.11243325     6.09584907     2.16203261
O      6.10333596     3.86095175     5.38739125
O      7.95390683     4.99675132     8.53416998
O     -3.45300254     7.20035721     0.59999690
O     -1.53240088     8.30846525     3.75455318
O     -3.45958608     9.33350788     6.86229321
O     -3.45300254     9.40937347     2.16203261
O     -3.42070152     7.14782549     5.37596465
O     -1.54257850     8.28112910     8.57539554
O      0.37324065     7.20035721     0.59999690
O      2.28134121     8.31300765     3.73476202
O      0.33522264     9.41376955     6.94354647
O      0.37324065     9.40937347     2.16203261
O      0.39875031     7.22385274     5.39430952
O      2.25785653     8.31341198     8.53286429
O      4.19936905     7.20035721     0.59999690
O      6.10932214     8.28816475     3.75979224
O      4.19861669     9.41731291     6.92687422
O      4.19936905     9.40937347     2.16203261
O      4.15180549     7.19664958     5.39926174
O      6.09335470     8.25194252     8.56413709
O      0.07314915     5.14907563     9.12475654
O     -0.82209655     4.65503398     9.97887768
O      3.30909958     3.21606758    11.25125591
Ce     2.28624746     1.67771714     1.38101475
Ce     0.35506838     2.77300132     4.64828209
Ce     0.40126763     0.59221548     7.79897521
Ce     6.11249065     1.67771714     1.38101475
Ce     4.20212071     2.76694084     4.53175425
Ce     4.10225422     0.56806757     7.82252907
Ce     9.93861905     1.67771714     1.38101475
Ce     8.02794221     2.78111525     4.54520994
Ce     8.01288368     0.58615554     7.76065659
Ce     0.37318325     4.99124153     1.38101475
Ce    -1.53193333     6.08254123     4.56984971
Ce    -1.55997762     3.79303370     7.79042244
Ce     4.19942644     4.99124153     1.38101475
Ce     2.27386189     6.12154247     4.53256620
Ce     8.02555485     4.99124153     1.38101475
Ce     6.11401433     6.08831627     4.55446339
Ce     6.14363411     3.87262895     7.74430956
Ce    -1.53993834     8.30486534     1.38101475
Ce    -3.45085318     9.40861465     4.56151279
Ce    -3.46214120     7.17424364     7.74171693
Ce     2.28630485     8.30486534     1.38101475
Ce     0.36321453     9.42658979     4.55915762
Ce     0.33841845     7.31205570     7.74166090
Ce     6.11243325     8.30486534     1.38101475
Ce     4.20112905     9.41716594     4.56420531
Ce     4.21642945     7.26008608     7.74540195
Cu     3.06215447     4.36064252     7.11283626
C      2.40745873     3.51760557    10.61221796
