83
CIF: Sc-Cu-CeO2-Ov-O2.cif | data_image0
Ce     1.93038582     1.11050507     0.88387043
Ce    -0.01865274     2.23099095     4.02442779
Ce     5.81315954    10.04614874     7.20887743
Ce     5.81181033     1.12175166     0.90127712
Ce     3.83671147     2.20890765     4.00021638
Ce    -1.91307923    10.02767147     7.23623956
Ce     9.66901012     1.12377363     0.90450652
Ce     7.70944376     2.25905246     4.09765615
Ce     1.95558691    10.04057853     7.21015282
Ce    -0.00709724     4.47602159     0.89067279
Ce    -1.95202452     5.58861445     4.08123957
Ce    -1.89510241     3.33334745     7.24261189
Ce     3.86254305     4.47635356     0.87798423
Ce     1.93727648     5.58713082     4.05189239
Ce     1.82540106     3.26465292     7.19994788
Ce     7.74213807     4.46545905     0.90125422
Ce     5.81669818     5.63549735     4.00965311
Ce    -1.94645625     7.83004003     0.90010904
Ce    -3.86991329     8.92890197     4.08028444
Ce     7.75292422     6.68177792     7.32649922
Ce     1.92815559     7.82745473     0.89060408
Ce    -0.00267049     8.95321590     4.05047156
Ce     0.01223812     6.70618852     7.21323439
Ce     5.81127600     7.83258510     0.88371011
Ce     3.86356401     8.96323358     4.01429006
Ce     3.87246818     6.85594917     7.18093072
Cu     4.77953368     3.93026447     6.35844090
Sc     6.51548790     2.91476922     8.15384792
O     11.61334069     0.00154917     0.10141687
O      1.92588487     1.10920745     3.22084972
O      0.00099620     2.20698751     6.38346003
O     -0.00785227     2.23805103     1.69392277
O     -5.79805504    10.05121988     4.84800544
O      1.92715145     1.11781261     8.01240533
O     -1.93899312    10.05733740     0.10496691
O      5.78970705     1.11953080     3.24193951
O      3.88832296     2.25795178     6.45092732
O      3.86763657     2.23577757     1.68132582
O      3.86087606     0.01596214     4.87565132
O      6.06405494     0.94279266     8.32614542
O      7.73821774     0.00761509     0.10924988
O      9.67417884     1.12763628     3.23640648
O      7.64826916     2.27639556     6.52393981
O      7.74357843     2.23531483     1.71563532
O      7.74144126     0.04102564     4.84155623
O      9.70679134     1.09068534     7.99276154
O      9.67032270     3.35425987     0.10911246
O     -0.00946811     4.47704287     3.24878205
O     -1.90517689     5.56030388     6.43263121
O     -1.94403436     5.59119430     1.70564938
O      9.64792516     3.32914982     4.86508544
O      0.04684324     4.43755355     8.01076900
O      1.92738314     3.35244915     0.09928684
O      3.83202197     4.48912570     3.21604911
O      2.01661400     5.53789155     6.44815258
O      1.92862022     5.59252216     1.67404250
O      1.91637840     3.32977567     4.85165846
O      5.81155478     3.35101064     0.10766953
O      7.73819244     4.47621467     3.24902065
O      5.72527628     5.56128157     6.43036294
O      5.80528807     5.59217007     1.68114259
O      5.73672440     3.38806141     4.75239769
O      8.04566410     4.19090744     8.41229735
O     -3.87155109     6.71022987     0.10512724
O     -1.92978349     7.82461450     3.26414333
O     -3.83826258     8.96408852     6.44777841
O     -3.87509971     8.94378428     1.69355631
O      7.72462260     6.70457673     4.85003507
O     -1.78856053     7.89695487     8.04070265
O     -0.01209783     6.71325780     0.10434852
O      1.92156685     7.82886524     3.23381356
O      0.00309301     8.98823692     6.38534868
O     -0.00628994     8.94736548     1.70514550
O      0.02524313     6.70485700     4.89480056
O      1.94426563     7.82312278     7.97610808
O      3.86815347     6.71410280     0.09951587
O      5.80663473     7.84022348     3.21805733
O      3.86631079     8.97084297     6.35004094
O      3.86556896     8.94715423     1.69389986
O      3.86426397     6.74477438     4.83044913
O      5.68215446     7.91451569     8.03021071
O      3.84534884     4.47718163     8.09238146
O      4.88331185     3.92149499     8.91377784
