90
CIF: CH2CHCH2.cif | data_image0
O      0.00261135     0.00382715     0.19995339
O      1.92967518     1.04103276     3.33646533
O     -0.22139036     2.04014963     6.40966795
O      0.00261135     2.21285656     1.76196664
O      5.74389618     9.85430060     4.93968582
O      1.78214549     1.42225823     8.35035456
O      3.82876252     0.00382715     0.19995339
O      5.74204251     1.10234536     3.34172888
O      3.70369999     2.46613921     6.70035650
O      3.82876252     2.21285656     1.76196664
O      3.86721341     0.08088009     5.05422859
O      5.71413834     1.11153319     8.15021078
O      7.65492518     0.00382715     0.19995339
O      9.55311430     1.10248819     3.34465159
O      7.67151913     2.18911633     6.54522064
O      7.65492518     2.21285656     1.76196664
O      7.64679770     0.00144512     4.97896923
O      9.51717510     1.05344817     8.23159200
O     -1.91046424     3.31737126     0.19995339
O     -0.05009118     4.46008010     3.32569361
O     -1.86670218     5.53271459     6.56497405
O     -1.91046998     5.52641062     1.76196664
O      9.52666982     3.36401147     4.95267050
O      0.11071676     4.31830120     8.07044003
O      1.91568694     3.31737126     0.19995339
O      3.88447778     4.44650602     3.33986860
O      2.10668577     5.30524971     6.62883049
O      1.91568120     5.52641062     1.76196664
O      1.88884227     3.29744547     4.68027786
O      4.47547898     4.78386023     8.79509248
O      5.74184959     3.31737126     0.19995339
O      7.64149543     4.44985127     3.35247593
O      5.71445903     5.51301851     6.52199304
O      5.74184385     5.52641062     1.76196664
O      5.74471082     3.28794223     5.00501645
O      7.68667661     4.44316071     8.12979405
O     -3.82354556     6.63092532     0.19995339
O     -1.88563702     7.75076158     3.38391391
O     -3.79442462     8.98836855     6.62564502
O     -3.82354556     8.83995473     1.76196664
O     -3.81154185     6.67656976     5.04511570
O     -1.90194549     7.75752860     8.16167385
O      0.00260561     6.63092532     0.19995339
O      1.90554673     7.73759249     3.33457402
O      0.01371476     8.83067845     6.55389901
O      0.00260561     8.83995473     1.76196664
O      0.08845906     6.59882701     5.04494568
O      1.93083045     7.66800859     8.14565111
O      3.82876826     6.63092532     0.19995339
O      5.75685289     7.70981869     3.33388515
O      3.79535433     8.84696872     6.52649946
O      3.82876826     8.83995473     1.76196664
O      3.81162879     6.64919866     4.98369519
O      5.75084367     7.77082673     8.12588812
Ce     1.91568694     1.10834185     0.98097142
Ce    -0.00106214     2.20815756     4.14178430
Ce    11.38221959     0.01700612     7.29944245
Ce     5.74184959     1.10834185     0.98097142
Ce     3.79776002     2.25075966     4.17406148
Ce     3.88559331     0.02677344     7.33720123
Ce     9.56800076     1.10834185     0.98097142
Ce     7.64664046     2.21661656     4.14787785
Ce     1.91480492     9.93481249     7.34132621
Ce     0.00261135     4.42188597     0.98097142
Ce    -1.89808693     5.53117068     4.16454058
Ce    -1.87285854     3.28392625     7.31254698
Ce     3.82877400     4.42188597     0.98097142
Ce     1.93181937     5.47759426     4.15223668
Ce     7.65492518     4.42188597     0.98097142
Ce     5.74605588     5.53470585     4.15769142
Ce     5.78717050     3.33418777     7.35167356
Ce    -1.91046998     7.73544003     0.98097142
Ce    -3.81779195     8.85525589     4.16591100
Ce    -3.78859531     6.65672599     7.36555419
Ce     1.91569268     7.73544003     0.98097142
Ce     0.02630818     8.84842772     4.16102949
Ce     0.06422592     6.54721663     7.34716610
Ce     5.74184385     7.73544003     0.98097142
Ce     3.82287119     8.82457390     4.12864138
Ce     3.86019446     6.65041448     7.35145612
Pd     1.92150398     3.41561184     7.44635161
C      4.21890844     4.46223430    10.15399128
C      2.80978954     4.00744808    10.41956364
C      2.48452732     2.95141200    11.18052009
H      4.41448864     5.35858556    10.78029153
H      4.92808593     3.68500550    10.51024823
H      2.01543783     4.63221446     9.99570004
H      1.85875676     1.68386973     9.29254937
H      1.44235963     2.71979647    11.41628069
H      3.25115988     2.31007159    11.62672752
