89
CIF: CH2CHCHO→CH2CH+HCO.cif | data_VESTA_phase_1
O      0.00781110     0.10540063     0.08330251
O      1.92904213     1.20610807     3.25639354
O     -0.02979236     2.30156685     6.50831630
O      0.01574271     2.31584161     1.70373244
O      0.02042593     0.11333326     4.88350683
O      1.87952977     0.96589245     8.14498703
O      3.84129127     0.11103697     0.08530980
O      5.74712394     1.20006416     3.28419906
O      3.93106434     2.21296590     6.65617141
O      3.83922515     2.32370466     1.72029257
O      3.80909417     0.09475420     4.90159525
O      5.83911236     0.74907710     8.83476464
O      7.65754227     0.10492348     0.08626782
O      9.57902583     1.22473683     3.25607420
O      7.61564013     2.23354303     6.57868548
O      7.66234600     2.31676609     1.70838570
O      7.68173887     0.10062912     4.89559619
O      9.57134100     1.15975485     8.15078080
O     -1.90110355     3.42072412     0.08378152
O      0.00797179     4.52479150     3.29713239
O     -1.88635372     5.64683155     6.41737241
O     -1.90404777     5.63439581     1.71066671
O     -1.93765098     3.40006747     4.94139888
O     -0.10365054     4.62225949     8.16184370
O      1.92842229     3.42237427     0.08432896
O      3.83337687     4.52449328     3.28385691
O      1.98798405     5.63885916     6.51682447
O      1.92690714     5.62752683     1.72271045
O      1.95468502     3.38406303     4.91560065
O      3.95623662     4.95238822     8.58736623
O      5.74835214     3.41961077     0.08389557
O      7.67575285     4.51305160     3.25867455
O      5.70531364     5.66407857     6.48037392
O      5.75226056     5.62391837     1.71520592
O      5.75657646     3.42622130     4.88939184
O     -3.81633135     6.73036156     0.07944760
O     -1.89210443     7.82997553     3.27192722
O     -3.83449028     8.87795780     6.40243179
O     -3.80977140     8.93952020     1.69764214
O     -3.82968080     6.70268682     4.88275410
O     -1.92292985     7.81477629     8.08219081
O      0.01394633     6.73088842     0.08419210
O      1.91665687     7.83725208     3.26535791
O      0.01593785     9.04740599     6.52241295
O      0.00835058     8.93481828     1.71477253
O      0.04111012     6.76225114     4.94748918
O      1.96796561     7.87315768     8.10123725
O      3.83563239     6.72947685     0.08708898
O      5.75108975     7.83994600     3.23755240
O      3.85111110     8.98140013     6.41789704
O      3.82798773     8.94089201     1.70418864
O      3.84107892     6.76372236     4.87276327
O      5.73673593     7.87337638     8.09701738
O      5.08478208     2.58238999     9.87130147
O      7.79685640     4.62095727     8.14368685
Ce     1.92927744     1.21572067     0.89107679
Ce     0.02727283     2.31426105     4.10750703
Ce     0.01081271     0.09715984     7.28611811
Ce     5.74745108     1.21134679     0.90013240
Ce     3.83994255     2.32071253     4.13711455
Ce     3.70845673     0.00750518     7.22688026
Ce     9.57472141     1.21141637     0.88494087
Ce     7.65020179     2.31712395     4.10203260
Ce     7.77108724     0.06716892     7.26200783
Ce     0.01310267     4.52632236     0.90031488
Ce    -1.90528171     5.62201971     4.08487940
Ce    -1.89534710     3.44135095     7.30276949
Ce     3.83761816     4.52354892     0.90289243
Ce     1.93719184     5.61003130     4.12589197
Ce     1.87849671     3.34576174     7.46896392
Ce     7.66191556     4.52514936     0.89146456
Ce     5.74964921     5.61197966     4.08129822
Ce     5.80039550     3.51579642     7.38940227
Ce    -1.90040910     7.83513473     0.89604939
Ce    -3.82708093     8.93282021     4.04347906
Ce    -3.81078151     6.71695164     7.26118666
Ce     1.91952075     7.83302731     0.90257308
Ce     0.01891651     8.94719438     4.09509833
Ce     0.01946174     6.72127582     7.27847672
Ce     5.74795039     7.83357404     0.88886421
Ce     3.84320817     8.95769170     4.03102474
Ce     3.85053717     6.85581247     7.21613670
C      3.57753336     4.74368444     9.91737789
C      2.94807156     3.47695833    10.13758665
C      5.38283190     1.36255390     9.86970477
H      2.59638287     5.28198016    10.19226247
H      4.32083858     5.16255328    10.62442274
H      2.84294604     3.26785692    11.21988056
H      5.23063319     0.75552858    10.78543928
