85
CIF: 6-OH+2H-H2O+H_ts.cif | data_image0
Ce    11.60990022     0.00363550     8.76993376
Ce     1.93285684     1.12732562     5.62047044
Ce     0.00000000     2.23543938     2.47426506
Ce     3.82515130     0.05848398     8.77231368
Ce     5.80993320     1.11554915     5.61614030
Ce     3.87189458     2.23543938     2.47426506
Ce     7.78994476     0.04694307     8.76443602
Ce     9.68528035     1.11841669     5.59825637
Ce     7.74390532     2.23543938     2.47426506
Ce    -1.88023781     3.30632312     8.75693425
Ce     0.00673019     4.46549438     5.68736171
Ce    -1.93600537     5.58869904     2.47426506
Ce     1.91223647     3.37126871     8.82344126
Ce     3.86579669     4.48356550     5.64169105
Ce     1.93588921     5.58869904     2.47426506
Ce     5.82144906     3.35037324     8.74944376
Ce     7.75297824     4.47581504     5.62176276
Ce     5.80789995     5.58869904     2.47426506
Ce     7.69464848     6.70028761     8.78269552
Ce    -1.95694459     7.82213057     5.59867693
Ce    -3.87195266     8.94185811     2.47426506
Ce     1.96419653     7.81302711     5.60675976
Ce    -0.00005808     8.94185811     2.47426506
Ce     3.89332520     6.69540337     8.88843862
Ce     5.79434776     7.81655946     5.62878742
Ce     3.87195266     8.94185811     2.47426506
Mn     0.00555414     7.52913252     8.25303224
O      5.81112525    10.03527003     6.42748915
O     -0.02698450     2.16793413     9.61048067
O      1.93594729     1.11771969     3.26466483
O      0.00792716     2.23163567     4.82521670
O      0.00000000     0.00000000     1.68386529
O      1.92099261     1.12169946     7.96663279
O     -1.94883400    10.02812177     6.45510542
O      3.89228070     2.20622971     9.55368365
O      5.80795803     1.11771969     3.26466483
O      3.87867665     2.22337787     4.82694048
O      3.87189458     0.00000000     1.68386529
O      5.80826033     1.14149047     7.94398096
O      1.94766150    10.02597401     6.44388903
O      7.75705086     2.21127744     9.53200011
O      9.67985261     1.11771969     3.26466483
O      7.73618406     2.22143240     4.81384724
O      7.74390532     0.00000000     1.68386529
O      9.70020297     1.14082949     7.92469690
O      9.67243483     3.34632811     6.38676502
O     -2.30627340     5.36551259     9.99088284
O      0.00000000     4.47087876     3.26466483
O     -1.92360106     5.60794363     4.83237767
O      9.67985261     3.35315907     1.68386529
O     -0.02922434     4.36954459     7.99498908
O      1.94973712     3.36259275     6.42045270
O      2.24266739     5.23513581     9.96866674
O      3.87201074     4.47087876     3.26466483
O      1.91917959     5.59878284     4.82724687
O      1.93594729     3.35315907     1.68386529
O      3.88398667     4.50105947     7.96249412
O      5.82084785     3.36732625     6.42670785
O      5.88144329     5.53598924     9.56010824
O      7.74390532     4.47087876     3.26466483
O      5.81176866     5.59614060     4.82248905
O      5.80795803     3.35315907     1.68386529
O      7.80214273     4.48984949     7.95388263
O     -3.87236065     6.74044701     6.44628103
O     -3.86674779     8.92979789     9.53264214
O     -1.93600537     7.82413842     3.26466483
O     -3.87162395     8.94376144     4.80944209
O      7.74384724     6.70641873     1.68386529
O     -1.86311498     7.73979357     8.04708309
O      0.00490159     6.76723121     6.47860198
O     -0.01043498     8.96366254     9.45257396
O      1.93600537     7.82413842     3.26466483
O     -0.00296788     8.94384116     4.81482764
O     -0.00005808     6.70641873     1.68386529
O      1.86391901     7.74156157     8.05935884
O      3.85608918     6.73251519     6.42430064
O      3.85623835     9.02374181     9.48713923
O      5.80789995     7.82413842     3.26466483
O      3.87355772     8.94477416     4.80433951
O      3.87195266     6.70641873     1.68386529
O      5.78287995     7.78818667     8.01622503
O      3.78282777     6.47749607    11.28775753
H     -1.60954306     5.75460728    10.54730723
H      4.60164567     6.01994548    11.53808234
H      2.93064189     5.69876139    10.85364748
