87
CIF: 5-NHNO+2H-N2O+3H_ts.cif | data_image0
Ce     0.02004843     0.01453638     8.77966285
Ce     1.93714899     1.13306402     5.61807924
Ce     0.00000000     2.23543938     2.47426506
Ce     3.86362683     0.03492793     8.79370234
Ce     5.81034324     1.11285625     5.62216853
Ce     3.87189458     2.23543938     2.47426506
Ce     1.95470708    10.04722964     8.76850563
Ce     9.68911230     1.10974233     5.59746346
Ce     7.74390532     2.23543938     2.47426506
Ce     9.66559404     3.23936684     8.76135062
Ce     0.00314958     4.47914365     5.63317297
Ce    -1.93600537     5.58869904     2.47426506
Ce     1.93012672     3.31299970     8.81596686
Ce     3.87060567     4.47824302     5.63146586
Ce     1.93588921     5.58869904     2.47426506
Ce     5.80541274     3.34511290     8.78758226
Ce     7.75189927     4.48081912     5.64162004
Ce     5.80789995     5.58869904     2.47426506
Ce     7.69699870     6.75138679     8.85708332
Ce    -1.94636366     7.82937415     5.61687516
Ce    -3.87195266     8.94185811     2.47426506
Ce     0.00454203     6.82064708     8.71802148
Ce     1.94975350     7.82463177     5.59798723
Ce    -0.00005808     8.94185811     2.47426506
Ce     3.97497307     6.74139579     8.75065174
Ce     5.82972571     7.82780267     5.60503465
Ce     3.87195266     8.94185811     2.47426506
O      0.01099993     0.01431267     6.41383158
O     -0.13330359     2.17803384     9.57406440
O      1.93594729     1.11771969     3.26466483
O     -0.00450298     2.23883606     4.80176585
O      0.00000000     0.00000000     1.68386529
O      1.95855396     1.11193425     7.95668692
O     -1.93150281    10.04680025     6.43568523
O      4.01551562     2.20330189     9.63469309
O      5.80795803     1.11771969     3.26466483
O      3.88183186     2.23931462     4.82772229
O      3.87189458     0.00000000     1.68386529
O      5.82651630     1.10413742     7.95933461
O      1.93627785    10.02055081     6.43117859
O      7.76524998     2.17558643     9.58623471
O      9.67985261     1.11771969     3.26466483
O      7.74535329     2.23264952     4.82727227
O      7.74390532     0.00000000     1.68386529
O      9.65808357     1.08316882     7.93775974
O     -1.90576388     3.33184051     6.43279441
O     -1.87707918     5.57883930    10.00184548
O      0.00000000     4.47087876     3.26466483
O     -1.92897256     5.58325958     4.82478223
O      9.67985261     3.35315907     1.68386529
O     -0.06947330     4.61265729     8.04776806
O      1.90255584     3.37272482     6.39887148
O      1.97389931     5.69856537     9.95325001
O      3.87201074     4.47087876     3.26466483
O      1.94039219     5.60072091     4.81523793
O      1.93594729     3.35315907     1.68386529
O      3.85196409     4.53126849     7.97482179
O      5.81833003     3.36912845     6.45426369
O      5.70366756     5.55332314     9.63240023
O      7.74390532     4.47087876     3.26466483
O      5.81212277     5.57959096     4.81302561
O      5.80795803     3.35315907     1.68386529
O      7.81976424     4.44008920     8.03021362
O     -3.87262693     6.71000792     6.39886604
O     -3.85909830     9.09400536     9.62173948
O     -1.93600537     7.82413842     3.26466483
O     -3.86413182     8.95280389     4.80615606
O      7.74384724     6.70641873     1.68386529
O     -1.89117595     7.79590398     8.01258891
O      0.00927641     6.74643183     6.40045791
O      0.04272503     8.92551597     9.57633424
O      1.93600537     7.82413842     3.26466483
O     -0.00008803     8.95057858     4.80298083
O     -0.00005808     6.70641873     1.68386529
O      1.95602838     7.73839704     7.99068215
O      3.90136955     6.72897101     6.40620570
O      3.87191778     8.93897289     9.57065105
O      5.80789995     7.82413842     3.26466483
O      3.87857041     8.94641396     4.80062450
O      3.87195266     6.70641873     1.68386529
O      5.79783504     7.86561948     7.97191026
O      0.99838883     4.05609938    12.56486733
H     -1.81864721     5.54517488    10.97369829
H      3.25869023     2.79223881    12.23406842
H      1.94798255     5.72298230    10.92893275
N      2.38164401     2.22925077    12.28976567
N      1.33572723     2.86668035    12.45418812
