86
CIF: 9-2CH2.cif | data_VESTA_phase_1
O     -0.00738639     0.90377337     0.19995339
O      1.90377229     1.96011573     3.33830463
O      0.07772643     2.97848483     6.57619918
O     -0.00738639     3.11280278     1.76196664
O     -0.03320720     0.85996496     4.93175021
O      3.81876478     0.90377337     0.19995339
O      5.73903737     2.01182695     3.35055366
O      3.59021707     3.18793416     6.83338313
O      3.81876478     3.11280278     1.76196664
O      3.83234381     0.92602053     4.96432304
O      5.78078454     1.96806824     8.78645283
O      7.64492743     0.90377337     0.19995339
O      9.54791919     2.01617101     3.32961398
O      7.61353383     3.04546487     6.60227113
O      7.64492743     3.11280278     1.76196664
O      7.66503770     0.89383273     4.94815067
O      9.59275981     1.98317802     8.20036997
O     -1.92046198     4.21731749     0.19995339
O     -0.05872383     5.34800591     3.34058564
O     -1.88537805     6.40681354     6.48963483
O     -1.92046772     6.42635684     1.76196664
O     -1.90882282     4.17029825     5.02292220
O      0.01022157     5.30962509     8.12103642
O      1.90568919     4.21731749     0.19995339
O      3.85867540     5.34499389     3.33814496
O      2.03217614     6.39756874     6.55537355
O      1.90568346     6.42635684     1.76196664
O      1.89172564     4.21687016     4.74247195
O      3.97125045     5.58503058     8.76024402
O      5.73185185     4.21731749     0.19995339
O      7.65036249     5.32528160     3.37902067
O      5.69867334     6.47126866     6.57501305
O      5.73184611     6.42635684     1.76196664
O      5.69147061     4.19996113     4.99532197
O      7.78967662     5.39558182     8.19998220
O     -3.83354331     7.53087155     0.19995339
O     -1.91443005     8.63017735     3.35808100
O     -3.88118467     9.86289652     6.65884019
O     -3.83354331     9.73990096     1.76196664
O     -3.83164362     7.57774167     5.03159004
O     -1.89553649     8.49426889     8.18743664
O     -0.00739213     7.53087155     0.19995339
O      1.89584067     8.63714574     3.32108300
O      0.04250476     9.79833205     6.57715720
O     -0.00739213     9.73990096     1.76196664
O      0.03539385     7.54833725     5.01065036
O      1.93622765     8.60138925     8.18479067
O      3.81877052     7.53087155     0.19995339
O      5.75346580     8.62044547     3.32489229
O      3.80633934     9.74204813     6.48555182
O      3.81877052     9.73990096     1.76196664
O      3.82933071     7.55898368     4.94523098
O      5.67510232     8.68432403     8.18255527
Ce     1.90568919     2.00828808     0.98097142
Ce     0.01292475     3.11273320     4.15787174
Ce    -0.13134807     0.86290739     7.25327156
Ce     5.73185185     2.00828808     0.98097142
Ce     3.78008809     3.13965246     4.19058143
Ce     3.85076100     0.85740028     7.31855408
Ce     9.55800302     2.00828808     0.98097142
Ce     7.63132545     3.10530754     4.17377039
Ce     7.72676889     0.85812595     7.31663803
Ce    -0.00738639     5.32183220     0.98097142
Ce    -1.91057328     6.42502479     4.16245657
Ce    -1.87300427     4.20762536     7.34562968
Ce     3.81877626     5.32183220     0.98097142
Ce     1.91836716     6.40397051     4.15490643
Ce     7.64492743     5.32183220     0.98097142
Ce     5.72983164     6.42700298     4.16560437
Ce     5.74489712     4.29214070     7.39015500
Ce    -1.92046772     8.63538625     0.98097142
Ce    -3.82852722     9.74427484     4.15116557
Ce    -3.78812302     7.51800835     7.37840780
Ce     1.90569493     8.63538625     0.98097142
Ce     0.00183655     9.75184961     4.14883894
Ce     0.02835755     7.48591002     7.33737242
Ce     5.73184611     8.63538625     0.98097142
Ce     3.81248606     9.73104384     4.08065953
Ce     3.82388418     7.59706628     7.33039252
Pd     1.79737266     4.33633680     7.43258180
C      2.84164897     4.94400826     9.10107262
C      6.50988516     1.60006566     9.81354628
H      2.08118345     5.55741548     9.61833740
H      2.99954673     3.95433780     9.57960584
H      6.31548588     0.63596253    10.30282306
H      7.23049746     2.30472797    10.22978510
