84
CIF: 1-NH3-NH2+H_fs.cif | data_image0
Ce    -5.80121917    10.04900560     8.79094048
Ce     1.94430652     1.08967163     5.58915118
Ce     0.00000000     2.23543938     2.47426506
Ce    -1.86751040    10.00756491     8.79948152
Ce     5.79885905     1.11957315     5.61618611
Ce     3.87189458     2.23543938     2.47426506
Ce     7.67937960     0.03432195     8.81536405
Ce     9.67551084     1.11153213     5.63204662
Ce     7.74390532     2.23543938     2.47426506
Ce     9.64954915     3.31763608     8.77852465
Ce    -0.00673537     4.46204924     5.62792383
Ce    -1.93600537     5.58869904     2.47426506
Ce     1.90499441     3.15606137     8.69966779
Ce     3.84862006     4.49249584     5.62032593
Ce     1.93588921     5.58869904     2.47426506
Ce     5.79903871     3.38459458     8.78177542
Ce     7.73994615     4.48891078     5.62605110
Ce     5.80789995     5.58869904     2.47426506
Ce    -3.83077287     6.75761367     8.77064692
Ce    -1.91354268     7.81370048     5.67147420
Ce    -3.87195266     8.94185811     2.47426506
Ce     1.93072956     7.83203063     5.62904093
Ce    -0.00005808     8.94185811     2.47426506
Ce     3.99754998     6.84354775     8.70878148
Ce     5.82647936     7.83867502     5.57963724
Ce     3.87195266     8.94185811     2.47426506
Cu     0.51024679     6.40648944     8.28009306
O     11.60770745     0.00946156     6.41408222
O      0.01703353     2.17017381     9.59076105
O      1.93594729     1.11771969     3.26466483
O     -0.00268391     2.23143695     4.80892443
O      0.00000000     0.00000000     1.68386529
O      1.93682705     1.06625514     7.95048376
O     -1.91832866    10.05700179     6.41437234
O      3.86289942     2.24952172     9.51906093
O      5.80795803     1.11771969     3.26466483
O      3.87684505     2.24554816     4.80817774
O      3.87189458     0.00000000     1.68386529
O      5.82085521     1.19744808     7.88896306
O      1.93813049    10.02343533     6.44667168
O      7.71348785     2.28430788     9.56031501
O      9.67985261     1.11771969     3.26466483
O      7.72484185     2.24866427     4.84641272
O      7.74390532     0.00000000     1.68386529
O      9.66513957     1.11885646     7.98921814
O     -1.91509956     3.35146475     6.44334547
O     -2.23553975     5.38836861     9.87178450
O      0.00000000     4.47087876     3.26466483
O     -1.93542720     5.57644283     4.82683544
O     -1.93594729     3.35315907     1.68386529
O      0.05737428     4.44084411     8.05439129
O      1.94485942     3.30373410     6.41451749
O      3.87201074     4.47087876     3.26466483
O      1.95561179     5.57433675     4.82100438
O      1.93594729     3.35315907     1.68386529
O      3.61548646     4.62418457     8.15233716
O      5.71633157     3.45234538     6.48496978
O      5.80768633     5.62425538     9.51145752
O      7.74390532     4.47087876     3.26466483
O      5.80162671     5.59220714     4.79902962
O      5.80795803     3.35315907     1.68386529
O      7.75954509     4.47453508     7.94864274
O      7.73656346     6.70448871     6.40760192
O     -3.90389920     8.93439924     9.61064407
O     -1.93600537     7.82413842     3.26466483
O     -3.86483676     8.94106700     4.80834144
O     -3.87195266     6.70641873     1.68386529
O     -2.00444817     7.84904132     7.98639707
O      0.04139738     6.67377979     6.37445935
O      0.03065238     9.45414395     9.77820181
O      1.93600537     7.82413842     3.26466483
O      0.00937003     8.94316028     4.82085626
O     -0.00005808     6.70641873     1.68386529
O      1.95348866     7.75357137     8.06350880
O      3.90870260     6.73211649     6.41312665
O      3.93713184     8.93881547     9.59169268
O      5.80789995     7.82413842     3.26466483
O      3.87198418     8.94810971     4.80561179
O      3.87195266     6.70641873     1.68386529
O      5.83595561     7.86021221     7.93467670
N      0.26065632     6.42460707    10.17783311
H     -1.32822443     5.83370726    10.08857837
H      0.38614044     7.39974798    10.49108554
H      0.81409955     5.82870958    10.80584128
