87
CIF: 5-NHNO+2H-N2O+H_fs.cif | data_image0
Ce     5.78540207    10.03974834     8.77111532
Ce     1.93000094     1.11306038     5.60565309
Ce     0.00000000     2.23543938     2.47426506
Ce     3.86473064     0.00892769     8.75465716
Ce     5.80821120     1.11154890     5.59153311
Ce     3.87189458     2.23543938     2.47426506
Ce     7.76330494     0.02593085     8.73703201
Ce     9.68393223     1.12005152     5.59502311
Ce     7.74390532     2.23543938     2.47426506
Ce    -1.90256705     3.29748824     8.75443686
Ce     0.00279698     4.48256417     5.69001340
Ce    -1.93600537     5.58869904     2.47426506
Ce     1.90317638     3.26984648     8.77488929
Ce     3.86609629     4.48456347     5.63554959
Ce     1.93588921     5.58869904     2.47426506
Ce     5.79878035     3.26877277     8.70935065
Ce     7.75018606     4.48087485     5.61445377
Ce     5.80789995     5.58869904     2.47426506
Ce    -3.81959827     6.77650551     8.71273970
Ce    -1.92775024     7.82836696     5.59395743
Ce    -3.87195266     8.94185811     2.47426506
Ce     1.94418548     7.81906708     5.61362887
Ce    -0.00005808     8.94185811     2.47426506
Ce     3.80946704     6.73881262     8.83159232
Ce     5.79300441     7.81985462     5.61988821
Ce     3.87195266     8.94185811     2.47426506
Ni    -0.01572090     7.76014463     8.05708686
O      5.80215724    10.03104397     6.42859653
O     -0.00400282     2.13702700     9.63094158
O      1.93594729     1.11771969     3.26466483
O      0.00047540     2.24193232     4.83171164
O      0.00000000     0.00000000     1.68386529
O      1.91536723     1.09220765     7.96932923
O     -1.95410571    10.04832168     6.42466624
O      3.88724781     2.17666160     9.55772342
O      5.80795803     1.11771969     3.26466483
O      3.87162560     2.23153177     4.81290763
O      3.87189458     0.00000000     1.68386529
O      5.80225880     1.14331383     7.92312111
O      7.76235155     0.00537828     6.41034726
O      7.72758660     2.22952523     9.52337295
O      9.67985261     1.11771969     3.26466483
O      7.74448755     2.23552777     4.80243446
O      7.74390532     0.00000000     1.68386529
O      9.70053074     1.14711547     7.93028446
O      9.64875523     3.36936139     6.41836361
O     -2.28956502     5.38561986     9.96834207
O      0.00000000     4.47087876     3.26466483
O     -1.91908393     5.59405570     4.81910697
O      9.67985261     3.35315907     1.68386529
O     -0.00639058     4.28858488     8.02569703
O      1.95759495     3.34734366     6.43563636
O      2.22058745     5.27746773    10.03075039
O      3.87201074     4.47087876     3.26466483
O      1.91869997     5.58440889     4.82873220
O      1.93594729     3.35315907     1.68386529
O      3.91403374     4.43433349     7.99485078
O      5.82146399     3.35155717     6.40903536
O      5.89734167     5.52853986     9.90349678
O      7.74390532     4.47087876     3.26466483
O      5.81102914     5.59265035     4.82456384
O      5.80795803     3.35315907     1.68386529
O      7.71680869     4.53390684     7.98150055
O     -3.84688215     6.73834377     6.41385600
O     -3.85140557     8.89910031     9.56600752
O     -1.93600537     7.82413842     3.26466483
O     -3.87745751     8.94728515     4.80009017
O      7.74384724     6.70641873     1.68386529
O     -1.86731476     7.76638747     8.01927576
O     -0.00183707     6.73695042     6.46775027
O     -0.01279101     8.99019645     9.47151908
O      1.93600537     7.82413842     3.26466483
O     -0.00021522     8.94892254     4.79727807
O     -0.00005808     6.70641873     1.68386529
O      1.82812926     7.82199610     8.00649727
O      3.85370760     6.72538120     6.39696745
O      3.85540976     9.07608855     9.52885586
O      5.80789995     7.82413842     3.26466483
O      3.87682531     8.94732873     4.80140323
O      3.87195266     6.70641873     1.68386529
O      5.85822361     7.76323159     8.00531727
O      4.80439082     7.79235533    11.98220577
H     -1.50877466     5.85863644    10.31187366
H      6.11851837     5.43595711    10.84098156
H      1.46010260     5.76234070    10.38055306
N      6.45070111     6.27046130    12.66821675
N      5.64590999     7.01776893    12.33639538
