84
CIF: Pt-CeO2+CO2.cif | data_image0
O      0.39639278     0.38660270     0.79999586
O      2.30812948     1.39314997     3.92496755
O      0.65486810     2.74427694     7.13078689
O      0.39639278     2.59561896     2.36203158
O      0.37138344     0.42035379     5.62838169
O      2.31176045     1.68974606     8.79467033
O      4.22263597     0.38660270     0.79999586
O      6.15017838     1.48210526     3.94469329
O      3.95426181     2.74340793     7.11808181
O      4.22263597     2.59561896     2.36203158
O      4.24189311     0.41785983     5.62457463
O      6.04933390     1.53632069     8.70029395
O      8.04876437     0.38660270     0.79999586
O      9.94529030     1.48220214     3.94465200
O      8.03712550     2.58698172     7.15944384
O      8.04876437     2.59561896     2.36203158
O      8.04853583     0.38641281     5.59791327
O     10.01453370     1.52031762     8.66461036
O     -1.51667142     3.70012710     0.79999586
O      0.30933337     4.85196356     3.92443417
O     -1.46244132     5.87435750     7.18324606
O     -1.51672882     5.90924277     2.36203158
O     -1.49929763     3.66289991     5.62909297
O      0.56961478     4.70705593     8.79487908
O      2.30957177     3.70012710     0.79999586
O      4.30448303     4.85046716     3.92313460
O      2.30420086     5.60404261     7.11914579
O      2.30951437     5.90924277     2.36203158
O      2.30523296     3.69835262     5.11957424
O      6.13570017     3.70012710     0.79999586
O      8.04774698     4.80715801     3.97821250
O      6.08556083     5.88182754     7.18076836
O      6.13564278     5.90924277     2.36203158
O      6.11213770     3.66716395     5.62423438
O      8.04960528     4.81711586     8.75963340
O     -3.42979302     7.01375090     0.79999586
O     -1.52068372     8.11604072     3.97740523
O     -3.43432522     9.28544093     7.18207304
O     -3.42979302     9.22276717     2.36203158
O     -3.42856946     7.01379513     5.64996503
O     -1.53107190     8.11114599     8.75846798
O      0.39645017     7.01375090     0.79999586
O      2.30836300     8.13514356     3.94416975
O      0.40573709     9.22735791     7.16114721
O      0.39645017     9.22276717     2.36203158
O      0.43416686     7.01387528     5.62438027
O      2.30628233     8.02376227     8.70122165
O      4.22257858     7.01375090     0.79999586
O      6.13767556     8.11609205     3.97844426
O      4.20884720     9.21613348     7.15900671
O      4.22257858     9.22276717     2.36203158
O      4.18063320     7.00988018     5.62323317
O      6.14763283     8.11338407     8.76060863
O      0.19410900     2.49145447    11.15882650
O      4.05489747     4.70755983     8.77043694
O      2.17207534     3.68083490    11.61771885
Ce     2.30945698     1.49111083     1.58101372
Ce     0.41817707     2.60834236     4.73261704
Ce     0.42262011     0.42891542     7.96020461
Ce     6.13570017     1.49111083     1.58101372
Ce     4.19493811     2.60911295     4.72920591
Ce     4.18584640     0.43524776     7.95632211
Ce     9.96182858     1.49111083     1.58101372
Ce     8.04666079     2.59422422     4.77244055
Ce     8.04515560     0.38431237     7.90340943
Ce     0.39639278     4.80463523     1.58101372
Ce    -1.51431952     5.90658612     4.77694085
Ce    -1.46642362     3.70145127     7.95996135
Ce     4.22263597     4.80463523     1.58101372
Ce     2.30726283     5.87850744     4.72902022
Ce     8.04876437     4.80463523     1.58101372
Ce     6.13086704     5.90645963     4.77652740
Ce     6.07293859     3.70545076     7.95615529
Ce    -1.51672882     8.11825903     1.58101372
Ce    -3.43094678     9.22609570     4.77681519
Ce    -3.43041227     7.01351958     8.00443047
Ce     2.30951437     8.11825903     1.58101372
Ce     0.39618694     9.22249926     4.77130682
Ce     0.42082864     6.95828386     7.95641840
Ce     6.13564278     8.11825903     1.58101372
Ce     4.21995688     9.22165659     4.77225147
Ce     4.19556227     6.95755974     7.95620343
Pt     2.30913561     3.69979546     8.01689554
C      1.18916625     3.09005810    11.36554171
