84
CIF: Fe-Cr-CeO2-Ov-CO2.cif | data_image0
Ce     1.93038582     1.11050507     0.88387043
Ce    -0.01135484     2.22701701     4.00982528
Ce    -5.78309297    10.03415036     7.22084647
Ce     5.81181033     1.12175166     0.90127712
Ce     3.83407809     2.21524623     3.98717631
Ce    -1.90574960    10.05586824     7.32624371
Ce     9.66901012     1.12377363     0.90450652
Ce     7.75447296     2.22872596     4.05779334
Ce     1.99612036    10.00944706     7.20560021
Ce    -0.00709724     4.47602159     0.89067279
Ce    -1.95311604     5.58628184     4.09080925
Ce    -1.87729378     3.31063563     7.21598735
Ce     3.86254305     4.47635356     0.87798423
Ce     1.94369073     5.58970646     4.08036874
Ce     1.75385079     3.30529954     7.20029056
Ce     7.74213807     4.46545905     0.90125422
Ce     5.80694378     5.63769796     3.99909014
Ce    -1.94645625     7.83004003     0.90010904
Ce    -3.86235539     8.94170087     4.09989858
Ce    -3.83299826     6.73762279     7.34334609
Ce     1.92815559     7.82745473     0.89060408
Ce    -0.00476791     8.96123556     4.07753281
Ce    -0.00878735     6.72808504     7.25307494
Ce     5.81127600     7.83258510     0.88371011
Ce     3.87340954     8.93489218     4.03482929
Ce     3.85335427     6.85159193     7.31058113
Cr     5.33150637     3.63943606     6.62587157
Fe     6.79631606     2.78067696     8.24544367
O     11.61334069     0.00154917     0.10141687
O      1.92743672     1.11380086     3.21112565
O     -0.02792527     2.23622668     6.35335941
O     -0.00785227     2.23805103     1.69392277
O     -5.79823809    10.05374425     4.83802712
O      1.86307408     1.24571780     8.00738210
O     -1.93899312    10.05733740     0.10496691
O      5.80579831     1.13830776     3.23374343
O      3.93553487     2.53987143     6.44125463
O      3.86763657     2.23577757     1.68132582
O      3.87171266     0.09176340     4.86469240
O      6.07172993     1.15700449     8.33932740
O      7.73821774     0.00761509     0.10924988
O      9.67910891     1.11591548     3.22556463
O      7.72193314     2.24495368     6.54402205
O      7.74357843     2.23531483     1.71563532
O      7.76024763     0.04319806     4.84031783
O      9.72207435     1.10931620     8.01465484
O      9.67032270     3.35425987     0.10911246
O     -0.00792119     4.48314426     3.25195965
O     -1.92374836     5.50618731     6.42742080
O     -1.94403436     5.59119430     1.70564938
O      9.64557694     3.31668013     4.84565362
O     -0.01833227     4.40421679     8.06499189
O      1.92738314     3.35244915     0.09928684
O      3.86597904     4.46780932     3.23123938
O      1.98755194     5.47506259     6.51244204
O      1.92862022     5.59252216     1.67404250
O      1.91056827     3.32049557     4.83739347
O      4.31964242     4.22807305     8.43335506
O      5.81155478     3.35101064     0.10766953
O      7.72560818     4.46867971     3.24298948
O      5.66849681     5.37247505     6.44516767
O      5.80528807     5.59217007     1.68114259
O      5.80965938     3.34307138     4.85743488
O      7.86207070     4.20042856     8.36475125
O     -3.87155109     6.71022987     0.10512724
O     -1.93625999     7.82625072     3.29056823
O     -3.84645042     8.96870275     6.42017986
O     -3.87509971     8.94378428     1.69355631
O      7.68839795     6.68099512     4.87854708
O     -1.78571509     7.76154257     8.08774198
O     -0.01209783     6.71325780     0.10434852
O      1.92047257     7.82194862     3.24996273
O      0.05206750     8.99546909     6.38810317
O     -0.00628994     8.94736548     1.70514550
O      0.02407866     6.69710610     4.91038502
O      1.83921043     7.89361237     8.06300984
O      3.86815347     6.71410280     0.09951587
O      5.81272337     7.83094275     3.22124398
O      3.86618784     8.98817477     6.37603907
O      3.86556896     8.94715423     1.69389986
O      3.87758125     6.71709373     4.82869753
O      5.81485440     7.97028781     8.07531098
O      5.39307662     3.61072367    10.37354817
C      5.24503632     3.68943244     9.17065495
