84
CIF: Os-Y-CeO2-Ov-CO2.cif | data_image0
Ce     1.93596140     1.11772783     0.89035214
Ce    -0.00149799     2.22881785     4.05550009
Ce     5.81383130    10.04263103     7.24150374
Ce     5.80789581     1.11772783     0.89035214
Ce     3.84380037     2.20780122     4.00131444
Ce    -2.08903636     9.94931029     7.16974337
Ce     9.67981860     1.11772783     0.89035214
Ce     7.77365328     2.21522359     3.93595198
Ce     2.04857054     9.95196518     7.42441006
Ce     0.00000000     4.47091133     0.89035214
Ce    -1.94652652     5.58035340     4.09088138
Ce    -1.77494894     3.34101594     7.34583942
Ce     3.87193441     4.47091133     0.89035214
Ce     1.96258255     5.57773970     4.10648240
Ce     1.86371199     3.27195646     7.26829945
Ce     7.74385721     4.47091133     0.89035214
Ce     5.81525377     5.62280333     4.00419013
Ce    -1.93596721     7.82410489     0.89035214
Ce    -3.88230471     8.92963848     3.99160037
Ce    -3.86661586     6.78584188     7.22813686
Ce     1.93596721     7.82410489     0.89035214
Ce     0.01204811     8.96226759     4.10257339
Ce     0.02713688     6.69328996     7.29201628
Ce     5.80789000     7.82410489     0.89035214
Ce     3.86633853     8.94998302     4.06342689
Ce     3.89846014     6.79939733     7.27101637
Y      5.61233031     3.46481567     6.81844782
O      0.00000000     0.00000000     0.09999685
O      1.92943616     1.10492766     3.20595423
O      0.04973100     2.20193952     6.38359161
O      0.00000000     2.23545567     1.68070743
O      5.80528578    10.05311961     4.81638723
O      1.95559875     0.91970364     8.06774234
O      3.87192279     0.00000000     0.09999685
O      5.80315574     1.08167475     3.21115601
O      3.95522132     2.17659207     6.51532142
O      3.87192279     2.23545567     1.68070743
O      3.83790218     0.00720933     4.82290480
O      6.46438870     1.15854427     9.35587245
O      7.74385721     0.00000000     0.09999685
O      9.68593396     1.11328455     3.20037140
O      7.50339525     2.38571645     7.24506303
O      7.74385721     2.23545567     1.68070743
O      7.75782317     0.13923664     4.92104402
O      9.89759606     1.02109449     8.14769286
O     -1.93596140     3.35318350     0.09999685
O     -0.02826241     4.47464077     3.29269807
O     -2.04819920     5.59450359     6.45497623
O     -1.93596721     5.58864923     1.68070743
O      9.57177865     3.26829135     4.91010227
O      0.03826031     4.62073242     8.11268576
O      1.93596140     3.35318350     0.09999685
O      3.88200549     4.46332839     3.23674681
O      2.07192073     5.50169122     6.42266287
O      1.93595559     5.58864923     1.68070743
O      1.97313677     3.30010370     4.79643155
O      5.80789581     3.35318350     0.09999685
O      7.77067781     4.48318322     3.20669701
O      5.85797682     5.54305771     6.45098944
O      5.80789000     5.58864923     1.68070743
O      5.86740336     3.30697394     4.71685102
O      7.85778810     4.50782380     8.78235193
O     -3.87192860     6.70637706     0.09999685
O     -1.91039278     7.80967799     3.25847248
O     -3.86516941     8.90043370     6.32346958
O     -3.87192860     8.94183273     1.68070743
O      7.71955500     6.70310612     4.82239167
O     -2.00563134     7.83593577     8.04191719
O     -0.00000581     6.70637706     0.09999685
O      1.91634352     7.85807203     3.28504341
O     -0.07695264     9.10509031     6.51952224
O     -0.00000581     8.94183273     1.68070743
O      0.01688554     6.72761420     4.95574790
O      3.87192860     6.70637706     0.09999685
O      5.81120588     7.83094793     3.20642832
O      3.91215393     8.92605073     6.41162080
O      3.87192860     8.94183273     1.68070743
O      3.91465705     6.71587964     4.79014117
O      5.98542761     7.86207706     8.07055191
O      4.38862487     4.28316953     8.92585814
O      1.81889540     7.70873659     8.12116325
O      5.68327241     3.76830934    10.82285331
Os     7.02257243     2.86669335     9.13431342
C      5.34759712     3.83346455     9.61812543
