86
CIF: 4-NHNO+2H-N2+OH+2H_fs.cif | data_image0
Ce     0.01229195     0.00905742     8.77866960
Ce     1.92285740     1.13945153     5.61007630
Ce     0.00000000     2.23543938     2.47426506
Ce     3.75583242     0.09096796     8.76544428
Ce     5.80454448     1.09376598     5.62518440
Ce     3.87189458     2.23543938     2.47426506
Ce     7.86057085     0.04126718     8.74305072
Ce     9.69258663     1.11337634     5.58434821
Ce     7.74390532     2.23543938     2.47426506
Ce     9.70954708     3.29462060     8.76773549
Ce    -0.00813155     4.45947500     5.68832345
Ce    -1.93600537     5.58869904     2.47426506
Ce     1.87213252     3.38960161     8.85072001
Ce     3.85760921     4.46533687     5.63654530
Ce     1.93588921     5.58869904     2.47426506
Ce     5.80648393     3.32997577     8.78612820
Ce     7.74878426     4.46586711     5.64613923
Ce     5.80789995     5.58869904     2.47426506
Ce     7.74258839     6.68474943     8.88968840
Ce    -1.97960659     7.82612792     5.59996164
Ce    -3.87195266     8.94185811     2.47426506
Ce     1.98031648     7.82345259     5.58218147
Ce    -0.00005808     8.94185811     2.47426506
Ce     3.97200259     6.68327690     8.78639334
Ce     5.82825553     7.81746546     5.63328852
Ce     3.87195266     8.94185811     2.47426506
Mn     0.02477030     7.38058973     8.21155492
O     -5.80055629    10.04872666     6.41103684
O     -0.13153190     2.13337191     9.64170462
O      1.93594729     1.11771969     3.26466483
O     -0.00459250     2.23306139     4.80826760
O      0.00000000     0.00000000     1.68386529
O      1.90981704     1.12872295     7.95422797
O     -1.97553160    10.04547477     6.43624276
O      3.99258326     2.16830001     9.59147970
O      5.80795803     1.11771969     3.26466483
O      3.88168349     2.22723664     4.82035133
O      3.87189458     0.00000000     1.68386529
O      5.82624560     0.94411229     8.00160350
O      1.97039993    10.01980392     6.42666104
O      7.74463538     2.13598332     9.56058506
O      9.67985261     1.11771969     3.26466483
O      7.72788997     2.22007143     4.81839714
O      7.74390532     0.00000000     1.68386529
O      9.69312293     1.09018861     7.92556569
O      9.67754071     3.32130546     6.38963813
O     -2.29020188     5.21291756    10.15282780
O      0.00000000     4.47087876     3.26466483
O     -1.91983364     5.59924482     4.83756684
O     -1.93594729     3.35315907     1.68386529
O     -0.11488448     4.49417896     8.01748448
O      1.91373657     3.37093742     6.38557728
O      3.87201074     4.47087876     3.26466483
O      1.92522414     5.61421899     4.82904639
O      1.93594729     3.35315907     1.68386529
O      3.86788984     4.52183714     7.94341268
O      5.80090639     3.29763341     6.47172165
O      5.72430803     5.50351096     9.61335285
O      7.74390532     4.47087876     3.26466483
O      5.80930474     5.57078787     4.83876877
O      5.80795803     3.35315907     1.68386529
O      7.77849393     4.41090844     7.97878174
O     -3.85040340     6.72586207     6.41949831
O     -3.83850596     9.09028901     9.62463974
O     -1.93600537     7.82413842     3.26466483
O     -3.87375912     8.94432016     4.80008455
O     -3.87195266     6.70641873     1.68386529
O     -1.78141115     7.79670254     8.05224879
O      0.00932890     6.78396161     6.45497052
O      0.04506894     8.72484802     9.75439525
O      1.93600537     7.82413842     3.26466483
O     -0.00317315     8.94437602     4.81485518
O     -0.00005808     6.70641873     1.68386529
O      1.85772336     7.73752600     8.02858890
O      3.87726269     6.74467282     6.43002741
O      3.84994250     8.94933270     9.57476809
O      5.80789995     7.82413842     3.26466483
O      3.88417991     8.93778716     4.79255565
O      3.87195266     6.70641873     1.68386529
O      5.79775506     7.84252589     8.00738840
O      2.37741367     5.50654912    10.12425209
N      1.36002163     6.17040065    14.36346611
N      1.67322164     5.95983134    13.31220164
H      0.13568922     8.29711957    10.62424120
H     -1.62491924     5.46536876    10.81466990
H      2.28398490     5.63316798    11.08334796
