87
CIF: 3-NH2NO+H-NHNO+2H_is.cif | data_image0
Ce     5.79180485    10.02484566     8.78878521
Ce     1.93195233     1.11628099     5.62273692
Ce     0.00000000     2.23543938     2.47426506
Ce     3.82753394     0.04610559     8.77064036
Ce     5.81231728     1.11260918     5.61361038
Ce     3.87189458     2.23543938     2.47426506
Ce     7.78687986     0.02341128     8.76562318
Ce     9.68467102     1.10709742     5.60440965
Ce     7.74390532     2.23543938     2.47426506
Ce    -1.87807855     3.27910234     8.77406392
Ce     0.00111654     4.45000284     5.69950253
Ce    -1.93600537     5.58869904     2.47426506
Ce     1.92680118     3.35484967     8.80486170
Ce     3.87071336     4.47283805     5.62712156
Ce     1.93588921     5.58869904     2.47426506
Ce     5.82825575     3.32554176     8.74918195
Ce     7.75671656     4.46810608     5.62923113
Ce     5.80789995     5.58869904     2.47426506
Ce     7.67596771     6.68063692     8.80193190
Ce    -1.95890113     7.82464566     5.60405013
Ce    -3.87195266     8.94185811     2.47426506
Ce     1.95788335     7.81095420     5.60967161
Ce    -0.00005808     8.94185811     2.47426506
Ce     3.85882890     6.60924805     8.89132942
Ce     5.79281928     7.81171333     5.64324170
Ce     3.87195266     8.94185811     2.47426506
Cu    -0.00961300     7.65755305     8.14811374
O      5.81160778    10.02284540     6.43499592
O     -0.03698608     2.13009136     9.63409523
O      1.93594729     1.11771969     3.26466483
O      0.00206201     2.22619175     4.82982910
O      0.00000000     0.00000000     1.68386529
O      1.91775314     1.11239276     7.97456739
O     -1.95108912    10.03543230     6.44734452
O      3.90048422     2.18228932     9.57570166
O      5.80795803     1.11771969     3.26466483
O      3.87925683     2.22032729     4.82160962
O      3.87189458     0.00000000     1.68386529
O      5.81034053     1.12587355     7.94609548
O      1.94803075    10.02690333     6.43782578
O      7.76263594     2.18644150     9.54819544
O      9.67985261     1.11771969     3.26466483
O      7.74473209     2.21748151     4.81075468
O      7.74390532     0.00000000     1.68386529
O      9.70039738     1.10604508     7.93893393
O      9.66196025     3.33281335     6.40224405
O     -2.28504229     5.36463290     9.97585564
O      0.00000000     4.47087876     3.26466483
O     -1.92096035     5.60348526     4.83843351
O     -1.93594729     3.35315907     1.68386529
O     -0.02503713     4.30252270     7.99156199
O      1.95044490     3.35018766     6.41265293
O      2.33004448     5.24281678     9.85105437
O      3.87201074     4.47087876     3.26466483
O      1.91184542     5.59903626     4.83281213
O      1.93594729     3.35315907     1.68386529
O      3.91472854     4.43295918     7.91787995
O      5.84169366     3.34943829     6.41099145
O      5.84056338     5.51402410     9.55112361
O      7.74390532     4.47087876     3.26466483
O      5.81264310     5.59828835     4.83061632
O      5.80795803     3.35315907     1.68386529
O      7.78955141     4.47406414     7.97155019
O     -3.86196941     6.73504793     6.46547133
O     -3.87272673     8.90245330     9.52105980
O     -1.93600537     7.82413842     3.26466483
O     -3.87419996     8.93617668     4.81178363
O     -3.87195266     6.70641873     1.68386529
O     -1.85438564     7.77462523     8.04627860
O     -0.00636231     6.74919262     6.50405761
O     -0.01480804     8.94564328     9.48989630
O      1.93600537     7.82413842     3.26466483
O     -0.00512295     8.93314972     4.81623919
O     -0.00005808     6.70641873     1.68386529
O      1.83280010     7.77053620     8.04637513
O      3.83810364     6.72434984     6.45265839
O      3.83211740     8.95477632     9.50689730
O      5.80789995     7.82413842     3.26466483
O      3.87462410     8.93511572     4.80884346
O      3.87195266     6.70641873     1.68386529
O      5.78153322     7.76750728     8.01518681
O      4.97009789     7.26315124    12.35679410
H     -1.52586770     5.81585080    10.38797208
H      3.33574446     5.73551543    13.24283166
H      2.65460969     5.41314935    11.51994921
N      3.28298882     5.87505096    12.22969055
N      4.13955375     6.67694181    11.65081415
