84
CIF: W-Cu-CeO2-CO.cif | data_image0
Ce     1.93038582     1.11050507     0.88387043
Ce     0.00089053     2.23326992     4.04944263
Ce    -5.79385027    10.05018086     7.21543159
Ce     5.81181033     1.12175166     0.90127712
Ce     3.89266517     2.23897320     4.01969600
Ce    -2.04999595    10.01557805     7.18028436
Ce     9.66901012     1.12377363     0.90450652
Ce     7.73144191     2.24332898     4.03869924
Ce     2.07264478     9.89254684     7.31810969
Ce    -0.00709724     4.47602159     0.89067279
Ce    -1.95492023     5.58182906     4.08889413
Ce    -1.72024773     3.32092215     7.32217888
Ce     3.86254305     4.47635356     0.87798423
Ce     1.94319511     5.58435367     4.03320131
Ce     1.95192389     3.39216267     7.21377735
Ce     7.74213807     4.46545905     0.90125422
Ce     5.81448939     5.56760209     4.01978437
Ce    -1.94645625     7.83004003     0.90010904
Ce    -3.88887538     8.95028150     3.99946401
Ce    -3.89154811     6.82043049     7.18244473
Ce     1.92815559     7.82745473     0.89060408
Ce    -0.00395027     8.96120677     4.08855605
Ce    -0.00189608     6.70777842     7.22895801
Ce     5.81127600     7.83258510     0.88371011
Ce     3.87438450     8.94118949     4.04917584
Ce     3.84519040     6.67365579     7.21375849
Cu     5.04141583     3.79261301     6.71698435
W      6.70592764     2.84280423     8.30343807
O     11.61334069     0.00154917     0.10141687
O      1.92673408     1.11780761     3.21493061
O      0.12070517     2.22889417     6.37798471
O     -0.00785227     2.23805103     1.69392277
O     11.60858012     0.00217363     4.83611126
O      1.97380962     1.06903538     8.01355402
O     -1.93899312    10.05733740     0.10496691
O      5.80903300     1.07794761     3.23571436
O      4.04782605     2.18912103     6.54798715
O      3.86763657     2.23577757     1.68132582
O      3.83803648     0.01832045     4.85458854
O      6.35717681     1.19878483     8.95356339
O      7.73821774     0.00761509     0.10924988
O      9.67962199     1.11695927     3.23187055
O      7.51379798     2.36423106     6.71084999
O      7.74357843     2.23531483     1.71563532
O      7.76515321     0.05843317     4.88877776
O      9.87538818     1.00404215     8.04967554
O      9.67032270     3.35425987     0.10911246
O     -0.00566930     4.47565518     3.27454723
O     -2.04712810     5.59761917     6.51072681
O     -1.94403436     5.59119430     1.70564938
O      9.63790506     3.30660610     4.88700787
O      0.14681584     4.56152672     8.04835853
O      1.92738314     3.35244915     0.09928684
O      3.84070683     4.48874955     3.18948051
O      1.88590813     5.61611747     6.28227131
O      1.92862022     5.59252216     1.67404250
O      2.02022577     3.32614226     4.86138373
O      3.54075947     4.66080157     8.09670807
O      5.81155478     3.35101064     0.10766953
O      7.77745055     4.48953667     3.23497603
O      5.93306327     5.45505290     6.54773819
O      5.80528807     5.59217007     1.68114259
O      5.79990035     3.35671142     4.63795444
O      7.94349378     3.99413005     8.93096670
O     -3.87155109     6.71022987     0.10512724
O     -1.94772431     7.83044754     3.25002833
O     -3.87331741     8.94037699     6.36378170
O     -3.87509971     8.94378428     1.69355631
O      7.70910212     6.72413284     4.85514466
O     -2.01440390     7.86741721     8.04051385
O     -0.01209783     6.71325780     0.10434852
O      1.92912970     7.82745518     3.27373778
O     -0.06360050     9.03797064     6.51570285
O     -0.00628994     8.94736548     1.70514550
O     -0.07291563     6.75053190     4.90486692
O      1.92925660     7.65342686     8.04476881
O      3.86815347     6.71410280     0.09951587
O      5.80271941     7.83123266     3.21424874
O      3.93645849     8.84018638     6.38333443
O      3.86556896     8.94715423     1.69389986
O      3.93694183     6.64802718     4.86127661
O      5.87020269     7.81204796     8.01323103
O      4.66727159     3.97703667    10.74156615
C      5.36076154     3.60198294     9.90676686
