86
CIF: 6-OH+2H-H2O+H_fs.cif | data_image0
Ce     5.80336870    10.05764457     8.74685594
Ce     1.93386564     1.12095345     5.59076061
Ce     0.00000000     2.23543938     2.47426506
Ce    -1.95312892    10.00122112     8.74588373
Ce     5.81270612     1.11569914     5.65209253
Ce     3.87189458     2.23543938     2.47426506
Ce     1.89848357     9.98068422     8.79345752
Ce     9.69908611     1.10074290     5.61100090
Ce     7.74390532     2.23543938     2.47426506
Ce     9.68385908     3.23704555     8.78541163
Ce     0.01606075     4.52809318     5.64098241
Ce    -1.93600537     5.58869904     2.47426506
Ce     1.95923949     3.23270171     8.75622830
Ce     3.88202033     4.47094474     5.64344142
Ce     1.93588921     5.58869904     2.47426506
Ce     5.83059979     3.35088846     8.88246464
Ce     7.75199903     4.47317098     5.65148502
Ce     5.80789995     5.58869904     2.47426506
Ce    -3.90941479     6.82047061     8.72402702
Ce    -1.93543389     7.82275353     5.60193267
Ce    -3.87195266     8.94185811     2.47426506
Ce     1.89208045     7.78501559     5.61534032
Ce    -0.00005808     8.94185811     2.47426506
Ce     3.98459875     6.75288333     8.74039129
Ce     5.79862202     7.82712312     5.56848068
Ce     3.87195266     8.94185811     2.47426506
Pt     0.14375257     6.74368600     8.97086646
O     11.60921384     0.00805959     6.39239363
O     -0.01627736     2.22115434     9.54515796
O      1.93594729     1.11771969     3.26466483
O     -0.00720131     2.24107108     4.80254263
O      0.00000000     0.00000000     1.68386529
O      1.90716060     1.06378867     7.94320598
O      3.88989054     0.05768118     6.39666714
O      3.74380749     2.14671096     9.59244628
O      5.80795803     1.11771969     3.26466483
O      3.88611398     2.26470099     4.82620748
O      3.87189458     0.00000000     1.68386529
O      5.82720298     1.02206787     8.04717095
O      1.94709232     9.95602864     6.50370766
O      7.90218398     2.13461244     9.62981591
O      9.67985261     1.11771969     3.26466483
O      7.76669149     2.22525047     4.86977129
O      7.74390532     0.00000000     1.68386529
O      9.68899272     1.08477467     7.95306592
O     -1.83935443     3.36287222     6.52018733
O     -1.64368372     5.96283936     9.80981034
O      0.00000000     4.47087876     3.26466483
O     -1.99042026     5.53722959     4.81287205
O     -1.93594729     3.35315907     1.68386529
O      0.22736307     4.76858440     8.21452859
O      1.90663052     3.32435207     6.45268920
O      3.87201074     4.47087876     3.26466483
O      1.99016457     5.55127273     4.82153042
O      1.93594729     3.35315907     1.68386529
O      3.73639861     4.55643268     8.06667066
O      5.82694983     3.37995485     6.49316891
O      5.82738723     5.77783738     9.59225584
O      7.74390532     4.47087876     3.26466483
O      5.79074769     5.56447415     4.80592541
O      5.80795803     3.35315907     1.68386529
O      7.93612903     4.55110431     8.12720345
O      7.67097036     6.65717297     6.38583096
O     -3.94530156     8.96371528     9.64058273
O     -1.93600537     7.82413842     3.26466483
O     -3.87665102     8.94622450     4.80346736
O     -3.87195266     6.70641873     1.68386529
O     -2.18690054     7.93490593     7.85157156
O     -0.02728394     6.71701606     6.10972970
O     -0.01966995     8.74521875     9.52845615
O      1.93600537     7.82413842     3.26466483
O      0.00851619     9.00894634     4.79899363
O     -0.00005808     6.70641873     1.68386529
O      1.83489287     7.51031100     8.10423327
O      3.89305536     6.73981467     6.42642893
O      3.85049981     8.91344074     9.53443225
O      5.80789995     7.82413842     3.26466483
O      3.86303810     8.94894164     4.79643776
O      3.87195266     6.70641873     1.68386529
O      5.82193050     7.88719652     7.92019351
O      2.32733451     5.39632864    10.48190500
N     -0.43503280     6.89026427    12.58220040
N      0.48699610     7.15859498    13.15304627
H      1.44311161     5.94106173    10.18447815
H      2.38606893     5.41545094    11.45473339
H     -1.54788497     6.14257938    10.76375548
