82
CIF: Ti-Cr-CeO2.cif | data_image0
Ce     1.93038582     1.11050507     0.88387043
Ce    -0.00528573     2.23134985     4.02717797
Ce    -5.78287465    10.03345822     7.21234036
Ce     5.81181033     1.12175166     0.90127712
Ce     3.84224022     2.22032995     3.99046238
Ce    -1.95310625    10.01111268     7.22961835
Ce     9.66901012     1.12377363     0.90450652
Ce     7.73813679     2.23300919     4.07222788
Ce     2.00450614     9.96861967     7.31659379
Ce    -0.00709724     4.47602159     0.89067279
Ce    -1.95297690     5.58439358     4.09109208
Ce    -1.78238932     3.32054028     7.27474570
Ce     3.86254305     4.47635356     0.87798423
Ce     1.93439388     5.58854622     4.04744736
Ce     1.88048057     3.32814674     7.19110795
Ce     7.74213807     4.46545905     0.90125422
Ce     5.81320013     5.62390358     4.00244382
Ce    -1.94645625     7.83004003     0.90010904
Ce    -3.87026016     8.92683876     4.06361658
Ce    -3.86160314     6.71086332     7.33111260
Ce     1.92815559     7.82745473     0.89060408
Ce     0.00067229     8.95837621     4.07644687
Ce     0.00481616     6.70942927     7.22386506
Ce     5.81127600     7.83258510     0.88371011
Ce     3.86242216     8.95284874     4.04164323
Ce     3.84570471     6.78686595     7.20105114
Cr     4.92381697     3.85163068     6.56167181
Ti     6.70620491     2.86090177     7.92654252
O     11.61334069     0.00154917     0.10141687
O      1.93160790     1.10883592     3.21423206
O      0.05706227     2.23775960     6.36604217
O     -0.00785227     2.23805103     1.69392277
O     -5.79176093    10.05800050     4.84326270
O      1.98965152     1.12587332     7.98637642
O     -1.93899312    10.05733740     0.10496691
O      5.79769898     1.14016299     3.24825147
O      3.96275695     2.27466091     6.42539816
O      3.86763657     2.23577757     1.68132582
O      3.85524715     0.02314221     4.87587412
O      6.10484111     1.24724021     8.47657676
O      7.73821774     0.00761509     0.10924988
O      9.67423644     1.12760366     3.23798313
O      7.74287894     2.28860022     6.53981803
O      7.74357843     2.23531483     1.71563532
O      7.74567788     0.03631234     4.83608804
O      9.88866305     1.14681064     8.03036992
O      9.67032270     3.35425987     0.10911246
O     -0.00973585     4.47747257     3.25403547
O     -1.91241618     5.52009235     6.47866339
O     -1.94403436     5.59119430     1.70564938
O      9.66494953     3.31891889     4.87818238
O      0.07223796     4.43110971     8.05651318
O      1.92738314     3.35244915     0.09928684
O      3.85881452     4.47960829     3.20121323
O      1.90661027     5.56993844     6.36394150
O      1.92862022     5.59252216     1.67404250
O      1.95208060     3.32951580     4.83624741
O      3.87256267     4.44614829     7.90810495
O      5.81155478     3.35101064     0.10766953
O      7.72978305     4.45478796     3.25499813
O      5.77669748     5.47259347     6.43927975
O      5.80528807     5.59217007     1.68114259
O      5.73465892     3.39131124     4.87896944
O      7.97612203     4.06792932     8.50772336
O     -3.87155109     6.71022987     0.10512724
O     -1.94162160     7.83039563     3.25901598
O     -3.84017621     8.94793354     6.43869115
O     -3.87509971     8.94378428     1.69355631
O      7.72740110     6.69313149     4.85614543
O     -1.83648600     7.89363952     8.07037014
O     -0.01209783     6.71325780     0.10434852
O      1.92415827     7.82203627     3.24801108
O     -0.02988871     8.98830946     6.44353327
O     -0.00628994     8.94736548     1.70514550
O     -0.02774152     6.72903299     4.88145368
O      1.94672899     7.66397155     8.05355104
O      3.86815347     6.71410280     0.09951587
O      5.80783861     7.83111132     3.22296152
O      3.91820701     8.91344734     6.36353550
O      3.86556896     8.94715423     1.69389986
O      3.88237071     6.70542282     4.84260610
O      5.69889391     7.85572563     8.03989231
