86
CIF: 5-NHNO+2H-N2O+3H_ts.cif | data_image0
Ce    -0.01084441     0.02125851     8.80228920
Ce     1.93377652     1.11788669     5.61231724
Ce     0.00000000     2.23543938     2.47426506
Ce    -1.99724922    10.04921292     8.75075190
Ce     5.82371172     1.10311254     5.62071300
Ce     3.87189458     2.23543938     2.47426506
Ce     7.76565839     0.04408330     8.80404847
Ce     9.68206876     1.12247997     5.61417487
Ce     7.74390532     2.23543938     2.47426506
Ce     9.69084008     3.24934380     8.81862393
Ce     0.00089956     4.44436146     5.62527940
Ce    -1.93600537     5.58869904     2.47426506
Ce     2.01420406     3.31074295     8.81263565
Ce     3.87167275     4.47432743     5.61678426
Ce     1.93588921     5.58869904     2.47426506
Ce     5.82672557     3.33534813     8.75529197
Ce     7.76593927     4.46850173     5.64036998
Ce     5.80789995     5.58869904     2.47426506
Ce     7.62411822     6.82265016     8.68851422
Ce    -1.94850033     7.83027798     5.66344623
Ce    -3.87195266     8.94185811     2.47426506
Ce     1.95325559     7.83838674     5.61479366
Ce    -0.00005808     8.94185811     2.47426506
Ce     3.90205887     6.66987381     8.82736717
Ce     5.78486944     7.83867888     5.59245541
Ce     3.87195266     8.94185811     2.47426506
Pd     0.60637416     6.37717247     8.31545214
O     -0.00468008     0.01134815     6.41350838
O      0.13558864     2.13562971     9.61974781
O      1.93594729     1.11771969     3.26466483
O      0.01287207     2.23660472     4.80160305
O      0.00000000     0.00000000     1.68386529
O      1.96118620     1.08034306     7.94169894
O     -1.93384367    10.04294135     6.40410518
O      3.89618317     2.20869565     9.52450675
O      5.80795803     1.11771969     3.26466483
O      3.87529850     2.24615159     4.83116661
O      3.87189458     0.00000000     1.68386529
O      5.80158018     1.03380039     7.94250717
O      1.95990362    10.05751394     6.41665798
O      7.62785045     2.19792061     9.59937708
O      9.67985261     1.11771969     3.26466483
O      7.75048488     2.23198389     4.80112738
O      7.74390532     0.00000000     1.68386529
O      9.67374774     1.07556744     7.98490339
O     -1.92021023     3.32926732     6.38985752
O     -2.52280348     5.50238312    10.63388698
O      0.00000000     4.47087876     3.26466483
O     -1.92161554     5.60345389     4.84136307
O      9.67985261     3.35315907     1.68386529
O     -0.05819013     4.51827275     8.10345838
O      1.90539250     3.35927405     6.45846563
O      3.87201074     4.47087876     3.26466483
O      1.94230163     5.58177226     4.80975870
O      1.93594729     3.35315907     1.68386529
O      3.97208602     4.43180367     7.88200463
O      5.88847434     3.32388851     6.44357655
O      5.82353613     5.62592118     9.58270035
O      7.74390532     4.47087876     3.26466483
O      5.79063526     5.58580653     4.82275024
O      5.80795803     3.35315907     1.68386529
O      7.80812241     4.58546863     8.02710021
O      7.70267351     6.72861380     6.38147013
O     -3.93907055     8.96514689     9.63111221
O     -1.93600537     7.82413842     3.26466483
O     -3.87363069     8.94443143     4.81155942
O      7.74384724     6.70641873     1.68386529
O     -2.07722472     7.85071543     8.02812103
O      0.04816337     6.68263012     6.42545063
O     -0.05136629     9.52033771    10.08525130
O      1.93600537     7.82413842     3.26466483
O      0.00421696     8.91870302     4.82714473
O     -0.00005808     6.70641873     1.68386529
O      1.85547752     7.92643183     8.08580104
O      3.83119857     6.73716855     6.45680027
O      3.87571470     8.94864349     9.61210563
O      5.80789995     7.82413842     3.26466483
O      3.87090592     8.93992657     4.80029818
O      3.87195266     6.70641873     1.68386529
O      5.78394669     7.84972814     7.95004443
O      2.47028174     5.28688806     9.80764970
N      0.42714526     6.50549269    10.41318986
N      0.25346657     6.61759346    11.52472285
H      8.55351534     5.29617387    11.41682377
H     -0.05106233     9.03719340    10.92681774
H     -1.74797148     6.00254083    10.96163049
