84
CIF: CO+Olatt—CO2.cif | data_image0
Ce     1.93038582     1.11050507     0.88387043
Ce    -0.00079681     2.23155028     4.03766926
Ce    -5.77723436    10.04701598     7.22365698
Ce     5.81181033     1.12175166     0.90127712
Ce     3.85806999     2.22096301     4.01424290
Ce    -1.91394817    10.04225143     7.21185078
Ce     9.66901012     1.12377363     0.90450652
Ce     7.73126282     2.24688320     4.08620181
Ce     1.98898731    10.01050634     7.22447433
Ce    -0.00709724     4.47602159     0.89067279
Ce    -1.92934198     5.58522676     4.05380732
Ce    -1.86952832     3.34525077     7.22657284
Ce     3.86254305     4.47635356     0.87798423
Ce     1.95134794     5.58206619     4.05479167
Ce     1.89496554     3.31101934     7.21534602
Ce     7.74213807     4.46545905     0.90125422
Ce     5.81656107     5.61225392     4.01279135
Ce    -1.94645625     7.83004003     0.90010904
Ce    -3.86038769     8.93893534     4.05580584
Ce    -3.84581725     6.69908458     7.21457318
Ce     1.92815559     7.82745473     0.89060408
Ce     0.01018372     8.94314928     4.05367971
Ce     0.02240680     6.69738899     7.20109875
Ce     5.81127600     7.83258510     0.88371011
Ce     3.87831321     8.94795747     4.03829786
Ce     3.89423426     6.76740456     7.21682212
Rh     4.82930602     3.92247466     6.42412398
Pd     6.56733849     2.90961528     8.03822398
O     11.61334069     0.00154917     0.10141687
O      1.93463160     1.11216147     3.22972788
O      0.01758769     2.22878925     6.40120800
O     -0.00785227     2.23805103     1.69392277
O     -5.79289020    10.05432946     4.85759844
O      1.93308174     1.09893237     8.01454431
O     -1.93899312    10.05733740     0.10496691
O      5.81340754     1.10354484     3.24254280
O      3.81266405     2.19402773     6.39963938
O      3.86763657     2.23577757     1.68132582
O     -1.92564476    10.04732729     4.86296782
O      5.85158618     0.97789727     8.09173245
O      7.73821774     0.00761509     0.10924988
O      9.67810870     1.12091479     3.24664909
O      7.77618951     2.22403132     6.54084765
O      7.74357843     2.23531483     1.71563532
O      7.76195552     0.02770375     4.88551467
O      9.74872666     1.08160110     8.01708807
O      9.67032270     3.35425987     0.10911246
O     -0.00736381     4.46853213     3.23894841
O     -1.90420445     5.58104815     6.41253849
O     -1.94403436     5.59119430     1.70564938
O      9.66861135     3.33266691     4.88431456
O      0.02246805     4.45369514     8.01718633
O      1.92738314     3.35244915     0.09928684
O      3.85070500     4.48540132     3.21212048
O      1.96716291     5.57378060     6.43736436
O      1.92862022     5.59252216     1.67404250
O      1.91743380     3.35527968     4.84675900
O      3.89242318     4.45950244     8.13249230
O      5.81155478     3.35101064     0.10766953
O      7.76074088     4.47699857     3.24260912
O      5.81664701     5.66872153     6.39807855
O      5.80528807     5.59217007     1.68114259
O      5.80860312     3.35585784     4.74585885
O      7.87481936     4.50576609     8.08870385
O     -3.87155109     6.71022987     0.10512724
O     -1.92612803     7.82267242     3.24738589
O     -3.84537043     8.93105914     6.41367659
O     -3.87509971     8.94378428     1.69355631
O     -3.85320913     6.71022229     4.86011994
O     -1.90651996     7.81605126     7.99043842
O     -0.01209783     6.71325780     0.10434852
O      1.93581317     7.83508111     3.23992482
O      0.03109433     8.92231912     6.41058654
O     -0.00628994     8.94736548     1.70514550
O      0.02137417     6.69518249     4.86825327
O      1.97468022     7.81930384     8.01552432
O      3.86815347     6.71410280     0.09951587
O      5.81418752     7.83162400     3.22856623
O      3.89496038     8.93453601     6.40116083
O      3.86556896     8.94715423     1.69389986
O      3.86347806     6.72564380     4.84667193
O      5.83125127     7.84259895     8.01884343
O      4.89688066     3.58978974    10.45118459
C      5.29769888     3.53766263     9.36115302
