85
CIF: 6-OH+2H-H2O_is.cif | data_image0
Ce     5.79344917    10.02358952     8.77065156
Ce     1.94487171     1.12570922     5.59662682
Ce     0.00000000     2.23543938     2.47426506
Ce     3.82567807     0.06957169     8.74381466
Ce     5.81314230     1.11978761     5.62234946
Ce     3.87189458     2.23543938     2.47426506
Ce     1.92139508    10.02967721     8.83160029
Ce     9.67026663     1.08954090     5.61923189
Ce     7.74390532     2.23543938     2.47426506
Ce    -1.84699075     3.30891644     8.71794540
Ce     0.00842228     4.45869544     5.65287998
Ce    -1.93600537     5.58869904     2.47426506
Ce     1.92765823     3.28283007     8.78507040
Ce     3.88676369     4.48665106     5.65598900
Ce     1.93588921     5.58869904     2.47426506
Ce     5.87995449     3.30887300     8.78781591
Ce     7.75933919     4.48058379     5.62367232
Ce     5.80789995     5.58869904     2.47426506
Ce    -3.78871166     6.76077781     8.73419321
Ce    -1.95658401     7.84179698     5.53897766
Ce    -3.87195266     8.94185811     2.47426506
Ce     1.90937719     7.80765848     5.67108182
Ce    -0.00005808     8.94185811     2.47426506
Ce     3.75176294     6.76277084     8.84500007
Ce     5.78658924     7.81027182     5.63034754
Ce     3.87195266     8.94185811     2.47426506
Ti    -0.37640675     7.12437583     8.51629861
O      5.80692136     9.99624165     6.44130014
O      0.00262367     2.16313428     9.61828837
O      1.93594729     1.11771969     3.26466483
O      0.00866504     2.22904239     4.83727918
O      0.00000000     0.00000000     1.68386529
O      1.90987227     1.09978882     7.95243838
O      3.85948726     0.05171775     6.37694778
O      3.85244933     2.21240970     9.57667410
O      5.80795803     1.11771969     3.26466483
O      3.89903968     2.25665085     4.80301509
O      3.87189458     0.00000000     1.68386529
O      5.75484453     1.12728305     7.98642142
O      1.92938535    10.00839200     6.42781002
O      7.76891563     2.35325115     9.55300782
O      9.67985261     1.11771969     3.26466483
O      7.74002145     2.22601532     4.82000224
O      7.74390532     0.00000000     1.68386529
O      9.73128199     1.16251290     7.93850934
O      9.66118920     3.35437030     6.39972828
O     -1.56764832     5.95307308     9.33043081
O      0.00000000     4.47087876     3.26466483
O     -1.92124335     5.59123629     4.80309661
O     -1.93594729     3.35315907     1.68386529
O      0.06267288     4.26382110     7.91535336
O      2.02753027     3.34573141     6.42374957
O      1.97109619     5.30422743     9.91263919
O      3.87201074     4.47087876     3.26466483
O      1.89759420     5.60041529     4.85259233
O      1.93594729     3.35315907     1.68386529
O      3.95694885     4.54856623     8.06607534
O      5.84376653     3.36540467     6.46176616
O      6.22802718     5.41125768     9.91956614
O      7.74390532     4.47087876     3.26466483
O      5.80348038     5.58671224     4.82934595
O      5.80795803     3.35315907     1.68386529
O      7.83376470     4.55342968     7.98861566
O     -3.86237353     6.72748034     6.39918807
O     -3.85203754     8.92140287     9.54619948
O     -1.93600537     7.82413842     3.26466483
O     -3.88368141     8.95028970     4.79152187
O     -3.87195266     6.70641873     1.68386529
O     -1.97133690     7.95783735     7.83824815
O     -0.11400893     6.73429047     6.55649969
O     -0.22018532     8.72461561     9.47539761
O      1.93600537     7.82413842     3.26466483
O     -0.00553219     8.92593830     4.81355933
O     -0.00005808     6.70641873     1.68386529
O      1.78011009     7.60903270     8.09421488
O      3.83472267     6.74053690     6.42013360
O      3.95172656     8.94732793     9.53076764
O      5.80789995     7.82413842     3.26466483
O      3.86424009     8.93636757     4.81240481
O      3.87195266     6.70641873     1.68386529
O      5.82491147     7.67830678     8.03525502
O      4.14188473     6.42953577    11.09462388
H      4.20759928     7.20529699    11.67709995
H      5.58137040     5.75957125    10.61763291
H      2.37448853     5.46188544    10.79515855
