82
CIF: Mo-CeO2-Ov+CO.cif | data_image0
O      0.55978923     0.45000431     0.59999690
O      2.55553176     1.57791434     3.81109605
O      0.55484957     2.74056356     7.10214057
O      0.55978923     2.65902057     2.16203261
O      0.57190808     0.35542982     5.41677182
O      2.53487543     2.22823081     8.72690653
O      4.38603242     0.45000431     0.59999690
O      6.30003353     1.54187302     3.75679472
O      4.31949295     2.55043814     6.91557679
O      4.38603242     2.65902057     2.16203261
O      4.42642116     0.39298182     5.38913293
O      6.28740972     1.42719636     8.66851807
O      8.21216082     0.45000431     0.59999690
O     10.05791599     1.52257942     3.76686051
O      8.18906902     2.61668805     6.95367825
O      8.21216082     2.65902057     2.16203261
O      8.19752344     0.43381442     5.43846554
O      9.93895013     1.63915950     8.70805923
O     -1.35327498     3.76352871     0.59999690
O      0.48377563     4.90494716     3.74384435
O     -1.28784966     5.95516967     7.06577579
O     -1.35333237     5.97264438     2.16203261
O     -1.46181189     3.80081680     5.45460734
O      1.20336073     4.92318715     8.33596747
O      2.47296821     3.76352871     0.59999690
O      4.43357478     4.80999584     3.76436015
O      3.82686184     4.84777165     8.20848708
O      2.47291082     5.97264438     2.16203261
O      2.47934711     3.94636123     5.83129359
O      6.29909662     3.76352871     0.59999690
O      8.20436954     4.89710559     3.75999672
O      6.29202840     6.00807077     7.01187642
O      6.29903923     5.97264438     2.16203261
O      6.30810619     3.76032441     5.38848619
O      8.29458479     4.90937802     8.63744769
O     -3.26639657     7.07715251     0.59999690
O     -1.33312636     8.15215241     3.77519764
O     -3.18980582     9.36313107     7.10923222
O     -3.26639657     9.28616878     2.16203261
O     -3.24396667     7.09634236     5.47778154
O     -1.31175591     8.17715528     8.69256517
O      0.55984662     7.07715251     0.59999690
O      2.47932892     8.26385685     3.72615272
O      0.54130356     9.30388439     6.97884706
O      0.55984662     9.28616878     2.16203261
O      0.61346499     7.08091264     5.54833626
O      2.46759410     7.96889636     8.45120446
O      4.38597502     7.07715251     0.59999690
O      6.29036757     8.13752392     3.77863697
O      4.37458814     9.32629556     7.04722480
O      4.38597502     9.28616878     2.16203261
O      4.34244684     7.08665425     5.53695561
O      6.31470151     8.07074430     8.73091991
O      0.39179279     2.25405415    11.59305219
Ce     2.47285343     1.55451244     1.38101475
Ce     0.52931375     2.65173142     4.61281392
Ce     0.53007625     0.50875818     7.90883765
Ce     6.29909662     1.55451244     1.38101475
Ce     4.43467143     2.62980891     4.56726514
Ce     4.45651457     0.46035324     7.74532288
Ce    10.12522502     1.55451244     1.38101475
Ce     8.20449282     2.65690451     4.55125745
Ce     8.19602705     0.46823309     7.78063039
Ce     0.55978923     4.86803684     1.38101475
Ce    -1.34163302     5.96404524     4.57288975
Ce    -1.46109795     3.70527114     7.74181712
Ce     4.38603242     4.86803684     1.38101475
Ce     2.47011883     6.00104144     4.47019043
Ce     8.21216082     4.86803684     1.38101475
Ce     6.29640545     5.95665125     4.58543196
Ce     6.26958449     3.71948635     7.80066644
Ce    -1.35333237     8.18166064     1.38101475
Ce    -3.27240397     9.29805676     4.60613715
Ce    -3.25204353     7.06454178     7.82637746
Ce     2.47291082     8.18166064     1.38101475
Ce     0.57963172     9.27163498     4.55006549
Ce     0.46051513     7.18970352     7.80098971
Ce     6.29903923     8.18166064     1.38101475
Ce     4.39565009     9.30280279     4.58068112
Ce     4.52880421     7.20985327     7.78248732
Mo     2.44119895     3.71540433     7.69565230
C      0.54337093     1.50778697    10.74005996
