90
CIF: CH2CCH2+H.cif | data_image0
O      0.00261135     0.00382715     0.19995339
O      1.92887716     1.11340326     3.33320711
O      0.17215467     2.36425376     6.50859189
O      0.00261135     2.21285656     1.76196664
O     -0.00901045     0.05712145     4.94717865
O      1.80737882     1.64705356     8.45452409
O      3.82876252     0.00382715     0.19995339
O      5.74379395     1.10356195     3.32463418
O      3.54590030     2.46577440     6.68461027
O      3.82876252     2.21285656     1.76196664
O      3.85898364     0.08885041     4.99824980
O      5.87519914     1.05579032     8.25282145
O      7.65492518     0.00382715     0.19995339
O      9.55165188     1.10257680     3.31191232
O      7.67963645     2.22441233     6.48317335
O      7.65492518     2.21285656     1.76196664
O      7.66270015     0.01104043     4.95548840
O      9.50398448     1.24193834     8.19376978
O     -1.91046424     3.31737126     0.19995339
O      0.01019281     4.41773227     3.32840213
O     -1.82810112     5.42044257     6.55807992
O     -1.91046998     5.52641062     1.76196664
O     -1.88979630     3.27442233     4.95508233
O      0.36305436     4.17094573     8.42060085
O      1.91568694     3.31737126     0.19995339
O      3.81583051     4.42853273     3.34633739
O      2.02640096     5.18300465     6.66482404
O      1.91568120     5.52641062     1.76196664
O      1.88301877     3.29953566     4.95339355
O      3.97815620     4.64016861     8.71703144
O      5.74184959     3.31737126     0.19995339
O      7.65205270     4.43067079     3.36804916
O      5.70944439     5.57599862     6.53754722
O      5.74184385     5.52641062     1.76196664
O      5.69148350     3.28615250     4.97084257
O      7.76660250     4.46108350     8.24274774
O     -3.82354556     6.63092532     0.19995339
O     -1.89663746     7.74163892     3.38770042
O     -3.82755239     8.86581175     6.55551029
O     -3.82354556     8.83995473     1.76196664
O     -3.78017855     6.61885142     5.01818446
O     -1.98940860     7.65256101     8.27738247
O      0.00260561     6.63092532     0.19995339
O      1.91968269     7.73944467     3.32823108
O      0.06113214     8.83126985     6.53098624
O      0.00260561     8.83995473     1.76196664
O      0.08433183     6.59286964     4.98940321
O      2.08230230     7.74533266     8.21691730
O      3.82876826     6.63092532     0.19995339
O      5.74991813     7.72214309     3.38725752
O      3.83863180     8.86182996     6.52108418
O      3.82876826     8.83995473     1.76196664
O      3.76181649     6.63270961     5.00601247
O      5.74574387     7.66709828     8.28097264
Ce     1.91568694     1.10834185     0.98097142
Ce    -0.02917292     2.18376981     4.08654829
Ce    11.45295181     0.00173978     7.42774676
Ce     5.74184959     1.10834185     0.98097142
Ce     3.85409199     2.20785680     4.12584466
Ce    -1.82994479     9.90087014     7.43259595
Ce     9.56800076     1.10834185     0.98097142
Ce     7.63875809     2.21533211     4.14424059
Ce     7.65574645     0.02591788     7.35766825
Ce     0.00261135     4.42188597     0.98097142
Ce    -1.88785417     5.52211506     4.18584515
Ce     9.46695132     3.29369186     7.32617097
Ce     3.82877400     4.42188597     0.98097142
Ce     1.91967034     5.55223480     4.12226905
Ce     7.65492518     4.42188597     0.98097142
Ce     5.74297597     5.52481116     4.19637533
Ce     5.78578985     3.32194454     7.45215904
Ce    -1.91046998     7.73544003     0.98097142
Ce    -3.81372417     8.85312822     4.21434876
Ce    -3.78632506     6.64740914     7.39903749
Ce     1.91569268     7.73544003     0.98097142
Ce     0.01405985     8.83922010     4.18093986
Ce     0.04608237     6.66205685     7.45308830
Ce     5.74184385     7.73544003     0.98097142
Ce     3.83327694     8.84617629     4.16106587
Ce     3.90345039     6.73521414     7.39264350
Ta     1.82244867     3.28450280     6.96179379
C      3.97885276     4.64319878    10.12740060
C      3.03409788     3.67645869    10.72283199
C      3.07875047     2.55690676    11.41695126
H      3.76192410     5.65387079    10.53613178
H      4.99472805     4.38531301    10.52891051
H      0.53299416     3.91734951     9.34550469
H      2.12918345     1.91211142     9.33876875
H      2.18237243     2.04432439    11.78142585
H      4.04276954     2.08721784    11.67486446
