82
CIF: Ni-Fe-CeO2.cif | data_image0
Ce     1.93038582     1.11050507     0.88387043
Ce    -0.00203812     2.23514600     4.03482425
Ce    -5.77557090    10.04045592     7.21073356
Ce     5.81181033     1.12175166     0.90127712
Ce     3.86206666     2.23763941     4.02120940
Ce    -1.87827317    10.05817403     7.24187511
Ce     9.66901012     1.12377363     0.90450652
Ce     7.74558225     2.23409307     4.09425445
Ce     1.98185246    10.03003618     7.22691553
Ce    -0.00709724     4.47602159     0.89067279
Ce    -1.94417415     5.58566426     4.05984693
Ce    -1.88816277     3.32728273     7.22703368
Ce     3.86254305     4.47635356     0.87798423
Ce     1.92777051     5.59297989     4.03906798
Ce     1.87375797     3.34206280     7.18310533
Ce     7.74213807     4.46545905     0.90125422
Ce     5.80081274     5.59563439     4.02117272
Ce    -1.94645625     7.83004003     0.90010904
Ce    -3.87124214     8.94119723     4.07766999
Ce    -3.84229889     6.65632081     7.24193230
Ce     1.92815559     7.82745473     0.89060408
Ce    -0.00181427     8.94987406     4.05970203
Ce    -0.00114372     6.70646700     7.20443308
Ce     5.81127600     7.83258510     0.88371011
Ce     3.87094919     8.94325547     4.03484091
Ce     3.85005211     6.76503804     7.18313858
Fe     4.99794422     3.82031920     6.62305828
Ni     6.75342752     2.80653853     7.85127586
O     11.61334069     0.00154917     0.10141687
O      1.93842358     1.11026745     3.23207338
O      0.01445285     2.21875459     6.38803048
O     -0.00785227     2.23805103     1.69392277
O     -5.78734980    10.04728635     4.86095529
O      1.98741704     1.12731998     7.95976388
O     -1.93899312    10.05733740     0.10496691
O      5.79923730     1.13491244     3.25301008
O      3.92533575     2.32960225     6.43102469
O      3.86763657     2.23577757     1.68132582
O      3.87168587     0.03958592     4.90576054
O      5.94527981     1.05611621     8.06513333
O      7.73821774     0.00761509     0.10924988
O      9.68044745     1.11706617     3.25480560
O      7.89136961     2.14955575     6.39726277
O      7.74357843     2.23531483     1.71563532
O      1.92824819    10.03045760     4.84486512
O      9.79482162     1.05078286     8.04221405
O      9.67032270     3.35425987     0.10911246
O      0.00356440     4.47899631     3.23098652
O     -1.92695708     5.59378433     6.42130876
O     -1.94403436     5.59119430     1.70564938
O     -1.91515554     3.37378300     4.84495580
O      0.03854688     4.46030514     8.00878404
O      1.92738314     3.35244915     0.09928684
O      3.86313788     4.47580867     3.21594529
O      1.90529642     5.60591122     6.37765895
O      1.92862022     5.59252216     1.67404250
O      1.92730394     3.34441423     4.84999765
O      3.85366415     4.48095373     7.88417058
O      5.81155478     3.35101064     0.10766953
O      7.72424739     4.46937545     3.25291214
O      5.75273279     5.49466773     6.43110600
O      5.80528807     5.59217007     1.68114259
O      5.77185671     3.37366996     4.91293906
O      7.86517996     4.38119184     8.06495556
O     -3.87155109     6.71022987     0.10512724
O     -1.95774393     7.83645089     3.26491477
O     -3.82739192     8.91568910     6.43648185
O     -3.87509971     8.94378428     1.69355631
O      7.70910830     6.68624993     4.90580116
O     -1.91515659     7.81147328     8.02805730
O     -0.01209783     6.71325780     0.10434852
O      1.93053083     7.81645709     3.23085261
O     -0.00036682     8.93065439     6.42122262
O     -0.00628994     8.94736548     1.70514550
O     -0.01536426     6.71484464     4.84988980
O      1.96396547     7.79519898     8.00882787
O      3.86815347     6.71410280     0.09951587
O      5.81542896     7.82539564     3.23186754
O      3.89322867     8.93689935     6.38806897
O      3.86556896     8.94715423     1.69389986
O      3.87497570     6.71773519     4.85003196
O      5.82497709     7.77402238     7.95977369
