84
CIF: CO+Olatt—CO2.cif | data_image0
Ce     1.93038582     1.11050507     0.88387043
Ce     0.00338860     2.23476255     4.04920929
Ce     5.80677261    10.03608891     7.19300343
Ce     5.81181033     1.12175166     0.90127712
Ce     3.82774056     2.20645697     3.97875031
Ce    -2.07943274     9.90625656     7.17304879
Ce     9.66901012     1.12377363     0.90450652
Ce     7.72974546     2.24122523     4.06593766
Ce     2.01361904    10.04619589     7.40408653
Ce    -0.00709724     4.47602159     0.89067279
Ce    -1.94873754     5.59070515     4.08762750
Ce    -1.73117565     3.36321491     7.27036986
Ce     3.86254305     4.47635356     0.87798423
Ce     1.95150899     5.58766215     4.07129880
Ce     1.93883662     3.31630956     7.29179624
Ce     7.74213807     4.46545905     0.90125422
Ce     5.82039912     5.63293083     3.98864923
Ce    -1.94645625     7.83004003     0.90010904
Ce    -3.88701902     8.91179303     4.02465484
Ce     7.74843610     6.67691263     7.31089200
Ce     1.92815559     7.82745473     0.89060408
Ce     0.00593544     8.97001537     4.09793127
Ce     0.03050695     6.71637299     7.25018426
Ce     5.81127600     7.83258510     0.88371011
Ce     3.85154431     8.97552441     4.04874658
Ce     3.85282098     6.79158892     7.18863348
Cr     5.08872350     3.72873288     6.53181486
Ti     6.92444514     2.95994937     8.51618596
O     11.61334069     0.00154917     0.10141687
O      1.92027759     1.10770492     3.20570457
O      0.05593962     2.23651538     6.35200768
O     -0.00785227     2.23805103     1.69392277
O     -5.80479266    10.05635206     4.83059968
O      1.96570035     0.95413844     8.01220981
O     -1.93899312    10.05733740     0.10496691
O      5.78783336     1.12136153     3.24578426
O      4.14262011     2.16085766     6.54238006
O      3.86763657     2.23577757     1.68132582
O      3.81442749     0.00363083     4.85120817
O      6.94581601     1.37363227     9.22114180
O      7.73821774     0.00761509     0.10924988
O      9.67507918     1.13381424     3.23277518
O      7.42553831     2.48326672     6.79013310
O      7.74357843     2.23531483     1.71563532
O      7.74209261     0.11122746     4.87250819
O      9.88750031     1.18600987     7.98683944
O      9.67032270     3.35425987     0.10911246
O     -0.00710286     4.47604302     3.28696163
O     -1.92480040     5.52579867     6.43121229
O     -1.94403436     5.59119430     1.70564938
O      9.61116324     3.28289496     4.91124441
O      0.01499607     4.53664278     8.06613128
O      1.92738314     3.35244915     0.09928684
O      3.85457696     4.49305459     3.19586118
O      1.97725424     5.61115348     6.37602955
O      1.92862022     5.59252216     1.67404250
O      2.02141290     3.31531123     4.83921733
O      4.07740532     4.44606566     7.97203580
O      5.81155478     3.35101064     0.10766953
O      7.74294925     4.45446537     3.24115050
O      5.84346273     5.43831274     6.38907815
O      5.80528807     5.59217007     1.68114259
O      5.73016465     3.38143089     4.77744239
O      8.26137211     4.15406356     8.76264095
O     -3.87155109     6.71022987     0.10512724
O     -1.92614328     7.82686917     3.25555107
O     -3.89433622     8.87875205     6.37846769
O     -3.87509971     8.94378428     1.69355631
O      7.73229344     6.68868551     4.80786852
O     -1.86896215     7.84586133     8.05972355
O     -0.01209783     6.71325780     0.10434852
O      1.92562134     7.84278969     3.26962821
O     -0.04803189     9.07717752     6.50159366
O     -0.00628994     8.94736548     1.70514550
O     -0.00970102     6.75991376     4.91145411
O      1.95182322     7.69741727     8.06259091
O      3.86815347     6.71410280     0.09951587
O      5.79715422     7.84013587     3.20742915
O      3.88095550     8.94357582     6.37554769
O      3.86556896     8.94715423     1.69389986
O      3.91190407     6.71957718     4.84319812
O      5.67968850     7.82364825     8.01912587
O      4.58665790     4.30752252    10.55410727
C      5.17421346     3.95433178     9.62047378
