84
CIF: CO+O2 — CO2+Olat.cif | data_image0
O      0.55978923     0.45000431     0.59999690
O      2.45531754     1.49196995     3.72517742
O      0.67529746     3.00415381     7.12990475
O      0.55978923     2.65902057     2.16203261
O      0.52502080     0.57408051     5.47257500
O      2.56354310     1.77677878     8.46525196
O      4.38603242     0.45000431     0.59999690
O      6.31619962     1.54367111     3.74462231
O      4.65452044     2.50756836     6.75761281
O      4.38603242     2.65902057     2.16203261
O      4.36348052     0.36853057     5.33600403
O      6.35406692     1.52712041     8.61721555
O      8.21216082     0.45000431     0.59999690
O     10.12520914     1.54788664     3.73865828
O      8.19312940     2.64277973     6.92975310
O      8.21216082     2.65902057     2.16203261
O      8.22000691     0.44534251     5.38853931
O     10.14640038     1.57802562     8.51696774
O     -1.35327498     3.76352871     0.59999690
O      0.50201123     4.90173342     3.73935422
O     -1.32578669     5.95518530     6.97112266
O     -1.35333237     5.97264438     2.16203261
O     -1.35570863     3.73275578     5.41066841
O      2.47296821     3.76352871     0.59999690
O      4.43220673     4.91343183     3.72607712
O      2.26265791     5.70647268     7.11850322
O      2.47291082     5.97264438     2.16203261
O      2.49259600     3.75007468     5.08244238
O      4.24930550     4.66839231     8.46948649
O      6.29909662     3.76352871     0.59999690
O      8.23392918     4.89295599     3.74433445
O      6.23472663     5.97888689     6.99540685
O      6.29903923     5.97264438     2.16203261
O      6.35781155     3.82506803     5.33689896
O      8.18527895     4.86860702     8.54850452
O     -3.26639657     7.07715251     0.59999690
O     -1.36440537     8.15107591     3.74472126
O     -3.33041195     9.35072804     6.97061140
O     -3.26639657     9.28616878     2.16203261
O     -3.27972641     7.08442249     5.43736946
O     -1.42360864     8.25116570     8.50036058
O      0.55984662     7.07715251     0.59999690
O      2.48204495     8.18182591     3.74323412
O      0.57033457     9.30418568     6.93766592
O      0.55984662     9.28616878     2.16203261
O      0.58603735     7.09000034     5.41386242
O      2.47015641     8.13956435     8.53111728
O      4.38597502     7.07715251     0.59999690
O      6.26552235     8.20182620     3.80030997
O      4.39780083     9.27367134     6.96100679
O      4.38597502     9.28616878     2.16203261
O      4.27952640     7.03906149     5.47468088
O      6.27916546     8.19593829     8.58903689
O     -0.28814422     6.15141303    10.07917558
O      0.12610334     5.12562107     9.21201571
O      1.61444629     5.62982951    11.66978485
Ce     2.47285343     1.55451244     1.38101475
Ce     0.58940931     2.70073930     4.55104554
Ce     0.57196620     0.51174620     7.77121434
Ce     6.29909662     1.55451244     1.38101475
Ce     4.39294450     2.65594212     4.52958663
Ce     4.40555788     0.50817533     7.71320716
Ce    10.12522502     1.55451244     1.38101475
Ce     8.21918799     2.66513478     4.53785472
Ce     8.20946850     0.44313402     7.74603159
Ce     0.55978923     4.86803684     1.38101475
Ce    -1.35846965     5.97983249     4.57375780
Ce    -1.46270020     3.76925720     7.75814820
Ce     4.38603242     4.86803684     1.38101475
Ce     2.45369222     5.92678864     4.55706509
Ce     8.21216082     4.86803684     1.38101475
Ce     6.28750909     5.97380885     4.57081001
Ce     6.26427163     3.71039371     7.72355984
Ce    -1.35333237     8.18166064     1.38101475
Ce    -3.27627177     9.29711404     4.56872673
Ce    -3.31776191     7.11337599     7.77667143
Ce     2.47291082     8.18166064     1.38101475
Ce     0.55939150     9.27059865     4.54638388
Ce     0.50105893     7.14794594     7.79320046
Ce     6.29903923     8.18166064     1.38101475
Ce     4.36293573     9.29970965     4.58325543
Ce     4.34308691     7.03127581     7.77363362
Au     2.44676987     3.78457159     7.88111911
C      0.75016971     6.37283345    11.43560175
