83
CIF: NO.cif | data_image0
Ce     5.80665259    10.05942653     8.80087437
Ce     1.93714890     1.12004070     5.59038636
Ce     0.00000000     2.23543938     2.47426506
Ce     3.83116675     0.02663056     8.75289244
Ce     5.80869445     1.11601349     5.62564679
Ce     3.87189458     2.23543938     2.47426506
Ce     1.98938123    10.02095482     8.74433871
Ce     9.69194067     1.11287062     5.60788858
Ce     7.74390532     2.23543938     2.47426506
Ce    -1.87175082     3.33928237     8.74267409
Ce     0.00960046     4.47366038     5.67532074
Ce    -1.93600537     5.58869904     2.47426506
Ce     1.92269603     3.24755036     8.74563004
Ce     3.87581292     4.47293491     5.63237811
Ce     1.93588921     5.58869904     2.47426506
Ce     5.83638419     3.34117524     8.78051995
Ce     7.74726222     4.47341929     5.62472901
Ce     5.80789995     5.58869904     2.47426506
Ce     7.69906842     6.72766959     8.75149079
Ce    -1.94986332     7.83408380     5.57871388
Ce    -3.87195266     8.94185811     2.47426506
Ce     1.94167909     7.81530659     5.68136048
Ce    -0.00005808     8.94185811     2.47426506
Ce     3.94373118     6.76401853     8.77350758
Ce     5.80141023     7.82176201     5.59656678
Ce     3.87195266     8.94185811     2.47426506
Ni    -0.60793600     7.05759479     8.50818996
O     -5.80458392    10.05609943     6.40863534
O     -0.00423793     2.17193915     9.60879859
O      1.93594729     1.11771969     3.26466483
O     -0.00422093     2.24717877     4.81872037
O      0.00000000     0.00000000     1.68386529
O      1.92585967     1.10699660     7.95249137
O      3.88313601     0.05877625     6.39515932
O      3.86641686     2.21964887     9.54496036
O      5.80795803     1.11771969     3.26466483
O      3.89778603     2.24480369     4.79472158
O      3.87189458     0.00000000     1.68386529
O      5.82721898     1.09044836     8.02096732
O      7.73898837     0.00416396     6.43426726
O      7.77435629     2.22627087     9.54617643
O      9.67985261     1.11771969     3.26466483
O      7.74245631     2.23708868     4.82042190
O      7.74390532     0.00000000     1.68386529
O      9.68581196     1.12619295     7.95133432
O     -1.93856507     3.36044809     6.42909859
O     -1.79722787     5.81736909     9.30942122
O      0.00000000     4.47087876     3.26466483
O     -1.91005284     5.60034422     4.82864981
O     -1.93594729     3.35315907     1.68386529
O      0.09232997     4.26893335     7.96200755
O      1.98322218     3.31917328     6.38506890
O      2.18128375     5.34613538    10.11155046
O      3.87201074     4.47087876     3.26466483
O      1.88950394     5.61534830     4.86600868
O      1.93594729     3.35315907     1.68386529
O      3.81159806     4.50755360     8.00447819
O      5.80930080     3.35424182     6.47151392
O      5.83785784     5.58201684     9.53891238
O      7.74390532     4.47087876     3.26466483
O      5.81347841     5.56290265     4.79502303
O      5.80795803     3.35315907     1.68386529
O      7.78466444     4.46916377     8.01157697
O      7.69642264     6.67194073     6.39587453
O     -3.91858298     8.97225617     9.59944314
O     -1.93600537     7.82413842     3.26466483
O     -3.86885938     8.94076595     4.80118547
O     -3.87195266     6.70641873     1.68386529
O     -2.19201537     7.97279008     7.84857727
O     -0.08560557     6.75773230     6.64291440
O     -0.13051966     8.70710330     9.31310757
O      1.93600537     7.82413842     3.26466483
O      0.00554707     8.91586150     4.82961897
O     -0.00005808     6.70641873     1.68386529
O      2.15798241     7.84844955     7.97064220
O      3.92288815     6.68447913     6.38164694
O      3.91899275     9.00995891     9.60649768
O      5.80789995     7.82413842     3.26466483
O      3.85805367     8.94250068     4.81934511
O      3.87195266     6.70641873     1.68386529
O      5.80467334     7.83605101     7.96564773
O      2.72232433     5.58992090    12.21860388
N      2.90923890     5.93746487    11.07299636
