    81
 Tv_1:  11.598200   0.000000   0.000000 Tv_2:  -5.799100  10.044336   0.000000 Tv_3:   0.000000   0.000000  22.891600
Ce      2.14531905      1.20773094      3.19108904
Ce      0.16111060      2.27562464      9.81665061
Ce      0.21732127      0.09981057      6.44632034
Ce      6.01134706      1.20773094      3.19108904
Ce      4.06233334      0.13050606      6.42118537
Ce      9.87749105      1.20773094      3.19108904
Ce      7.92622148      2.32373701      9.64642867
Ce      7.93145227      0.08312692      6.42938056
Ce      0.21230505      4.55580941      3.19108904
Ce     -1.70198946      5.58700110      9.71265407
Ce     -1.70505138      3.43277230      6.43654563
Ce      4.07833306      4.55580941      3.19108904
Ce      2.17439574      3.41754509      6.41276126
Ce      7.94447705      4.55580941      3.19108904
Ce      6.02988098      5.60415683      9.63335757
Ce      6.00310074      3.43783465      6.38414676
Ce     -1.72076694      7.90398831      3.19108904
Ce     -3.71886425      8.98454792      9.70672515
Ce     -3.64907208      6.79414947      6.43414201
Ce      2.14526106      7.90398831      3.19108904
Ce      0.13817516      9.03595483      9.65979737
Ce      0.18286302      6.77762654      6.40690101
Ce      6.01140505      7.90398831      3.19108904
Ce      4.06562723      9.02028567      9.66346002
Ce      4.08177772      6.78838402      6.40500101
Cu      4.26972075      1.91409886      9.78517466
O       0.21230505      2.32375710      2.40201559
O       1.69483917      0.87422886     10.87227385
O       2.11250775      1.19674244      5.59237210
O       0.30260284      2.39198827      7.32773851
O       0.15060843      0.06393220      8.81985878
O       0.21230505      0.09170479      3.98039141
O       4.07833306      2.32375710      2.40201559
O       5.91857306      1.22747811     10.38156952
O       6.02652910      1.16976335      5.58436004
O       4.08102384      2.35378966      7.03458868
O       4.00452791      0.23319935      8.97900118
O       4.07833306      0.09170479      3.98039141
O       7.94436106      2.32375710      2.40201559
O       9.79093368      1.14961441     10.51312754
O       9.90796532      1.20297997      5.63117336
O       7.94092220      2.28527725      7.19531060
O       7.90714824      0.08777745      8.84114797
O       7.94436106      0.09170479      3.98039141
O      -1.72076694      5.67193600      2.40201559
O      -0.17396720      4.29866436     10.64180122
O       0.24548170      4.55841089      5.60162030
O      -1.69184683      5.67957974      7.25892636
O      -1.78985742      3.37921591      8.78336957
O      -1.72070895      3.43978325      3.98039141
O       2.14526106      5.67193600      2.40201559
O       4.67851671      3.62911898     10.32212003
O       4.04421115      4.60749756      5.58284919
O       2.13070532      5.61572790      7.40090006
O       2.53410812      2.42897151      9.41096568
O       2.14531905      3.43978325      3.98039141
O       6.01128907      5.67193600      2.40201559
O       7.92778144      4.53968825     10.50353596
O       7.95103003      4.56756128      5.61508056
O       5.97585077      5.72554262      7.23866729
O       6.17125724      3.52175508      8.70720922
O       6.01134706      3.43978325      3.98039141
O      -3.65378095      9.02001447      2.40201559
O      -1.72037260      7.89193511     10.41549487
O      -1.72970336      7.91046691      5.59770584
O      -3.62864765      9.02417282      7.28744929
O      -3.67000103      6.73433545      8.84435279
O      -3.65378095      6.78796216      3.98039141
O       0.21224706      9.02001447      2.40201559
O       2.11369076      7.86342929     10.33752608
O       2.12200087      7.87627599      5.62384805
O       0.13536259      9.01479141      7.28989869
O       0.31307601      6.75131038      8.85783595
O       0.21224706      6.78796216      3.98039141
O       4.07827507      9.02001447      2.40201559
O       5.95821571      7.81545754     10.43692140
O       6.01819580      7.92308260      5.60603838
O       4.06190421      8.98083152      7.25995648
O       3.94720381      6.69306327      8.90453481
O       4.07827507      6.78796216      3.98039141
Ni      2.12412334      6.61541051      8.97710118
