84
CIF: Ru-Cu-CeO2-CO.cif | data_image0
Ce     1.93038582     1.11050507     0.88387043
Ce     0.00323893     2.22596580     4.01354282
Ce    -5.74664087    10.04787383     7.21583295
Ce     5.81181033     1.12175166     0.90127712
Ce     3.86700168     2.23389712     4.03630986
Ce     3.86196066     0.01343798     7.27420741
Ce     9.66901012     1.12377363     0.90450652
Ce     7.71913063     2.24461106     4.09977595
Ce     2.08395223     9.93987540     7.19456530
Ce    -0.00709724     4.47602159     0.89067279
Ce    -1.95595260     5.58274837     4.05529707
Ce    -1.79774077     3.27298496     7.18319229
Ce     3.86254305     4.47635356     0.87798423
Ce     1.92752583     5.59057030     4.03917429
Ce     1.91947672     3.35663705     7.18852111
Ce     7.74213807     4.46545905     0.90125422
Ce     5.80490407     5.59258466     4.02692300
Ce    -1.94645625     7.83004003     0.90010904
Ce    -3.85718760     8.95213162     4.04052319
Ce    -3.87183147     6.76633167     7.18636912
Ce     1.92815559     7.82745473     0.89060408
Ce    -0.00953565     8.95663460     4.07512091
Ce    -0.02117169     6.69933205     7.20246064
Ce     5.81127600     7.83258510     0.88371011
Ce     3.89004792     8.93723608     4.02213908
Ce     3.87728866     6.70200094     7.20389788
Cu     4.99898199     3.84084098     6.60179036
Ru     6.76738349     2.80120548     8.28984634
O     11.61334069     0.00154917     0.10141687
O      1.93374817     1.11785271     3.21948282
O      0.02106429     2.22983425     6.34708057
O     -0.00785227     2.23805103     1.69392277
O     -5.78671694    10.05163896     4.84087915
O      1.83520181     1.17932385     8.02599422
O     -1.93899312    10.05733740     0.10496691
O      5.82103219     1.11917992     3.25585002
O      3.86868541     2.28723722     6.41166542
O      3.86763657     2.23577757     1.68132582
O      3.87480284     0.00432281     4.83359763
O      6.12684500     1.08759082     8.40520705
O      7.73821774     0.00761509     0.10924988
O      9.67697653     1.11311540     3.23769115
O      7.78442874     2.20288239     6.56830128
O      7.74357843     2.23531483     1.71563532
O      7.78291700     0.01620275     4.87464023
O      9.80980070     1.03835646     8.00253176
O      9.67032270     3.35425987     0.10911246
O     -0.01405373     4.48105143     3.23940300
O     -2.02506830     5.49785193     6.43794581
O     -1.94403436     5.59119430     1.70564938
O      9.66753219     3.31610699     4.85808200
O      0.00620261     4.44908001     7.98656583
O      1.92738314     3.35244915     0.09928684
O      3.85604556     4.48269995     3.21167245
O      1.87740326     5.62527227     6.35410233
O      1.92862022     5.59252216     1.67404250
O      1.93212366     3.35869889     4.82787679
O      3.73182667     4.57381196     7.96638463
O      5.81155478     3.35101064     0.10766953
O      7.74206093     4.47026452     3.25061986
O      5.85075190     5.58077508     6.43322407
O      5.80528807     5.59217007     1.68114259
O      5.79235963     3.37187547     4.81045738
O      7.90565111     4.23240701     8.38188165
O     -3.87155109     6.71022987     0.10512724
O     -1.94103534     7.82385235     3.23948177
O     -3.85513632     8.91431518     6.41879907
O     -3.87509971     8.94378428     1.69355631
O     -3.87505901     6.72215773     4.85546427
O     -1.92840435     7.67943133     8.01285648
O     -0.01209783     6.71325780     0.10434852
O      1.92415675     7.82505638     3.25344163
O      0.08464005     8.97367114     6.46229835
O     -0.00628994     8.94736548     1.70514550
O     -0.06838091     6.72235239     4.88511018
O      2.00236554     7.80129239     8.02307515
O      3.86815347     6.71410280     0.09951587
O      5.81012464     7.82577599     3.22202741
O      3.92454798     8.89947525     6.37802932
O      3.86556896     8.94715423     1.69389986
O      3.88383396     6.68985670     4.84704148
O      5.86024527     7.81059415     8.01416503
O      5.30073792     3.65105502    10.86107461
C      5.84318660     3.33659821     9.88777443
