84
CIF: Ru-Fe-CeO2-Ov-CO2.cif | data_image0
Ce     1.93038582     1.11050507     0.88387043
Ce     0.00136706     2.23620286     4.04158428
Ce     5.81577558    10.03828194     7.24560670
Ce     5.81181033     1.12175166     0.90127712
Ce     3.83225846     2.21241571     3.99644659
Ce    -2.02939282     9.96535307     7.24262281
Ce     9.66901012     1.12377363     0.90450652
Ce     7.76078863     2.23229205     4.03471578
Ce     2.03821274     9.96236668     7.31711311
Ce    -0.00709724     4.47602159     0.89067279
Ce    -1.95027511     5.57562597     4.11536397
Ce    -1.73805777     3.32986672     7.32092570
Ce     3.86254305     4.47635356     0.87798423
Ce     1.94418045     5.58348915     4.06580316
Ce     1.86718864     3.28549428     7.24330235
Ce     7.74213807     4.46545905     0.90125422
Ce     5.80462438     5.62360076     3.98684314
Ce    -1.94645625     7.83004003     0.90010904
Ce    -3.88735205     8.92664665     4.05429709
Ce     7.71650960     6.72689251     7.31803267
Ce     1.92815559     7.82745473     0.89060408
Ce     0.00108394     8.95912542     4.09790186
Ce    -0.00902964     6.70285569     7.27746478
Ce     5.81127600     7.83258510     0.88371011
Ce     3.86392216     8.96553987     4.00958552
Ce     3.84096110     6.87640496     7.14930182
Fe     5.22847453     3.64247061     6.53383252
Ru     6.77002505     2.81003683     8.04696670
O     11.61334069     0.00154917     0.10141687
O      1.93571927     1.10000520     3.21302525
O      0.05811389     2.19264748     6.38349317
O     -0.00785227     2.23805103     1.69392277
O      5.81321569    10.04752811     4.82252464
O      1.98788026     0.95870246     8.08828231
O     -1.93899312    10.05733740     0.10496691
O      5.78793714     1.11323101     3.24133809
O      3.96132930     2.31101461     6.52550373
O      3.86763657     2.23577757     1.68132582
O      3.83792220     0.04286954     4.88797910
O      5.92097139     1.32975144     8.59664752
O      7.73821774     0.00761509     0.10924988
O      9.67891895     1.12211389     3.22336344
O      7.72804280     2.27503015     6.52651859
O      7.74357843     2.23531483     1.71563532
O      7.74018419     0.04404680     4.85025062
O      9.88133944     0.99414466     8.12179775
O      9.67032270     3.35425987     0.10911246
O     -0.00719981     4.49327103     3.26188883
O     -1.95638801     5.58646733     6.45888242
O     -1.94403436     5.59119430     1.70564938
O      9.66259107     3.31974604     4.85142251
O      0.06830026     4.63451249     8.13446285
O      1.92738314     3.35244915     0.09928684
O      3.86729245     4.47914993     3.21496316
O      2.11332350     5.55277643     6.43722076
O      1.92862022     5.59252216     1.67404250
O      1.95594981     3.32818974     4.79491646
O      3.53374245     4.73038960     9.35965686
O      5.81155478     3.35101064     0.10766953
O      7.74386392     4.47355272     3.23427169
O      5.56624869     5.44742519     6.56510265
O      5.80528807     5.59217007     1.68114259
O      5.80949092     3.36109278     4.76027190
O      7.55991113     4.30468713     8.63871688
O     -3.87155109     6.71022987     0.10512724
O     -1.93955713     7.81910964     3.29752932
O     -3.86155721     8.91678049     6.40121099
O     -3.87509971     8.94378428     1.69355631
O      7.64742404     6.66106843     4.87220333
O     -1.88471326     7.88677530     8.11407643
O     -0.01209783     6.71325780     0.10434852
O      1.91414299     7.82950699     3.24752374
O     -0.04930692     9.03190826     6.48852315
O     -0.00628994     8.94736548     1.70514550
O      0.03522002     6.71363521     4.93800921
O      1.95262864     7.72004516     8.08463169
O      3.86815347     6.71410280     0.09951587
O      5.81299413     7.83248622     3.19848702
O      3.88597769     8.93314062     6.33937079
O      3.86556896     8.94715423     1.69389986
O      3.90491702     6.74367716     4.79281058
O      5.67766755     7.86820465     8.05910122
O      4.22276640     4.37348678    11.57982844
C      3.88114042     4.55301438    10.47770108
