90
CIF: CH2CCH2+H.cif | data_image0
O      0.00261135     0.00382715     0.19995339
O      1.90826388     1.10350169     3.33299656
O      0.21964393     2.29900767     6.51339426
O      0.00261135     2.21285656     1.76196664
O     11.44681470     0.03820268     4.98713147
O      1.80133036     1.43819939     8.39346022
O      3.82876252     0.00382715     0.19995339
O      5.74494789     1.10575469     3.32362338
O      3.53183172     2.47634388     6.68856119
O      3.82876252     2.21285656     1.76196664
O      3.83652986     0.09494614     4.99821972
O      5.86470475     1.03271942     8.25125571
O      7.65492518     0.00382715     0.19995339
O      9.55457757     1.09559536     3.32472965
O      7.69883042     2.16948459     6.52969240
O      7.65492518     2.21285656     1.76196664
O      1.90812390     9.93256970     4.95745019
O      9.64199470     0.96901722     8.22063014
O     -1.91046424     3.31737126     0.19995339
O      0.01058183     4.42656147     3.32682366
O     -1.76702205     5.52986801     6.56584533
O     -1.91046998     5.52641062     1.76196664
O     -1.87356307     3.29608705     4.95439010
O      0.37802226     4.16103226     8.44110498
O      1.91568694     3.31737126     0.19995339
O      3.82562168     4.41013887     3.33913822
O      1.93613510     5.16274834     6.63059715
O      1.91568120     5.52641062     1.76196664
O      1.88379448     3.29208323     4.93059581
O      3.91723607     4.47991511     8.76925276
O      5.74184959     3.31737126     0.19995339
O      7.65248480     4.43156591     3.38298406
O      5.76506876     5.55536449     6.52682666
O      5.74184385     5.52641062     1.76196664
O      5.69781698     3.26565477     4.98591207
O      7.70790996     4.57488187     8.28957951
O     -3.82354556     6.63092532     0.19995339
O     -1.89641824     7.74389277     3.37961017
O     -3.87196230     8.90982258     6.57537091
O     -3.82354556     8.83995473     1.76196664
O     -3.76880574     6.64232130     5.02146888
O     -1.87222778     7.65678695     8.24849958
O      0.00260561     6.63092532     0.19995339
O      1.90964716     7.73724654     3.31653577
O      0.00479555     8.81316071     6.49245170
O      0.00260561     8.83995473     1.76196664
O      0.09753639     6.61263685     4.99969893
O      1.77751684     7.71106427     8.18953898
O      3.82876826     6.63092532     0.19995339
O      5.75521918     7.72958986     3.38695814
O      3.81773497     8.83853922     6.51768433
O      3.82876826     8.83995473     1.76196664
O      3.76046910     6.60451095     4.96520191
O      5.81934555     7.81227067     8.27756962
Ce     1.91568694     1.10834185     0.98097142
Ce    -0.04336564     2.19044701     4.08885473
Ce     5.66465561     9.85045363     7.36754387
Ce     5.74184959     1.10834185     0.98097142
Ce     3.85556309     2.20560370     4.11854475
Ce    -1.85787525     9.93926066     7.45295246
Ce     9.56800076     1.10834185     0.98097142
Ce     7.65255172     2.21842407     4.18573196
Ce     7.64025508     0.00320504     7.35231724
Ce     0.00261135     4.42188597     0.98097142
Ce    -1.88939365     5.51544396     4.18990420
Ce     9.54492031     3.28489437     7.44705924
Ce     3.82877400     4.42188597     0.98097142
Ce     1.93143632     5.54157014     4.11074612
Ce     7.65492518     4.42188597     0.98097142
Ce     5.74492973     5.51943939     4.21484964
Ce     5.82724967     3.32767059     7.47230504
Ce    -1.91046998     7.73544003     0.98097142
Ce    -3.81751563     8.85472347     4.20051069
Ce    -3.79988903     6.62787387     7.40348011
Ce     1.91569268     7.73544003     0.98097142
Ce     0.00514121     8.85125590     4.15207545
Ce    -0.01193544     6.72614233     7.35254876
Ce     5.74184385     7.73544003     0.98097142
Ce     3.81915171     8.82076824     4.16001834
Ce     3.84964069     6.63968882     7.44215224
Nb     1.82170559     3.26285226     6.94572944
C      3.75205716     4.50661696    10.16621336
C      2.64955911     3.65851449    10.66554567
C      2.47527561     2.58924913    11.41627142
H      3.58808634     5.54117120    10.54937605
H      4.67670460     4.15519204    10.69368951
H      0.73191339     4.14269533     9.35421905
H      1.88790680     1.72491734     9.32373605
H      1.48665059     2.18407125    11.65649734
H      3.33566382     2.05304215    11.84971838
