85
CIF: Y-W-CeO2-O-CO.cif | data_image0
Ce     1.93596140     1.11772783     0.89035214
Ce    -0.00831464     2.21815685     4.05641795
Ce    -5.59780727     9.93241286     7.18919044
Ce     5.80789581     1.11772783     0.89035214
Ce     3.79890882     2.19950547     3.96996790
Ce    -1.97756744     9.95327078     7.25425361
Ce     9.67981860     1.11772783     0.89035214
Ce     7.74227758     2.25670599     4.03813259
Ce     1.98736796    10.04530159     7.26460967
Ce     0.00000000     4.47091133     0.89035214
Ce    -1.93151090     5.59694841     4.03020146
Ce    -1.80016980     3.47892775     7.20866002
Ce     3.87193441     4.47091133     0.89035214
Ce     1.94689502     5.59676173     4.08749073
Ce     1.90209776     3.30593197     7.28742795
Ce     7.74385721     4.47091133     0.89035214
Ce     5.81562725     5.62421225     4.04701072
Ce    -1.93596721     7.82410489     0.89035214
Ce    -3.84624049     8.90853743     4.00555530
Ce    -3.73786435     6.68212792     7.28036281
Ce     1.93596721     7.82410489     0.89035214
Ce     0.01410469     8.96794161     4.06443341
Ce     0.07647361     6.73592751     7.23360283
Ce     5.80789000     7.82410489     0.89035214
Ce     3.89742068     8.95867573     4.06058289
Ce     3.87159581     6.74562636     7.30214561
W      5.55328132     3.34842834     6.85774851
Y      7.54901188     2.94368244     9.54036195
O      0.00000000     0.00000000     0.09999685
O      1.90761408     1.10943386     3.20129884
O     -0.15573282     2.10209639     6.54763439
O      0.00000000     2.23545567     1.68070743
O     -5.74072942    10.04934319     4.86898426
O      1.87405616     0.99534779     8.11272879
O      3.87192279     0.00000000     0.09999685
O      5.82129310     1.13727431     3.23721458
O      4.10635096     2.17870577     6.40878833
O      3.87192279     2.23545567     1.68070743
O     -1.95111005    10.05678262     4.78986340
O      5.84886587     2.27097344     8.47575535
O      7.74385721     0.00000000     0.09999685
O      9.69328266     1.12605355     3.24520254
O      7.40369365     2.60138623     6.51037637
O      7.74385721     2.23545567     1.68070743
O      7.79252700     0.09168059     4.88209688
O      9.00142722     1.75193404     8.71369450
O     -1.93596140     3.35318350     0.09999685
O      0.00586546     4.46667701     3.27316441
O     -1.91105945     5.57503702     6.38972575
O     -1.93596721     5.58864923     1.68070743
O      9.67589504     3.31359938     4.89502006
O     -0.04443685     4.51236920     8.08513231
O      1.93596140     3.35318350     0.09999685
O      3.76883643     4.43794540     3.23926006
O      1.91543809     5.58670330     6.42063401
O      1.93595559     5.58864923     1.68070743
O      1.90370351     3.24625101     4.90968339
O      5.80789581     3.35318350     0.09999685
O      7.79819553     4.41230076     3.24616871
O      6.15022994     5.14869896     6.57931594
O      5.80789000     5.58864923     1.68070743
O      5.64881352     3.31900272     4.88069353
O      8.23417500     4.63992096     8.63773836
O     -3.87192860     6.70637706     0.09999685
O     -1.90886032     7.81154106     3.22095250
O     -3.81055427     8.87405055     6.39189063
O     -3.87192860     8.94183273     1.68070743
O     -3.80612690     6.72441323     4.89230396
O     -1.89044057     7.69458853     8.10802455
O     -0.00000581     6.70637706     0.09999685
O      1.95069462     7.84732281     3.27070809
O      0.03743707     9.01131347     6.46174937
O     -0.00000581     8.94183273     1.68070743
O      0.00465985     6.75018062     4.87415251
O      3.87192860     6.70637706     0.09999685
O      5.80985069     7.90887484     3.21692572
O      3.97304174     9.13228393     6.59058142
O      3.87192860     8.94183273     1.68070743
O      3.88485044     6.79989873     4.94274322
O      6.02366460     7.74080436     8.04481591
O      1.87622337     7.79576349     8.15132797
O      4.17575185     4.28429654     7.83387862
O      7.42663372     2.91694680    12.11553749
O      7.37840736     2.91181480    14.46369930
C      7.40409316     2.91534866    13.29625396
