89
CIF: CH2COCH2→CH2+CH2CO.cif | data_image0
O      0.00261135     0.00382715     0.19995339
O      1.91996299     1.11125179     3.34575260
O      0.07264992     2.24637430     6.57641665
O      0.00261135     2.21285656     1.76196664
O     11.46039697     0.02054570     4.98270624
O      1.93706817     1.02083403     8.07119839
O      3.82876252     0.00382715     0.19995339
O      5.74179131     1.10477532     3.33702067
O      3.81733419     2.27837845     6.61145764
O      3.82876252     2.21285656     1.76196664
O      3.84239176     0.02513723     5.00007232
O      5.76519949     1.12112274     8.17376519
O      7.65492518     0.00382715     0.19995339
O      9.56762656     1.11129480     3.33132972
O      7.67048884     2.22432167     6.54797975
O      7.65492518     2.21285656     1.76196664
O      7.65009339     0.01687214     4.97612700
O      9.59133304     1.09251450     8.14964895
O     -1.91046424     3.31737126     0.19995339
O      0.02433438     4.40958589     3.35616365
O     -1.96947700     5.57306095     6.44973682
O     -1.91046998     5.52641062     1.76196664
O     -1.88449761     3.29890789     4.98803845
O      1.91568694     3.31737126     0.19995339
O      3.81140349     4.40607133     3.36294946
O      1.93472707     5.75831574     6.49962369
O      1.91568120     5.52641062     1.76196664
O      1.93008243     3.28732740     5.04380137
O      4.61187061     4.81283605     9.05465379
O      5.74184959     3.31737126     0.19995339
O      7.65219492     4.40955154     3.34406050
O      5.62420525     5.45827429     6.57586430
O      5.74184385     5.52641062     1.76196664
O      5.75276689     3.28528846     4.98480294
O      7.64849437     4.43604196     8.14464338
O     -3.82354556     6.63092532     0.19995339
O     -1.93441553     7.74606791     3.35050248
O     -3.82907368     8.80001560     6.48733094
O     -3.82354556     8.83995473     1.76196664
O      7.58157191     6.60932847     4.97226539
O     -1.96014911     7.76248368     8.16114816
O      0.00260561     6.63092532     0.19995339
O      1.91132273     7.73733702     3.35474978
O      0.02172989     8.82746042     6.54876397
O      0.00260561     8.83995473     1.76196664
O     -0.03303978     6.63549936     4.95046834
O      1.95901844     7.80825016     8.26420610
O      3.82876826     6.63092532     0.19995339
O      5.74305806     7.74966827     3.32682032
O      3.79849892     8.83703755     6.51393685
O      3.82876826     8.83995473     1.76196664
O      3.86701255     6.65924958     4.94518155
O      5.72051026     7.77172352     8.12882132
O     -0.49181222     4.71570812     8.41006468
O      2.20440386     3.91686132     8.47970915
Ce     1.91568694     1.10834185     0.98097142
Ce    -0.00658433     2.22057170     4.14327566
Ce     5.71379632     9.92793289     7.33477304
Ce     5.74184959     1.10834185     0.98097142
Ce     3.84767098     2.20982417     4.14461214
Ce    -1.88290460     9.89083786     7.34006792
Ce     9.56800076     1.10834185     0.98097142
Ce     7.66775596     2.20909722     4.15712532
Ce     7.66930209     0.01333888     7.36837750
Ce     0.00261135     4.42188597     0.98097142
Ce    -1.91881938     5.52322492     4.14961712
Ce    -1.86899802     3.39316556     7.39883499
Ce     3.82877400     4.42188597     0.98097142
Ce     1.90997316     5.54627150     4.22195882
Ce     7.65492518     4.42188597     0.98097142
Ce     5.72148847     5.51699414     4.15843750
Ce     5.83606814     3.28340895     7.34710512
Ce    -1.91046998     7.73544003     0.98097142
Ce    -3.83715849     8.83613986     4.14869671
Ce     7.62247699     6.63106992     7.32497321
Ce     1.91569268     7.73544003     0.98097142
Ce     0.00294171     8.83354314     4.16041997
Ce    -0.01657770     6.60438809     7.38290082
Ce     5.74184385     7.73544003     0.98097142
Ce     3.82320141     8.84478335     4.13260082
Ce     3.76136159     6.71858047     7.34073058
Cu     1.93882650     2.39964508     6.73785016
C      1.55141518     3.55999040    10.81256005
C      2.25897342     3.80799883     9.68411239
C      4.04984788     4.48323386    10.18381505
H      0.50120263     3.87036214    10.78566488
H      2.02795402     3.28470866    11.74822919
H      4.34393666     3.52320992    10.65452588
H      3.79407559     5.29086275    10.88683302
