    82
 Tv_1:  11.598200   0.000000   0.000000 Tv_2:  -5.799100  10.044336   0.000000 Tv_3:   0.000000   0.000000  22.891600
Ce      2.14531905      1.20773094      3.19108904
Ce      0.23265609      2.34926885      9.66985687
Ce      0.21521208      0.08985234      6.43257916
Ce      6.01134706      1.20773094      3.19108904
Ce      4.05622600      2.23420895      9.61217919
Ce      4.07969693      0.08052956      6.40046456
Ce      9.87749105      1.20773094      3.19108904
Ce      7.94172525      2.32421707      9.69099056
Ce      7.94318722      0.08958868      6.43079050
Ce      0.21230505      4.55580941      3.19108904
Ce     -1.66171678      5.68528148      9.64568473
Ce     -1.71940763      3.44119137      6.43124119
Ce      4.07833306      4.55580941      3.19108904
Ce      2.14914090      3.46549417      6.42945962
Ce      7.94447705      4.55580941      3.19108904
Ce      6.07408877      5.73366275      9.61176145
Ce      6.00825217      3.44063073      6.42394500
Ce     -1.72076694      7.90398832      3.19108904
Ce     -3.64507354      9.01270989      9.65689963
Ce     -3.64469533      6.79051692      6.40047737
Ce      2.14526106      7.90398832      3.19108904
Ce      0.22894626      8.95967697      9.64566166
Ce      0.23577149      6.77364992      6.41393365
Ce      6.01140505      7.90398832      3.19108904
Ce      4.06512817      8.98985461      9.66869441
Ce      4.05728789      6.77184632      6.42869239
O       0.21230505      2.32375710      2.40201559
O       2.17066035      1.20383692     10.48093145
O       2.14371181      1.20778018      5.60682314
O       0.23381673      2.32842738      7.28705077
O       0.21576760      0.08934323      8.86759911
O       0.21230505      0.09170479      3.98039141
O       4.07833306      2.32375710      2.40201559
O       5.99013692      1.19831000     10.45772382
O       6.01889293      1.21560418      5.60159553
O       4.08720937      2.29272408      7.26082720
O       4.06958603      0.05546870      8.82667211
O       4.07833306      0.09170479      3.98039141
O       7.94436106      2.32375710      2.40201559
O       9.87140840      1.21014980     10.49205535
O       9.87294850      1.21064362      5.63014135
O       7.90928965      2.34400788      7.30835647
O       7.95397126      0.07315818      8.87576836
O       7.94436106      0.09170479      3.98039141
O      -1.72076694      5.67193601      2.40201559
O       0.26195968      4.61482459     10.48946437
O       0.17458299      4.52106073      5.59194813
O      -1.72912927      5.65814067      7.24135787
O      -1.69939528      3.43918905      8.87672197
O      -1.72070895      3.43978325      3.98039141
O       2.14526106      5.67193601      2.40201559
O       4.12763248      4.52646947      5.60032425
O       2.15344918      5.66680875      6.99860958
O       2.21301309      3.49496807      8.88783949
O       2.14531905      3.43978325      3.98039141
O       6.01128907      5.67193601      2.40201559
O       7.93995097      4.57619795     10.45725288
O       7.94112516      4.54459551      5.60168962
O       6.04077452      5.67764359      7.26003832
O       5.88551275      3.51058131      8.95462498
O       6.01134706      3.43978325      3.98039141
O      -3.65378095      9.02001447      2.40201559
O      -1.70558830      7.89262765     10.47603841
O      -1.72236637      7.90400108      5.59830579
O      -3.66096861      9.02299833      7.24393218
O      -3.62941980      6.81079335      8.82619562
O      -3.65378095      6.78796216      3.98039141
O       0.21224706      9.02001447      2.40201559
O       2.11772890      7.83140580     10.48966520
O       2.15591290      7.95351225      5.59192712
O       0.21921866      9.03313787      7.24115963
O       0.23889756      6.77172361      8.78142341
O       0.21224706      6.78796216      3.98039141
O       4.07827507      9.02001447      2.40201559
O       6.02550424      7.88209300     10.48056970
O       6.01004417      7.90467554      5.60698529
O       4.08426355      9.00058288      7.28572739
O       4.06394653      6.70494190      8.88436903
O       4.07827507      6.78796216      3.98039141
Pd      2.05186635      5.72537295      9.84277308
C       3.34980391      4.98392481     10.92815269
H       3.00496177      5.18190869     11.97910446
