89
CIF: CH2+CO2.cif | data_image0
O      0.00261135     0.00382715     0.19995339
O      1.91890483     1.08788843     3.33860838
O      0.04808125     2.20548358     6.56524797
O      0.00261135     2.21285656     1.76196664
O     -5.68606062     9.92568267     4.99183323
O      1.85180561     0.61354539     8.46620600
O      3.82876252     0.00382715     0.19995339
O      5.74744457     1.09864976     3.32811287
O      3.74724664     2.30221431     6.63618443
O      3.82876252     2.21285656     1.76196664
O      3.82648214     0.06851508     4.98426077
O      5.77684172     1.17853489     8.22419416
O      7.65492518     0.00382715     0.19995339
O      9.57182632     1.09963991     3.36486855
O      7.64017281     2.17196668     6.50874391
O      7.65492518     2.21285656     1.76196664
O      1.89221657     9.92048008     4.98537186
O      9.53786333     0.98806919     8.25233194
O     -1.91046424     3.31737126     0.19995339
O     -0.01482811     4.43865998     3.34579926
O     -1.90493183     5.60731244     6.70160641
O     -1.91046998     5.52641062     1.76196664
O     -1.92501440     3.34489043     4.94919099
O      1.91568694     3.31737126     0.19995339
O      3.85215293     4.43874229     3.31776762
O      1.92350585     5.43812201     6.67379085
O      1.91568120     5.52641062     1.76196664
O      1.95015437     3.34835990     4.82708339
O      4.01546556     4.52914589     8.73622352
O      5.74184959     3.31737126     0.19995339
O      7.64294270     4.41076055     3.33019087
O      5.61030297     5.46477938     6.54669918
O      5.74184385     5.52641062     1.76196664
O      5.73493645     3.28101541     4.97482681
O      7.49583723     4.43228974     8.20695482
O     -3.82354556     6.63092532     0.19995339
O     -1.91974741     7.73208543     3.38006740
O     -3.72172966     8.68987285     6.52686155
O     -3.82354556     8.83995473     1.76196664
O      7.61210194     6.53566160     4.98665604
O     -1.99338350     7.71631806     8.78910328
O      0.00260561     6.63092532     0.19995339
O      1.91319505     7.74996742     3.32839980
O     -0.05528232     8.85607686     6.61736235
O      0.00260561     8.83995473     1.76196664
O      0.03737472     6.63850379     4.95950838
O      2.04943384     7.81427095     8.24286209
O      3.82876826     6.63092532     0.19995339
O      5.74098853     7.72157162     3.35089818
O      3.84476072     8.85649651     6.49710975
O      3.82876826     8.83995473     1.76196664
O      3.78330634     6.64178821     4.98082601
O      5.72614821     7.67742076     8.16301250
O     -0.63419797     4.37425183     9.70336559
O     -0.72918959     3.70131116    11.95513505
Ce     1.91568694     1.10834185     0.98097142
Ce     0.02287275     2.21184540     4.22421623
Ce     0.06335708     0.05572116     7.39698557
Ce     5.74184959     1.10834185     0.98097142
Ce     3.82452541     2.20888991     4.12052757
Ce     3.75096379     0.13869741     7.37627095
Ce     9.56800076     1.10834185     0.98097142
Ce     7.65794781     2.20219433     4.13114630
Ce     7.68272030     0.01019487     7.38017567
Ce     0.00261135     4.42188597     0.98097142
Ce    -1.90640912     5.51573291     4.17577958
Ce     9.53254778     3.21952506     7.33222835
Ce     3.82877400     4.42188597     0.98097142
Ce     1.90696514     5.53637185     4.12177033
Ce     7.65492518     4.42188597     0.98097142
Ce     5.71895589     5.50302009     4.13041042
Ce     5.80404543     3.24576613     7.34385657
Ce    -1.91046998     7.73544003     0.98097142
Ce    -3.82028454     8.83137636     4.17261480
Ce     7.51997704     6.52612917     7.30083381
Ce     1.91569268     7.73544003     0.98097142
Ce    -0.00328076     8.85143738     4.17445538
Ce     0.08696885     6.71213358     7.32709984
Ce     5.74184385     7.73544003     0.98097142
Ce     3.83409153     8.84739041     4.14651053
Ce     3.83448827     6.76343369     7.33123940
Cu     2.36944127     3.60740652     6.76888703
C     -2.10020753     8.47648044     9.83458159
C     -0.68405530     4.03061033    10.83486605
C      2.85819305     3.89377985     8.71818474
H     -3.09183911     8.73130937    10.23205705
H     -1.19077632     8.82425852    10.34883498
H      2.82374787     2.82467079     9.00259073
H      1.97491644     4.47340631     9.04875053
