84
CIF: Re-Ti-CeO2-CO.cif | data_image0
Ce     1.93038582     1.11050507     0.88387043
Ce    -0.00958961     2.22583196     4.03042108
Ce    -5.77344248    10.03219162     7.21368431
Ce     5.81181033     1.12175166     0.90127712
Ce     3.85047070     2.21867632     4.01286362
Ce    -1.95483490    10.02152702     7.31325661
Ce     9.66901012     1.12377363     0.90450652
Ce     7.72927048     2.24753471     4.07018881
Ce     2.09059156     9.91836009     7.20392142
Ce    -0.00709724     4.47602159     0.89067279
Ce    -1.95467271     5.58682889     4.09500549
Ce    -1.78377880     3.30222216     7.26602322
Ce     3.86254305     4.47635356     0.87798423
Ce     1.92909861     5.59393622     4.04989577
Ce     1.86349120     3.32812595     7.20934636
Ce     7.74213807     4.46545905     0.90125422
Ce     5.81478545     5.60910574     4.00897876
Ce    -1.94645625     7.83004003     0.90010904
Ce    -3.85916573     8.93704634     4.06498063
Ce    -3.83549228     6.75342700     7.28923005
Ce     1.92815559     7.82745473     0.89060408
Ce    -0.00830481     8.96123984     4.08359351
Ce    -0.00132442     6.70333268     7.22765838
Ce     5.81127600     7.83258510     0.88371011
Ce     3.88779285     8.94562462     4.00337600
Ce     3.87472836     6.76203748     7.19060737
Ti     5.17153852     3.70870494     6.81070852
Re     6.82034578     2.68695132     8.56748538
O     11.61334069     0.00154917     0.10141687
O      1.93206449     1.11997255     3.22617739
O      0.04146468     2.20306287     6.34536786
O     -0.00785227     2.23805103     1.69392277
O      5.81695518    10.04252610     4.82658409
O      1.84750011     1.20629820     8.05123179
O     -1.93899312    10.05733740     0.10496691
O      5.81464436     1.14357999     3.25250570
O      3.95899105     2.31548710     6.44743566
O      3.86763657     2.23577757     1.68132582
O      3.87811721     0.02044796     4.84615236
O      6.07691586     1.02743130     8.67863660
O      7.73821774     0.00761509     0.10924988
O      9.67419599     1.11584866     3.22313265
O      7.59968251     2.21241679     6.75611485
O      7.74357843     2.23531483     1.71563532
O      7.78440835     0.07780368     4.87213620
O      9.76049186     0.90871776     8.03130087
O      9.67032270     3.35425987     0.10911246
O     -0.01026581     4.47344152     3.26440787
O     -1.92479515     5.53782497     6.42477221
O     -1.94403436     5.59119430     1.70564938
O      9.60861627     3.28566043     4.85041357
O      0.15352205     4.48972812     8.06379703
O      1.92738314     3.35244915     0.09928684
O      3.86248041     4.47133039     3.21144040
O      1.92775029     5.62603584     6.35511590
O      1.92862022     5.59252216     1.67404250
O      1.96028521     3.34319222     4.85282126
O      3.84536920     4.48615786     7.86471398
O      5.81155478     3.35101064     0.10766953
O      7.71667512     4.45436872     3.24936755
O      5.78888725     5.45960897     6.44631425
O      5.80528807     5.59217007     1.68114259
O      5.73796611     3.38934141     4.89777384
O      7.79716571     4.21259314     8.66753472
O     -3.87155109     6.71022987     0.10512724
O     -1.93755483     7.82976314     3.25627376
O     -3.87094118     8.94827008     6.43992233
O     -3.87509971     8.94378428     1.69355631
O      7.71696675     6.70215670     4.83556051
O     -1.77561175     7.74504567     8.09105010
O     -0.01209783     6.71325780     0.10434852
O      1.93260376     7.83697357     3.25624951
O      0.11373465     9.01215720     6.45323143
O     -0.00628994     8.94736548     1.70514550
O     -0.02910495     6.74377128     4.87158332
O      2.03061831     7.80638969     8.03943709
O      3.86815347     6.71410280     0.09951587
O      5.80810620     7.82641274     3.21132909
O      3.88436594     8.89975970     6.31617717
O      3.86556896     8.94715423     1.69389986
O      3.91045011     6.68593933     4.83862844
O      5.68091415     7.84244053     8.02038470
O      5.29076930     3.53449244    11.21520030
C      5.89402929     3.19652036    10.28389069
