84
CIF: Sc-W-CeO2-CO.cif | data_image0
Ce     1.93596140     1.11772783     0.89035214
Ce    -0.01818781     2.21095144     4.04475945
Ce    -5.62253621     9.93087349     7.19850371
Ce     5.80789581     1.11772783     0.89035214
Ce     3.81344652     2.19397198     3.96843928
Ce    -1.96103886     9.96989586     7.28157976
Ce     9.67981860     1.11772783     0.89035214
Ce     7.74633565     2.24986748     4.00340491
Ce     2.02327624     9.97733542     7.24983639
Ce     0.00000000     4.47091133     0.89035214
Ce    -1.94403439     5.60396343     4.06145935
Ce    -1.72642685     3.49192184     7.24579454
Ce     3.87193441     4.47091133     0.89035214
Ce     1.94375939     5.60492750     4.07946871
Ce     1.87962975     3.30809940     7.21580900
Ce     7.74385721     4.47091133     0.89035214
Ce     5.81723025     5.61068534     4.06219867
Ce    -1.93596721     7.82410489     0.89035214
Ce    -3.84504338     8.89736821     4.03362789
Ce    -3.73818167     6.67281480     7.41216905
Ce     1.93596721     7.82410489     0.89035214
Ce     0.01004873     8.97020459     4.06425537
Ce     0.06948179     6.76580563     7.24204949
Ce     5.80789000     7.82410489     0.89035214
Ce     3.90258930     8.94739574     4.05792683
Ce     3.88328821     6.74074544     7.31748303
W      5.41461475     3.37546310     6.93646138
Sc     7.53199008     2.79613173     9.05138140
O      0.00000000     0.00000000     0.09999685
O      1.91151787     1.11725974     3.20747683
O     -0.08570014     2.15135005     6.49843118
O      0.00000000     2.23545567     1.68070743
O     -5.74574771    10.05561371     4.86149377
O      1.89087828     1.18175273     8.04980848
O      3.87192279     0.00000000     0.09999685
O      5.81577730     1.14940121     3.22450449
O      3.99116311     2.20964110     6.39930502
O      3.87192279     2.23545567     1.68070743
O      3.86571359     0.00804981     4.79330528
O      5.58925824     2.40039955     8.60259480
O      7.74385721     0.00000000     0.09999685
O      9.69479204     1.12721372     3.22893760
O      7.27809945     2.64856289     6.84178438
O      7.74385721     2.23545567     1.68070743
O      7.78677876     0.13060257     4.86846274
O      9.04717485     1.64627602     8.59827771
O     -1.93596140     3.35318350     0.09999685
O     -0.00991640     4.45474194     3.28929363
O     -1.81436800     5.54481976     6.41213133
O     -1.93596721     5.58864923     1.68070743
O      9.61475776     3.26966114     4.93631190
O      0.10232745     4.42024225     8.10180482
O      1.93596140     3.35318350     0.09999685
O      3.78312767     4.42282940     3.24647951
O      1.88766179     5.52380388     6.40419828
O      1.93595559     5.58864923     1.68070743
O      1.90426249     3.25479762     4.92029817
O      5.80789581     3.35318350     0.09999685
O      7.79200387     4.40299124     3.24077918
O      5.98144106     5.16257689     6.71636125
O      5.80789000     5.58864923     1.68070743
O      5.69339963     3.28126768     4.96261183
O      8.33692751     4.49601406     8.69468362
O     -3.87192860     6.70637706     0.09999685
O     -1.91421949     7.81221961     3.23050450
O     -3.81675087     8.92732296     6.42822342
O     -3.87192860     8.94183273     1.68070743
O     -3.80662893     6.70427318     4.89325979
O     -1.73173975     7.75536933     8.15236250
O     -0.00000581     6.70637706     0.09999685
O      1.95542744     7.85259960     3.26626359
O      0.04228210     9.03049120     6.43267535
O     -0.00000581     8.94183273     1.68070743
O      0.01857713     6.76580951     4.85868835
O      3.87192860     6.70637706     0.09999685
O      5.80951546     7.89744105     3.22565741
O      3.96486208     9.11029881     6.49659556
O      3.87192860     8.94183273     1.68070743
O      3.87021989     6.77152492     4.93676092
O      5.88105763     7.91290091     8.10783840
O      3.91619257     4.28257487     7.83186825
O      1.89561370     7.78570712     8.12032125
O      6.61857851     3.28555177    12.61095615
C      6.95582595     3.07182500    11.54428368
