83
CIF: Cu-Mo-CeO2-O.cif | data_image0
Ce     1.93596140     1.11772783     0.89035214
Ce     0.00788896     2.25851495     4.04485961
Ce     0.01548511     0.05736467     7.19849144
Ce     5.80789581     1.11772783     0.89035214
Ce     3.81874707     2.22164141     3.97866311
Ce     3.79202142     0.01023728     7.30501336
Ce     9.67981860     1.11772783     0.89035214
Ce     7.80627290     2.21438949     3.97811023
Ce     2.02490014    10.04354905     7.30544064
Ce     0.00000000     4.47091133     0.89035214
Ce    -1.94987950     5.59427762     4.05745445
Ce    -1.80932290     3.40616881     7.26016912
Ce     3.87193441     4.47091133     0.89035214
Ce     1.94127990     5.59468533     4.05237677
Ce     1.87240760     3.45970821     7.28610584
Ce     7.74385721     4.47091133     0.89035214
Ce     5.80528540     5.59275868     3.99607793
Ce    -1.93596721     7.82410489     0.89035214
Ce    -3.88122284     8.93449966     4.07611529
Ce    -3.78189080     6.75557920     7.31760618
Ce     1.93596721     7.82410489     0.89035214
Ce    -0.00436070     8.97583934     4.09565552
Ce    -0.01618293     6.76662256     7.20759416
Ce     5.80789000     7.82410489     0.89035214
Ce     3.88389196     8.92427374     4.09814013
Ce     3.73493267     6.67175452     7.35598069
Mo     5.82300831     3.02682214     6.81171365
O      0.00000000     0.00000000     0.09999685
O      1.91471532     1.11033868     3.22162230
O      0.01097646     2.29927637     6.37210280
O      0.00000000     2.23545567     1.68070743
O      0.00353312     0.02587295     4.88435596
O      1.83181855     1.21835335     7.99758414
O      3.87192279     0.00000000     0.09999685
O      5.81300171     1.11257141     3.21986280
O      4.05919824     2.45373098     6.42213013
O      3.87192279     2.23545567     1.68070743
O      3.84022733     0.06731752     4.85660803
O      5.84273984     1.79509420     8.14229402
O      7.74385721     0.00000000     0.09999685
O      9.70444984     1.10592670     3.22679400
O      7.59678183     2.47049841     6.41881451
O      7.74385721     2.23545567     1.68070743
O      7.78020463     0.06008115     4.86881570
O      9.78962832     1.25515978     8.00139101
O     -1.93596140     3.35318350     0.09999685
O     -0.00077094     4.48367631     3.25759293
O     -1.91929220     5.58967308     6.38143443
O     -1.93596721     5.58864923     1.68070743
O      9.67220643     3.32708288     4.86849906
O     -0.01394904     4.51514994     8.04071210
O      1.93596140     3.35318350     0.09999685
O      3.83130616     4.44061021     3.21566744
O      1.82315226     5.63901832     6.32606551
O      1.93595559     5.58864923     1.68070743
O      1.96810275     3.33096700     4.86782880
O      5.80789581     3.35318350     0.09999685
O      7.79039724     4.43829236     3.22108476
O      5.88517037     4.78027170     7.12165690
O      5.80789000     5.58864923     1.68070743
O      5.81724458     3.25068200     4.84261120
O      8.32909977     4.70777830     8.53250242
O     -3.87192860     6.70637706     0.09999685
O     -1.97948265     7.82999076     3.27076823
O     -3.89408262     8.94745086     6.45286615
O     -3.87192860     8.94183273     1.68070743
O      7.68183448     6.67249792     4.99215753
O     -1.94878832     7.75940515     8.08365884
O     -0.00000581     6.70637706     0.09999685
O      1.97129908     7.82705011     3.28437739
O     -0.00376036     9.00191119     6.46129821
O     -0.00000581     8.94183273     1.68070743
O     -0.03778775     6.77092902     4.83827826
O      3.87192860     6.70637706     0.09999685
O      5.80533528     7.87402984     3.24280600
O      3.91731340     8.94195194     6.47743072
O      3.87192860     8.94183273     1.68070743
O      3.93319910     6.65164490     5.00659499
O      5.84866829     7.60328733     7.92325221
O      1.91058795     7.75020434     8.09084724
O      3.33070133     4.72286169     8.25130751
O      6.33015551     4.01999559    11.26694041
Cu     7.32608027     4.33907988     9.93375369
