90
CIF: H+OH.cif | data_image0
O      0.00261135     0.00382715     0.19995339
O      1.92988514     1.05824381     3.33070487
O     -0.00784959     2.19406147     6.51679258
O      0.00261135     2.21285656     1.76196664
O      5.73199595     9.92897331     4.92627344
O      1.74111684     0.80855946     8.55006583
O      3.82876252     0.00382715     0.19995339
O      5.73399858     1.10576000     3.32745350
O      3.64429153     2.34102010     6.83755319
O      3.82876252     2.21285656     1.76196664
O      3.86570965     0.08050892     5.03320978
O      5.74694320     1.09880752     8.15185899
O      7.65492518     0.00382715     0.19995339
O      9.54901553     1.10595550     3.33010431
O      7.64488889     2.19418082     6.52329295
O      7.65492518     2.21285656     1.76196664
O      7.63380480     0.00327516     4.95609610
O      9.54745045     1.09279219     8.16328090
O     -1.91046424     3.31737126     0.19995339
O     -0.03538493     4.43701097     3.34285003
O     -1.85466759     5.42326530     6.61315106
O     -1.91046998     5.52641062     1.76196664
O      9.54565770     3.29538438     4.96516014
O      0.17056401     4.14149925     8.55425259
O      1.91568694     3.31737126     0.19995339
O      3.87919390     4.43714135     3.34000026
O      2.09021122     5.37080812     6.69127749
O      1.91568120     5.52641062     1.76196664
O      1.91898225     3.30108645     4.76525912
O      4.53447090     4.99426880     8.76241596
O      5.74184959     3.31737126     0.19995339
O      7.63975074     4.42098533     3.36623589
O      5.75359528     5.48714139     6.50772516
O      5.74184385     5.52641062     1.76196664
O      5.68885145     3.25368469     5.04006415
O      7.66360104     4.36344852     8.15795936
O     -3.82354556     6.63092532     0.19995339
O     -1.89576162     7.74175983     3.37399756
O     -3.80321623     8.93008545     6.50474633
O     -3.82354556     8.83995473     1.76196664
O     -3.77844043     6.63372951     5.02901309
O     -2.01215068     7.78608418     8.18736298
O      0.00260561     6.63092532     0.19995339
O      1.91142792     7.73284646     3.33696808
O      0.00205502     8.84422249     6.54392397
O      0.00260561     8.83995473     1.76196664
O      0.05947623     6.59691768     5.00327060
O      2.03401955     7.83151995     8.20676588
O      3.82876826     6.63092532     0.19995339
O      5.76609346     7.71404922     3.34662504
O      3.80071211     8.87154504     6.46026396
O      3.82876826     8.83995473     1.76196664
O      3.82792999     6.64112244     4.96143978
O      5.76711705     7.78929840     8.06065479
Ce     1.91568694     1.10834185     0.98097142
Ce     0.02155016     2.22040803     4.15771821
Ce     5.66185123     9.93609638     7.24111199
Ce     5.74184959     1.10834185     0.98097142
Ce     3.78842390     2.23789275     4.16086715
Ce    -1.87127693     9.90079881     7.34306306
Ce     9.56800076     1.10834185     0.98097142
Ce     7.63149637     2.19539725     4.13063637
Ce     1.90154792     9.92633333     7.33666970
Ce     0.00261135     4.42188597     0.98097142
Ce    -1.88308647     5.51508834     4.18431474
Ce     9.53400985     3.22761860     7.28504518
Ce     3.82877400     4.42188597     0.98097142
Ce     1.93034191     5.47673279     4.19952134
Ce     7.65492518     4.42188597     0.98097142
Ce     5.74832878     5.51790109     4.15994681
Ce     5.78009274     3.30740959     7.37780992
Ce    -1.91046998     7.73544003     0.98097142
Ce    -3.81003920     8.84558311     4.15149083
Ce    -3.80252418     6.63149236     7.34475414
Ce     1.91569268     7.73544003     0.98097142
Ce     0.01754841     8.83274808     4.15605094
Ce     0.09243108     6.61413855     7.40321331
Ce     5.74184385     7.73544003     0.98097142
Ce     3.81653460     8.83473894     4.10471072
Ce     3.85033770     6.70198072     7.30321063
Pd     1.94932592     3.17633627     7.71361700
C      3.44544013     4.81586356     9.63837781
C      2.94213191     3.42031249     9.43827565
C      3.33613144     2.46562540    10.29406704
H      2.64806085     5.57847248     9.46593434
H      3.76838960     4.94546547    10.69249314
H      0.22473712     4.02533779     9.52045862
H      1.59062340     1.03958891     9.48236431
H      3.22124300     1.39133287    10.17702950
H      3.88683244     2.77552774    11.19015980
