83
CIF: W-Fe-CeO2-Ov-O2.cif | data_image0
Ce     1.93038582     1.11050507     0.88387043
Ce    -0.00631661     2.22937203     4.05382711
Ce     5.79070776    10.03532399     7.20510975
Ce     5.81181033     1.12175166     0.90127712
Ce     3.83631079     2.21343628     3.98857105
Ce    -2.07025097     9.92046353     7.19064044
Ce     9.66901012     1.12377363     0.90450652
Ce     7.73065220     2.24446445     4.04460029
Ce     2.03341937     9.97941216     7.35882492
Ce    -0.00709724     4.47602159     0.89067279
Ce    -1.94796136     5.58034803     4.10852527
Ce    -1.75330161     3.33512066     7.32156895
Ce     3.86254305     4.47635356     0.87798423
Ce     1.95047704     5.58034837     4.07354126
Ce     1.88960607     3.28248837     7.28128198
Ce     7.74213807     4.46545905     0.90125422
Ce     5.81634562     5.61801406     3.98329328
Ce    -1.94645625     7.83004003     0.90010904
Ce    -3.88844090     8.91936530     4.02154635
Ce    -3.86988094     6.73750796     7.28362689
Ce     1.92815559     7.82745473     0.89060408
Ce     0.00336499     8.96376548     4.09883977
Ce     0.01776336     6.69365327     7.26390190
Ce     5.81127600     7.83258510     0.88371011
Ce     3.85914378     8.96689096     4.02384875
Ce     3.85415625     6.82337545     7.17504032
Fe     4.98740091     3.79658597     6.49350112
W      6.58867184     2.99834536     8.31080961
O     11.61334069     0.00154917     0.10141687
O      1.92437024     1.10819690     3.20768592
O      0.05233810     2.18144456     6.36676096
O     -0.00785227     2.23805103     1.69392277
O      5.80384583    10.04002466     4.81286910
O      1.97377298     0.93729188     8.02935485
O     -1.93899312    10.05733740     0.10496691
O      5.79172353     1.12350716     3.24103651
O      4.12462823     2.21798488     6.53874473
O      3.86763657     2.23577757     1.68132582
O      3.82213618     0.02002894     4.85657975
O      6.47501727     1.37040125     9.04731384
O      7.73821774     0.00761509     0.10924988
O      9.66953931     1.12473062     3.22373430
O      7.46071744     2.43238125     6.76499175
O      7.74357843     2.23531483     1.71563532
O      7.74080134     0.10841416     4.88138618
O      9.85356220     1.01434522     8.06158791
O      9.67032270     3.35425987     0.10911246
O     -0.00653892     4.47803162     3.28303481
O     -1.95048351     5.58560618     6.43674481
O     -1.94403436     5.59119430     1.70564938
O      9.60529910     3.28851629     4.87754929
O      0.07334949     4.62021996     8.09908254
O      1.92738314     3.35244915     0.09928684
O      3.85714391     4.48114420     3.20010157
O      2.06319958     5.58781477     6.40733416
O      1.92862022     5.59252216     1.67404250
O      1.99302762     3.31429462     4.83408048
O      5.81155478     3.35101064     0.10766953
O      7.73151424     4.45584325     3.23628166
O      5.79665291     5.40712883     6.44732038
O      5.80528807     5.59217007     1.68114259
O      5.74023644     3.37546236     4.81676963
O      7.90545147     4.10221503     8.86118710
O     -3.87155109     6.71022987     0.10512724
O     -1.92202612     7.82273697     3.27174346
O     -3.87926138     8.89432124     6.36732839
O     -3.87509971     8.94378428     1.69355631
O      7.69644011     6.68445452     4.81337065
O     -1.88604932     7.87741388     8.08722808
O     -0.01209783     6.71325780     0.10434852
O      1.92359533     7.84032855     3.26672588
O     -0.05553573     9.05845830     6.49047088
O     -0.00628994     8.94736548     1.70514550
O      0.02460932     6.73174951     4.92166574
O      1.96399412     7.70871627     8.06835995
O      3.86815347     6.71410280     0.09951587
O      5.80004678     7.83273179     3.19499762
O      3.86965343     8.91103625     6.34101796
O      3.86556896     8.94715423     1.69389986
O      3.92624315     6.71289128     4.82554819
O      5.67683108     7.83426515     8.00555784
O      4.11396847     4.36737323     8.05916649
O      5.04168205     3.88957525     9.13606007
