83
CIF: Co-Fe-CeO2-O.cif | data_image0
Ce     1.93038582     1.11050507     0.88387043
Ce     0.00194291     2.22424483     4.01268792
Ce    -5.76087046    10.03229350     7.20129828
Ce     5.81181033     1.12175166     0.90127712
Ce     3.84422994     2.21324818     4.00632890
Ce    -1.89159839    10.04189555     7.31628214
Ce     9.66901012     1.12377363     0.90450652
Ce     7.73847598     2.23934269     4.09428706
Ce     2.04156580     9.99799247     7.19282170
Ce    -0.00709724     4.47602159     0.89067279
Ce    -1.94979848     5.58792651     4.07490531
Ce    -1.82717965     3.29305136     7.19309200
Ce     3.86254305     4.47635356     0.87798423
Ce     1.92908026     5.59348183     4.04996714
Ce     1.84535676     3.32242569     7.20702515
Ce     7.74213807     4.46545905     0.90125422
Ce     5.81519404     5.62587641     4.00651333
Ce    -1.94645625     7.83004003     0.90010904
Ce    -3.85541494     8.93156205     4.09428590
Ce    -3.83214454     6.67609184     7.32321494
Ce     1.92815559     7.82745473     0.89060408
Ce    -0.00642453     8.95455240     4.07486696
Ce    -0.00359924     6.70806065     7.20922023
Ce     5.81127600     7.83258510     0.88371011
Ce     3.88219896     8.94649982     4.01285698
Ce     3.85357162     6.80433550     7.20819119
Fe     5.00816638     3.81935159     6.63646325
Co     6.77928050     2.79359986     8.18135784
O     11.61334069     0.00154917     0.10141687
O      1.93629276     1.11712971     3.22043132
O      0.01239631     2.22573360     6.33207606
O     -0.00785227     2.23805103     1.69392277
O     -5.78894316    10.04877654     4.82957317
O      1.85692688     1.21603701     8.00457376
O     -1.93899312    10.05733740     0.10496691
O      5.81103235     1.16076625     3.25681902
O      3.95951235     2.35367245     6.44956776
O      3.86763657     2.23577757     1.68132582
O      3.87532675     0.04035974     4.85446017
O      6.13721861     1.10277500     8.20406432
O      7.73821774     0.00761509     0.10924988
O      9.67569058     1.11961019     3.23108091
O      7.75446840     2.23170064     6.56012206
O      7.74357843     2.23531483     1.71563532
O      7.76944849     0.04940525     4.84026097
O      9.78320829     1.05828238     7.98485491
O      9.67032270     3.35425987     0.10911246
O     -0.00024059     4.46987181     3.24616410
O     -1.89491200     5.49823196     6.39519620
O     -1.94403436     5.59119430     1.70564938
O      9.65153217     3.30468315     4.83846445
O      0.04354271     4.40748839     8.02793593
O      1.92738314     3.35244915     0.09928684
O      3.87039040     4.47254121     3.21785730
O      1.90642675     5.60693271     6.38189055
O      1.92862022     5.59252216     1.67404250
O      1.95392508     3.33632316     4.85173450
O      5.81155478     3.35101064     0.10766953
O      7.70856118     4.44640385     3.25594034
O      5.75067709     5.46171877     6.44716111
O      5.80528807     5.59217007     1.68114259
O      5.73135474     3.39929600     4.94385070
O      7.92834372     4.19210000     8.21051140
O     -3.87155109     6.71022987     0.10512724
O     -1.94348737     7.83027503     3.26079670
O     -3.86677047     8.93454327     6.44395903
O     -3.87509971     8.94378428     1.69355631
O      7.71294412     6.68222519     4.85232012
O     -1.76416807     7.72191551     8.07251937
O     -0.01209783     6.71325780     0.10434852
O      1.93631461     7.82631266     3.24623608
O      0.09592920     8.95125146     6.39814423
O     -0.00628994     8.94736548     1.70514550
O     -0.02133512     6.71972622     4.84229069
O      2.01213418     7.82115365     8.02770985
O      3.86815347     6.71410280     0.09951587
O      5.80864378     7.82529100     3.22034159
O      3.88594125     8.93855698     6.33250035
O      3.86556896     8.94715423     1.69389986
O      3.89519749     6.70128399     4.85114184
O      5.67974045     7.84896604     8.01004658
O      3.85164435     4.48574609     7.84406502
O      5.88756571     3.31032244     9.46361555
