85
CIF: 1-NH3-NH2+H_fs.cif | data_image0
Ce     5.79999322    10.05480656     8.75659569
Ce     1.94034028     1.12002181     5.64089167
Ce     0.00000000     2.23543938     2.47426506
Ce     3.91392188     0.02388722     8.81226443
Ce     5.81263438     1.11366774     5.60995547
Ce     3.87189458     2.23543938     2.47426506
Ce     7.69959658     0.01405925     8.81175447
Ce     9.67730627     1.10835291     5.62406944
Ce     7.74390532     2.23543938     2.47426506
Ce     9.67823533     3.30309882     8.77981485
Ce     0.00217037     4.43881303     5.62571356
Ce    -1.93600537     5.58869904     2.47426506
Ce     1.97750509     3.37685104     8.81194882
Ce     3.87078386     4.47703295     5.61000189
Ce     1.93588921     5.58869904     2.47426506
Ce     5.82151964     3.36129267     8.73994878
Ce     7.75467095     4.47729133     5.61828592
Ce     5.80789995     5.58869904     2.47426506
Ce     7.69948967     6.73012831     8.77980479
Ce    -1.96256381     7.84182276     5.62580658
Ce    -3.87195266     8.94185811     2.47426506
Ce     1.94830139     7.83132405     5.61750993
Ce    -0.00005808     8.94185811     2.47426506
Ce     3.86196001     6.66155557     8.81162244
Ce     5.79850858     7.82677131     5.62390327
Ce     3.87195266     8.94185811     2.47426506
Cu    -0.00073737     6.70570782     8.13255297
O      0.00143152     0.00087735     6.43543638
O     -0.02591621     2.25156387     9.53396942
O      1.93594729     1.11771969     3.26466483
O      0.00170060     2.22268378     4.81385642
O      0.00000000     0.00000000     1.68386529
O      1.93601576     1.11736052     7.99278919
O     -1.94842965    10.02660199     6.44710936
O      3.90219094     2.25328029     9.53437425
O      5.80795803     1.11771969     3.26466483
O      3.86688650     2.23233130     4.82911716
O      3.87189458     0.00000000     1.68386529
O      5.81092908     1.15092878     7.89192143
O      1.94928392    10.01723526     6.44342401
O      7.74663085     2.24547466     9.52471036
O      9.67985261     1.11771969     3.26466483
O      7.75815208     2.22758352     4.82221504
O      7.74390532     0.00000000     1.68386529
O      9.68048837     1.10543616     7.97221339
O     -1.90119214     3.34130462     6.44137990
O     -2.35718495     5.34525579     9.99756193
O      0.00000000     4.47087876     3.26466483
O     -1.94981854     5.58049432     4.81411483
O     -1.93594729     3.35315907     1.68386529
O     -0.01504446     4.62642454     8.05110084
O      1.90193718     3.35828551     6.44689666
O      2.39051284     5.32240958     9.85761401
O      3.87201074     4.47087876     3.26466483
O      1.94070592     5.58210350     4.81125998
O      1.93594729     3.35315907     1.68386529
O      3.90165119     4.45758075     7.89233850
O      5.83656907     3.37016119     6.39872594
O      5.81746434     5.58619523     9.52498909
O      7.74390532     4.47087876     3.26466483
O      5.80812499     5.60517873     4.82209860
O      5.80795803     3.35315907     1.68386529
O      7.78288080     4.49395879     7.94655211
O     -3.86486943     6.74296006     6.44107668
O     -3.87181696     8.91069815     9.53424322
O     -1.93600537     7.82413842     3.26466483
O     -3.88205493     8.94978320     4.81365742
O     -3.87195266     6.70641873     1.68386529
O     -1.80882177     7.73243511     8.05163704
O     -0.02024583     6.69457918     6.29588010
O     -0.00306705     9.47032218     9.85721258
O      1.93600537     7.82413842     3.26466483
O     -0.00315985     8.94923773     4.81116548
O     -0.00005808     6.70641873     1.68386529
O      1.74795555     7.71619825     8.02244942
O      3.84194014     6.73939982     6.44343622
O      3.81841084     8.91041806     9.51335390
O      5.80789995     7.82413842     3.26466483
O      3.87816949     8.94565974     4.80939674
O      3.87195266     6.70641873     1.68386529
O      5.79763358     7.83076875     7.97188572
N      0.12921395     6.77961506     9.93434172
H      0.03452606     7.79789783    10.23179990
H      0.96258293     6.18610048    10.23164505
H     -1.53545006     5.81985123    10.27018760
