83
CIF: O2—Olatt+Osur.cif | data_image0
Ce     1.93596140     1.11772783     0.89035214
Ce    -0.02883145     2.22323551     4.04279519
Ce    -5.60071271     9.93941338     7.15998631
Ce     5.80789581     1.11772783     0.89035214
Ce     3.84542479     2.22514004     4.00715035
Ce     3.91135471     0.01721006     7.18964724
Ce     9.67981860     1.11772783     0.89035214
Ce     7.74026839     2.24129346     4.02302075
Ce     7.67804357     0.02416699     7.25271823
Ce     0.00000000     4.47091133     0.89035214
Ce    -1.92789443     5.57851681     4.04165774
Ce     9.60552947     3.38346067     7.23872770
Ce     3.87193441     4.47091133     0.89035214
Ce     1.94221221     5.59266268     4.08215052
Ce     1.86047487     3.29676780     7.22556705
Ce     7.74385721     4.47091133     0.89035214
Ce     5.80716177     5.62985180     4.03238064
Ce    -1.93596721     7.82410489     0.89035214
Ce    -3.83835264     8.93222350     3.99717780
Ce    -3.83950219     6.70697526     7.21272117
Ce     1.93596721     7.82410489     0.89035214
Ce     0.01770904     8.95033138     4.03937220
Ce     0.01848803     6.69997846     7.25423010
Ce     5.80789000     7.82410489     0.89035214
Ce     3.86497688     8.94967963     4.06606737
Ce     3.90743529     6.76986412     7.33328878
Y      5.68291815     3.43548239     6.86992768
O      0.00000000     0.00000000     0.09999685
O      1.92332451     1.11863775     3.21019207
O     -0.16600298     2.08824102     6.59759553
O      0.00000000     2.23545567     1.68070743
O     -5.75041324    10.03036549     4.85011374
O      2.00597669     1.08559814     7.99525434
O      3.87192279     0.00000000     0.09999685
O      5.80559701     1.09149846     3.22480905
O      3.86168020     2.23488983     6.34919496
O      3.87192279     2.23545567     1.68070743
O      3.86650470     0.00931704     4.81707245
O      5.90996461     1.22994005     8.20456417
O      7.74385721     0.00000000     0.09999685
O      9.69687270     1.10899670     3.24354069
O      7.70060998     2.31123759     6.25105199
O      7.74385721     2.23545567     1.68070743
O      1.95737962    10.01673416     4.83086705
O      8.60992606     1.76686016     8.73807993
O     -1.93596140     3.35318350     0.09999685
O      0.01166003     4.48270707     3.23711963
O     -2.00830011     5.54997971     6.45595719
O     -1.93596721     5.58864923     1.68070743
O     -1.88282228     3.36640276     4.84788070
O     -0.01697826     4.44293261     7.99551677
O      1.93596140     3.35318350     0.09999685
O      3.80115903     4.50488695     3.25441905
O      2.02923663     5.44369163     6.48100125
O      1.93595559     5.58864923     1.68070743
O      1.82954803     3.27959175     4.90807002
O      5.80789581     3.35318350     0.09999685
O      7.77428044     4.49665936     3.23549156
O      5.88195202     5.58850816     6.36477921
O      5.80789000     5.58864923     1.68070743
O      5.75083107     3.38651943     4.64249913
O      7.74556740     4.30784491     8.21292389
O     -3.87192860     6.70637706     0.09999685
O     -1.90445363     7.81139435     3.23061104
O     -3.77435337     8.92675311     6.36938629
O     -3.87192860     8.94183273     1.68070743
O     -3.84190152     6.72988094     4.83516246
O     -1.91592153     7.81989368     8.00601521
O     -0.00000581     6.70637706     0.09999685
O      1.92670915     7.80440568     3.23769117
O     -0.06250624     9.03238448     6.40959382
O     -0.00000581     8.94183273     1.68070743
O      0.02455193     6.69303324     4.93350710
O      3.87192860     6.70637706     0.09999685
O      5.81194558     7.83414087     3.22490581
O      3.96658678     9.17145807     6.63093985
O      3.87192860     8.94183273     1.68070743
O      3.86467614     6.80298177     4.88891667
O      6.03839480     7.85982099     8.06873862
O      1.77764198     7.78537606     8.01812999
O      3.97355116     4.32198081     8.27226221
O      5.28392325     3.65457754     9.13903974
Fe     6.96468819     2.68188649     9.06632928
