86
CIF: 5-NHNO+2H-N2O+3H_ts.cif | data_image0
Ce     5.81054332    10.02236740     8.78213534
Ce     1.91960171     1.12074154     5.60093356
Ce     0.00000000     2.23543938     2.47426506
Ce     3.76398301     0.04119794     8.79590884
Ce     5.80353844     1.09518427     5.64541959
Ce     3.87189458     2.23543938     2.47426506
Ce     7.86367804     0.02680799     8.78139503
Ce     9.69588719     1.11018616     5.58883562
Ce     7.74390532     2.23543938     2.47426506
Ce     9.63020029     3.19229970     8.82144657
Ce    -0.00016034     4.46935247     5.61871967
Ce    -1.93600537     5.58869904     2.47426506
Ce     1.94235374     3.21979071     8.87148961
Ce     3.85563547     4.46839775     5.67323602
Ce     1.93588921     5.58869904     2.47426506
Ce     5.79849015     3.32514430     8.81476126
Ce     7.75770663     4.45992235     5.65505409
Ce     5.80789995     5.58869904     2.47426506
Ce     7.76968667     6.64577052     8.89176048
Ce    -1.97362139     7.82826861     5.59773327
Ce    -3.87195266     8.94185811     2.47426506
Ce     1.99221342     7.82308182     5.59075794
Ce    -0.00005808     8.94185811     2.47426506
Ce     3.98143394     6.69253221     8.89271565
Ce     5.82024824     7.79438193     5.64856198
Ce     3.87195266     8.94185811     2.47426506
Mn     0.02908254     7.52636607     8.18308596
O      5.80710927    10.04965504     6.39097984
O     -0.13829969     2.10482575     9.60379756
O      1.93594729     1.11771969     3.26466483
O     -0.00249479     2.23711660     4.78691854
O      0.00000000     0.00000000     1.68386529
O      1.91682558     1.09346760     7.94475131
O     -1.96078958    10.04443025     6.43193873
O      3.93906047     2.10734865     9.63766336
O      5.80795803     1.11771969     3.26466483
O      3.86329338     2.23545525     4.83832498
O      3.87189458     0.00000000     1.68386529
O      5.82862901     0.97353811     8.01877355
O      1.95830786    10.01308216     6.42774704
O      7.77325632     2.12769316     9.61840718
O      9.67985261     1.11771969     3.26466483
O      7.74691890     2.23260557     4.84162576
O      7.74390532     0.00000000     1.68386529
O      9.66758258     1.08602209     7.90193060
O     -1.82909764     3.34587354     6.44422594
O     -2.11807628     5.22697614    10.06225726
O      0.00000000     4.47087876     3.26466483
O     -1.90081927     5.58779098     4.82819690
O      9.67985261     3.35315907     1.68386529
O     -0.02067945     4.60778142     8.23575087
O      1.83546416     3.35745646     6.42425924
O      3.87201074     4.47087876     3.26466483
O      1.90855767     5.59293138     4.82808193
O      1.93594729     3.35315907     1.68386529
O      3.80594303     4.43974697     8.01051178
O      5.78927399     3.31768436     6.48148661
O      5.86210526     5.35593747     9.62195895
O      7.74390532     4.47087876     3.26466483
O      5.81679008     5.55516969     4.83986948
O      5.80795803     3.35315907     1.68386529
O      7.82929384     4.35126861     7.96524570
O     -3.83315892     6.69249046     6.41035085
O     -3.82905446     9.06596895     9.64206883
O     -1.93600537     7.82413842     3.26466483
O     -3.86874783     8.93732782     4.80387541
O      7.74384724     6.70641873     1.68386529
O     -1.80034411     7.81178817     8.03605749
O      0.01637908     6.77351132     6.48051247
O      0.00900131     8.79619852     9.75146359
O      1.93600537     7.82413842     3.26466483
O     -0.00265613     8.93727223     4.81768569
O     -0.00005808     6.70641873     1.68386529
O      1.85324063     7.77763707     8.06247454
O      3.87200308     6.71852661     6.38744002
O      3.87192566     9.08640244     9.61064195
O      5.80789995     7.82413842     3.26466483
O      3.87910719     8.94146659     4.79338441
O      3.87195266     6.70641873     1.68386529
O      5.84740097     7.84596689     7.99794633
O      2.78814840     5.78389140    10.99478898
N      0.59152626     6.24835472    11.58549722
N      1.49442177     6.02981690    10.84135107
H      0.04384049     8.24432394    10.56167728
H     -1.61714078     5.42359817    10.87838114
H     -0.31240034     5.25190878     8.92403406
