86
CIF: 4-NHNO+2H-N2+OH+2H_ts.cif | data_image0
Ce     5.79463061    10.04092130     8.77796970
Ce     1.92419541     1.11277268     5.58826350
Ce     0.00000000     2.23543938     2.47426506
Ce     3.77995707     0.03831208     8.75012028
Ce     5.81019909     1.10656677     5.62555296
Ce     3.87189458     2.23543938     2.47426506
Ce     7.84336143     0.07736267     8.74458538
Ce     9.69390616     1.12200586     5.58609524
Ce     7.74390532     2.23543938     2.47426506
Ce    -1.87287048     3.31527052     8.75776090
Ce     0.00497076     4.47844070     5.68572643
Ce    -1.93600537     5.58869904     2.47426506
Ce     1.90862467     3.26043131     8.76822606
Ce     3.86293825     4.47422773     5.64121004
Ce     1.93588921     5.58869904     2.47426506
Ce     5.82246949     3.34884949     8.76265962
Ce     7.75774956     4.47262242     5.61953160
Ce     5.80789995     5.58869904     2.47426506
Ce     7.69761726     6.68956091     8.77531275
Ce    -1.93976385     7.82040526     5.60914790
Ce    -3.87195266     8.94185811     2.47426506
Ce     1.94478787     7.81953481     5.61710225
Ce    -0.00005808     8.94185811     2.47426506
Ce     3.88768698     6.68866910     8.85036601
Ce     5.79548777     7.81897356     5.62729587
Ce     3.87195266     8.94185811     2.47426506
Co    -0.02640567     7.69185767     8.11183549
O      5.80218878    10.04394814     6.40851448
O      0.00360370     2.14930374     9.63169094
O      1.93594729     1.11771969     3.26466483
O      0.00401494     2.23711657     4.81045768
O      0.00000000     0.00000000     1.68386529
O      1.90042411     1.09369611     7.95208537
O     -1.96204859    10.05450888     6.43802954
O      3.84374057     2.16080867     9.56368986
O      5.80795803     1.11771969     3.26466483
O      3.88472443     2.22733514     4.81879935
O      3.87189458     0.00000000     1.68386529
O      5.80834372     1.05854317     8.01394971
O      7.77792121     0.01150678     6.42874666
O      7.77267913     2.22126988     9.53144451
O      9.67985261     1.11771969     3.26466483
O      7.73469122     2.23398391     4.81195736
O      7.74390532     0.00000000     1.68386529
O      9.72061138     1.14550423     7.93071279
O     -1.93228317     3.35223037     6.39948846
O     -2.32604980     5.34730762    10.00711343
O      0.00000000     4.47087876     3.26466483
O     -1.92381615     5.59995901     4.82698678
O      9.67985261     3.35315907     1.68386529
O      0.00898952     4.31844643     8.02344172
O      1.93820384     3.32977304     6.40668577
O      3.87201074     4.47087876     3.26466483
O      1.91824897     5.59239830     4.83458188
O      1.93594729     3.35315907     1.68386529
O      3.83437608     4.40643987     7.97340815
O      5.82294250     3.33600916     6.45743988
O      5.91120250     5.49994029     9.56292748
O      7.74390532     4.47087876     3.26466483
O      5.81221909     5.58149048     4.83070460
O      5.80795803     3.35315907     1.68386529
O      7.81157758     4.48031189     7.95067355
O     -3.86021359     6.72458996     6.44487017
O     -3.85510693     8.93339338     9.57054579
O     -1.93600537     7.82413842     3.26466483
O     -3.87270960     8.93704760     4.80547568
O      7.74384724     6.70641873     1.68386529
O     -1.85023607     7.79031123     8.04681397
O     -0.00884648     6.74494388     6.48454347
O     -0.02260240     8.87881154     9.71651303
O      1.93600537     7.82413842     3.26466483
O      0.00055224     8.95259936     4.81395737
O     -0.00005808     6.70641873     1.68386529
O      1.78498220     7.84680220     8.03714720
O      3.85330661     6.72310097     6.41988820
O      3.85313603     9.08440502     9.58541715
O      5.80789995     7.82413842     3.26466483
O      3.87108888     8.94270166     4.80182779
O      3.87195266     6.70641873     1.68386529
O      5.83999089     7.83357728     7.99401561
O      2.13355707     5.27151891    10.07396993
H     -1.65654656     5.75860558    10.58412644
H     -0.03380994     8.31203389    10.51179775
H      0.86125085     6.02571595    10.07067823
N      0.50901295     6.30344455    11.21107338
N      1.47285538     5.75580641    11.63643071
