84
CIF: Pd-W-CeO2-CO.cif | data_image0
Ce     1.93596140     1.11772783     0.89035214
Ce    -0.00363179     2.23001662     3.98461986
Ce     0.00561464     0.01500210     7.21347910
Ce     5.80789581     1.11772783     0.89035214
Ce     3.82373079     2.20393908     4.06401530
Ce    -2.01060552    10.04567923     7.25489572
Ce     9.67981860     1.11772783     0.89035214
Ce     7.77205896     2.21147392     4.06718035
Ce     2.02174183    10.03649684     7.24960050
Ce     0.00000000     4.47091133     0.89035214
Ce    -1.93352166     5.58631359     4.04232712
Ce    -1.87791427     3.28393433     7.13261057
Ce     3.87193441     4.47091133     0.89035214
Ce     1.94253701     5.58398229     4.04580438
Ce     1.87373625     3.25989230     7.12521075
Ce     7.74385721     4.47091133     0.89035214
Ce     5.81222614     5.63492520     4.01226020
Ce    -1.93596721     7.82410489     0.89035214
Ce    -3.85762182     8.94763486     4.02427789
Ce    -3.85821925     6.78806427     7.17333240
Ce     1.93596721     7.82410489     0.89035214
Ce     0.00391905     8.95063721     4.09045191
Ce     0.01826843     6.69061218     7.22879527
Ce     5.80789000     7.82410489     0.89035214
Ce     3.87078748     8.95230449     4.02892683
Ce     3.90088645     6.76539143     7.16962000
W      5.89878303     3.64432921     7.11525900
Pd     5.97062142     0.88099667     9.66513725
O      0.00000000     0.00000000     0.09999685
O      1.93855148     1.11532850     3.21695749
O      0.00465131     2.23304792     6.31182288
O      0.00000000     2.23545567     1.68070743
O     -5.80609935    10.05705963     4.80904382
O      1.75220086     1.16784429     8.07853870
O      3.87192279     0.00000000     0.09999685
O      5.81164669     1.19385335     3.28332630
O      3.61434128     2.17826314     6.29603225
O      3.87192279     2.23545567     1.68070743
O     -1.93182490    10.01609124     4.77976806
O      5.75378730     2.02800861     8.01337350
O      7.74385721     0.00000000     0.09999685
O      9.67131265     1.11727792     3.21452435
O      7.82336711     2.32689148     6.36538441
O      7.74385721     2.23545567     1.68070743
O      1.95446639    10.05852760     4.80787357
O      9.82754401     1.19351319     8.01844597
O     -1.93596140     3.35318350     0.09999685
O     -0.00961179     4.50511676     3.20330522
O     -2.03446741     5.49822579     6.42273731
O     -1.93596721     5.58864923     1.68070743
O     -1.89687635     3.35018608     4.78553928
O     -0.00218625     4.44237905     7.94055247
O      1.93596140     3.35318350     0.09999685
O      3.92998550     4.45262763     3.26418691
O      2.05339183     5.49146466     6.43552735
O      1.93595559     5.58864923     1.68070743
O      1.87366588     3.38178228     4.75738899
O      5.80789581     3.35318350     0.09999685
O      7.68654494     4.44602235     3.27346452
O      5.87542540     5.65227820     6.32668738
O      5.80789000     5.58864923     1.68070743
O      5.76852138     3.38259950     5.21125746
O      7.34842603     4.38756843     7.98093996
O     -3.87192860     6.70637706     0.09999685
O     -1.90578539     7.79733932     3.22736663
O     -3.90440361     8.93679613     6.39476996
O     -3.87192860     8.94183273     1.68070743
O     -3.84439645     6.74079933     4.81724588
O     -1.97025633     7.65072750     8.01923337
O     -0.00000581     6.70637706     0.09999685
O      1.92452053     7.80820630     3.24128333
O      0.00830428     8.93935323     6.45859177
O     -0.00000581     8.94183273     1.68070743
O      0.00857194     6.67052964     4.92038018
O      3.87192860     6.70637706     0.09999685
O      5.80806065     7.81430049     3.21746212
O      3.92266486     8.92311844     6.39223077
O      3.87192860     8.94183273     1.68070743
O      3.87619280     6.72254305     4.83769316
O      5.81180562     7.80828699     8.01292727
O      4.35594200     4.33877997     7.86005667
O      2.00452501     7.64641862     8.01048822
O      0.62241685     8.79173603    11.69483252
C      0.42483529     9.63842137    10.92456430
