84
CIF: CO+O2 — CO2+Olat.cif | data_image0
O      0.57809170     0.51830667     0.54999716
O      2.50103599     1.54448368     3.67959674
O      0.74343414     2.80497713     6.79198128
O      0.57809170     2.72732293     2.11203287
O      0.55683926     0.51795187     5.33609020
O      2.38508974     1.82360998     8.53320125
O      4.40433489     0.51830667     0.54999716
O      6.32203686     1.61069920     3.69328273
O      4.19794490     2.96079793     7.03007582
O      4.40433489     2.72732293     2.11203287
O      4.42361458     0.59308547     5.40723873
O      6.30144315     1.59423247     8.45307813
O      8.23045181     0.51830667     0.54999716
O     10.12482826     1.61242505     3.68431022
O      8.26022934     2.68137642     6.89376559
O      8.23046329     2.72732293     2.11203287
O      8.22648552     0.50584895     5.33640652
O     10.20182790     1.62673919     8.45647674
O     -1.33497251     3.83183107     0.54999716
O      0.51574229     4.97894405     3.67642977
O     -1.27421294     6.05743050     6.88161414
O     -1.33502990     6.04094674     2.11203287
O     -1.33799045     3.82130415     5.32951068
O      0.60137538     4.81122508     8.49267265
O      2.49127068     3.83183107     0.54999716
O      4.47751298     4.97490872     3.68843647
O      2.53784719     5.78537820     6.91904146
O      2.49121329     6.04094674     2.11203287
O      2.49915050     3.82735039     4.97830681
O      6.31738761     3.83183107     0.54999716
O      8.22233738     4.94946980     3.71550985
O      6.19219401     5.97223568     6.97029969
O      6.31734170     6.04094674     2.11203287
O      6.32356840     3.78941018     5.36274575
O      8.31451461     4.96373175     8.42144677
O     -3.24809410     7.14545487     0.54999716
O     -1.34053581     8.25936052     3.74225996
O     -3.23950330     9.42689124     6.92832122
O     -3.24809410     9.35447114     2.11203287
O     -3.28240657     7.14598784     5.40687523
O     -1.35984940     8.25773816     8.50599641
O      0.57814909     7.14545487     0.54999716
O      2.48987298     8.26022408     3.68933840
O      0.57580795     9.33269532     6.90383495
O      0.57814909     9.35447114     2.11203287
O      0.63648410     7.13713249     5.36642769
O      2.51132981     8.18751692     8.46299257
O      4.40426601     7.14545487     0.54999716
O      6.32313119     8.24110585     3.71120455
O      4.39283118     9.34417398     6.89027688
O      4.40427749     9.35447114     2.11203287
O      4.37880715     7.16125881     5.36717703
O      6.30536560     8.25148039     8.48506683
O      4.85756053     4.63938387     9.36586648
O      3.24862543     4.69612134     9.17390507
O      5.87839159     4.05667591    11.58901003
Ce     2.49115590     1.62281480     1.33101501
Ce     0.59776640     2.73858623     4.47510141
Ce     0.58845094     0.58235972     7.68290521
Ce     6.31739909     1.62281480     1.33101501
Ce     4.38157096     2.75942498     4.52185459
Ce     4.38400093     0.57169902     7.71348991
Ce    10.14351601     1.62281480     1.33101501
Ce     8.22609990     2.72216932     4.49871063
Ce     8.23329758     0.49424304     7.66532608
Ce     0.57809170     4.93633920     1.33101501
Ce    -1.33148996     6.03999604     4.51708981
Ce    -1.26156594     3.82408889     7.66766886
Ce     4.40433489     4.93633920     1.33101501
Ce     2.49658938     6.00370687     4.51071348
Ce     8.23045181     4.93633920     1.33101501
Ce     6.31059411     6.03142204     4.53228798
Ce     6.41467970     3.77758239     7.73293890
Ce    -1.33502990     8.24996300     1.33101501
Ce    -3.25605004     9.36617734     4.52319783
Ce    -3.23250345     7.15855879     7.73355283
Ce     2.49121329     8.24996300     1.33101501
Ce     0.58491029     9.35589404     4.52220315
Ce     0.60817378     7.07381255     7.69355919
Ce     6.31733022     8.24996300     1.33101501
Ce     4.39981160     9.35211257     4.48953730
Ce     4.40016610     7.19306385     7.68752518
Rh     2.38045518     3.76704375     7.84532146
C      6.05139579     4.17986159    10.43942737
