82
CIF: NO.cif | data_image0
Ce    -5.79554956    10.04647178     8.80435776
Ce     1.94378689     1.08934084     5.59911786
Ce     0.00000000     2.23543938     2.47426506
Ce    -1.84001787    10.04305017     8.83330109
Ce     5.79446645     1.12194794     5.61420618
Ce     3.87189458     2.23543938     2.47426506
Ce     1.88652309    10.05267906     8.81037849
Ce     9.66997446     1.11400438     5.63441510
Ce     7.74390532     2.23543938     2.47426506
Ce     9.62169211     3.30031276     8.79227649
Ce    -0.00013658     4.45331100     5.61500606
Ce    -1.93600537     5.58869904     2.47426506
Ce     1.92227687     3.15227400     8.72050930
Ce     3.84492428     4.48816306     5.62530671
Ce     1.93588921     5.58869904     2.47426506
Ce     5.78715733     3.35904247     8.78401044
Ce     7.73902636     4.49215193     5.63143689
Ce     5.80789995     5.58869904     2.47426506
Ce    -3.87129177     6.72882176     8.79072996
Ce    -1.92837130     7.83040889     5.60858259
Ce    -3.87195266     8.94185811     2.47426506
Ce     1.93655124     7.83605793     5.67926442
Ce    -0.00005808     8.94185811     2.47426506
Ce     3.94729865     6.87646359     8.70921416
Ce     5.81942064     7.83354251     5.58582017
Ce     3.87195266     8.94185811     2.47426506
Pd    -0.86693854     6.16302343     8.13647338
O      0.00246879     0.00528649     6.42453962
O      0.03065587     2.15396941     9.59572430
O      1.93594729     1.11771969     3.26466483
O     -0.00490358     2.23610521     4.81272622
O      0.00000000     0.00000000     1.68386529
O      1.95738708     1.07442461     7.96681061
O     -1.93171405    10.03820334     6.42571413
O      3.87294452     2.23562782     9.55885571
O      5.80795803     1.11771969     3.26466483
O      3.86753145     2.23575791     4.80659661
O      3.87189458     0.00000000     1.68386529
O      5.81203632     1.19690212     7.89624839
O      1.91976171    10.05855910     6.42333513
O      7.71329690     2.28677700     9.57851137
O      9.67985261     1.11771969     3.26466483
O      7.72637277     2.26039813     4.84183964
O      7.74390532     0.00000000     1.68386529
O      9.66020051     1.11659564     7.98609477
O     -1.92136949     3.35617649     6.45697626
O     -2.06025911     5.47561471     9.62313677
O      0.00000000     4.47087876     3.26466483
O     -1.93685995     5.57860133     4.81115483
O     -1.93594729     3.35315907     1.68386529
O      0.10522155     4.42502294     8.08606295
O      1.94179691     3.29805719     6.42027042
O      3.87201074     4.47087876     3.26466483
O      1.93323976     5.57362828     4.83196957
O      1.93594729     3.35315907     1.68386529
O      3.63215695     4.60276555     8.15442814
O      5.70423725     3.43265744     6.47085275
O      5.82832861     5.60581243     9.61126231
O      7.74390532     4.47087876     3.26466483
O      5.81512170     5.59098686     4.80179469
O      5.80795803     3.35315907     1.68386529
O      7.68291667     4.46123984     7.95247609
O     -3.86859554     6.72432805     6.42631258
O     -3.89128119     8.90599702     9.58494817
O     -1.93600537     7.82413842     3.26466483
O     -3.86661380     8.93986254     4.79901321
O     -3.87195266     6.70641873     1.68386529
O     -1.93266076     7.83918849     8.01520231
O      0.02795648     6.70175826     6.40181885
O      0.01868420     9.44672427     9.76725334
O      1.93600537     7.82413842     3.26466483
O     -0.00159019     8.93904908     4.81596760
O     -0.00005808     6.70641873     1.68386529
O      2.08703618     7.85763864     8.01722085
O      3.91410158     6.70561714     6.38617916
O      3.96946805     8.97911959     9.63334983
O      5.80789995     7.82413842     3.26466483
O      3.87217165     8.95133458     4.82019581
O      3.87195266     6.70641873     1.68386529
O      5.82208767     7.83305693     7.94708402
O      4.65001054     6.20239217    12.23386333
N      4.20217306     5.90584611    11.19015503
