86
CIF: 2-NH2+H+NO-NH2NO+H_ts.cif | data_image0
Ce     5.79761860    10.05308494     8.76068215
Ce     1.93558493     1.11449631     5.57038841
Ce     0.00000000     2.23543938     2.47426506
Ce    -1.97120727    10.00690861     8.72613046
Ce     5.81694107     1.12525473     5.64674004
Ce     3.87189458     2.23543938     2.47426506
Ce     1.94795884    10.04667338     8.75092403
Ce     9.71232372     1.10448975     5.59200043
Ce     7.74390532     2.23543938     2.47426506
Ce     9.68704867     3.24755663     8.76251429
Ce     0.02025521     4.50529807     5.65288601
Ce    -1.93600537     5.58869904     2.47426506
Ce     2.00827485     3.16249573     8.73127702
Ce     3.88558125     4.47648795     5.65646626
Ce     1.93588921     5.58869904     2.47426506
Ce     5.86000680     3.35248765     8.87871477
Ce     7.75134172     4.47529323     5.64541918
Ce     5.80789995     5.58869904     2.47426506
Ce     7.67406826     6.80480205     8.73067147
Ce    -1.96847027     7.84027164     5.61418194
Ce    -3.87195266     8.94185811     2.47426506
Ce     1.92069546     7.80408288     5.63250101
Ce    -0.00005808     8.94185811     2.47426506
Ce     3.99550976     6.75225924     8.83873171
Ce     5.78405492     7.81472680     5.58063971
Ce     3.87195266     8.94185811     2.47426506
Pt     0.17141100     6.72454847     8.69283779
O     11.60639786     0.01041002     6.37238855
O     -0.01262874     2.23140545     9.51650685
O      1.93594729     1.11771969     3.26466483
O     -0.00077053     2.25478216     4.79245611
O      0.00000000     0.00000000     1.68386529
O      1.91488201     1.06153833     7.91225117
O      3.90581619     0.07208796     6.36456871
O      3.78204180     2.07280632     9.58624503
O      5.80795803     1.11771969     3.26466483
O      3.88880093     2.26620531     4.80898155
O      3.87189458     0.00000000     1.68386529
O      5.86561530     1.06930295     8.00193583
O      1.96242110     9.97258426     6.46150360
O      7.92992393     2.15321477     9.63771858
O      9.67985261     1.11771969     3.26466483
O      7.77358861     2.23246345     4.85979583
O      7.74390532     0.00000000     1.68386529
O      9.68117863     1.12451244     7.90495751
O     -1.80363117     3.38053414     6.49052438
O     -1.65749864     5.88644235     9.50133756
O      0.00000000     4.47087876     3.26466483
O     -1.90672592     5.58458734     4.82843388
O      9.67985261     3.35315907     1.68386529
O      0.34586213     4.71365318     8.17733529
O      1.91829109     3.30788275     6.41175074
O      3.87201074     4.47087876     3.26466483
O      1.89574170     5.60174849     4.85494639
O      1.93594729     3.35315907     1.68386529
O      3.73218678     4.47808024     8.08820664
O      5.81653707     3.39124218     6.45628761
O      5.99272821     5.70545343     9.63441327
O      7.74390532     4.47087876     3.26466483
O      5.79067994     5.55986975     4.79165816
O      5.80795803     3.35315907     1.68386529
O      7.93083428     4.49421269     8.03711289
O      7.65895520     6.63890603     6.35646861
O     -3.97384892     8.99987786     9.66314646
O     -1.93600537     7.82413842     3.26466483
O     -3.87678476     8.94305136     4.80151270
O      7.74384724     6.70641873     1.68386529
O     -2.32056910     8.00504869     7.81627191
O     -0.11178310     6.76730149     6.59365650
O     -0.05848884     8.71961989     9.24363180
O      1.93600537     7.82413842     3.26466483
O      0.01413248     8.92182421     4.81771144
O     -0.00005808     6.70641873     1.68386529
O      1.88129851     7.56133577     8.05710979
O      3.88942853     6.71144619     6.38490547
O      3.83443887     9.06877729     9.56078702
O      5.80789995     7.82413842     3.26466483
O      3.85356242     8.94181120     4.79425619
O      3.87195266     6.70641873     1.68386529
O      5.82559217     7.89783560     7.92592466
O      2.69604791     4.32741432    11.38277865
N      0.58844413     6.56563304    10.62833319
N      2.99085978     5.42513557    10.98693272
H      0.91757831     7.40349690    11.10746219
H      0.87978856     5.69255437    11.05175482
H     -1.35602449     6.06214818    10.42542392
