84
CIF: Os-Fe-CeO2-CO.cif | data_image0
Ce     1.93038582     1.11050507     0.88387043
Ce    -0.00068404     2.22524661     4.00677634
Ce    -5.76831217    10.03811444     7.20851676
Ce     5.81181033     1.12175166     0.90127712
Ce     3.84729722     2.22668566     4.02520397
Ce    -1.93591077    10.03695074     7.29775024
Ce     9.66901012     1.12377363     0.90450652
Ce     7.73193139     2.24248870     4.08275417
Ce     2.05867974     9.96425737     7.18859218
Ce    -0.00709724     4.47602159     0.89067279
Ce    -1.95832990     5.59005282     4.07246550
Ce    -1.79057447     3.29558664     7.18805238
Ce     3.86254305     4.47635356     0.87798423
Ce     1.92130779     5.59776396     4.04629742
Ce     1.86735192     3.32707867     7.19242043
Ce     7.74213807     4.46545905     0.90125422
Ce     5.80362583     5.61537622     4.02489939
Ce    -1.94645625     7.83004003     0.90010904
Ce    -3.86218835     8.93708529     4.07505357
Ce    -3.85060163     6.71947910     7.29749512
Ce     1.92815559     7.82745473     0.89060408
Ce    -0.01168871     8.96166931     4.07251200
Ce    -0.01217403     6.71475622     7.21012420
Ce     5.81127600     7.83258510     0.88371011
Ce     3.88082258     8.94823249     4.00696260
Ce     3.86112486     6.78087304     7.19234908
Fe     5.03019675     3.80293821     6.68587335
Os     6.68558452     2.84890770     8.18969208
O     11.61334069     0.00154917     0.10141687
O      1.93385978     1.12101138     3.22002467
O      0.00969410     2.22834382     6.33498427
O     -0.00785227     2.23805103     1.69392277
O     -5.79765803    10.05403227     4.82607017
O      1.83623028     1.20968275     8.02459574
O     -1.93899312    10.05733740     0.10496691
O      5.81183797     1.16081754     3.25760428
O      3.91668683     2.32941034     6.44575111
O      3.86763657     2.23577757     1.68132582
O      3.87212277     0.02709153     4.84352422
O      6.08313577     1.06986557     8.33962235
O      7.73821774     0.00761509     0.10924988
O      9.67247534     1.12219549     3.22478539
O      7.76677135     2.22335830     6.54940748
O      7.74357843     2.23531483     1.71563532
O      7.77162963     0.04691577     4.84487460
O      9.78034947     1.06262954     7.99173696
O      9.67032270     3.35425987     0.10911246
O     -0.00908954     4.47662930     3.24323865
O     -1.91594000     5.48359443     6.41553239
O     -1.94403436     5.59119430     1.70564938
O      9.65349285     3.30651192     4.84543565
O      0.03241132     4.40216577     8.02841147
O      1.92738314     3.35244915     0.09928684
O      3.86614616     4.47397586     3.22028764
O      1.88900492     5.61705337     6.37725561
O      1.92862022     5.59252216     1.67404250
O      1.93626128     3.34888431     4.84088052
O      3.82058268     4.50177297     7.86831454
O      5.81155478     3.35101064     0.10766953
O      7.70855496     4.44636959     3.25721643
O      5.75017776     5.50484210     6.44578435
O      5.80528807     5.59217007     1.68114259
O      5.74096188     3.39291252     4.95555926
O      7.92541050     4.26031109     8.33789216
O     -3.87155109     6.71022987     0.10512724
O     -1.94440325     7.82984320     3.25072511
O     -3.87829412     8.94705397     6.43482604
O     -3.87509971     8.94378428     1.69355631
O      7.72079001     6.69402718     4.84296009
O     -1.76801916     7.72918589     8.06728867
O     -0.01209783     6.71325780     0.10434852
O      1.92669873     7.82978024     3.24325423
O      0.10230979     8.97885681     6.41577551
O     -0.00628994     8.94736548     1.70514550
O     -0.03953987     6.73043282     4.85563830
O      2.01304826     7.83074903     8.02909707
O      3.86815347     6.71410280     0.09951587
O      5.80503551     7.82508179     3.21973913
O      3.88386282     8.93809144     6.33495750
O      3.86556896     8.94715423     1.69389986
O      3.87742935     6.70901351     4.84002240
O      5.67927267     7.86653599     8.02396021
O      5.06602135     3.79692110    10.62197422
C      5.67947942     3.43536386     9.70033640
