87
CIF: 3-NH2NO+H-NHNO+2H_is.cif | data_image0
Ce    11.58003341     0.01298315     8.79741017
Ce     1.91932113     1.12194641     5.61161723
Ce     0.00000000     2.23543938     2.47426506
Ce     3.76726967     0.11696116     8.76496082
Ce     5.80900209     1.11286161     5.62185067
Ce     3.87189458     2.23543938     2.47426506
Ce     2.00375218    10.02523280     8.71456886
Ce     9.68175037     1.10899074     5.57442202
Ce     7.74390532     2.23543938     2.47426506
Ce    -1.87640876     3.26424259     8.70177777
Ce     0.00308052     4.50710904     5.65228088
Ce    -1.93600537     5.58869904     2.47426506
Ce     1.89667230     3.42394936     8.77577434
Ce     3.87091926     4.47853879     5.62660419
Ce     1.93588921     5.58869904     2.47426506
Ce     5.82714945     3.33383563     8.77801221
Ce     7.75387312     4.47809174     5.62747515
Ce     5.80789995     5.58869904     2.47426506
Ce     7.56264898     6.74578862     8.78082712
Ce    -1.89204345     7.80442692     5.59865960
Ce    -3.87195266     8.94185811     2.47426506
Ce     1.91080369     7.79249021     5.65626419
Ce    -0.00005808     8.94185811     2.47426506
Ce     3.78869756     6.68890794     8.81770186
Ce     5.79043581     7.83311252     5.61329775
Ce     3.87195266     8.94185811     2.47426506
Ni    -0.63669968     7.21650397     9.22476865
O      5.81437307    10.04385694     6.43332010
O     -0.06282877     2.19477456     9.62565538
O      1.93594729     1.11771969     3.26466483
O      0.00076333     2.22491748     4.81492004
O      0.00000000     0.00000000     1.68386529
O      1.89553096     1.16223478     7.98218153
O     -1.97608998    10.02622857     6.48090388
O      3.88862750     2.22572968     9.57988931
O      5.80795803     1.11771969     3.26466483
O      3.88737791     2.22257485     4.83622297
O      3.87189458     0.00000000     1.68386529
O      5.78922845     1.04977721     8.01884272
O      7.73862041     0.02168289     6.41220840
O      7.76218622     2.21691262     9.51699861
O      9.67985261     1.11771969     3.26466483
O      7.72804719     2.23885029     4.80231737
O      7.74390532     0.00000000     1.68386529
O      9.68950474     1.11209467     7.92428730
O      9.64253491     3.32687257     6.39246950
O     -1.77809893     5.80159297     9.90807575
O      0.00000000     4.47087876     3.26466483
O     -1.99180750     5.58232089     4.81611025
O     -1.93594729     3.35315907     1.68386529
O     -0.06341258     4.35293943     7.96043708
O      1.94289559     3.36839101     6.41608904
O      2.16094840     5.35751879     9.79161205
O      3.87201074     4.47087876     3.26466483
O      1.96367804     5.57042689     4.81018548
O      1.93594729     3.35315907     1.68386529
O      3.89046655     4.46515854     7.95203401
O      5.86581597     3.34433105     6.48608907
O      5.83839889     5.54118394     9.56275000
O      7.74390532     4.47087876     3.26466483
O      5.83355517     5.58613919     4.83018260
O      5.80795803     3.35315907     1.68386529
O      7.86566924     4.55538030     8.06105444
O     -3.87601742     6.77069030     6.49475969
O     -3.92618556     8.96880645     9.54707975
O     -1.93600537     7.82413842     3.26466483
O     -3.87083485     8.94116846     4.80403261
O     -3.87195266     6.70641873     1.68386529
O     -1.92543504     7.75878309     8.11243776
O     -0.02137942     6.72098237     6.21852659
O     -0.16055112     8.83448251     9.65033276
O      1.93600537     7.82413842     3.26466483
O     -0.01764196     8.99318971     4.81135907
O     -0.00005808     6.70641873     1.68386529
O      2.02856138     7.87846793     7.97897856
O      3.87436206     6.69031999     6.40832356
O      3.85110263     9.05355469     9.59191163
O      5.80789995     7.82413842     3.26466483
O      3.87552078     8.94361388     4.81212273
O      3.87195266     6.70641873     1.68386529
O      5.73406051     7.81803196     8.01268348
O      4.82091448     7.36208226    12.32767335
H     -1.65153652     5.76634302    10.87501949
H      2.95563069     6.10214394    13.15629731
H      2.40498897     5.68992063    11.38339102
N      2.99296521     6.17324433    12.13205583
N      3.99125161     6.82120460    11.58351333
