82
CIF: Fe-CeO2-Ov+CO.cif | data_image0
O      0.58553738     0.44526912     0.53954564
O      2.49468172     1.58287955     3.74011054
O      0.43568638     2.65133237     6.97498597
O      0.57446437     2.64995091     2.18852913
O      0.59818008     0.46437370     5.35400299
O      2.45624725     1.08939078     8.76179796
O      4.40485214     0.43608451     0.54526533
O      6.31260823     1.53984672     3.69774499
O      4.30676049     2.71208658     6.96835149
O      4.40885187     2.65313400     2.15743565
O      4.39960881     0.48008820     5.38271214
O      6.30185133     1.59821470     8.56436965
O      8.23896914     0.42804558     0.53609761
O     10.14670696     1.54272425     3.72823442
O      8.21512717     2.60897393     6.88225430
O      8.23351980     2.63993428     2.14566695
O      8.22731142     0.42539693     5.35453491
O     10.05287038     1.54042761     8.63486825
O     -1.32641922     3.76173872     0.54413337
O      0.60838668     4.83987148     3.77085637
O     -1.24522840     5.82297210     7.06162676
O     -1.32024483     5.95213305     2.21211695
O     -1.38361754     3.74540152     5.32843848
O      2.48479684     3.75730234     0.54919130
O      4.40859798     4.86693601     3.72068205
O      2.47449651     5.83973009     7.03043114
O      2.48932036     5.96479842     2.18165292
O      2.53910912     3.79016571     5.44770065
O      4.37034190     4.84269735     8.46031534
O      6.32028193     3.75878386     0.53647414
O      8.20966217     4.84972781     3.71433851
O      6.33882607     5.96370459     6.92172378
O      6.31701637     5.96691369     2.16644770
O      6.31151731     3.72308972     5.37365009
O      8.18727480     4.78150591     8.57611363
O     -3.23039654     7.06602225     0.56001857
O     -1.33095189     8.17763557     3.74127630
O     -3.27545484     9.22008481     6.85026919
O     -3.25210258     9.28725154     2.18298691
O     -3.18472168     7.00532160     5.39627419
O     -1.46332185     8.19924298     8.60574889
O      0.57251843     7.06232353     0.55311641
O      2.50076811     8.17971218     3.71525230
O      0.55572032     9.33667906     6.95021300
O      0.58002265     9.27596446     2.16662423
O      0.59774485     7.08575103     5.36321534
O      2.62273871     8.24336793     8.59197370
O      4.40561416     7.06767889     0.54441144
O      6.33192120     8.14802333     3.75757491
O      4.44095916     9.31703131     6.91010624
O      4.42584697     9.27456010     2.17153697
O      4.37472508     7.07817042     5.40050756
O      6.31836597     8.12974558     8.57657531
O      1.59453685     3.83811992    10.51128861
Ce     2.48404369     1.55393929     1.36433498
Ce     0.57695307     2.64775579     4.62757400
Ce     0.61990003     0.46630801     7.78083368
Ce     6.31564669     1.53674479     1.32724701
Ce     4.41180860     2.64041754     4.52115505
Ce     4.29470146     0.43407644     7.81629848
Ce    10.16067684     1.54456985     1.35472756
Ce     8.21790433     2.63034444     4.49687577
Ce     8.22438695     0.43501121     7.76049796
Ce     0.57775685     4.85058678     1.37237890
Ce    -1.31345949     5.95018477     4.58166492
Ce    -1.43987687     3.62072290     7.67909900
Ce     4.40920134     4.86377844     1.35017234
Ce     2.48958118     5.98965167     4.53643942
Ce     8.23560054     4.86082101     1.35802550
Ce     6.32470208     5.94883765     4.56236705
Ce     6.34246930     3.71684716     7.74753178
Ce    -1.32613232     8.16950203     1.37109562
Ce    -3.23693157     9.27924173     4.55607362
Ce    -3.23701995     7.04498716     7.76006543
Ce     2.49310793     8.17406742     1.35334282
Ce     0.57329824     9.28653391     4.56189955
Ce     0.57726913     7.20086947     7.78425418
Ce     6.32409983     8.17032372     1.36654181
Ce     4.41487734     9.28892816     4.55122863
Ce     4.45369242     7.15335878     7.74808478
Fe     3.28024788     4.21977806     7.13886350
C      0.84442676     4.14545938     9.70983131
