84
CIF: CO+Olatt—CO2.cif | data_image0
Ce     1.93596140     1.11772783     0.89035214
Ce    -0.00631110     2.23270549     4.05815820
Ce    11.59779073     0.01848966     7.25001178
Ce     5.80789581     1.11772783     0.89035214
Ce     3.82732810     2.17939631     3.96545800
Ce    -2.06000313     9.91554461     7.34829093
Ce     9.67981860     1.11772783     0.89035214
Ce     7.77067255     2.21608750     3.98804751
Ce     2.02350930     9.87534299     7.33565987
Ce     0.00000000     4.47091133     0.89035214
Ce    -1.94612880     5.57699178     4.10774429
Ce    -1.70834831     3.37656339     7.31477819
Ce     3.87193441     4.47091133     0.89035214
Ce     1.96026234     5.57095020     4.08401434
Ce     1.86852300     3.31039085     7.32904903
Ce     7.74385721     4.47091133     0.89035214
Ce     5.84167746     5.64486072     3.95977851
Ce    -1.93596721     7.82410489     0.89035214
Ce    -3.87054262     8.93391897     4.06204202
Ce    -3.82505800     6.81687923     7.33529807
Ce     1.93596721     7.82410489     0.89035214
Ce     0.00059771     8.95340672     4.11886401
Ce    -0.00680140     6.70418609     7.27199627
Ce     5.80789000     7.82410489     0.89035214
Ce     3.86791550     8.95882780     4.04313030
Ce     3.84544816     6.80718506     7.24233757
W      5.40533419     3.58612843     6.87091381
W      6.84741504     2.78140424     8.99576316
O      0.00000000     0.00000000     0.09999685
O      1.92539149     1.10610089     3.21694759
O      0.05500372     2.21667665     6.39010556
O      0.00000000     2.23545567     1.68070743
O      5.81324906    10.04848617     4.86133657
O      1.79900509     1.03896150     8.13755172
O      3.87192279     0.00000000     0.09999685
O      5.73218521     1.09539983     3.23022926
O      4.11886307     2.28447681     6.62615918
O      3.87192279     2.23545567     1.68070743
O      3.82771888     0.05060059     4.88883788
O      6.58811457     1.05318981     9.38296784
O      7.74385721     0.00000000     0.09999685
O      9.74351616     1.08163766     3.21209923
O      7.12093083     2.60067761     7.06356393
O      7.74385721     2.23545567     1.68070743
O      7.74793079     0.02063210     4.91599895
O      9.71919106     1.10157399     8.00330849
O     -1.93596140     3.35318350     0.09999685
O      0.01366575     4.46431334     3.28197915
O     -1.97321017     5.59382272     6.46692533
O     -1.93596721     5.58864923     1.68070743
O      9.66665418     3.33258190     4.91591320
O      0.06873956     4.58676945     8.12202182
O      1.93596140     3.35318350     0.09999685
O      3.90166143     4.46129400     3.22471545
O      2.05336371     5.59679275     6.42393111
O      1.93595559     5.58864923     1.68070743
O      2.03258966     3.30065204     4.86834774
O      5.80789581     3.35318350     0.09999685
O      7.72555017     4.53503971     3.22395192
O      5.85684205     5.36377510     6.55746281
O      5.80789000     5.58864923     1.68070743
O      5.75794258     3.37272614     4.95612370
O      8.21856339     3.88133984     9.33283680
O     -3.87192860     6.70637706     0.09999685
O     -1.93246898     7.82320107     3.29027645
O     -3.91503238     8.91567652     6.43698577
O     -3.87192860     8.94183273     1.68070743
O      7.67869439     6.70027428     4.86748215
O     -1.84715747     7.74633645     8.19952131
O     -0.00000581     6.70637706     0.09999685
O      1.94794581     7.81288659     3.28483065
O     -0.01536370     8.94503518     6.49147749
O     -0.00000581     8.94183273     1.68070743
O      0.01375168     6.68970088     4.91095931
O      3.87192860     6.70637706     0.09999685
O      5.80989156     7.83418761     3.21084907
O      3.89473025     8.88335843     6.38532957
O      3.87192860     8.94183273     1.68070743
O      3.97922978     6.66977173     4.88410371
O      5.65476167     7.80103662     8.08332899
O      4.13393786     4.37569512     8.16675238
O      1.99575176     7.68628217     8.13510240
O      4.49840437     4.08794607    10.67168031
C      5.12845856     3.75683162     9.74368904
