     8
 Tv_1:  11.598200   0.000000   0.000000 Tv_2:  -5.799100  10.044336   0.000000 Tv_3:   0.000000   0.000000  22.891600
O      -0.14769552      4.34621972     10.67797141
O       2.14978223      7.91659347     10.42047905
O       4.44669281      4.34536632     10.67844699
O       2.14781321      3.38556950      8.89201194
O       0.25160149      6.74446438      8.87902714
O       4.04625845      6.74370526      8.87860522
O       2.14759952      5.69941227      7.27716911
Zn      2.14894178      6.41072175      9.14012750
