87
CIF: 6-OH+2H-H2O+H_ts.cif | data_image0
Ce    -5.63110491     9.91441206     8.82074173
Ce     1.95345338     1.10206490     5.68815648
Ce    -0.25068208     2.42794109     2.57462970
Ce    -1.75019707     9.91574445     9.04224926
Ce     5.92523365     0.85368626     5.88007484
Ce     3.68233802     2.01223399     2.11757478
Ce     8.02698841     0.31221887     9.15870789
Ce     9.75857197     0.86430903     5.70651529
Ce     7.57329963     2.19244983     2.14328939
Ce    -1.61541998     3.51496119     8.65853616
Ce     0.22305146     4.74635834     5.62907136
Ce    -1.94348654     5.70334877     2.22776448
Ce     2.09650296     3.03534380     8.96815413
Ce     3.92423392     4.12352551     5.13506935
Ce     2.01779784     5.51715455     2.00963327
Ce     5.83648444     3.40580974     8.71471788
Ce     7.99388830     4.20525218     5.38732059
Ce     5.88565873     5.56371472     2.10195533
Ce     7.72809973     6.53833878     8.83417534
Ce    -1.97303528     7.81419409     5.62055181
Ce    -3.97155278     8.94579125     2.55473485
Ce     2.01557631     7.77875385     5.03155791
Ce    -0.08631268     8.95895622     2.18752045
Ce     3.91189219     6.72923137     9.31425128
Ce     5.60953736     7.32835430     5.75191557
Ce     3.93461831     9.08910086     1.93724527
Ir     0.26048564     6.99634359     8.91809991
O     -5.73829528     9.94665837     6.55211479
O      0.21492582     2.14700654     9.60280188
O      1.91241972     1.11904921     3.20286246
O      0.01511280     2.11266593     4.86223824
O      0.02156726     0.01324751     1.50057030
O      2.08595259     1.01132085     8.06193678
O     -1.79918526     9.86670528     6.70360788
O      3.90467241     2.00654655     9.82743269
O      5.70338015     1.10168098     2.79700410
O      3.89270975     1.94243044     4.67017805
O     -2.05478472     9.93932714     1.43836711
O      5.92299928     1.09308857     8.20390861
O      2.06376700     9.84584675     6.57919816
O      7.77441897     2.38385132     9.65501892
O      9.60877742     1.04731918     3.13896675
O      7.74370061     2.00066000     4.85675707
O      7.81941864     0.06852263     1.28810655
O      9.78216279     1.14449299     8.00923601
O     -1.69952802     3.38221804     6.28741871
O     -2.23386260     5.48891603    10.12384225
O     -0.09495905     4.61790340     3.20257505
O     -1.97650844     5.64045198     4.79749488
O     -1.91448220     3.41346321     1.51620006
O      0.16851098     5.07822623     7.98125342
O      2.05804688     3.35717605     6.41010536
O      0.77703896     6.03421492    10.40293997
O      3.93973115     4.22491191     2.82875851
O      2.06575247     5.50811447     4.31394015
O      1.81833547     3.34475999     1.45699397
O      3.69369111     4.48786961     8.63477653
O      5.62642934     3.19851486     6.42365077
O      6.01279280     5.44032740     9.70593396
O      7.81317835     4.39353683     3.08874916
O      5.82263751     5.32564676     4.60645703
O      5.98820196     3.39431650     1.25536833
O      7.77164479     4.45709836     7.78103151
O     -3.88401720     6.79132407     6.49822218
O     -3.72688821     8.73894776     9.58277563
O     -1.93907462     7.84612989     3.21361651
O     -3.78161913     9.03014563     4.88449049
O     -3.82442666     6.68693561     1.42043368
O     -1.48489405     7.51533150     8.19705269
O      0.15917556     6.94561018     5.88911022
O      0.18847200     8.89595221     9.81589417
O      1.98244902     7.84737551     2.76078286
O      0.11125975     9.11583941     4.54257803
O     -0.05899834     6.70755019     1.34999733
O      1.81783293     7.61096736     8.22186485
O      3.70499322     6.32766858     6.21643409
O      4.04308149     9.15081510     9.81877882
O      5.80462443     7.74037957     3.03551619
O      3.99365620     8.77460467     4.75981164
O      3.96668410     6.58370601     1.27371493
O      5.70013638     7.60118324     8.08414970
O      2.87698500     6.81176903    11.68375625
H     -1.70033915     5.91572109    10.79238587
H      2.93072210     7.75413154    12.08545041
H      1.91233542     6.67583557    11.39806914
N      6.25041092     8.73618270    14.13329188
N     -4.37817340     8.42609010    13.78253179
