83
CIF: Y-Ti-CeO2-Ov-O2.cif | data_image0
Ce     1.93038582     1.11050507     0.88387043
Ce    -0.02260811     2.21520792     4.09402226
Ce    -5.64314873     9.94848646     7.27354087
Ce     5.81181033     1.12175166     0.90127712
Ce     3.80140614     2.20218039     3.99380357
Ce    -1.87214010     9.96640841     7.30170604
Ce     9.66901012     1.12377363     0.90450652
Ce     7.71306031     2.25961469     4.02855779
Ce     1.87693311     9.89874845     7.28129177
Ce    -0.00709724     4.47602159     0.89067279
Ce    -1.94511749     5.58470856     4.06326520
Ce    -1.80476966     3.47393602     7.30657910
Ce     3.86254305     4.47635356     0.87798423
Ce     1.93537897     5.58262905     4.07585017
Ce     1.92395956     3.26349579     7.29259592
Ce     7.74213807     4.46545905     0.90125422
Ce     5.81041049     5.66430848     3.98109001
Ce    -1.94645625     7.83004003     0.90010904
Ce    -3.85331385     8.91970421     4.08671338
Ce    -3.81473605     6.62266039     7.35559393
Ce     1.92815559     7.82745473     0.89060408
Ce    -0.00347599     8.95052037     4.04658469
Ce     0.03150683     6.67936469     7.23975350
Ce     5.81127600     7.83258510     0.88371011
Ce     3.87550800     8.98670135     4.06630637
Ce     3.89909882     6.79741461     7.19797078
Ti     5.46576158     3.55124477     6.55820592
Y      7.06195982     2.61527252     8.96221499
O     11.61334069     0.00154917     0.10141687
O      1.91820483     1.10364941     3.22685873
O     -0.08955489     2.17765183     6.53651067
O     -0.00785227     2.23805103     1.69392277
O     -5.78286102    10.04158298     4.84135935
O      2.19438595     0.99153244     8.10463036
O     -1.93899312    10.05733740     0.10496691
O      5.80058811     1.11289258     3.22913883
O      4.06755052     2.31395688     6.37651041
O      3.86763657     2.23577757     1.68132582
O      3.87469340     0.02409169     4.86637647
O      5.99119819     0.69027128     8.44840104
O      7.73821774     0.00761509     0.10924988
O      9.66571534     1.12859753     3.24386396
O      7.08151468     2.65739968     6.73813209
O      7.74357843     2.23531483     1.71563532
O      7.74133264     0.14368431     4.92931333
O      8.89559725     1.49869119     8.38118543
O      9.67032270     3.35425987     0.10911246
O     -0.02807570     4.44943008     3.27059657
O     -1.87800331     5.56947115     6.37273376
O     -1.94403436     5.59119430     1.70564938
O      9.57268528     3.27573048     4.93139701
O      0.00163202     4.55856318     8.09952800
O      1.92738314     3.35244915     0.09928684
O      3.81422583     4.50713255     3.21846231
O      2.06796709     5.58455002     6.44763534
O      1.92862022     5.59252216     1.67404250
O      1.89881436     3.29904425     4.85661924
O      5.81155478     3.35101064     0.10766953
O      7.74878357     4.46429789     3.22570810
O      5.75759094     5.40908943     6.34326206
O      5.80528807     5.59217007     1.68114259
O      5.72108723     3.40493839     4.65871965
O      8.28701588     4.40423891     8.57897636
O     -3.87155109     6.71022987     0.10512724
O     -1.91731662     7.82141836     3.26069895
O     -3.77234842     8.87105671     6.42946102
O     -3.87509971     8.94378428     1.69355631
O      7.72079607     6.67736336     4.81359212
O     -1.76448273     7.82323879     8.09116910
O     -0.01209783     6.71325780     0.10434852
O      1.93873139     7.86320224     3.26645523
O      0.01774032     8.91169320     6.36285172
O     -0.00628994     8.94736548     1.70514550
O      0.04296214     6.68392389     4.86482551
O      1.94447879     7.78145912     8.07225011
O      3.86815347     6.71410280     0.09951587
O      5.79975240     7.85396732     3.21463275
O      3.83887583     9.00889325     6.47548657
O      3.86556896     8.94715423     1.69389986
O      3.90620284     6.78222464     4.85544632
O      5.69395232     7.66360234     8.07518189
O      4.06711632     4.42074988     8.12796678
O      5.24847815     3.77416156     8.65607261
