84
CIF: Cr-W-CeO2-CO.cif | data_image0
Ce     1.93596140     1.11772783     0.89035214
Ce    -0.01889373     2.23382626     4.04054899
Ce    -0.00600680     0.01597567     7.19160797
Ce     5.80789581     1.11772783     0.89035214
Ce     3.83788273     2.19075471     3.96795675
Ce    -2.03265604     9.93627356     7.27070985
Ce     9.67981860     1.11772783     0.89035214
Ce     7.74008629     2.24387475     4.03907544
Ce     2.06791895     9.99620589     7.24422563
Ce     0.00000000     4.47091133     0.89035214
Ce    -1.93844683     5.59000587     4.09138186
Ce    -1.83694661     3.36613609     7.31601966
Ce     3.87193441     4.47091133     0.89035214
Ce     1.95649933     5.58588064     4.05173394
Ce     1.88729851     3.34965079     7.20546555
Ce     7.74385721     4.47091133     0.89035214
Ce     5.83850136     5.61417153     3.98998916
Ce    -1.93596721     7.82410489     0.89035214
Ce    -3.86888357     8.92041520     4.05294006
Ce    -3.77500976     6.71803682     7.36352874
Ce     1.93596721     7.82410489     0.89035214
Ce     0.00215777     8.95534425     4.09385403
Ce     0.03511542     6.72102036     7.23296529
Ce     5.80789000     7.82410489     0.89035214
Ce     3.88231096     8.95786731     4.02568644
Ce     3.86752270     6.74197028     7.22052735
W      5.58173105     3.39580110     6.86680707
Cr     6.89537225     3.80674085     9.75234732
O      0.00000000     0.00000000     0.09999685
O      1.91786505     1.11919155     3.21088527
O      0.04943066     2.25029127     6.33480037
O      0.00000000     2.23545567     1.68070743
O      0.00162964     0.00069592     4.82731753
O      1.87513822     1.23842309     8.00983641
O      3.87192279     0.00000000     0.09999685
O      5.80447793     1.13139462     3.23533672
O      4.21104610     2.17439545     6.45261893
O      3.87192279     2.23545567     1.68070743
O      3.83669613     0.00604793     4.81357747
O      5.92178971     2.70251243     8.62498930
O      7.74385721     0.00000000     0.09999685
O      9.68280455     1.11820877     3.21273363
O      7.29496071     2.47497788     6.53138530
O      7.74385721     2.23545567     1.68070743
O      7.77539930     0.09068761     4.84252244
O      9.82087414     1.05176138     8.03159947
O     -1.93596140     3.35318350     0.09999685
O      0.01399718     4.46370050     3.27844717
O     -1.87768134     5.59296824     6.38708115
O     -1.93596721     5.58864923     1.68070743
O      9.60268629     3.29311028     4.85160805
O      0.17981717     4.49003879     8.06300127
O      1.93596140     3.35318350     0.09999685
O      3.86191500     4.47760461     3.19481009
O      1.95774591     5.59721204     6.36489835
O      1.93595559     5.58864923     1.68070743
O      2.03043536     3.31074071     4.88433359
O      5.80789581     3.35318350     0.09999685
O      7.72283547     4.45859117     3.23535132
O      6.07922051     5.18209343     6.53216085
O      5.80789000     5.58864923     1.68070743
O      5.67594116     3.39277315     4.82132371
O      8.13920113     4.61359654     8.81474353
O     -3.87192860     6.70637706     0.09999685
O     -1.92965498     7.81525649     3.25441099
O     -3.91279232     8.94054847     6.43777039
O     -3.87192860     8.94183273     1.68070743
O      7.70246894     6.69869286     4.82843018
O     -1.76216444     7.75211962     8.15258604
O     -0.00000581     6.70637706     0.09999685
O      1.96937440     7.82310840     3.27211919
O      0.03311131     8.99928570     6.44726662
O     -0.00000581     8.94183273     1.68070743
O      0.02257494     6.73924813     4.85311501
O      3.87192860     6.70637706     0.09999685
O      5.79987043     7.82772221     3.21111801
O      3.89054791     8.91117361     6.33422263
O      3.87192860     8.94183273     1.68070743
O      3.99019683     6.64226380     4.90317433
O      5.66312588     7.76522410     8.00686106
O      4.02112319     4.37823158     7.70864881
O      2.02578510     7.71552557     8.06754648
O      5.37303207     3.45748943    12.48366619
C      5.89630716     3.51980378    11.44925405
