82
CIF: Co-Rh-CeO2.cif | data_image0
Ce     1.93038582     1.11050507     0.88387043
Ce     0.01201291     2.23325913     4.03670636
Ce    -5.77123716    10.03801240     7.22609325
Ce     5.81181033     1.12175166     0.90127712
Ce     3.87190576     2.23180035     4.02898464
Ce    -1.95343348    10.04945942     7.21232562
Ce     9.66901012     1.12377363     0.90450652
Ce     7.75161846     2.23057362     4.06867044
Ce     2.01597612    10.00421884     7.21086222
Ce    -0.00709724     4.47602159     0.89067279
Ce    -1.94202668     5.58679450     4.05697976
Ce    -1.84863550     3.31061480     7.21092532
Ce     3.86254305     4.47635356     0.87798423
Ce     1.94254870     5.58442628     4.04656635
Ce     1.90577982     3.35401864     7.21369423
Ce     7.74213807     4.46545905     0.90125422
Ce     5.81076363     5.59002421     4.02882905
Ce    -1.94645625     7.83004003     0.90010904
Ce    -3.86943977     8.94024253     4.04336280
Ce    -3.87227739     6.72614273     7.21230111
Ce     1.92815559     7.82745473     0.89060408
Ce    -0.00175641     8.94748239     4.05692627
Ce    -0.00670797     6.70976187     7.20370665
Ce     5.81127600     7.83258510     0.88371011
Ce     3.87958546     8.93207507     4.03671996
Ce     3.85556209     6.73136524     7.21376706
Rh     4.90060501     3.87616405     6.52995623
Co     6.69851990     2.83848836     7.82426923
O     11.61334069     0.00154917     0.10141687
O      1.93959655     1.11424143     3.22991044
O      0.03203909     2.21777862     6.40597447
O     -0.00785227     2.23805103     1.69392277
O     -5.79131123    10.04958911     4.85788215
O      1.94873065     1.06802028     8.01937673
O     -1.93899312    10.05733740     0.10496691
O      5.80855068     1.10441735     3.24583937
O      3.84194652     2.18293596     6.43478643
O      3.86763657     2.23577757     1.68132582
O     -1.93859378    10.05040123     4.87037751
O      6.04438738     1.17940134     8.16174591
O      7.73821774     0.00761509     0.10924988
O      9.68598781     1.11385725     3.25017227
O      7.87756866     2.15758381     6.39884014
O      7.74357843     2.23531483     1.71563532
O      1.94717979    10.02162737     4.86059584
O      9.76505676     1.06797610     8.02949277
O      9.67032270     3.35425987     0.10911246
O      0.00687452     4.48450400     3.23801330
O     -1.97978157     5.56582449     6.46429499
O     -1.94403436     5.59119430     1.70564938
O     -1.89798694     3.36184549     4.86064381
O      0.01376981     4.46693248     8.00686566
O      1.92738314     3.35244915     0.09928684
O      3.86181268     4.47659961     3.21419664
O      1.88628302     5.61691139     6.37381745
O      1.92862022     5.59252216     1.67404250
O      1.93402767     3.35067715     4.85372023
O      3.72156987     4.55726098     8.03108099
O      5.81155478     3.35101064     0.10766953
O      7.75531267     4.47656722     3.24573230
O      5.83826521     5.64042127     6.43482856
O      5.80528807     5.59217007     1.68114259
O      5.83705911     3.33609063     4.80620355
O      7.80803273     4.23351525     8.16191325
O     -3.87155109     6.71022987     0.10512724
O     -1.94099750     7.82683116     3.24095007
O     -3.84184471     8.92403073     6.41013211
O     -3.87509971     8.94378428     1.69355631
O     -3.86563993     6.71278599     4.87034798
O     -1.94557564     7.82918638     8.00301298
O     -0.01209783     6.71325780     0.10434852
O      1.92742284     7.81084235     3.23790335
O     -0.00245679     8.99031089     6.46414340
O     -0.00628994     8.94736548     1.70514550
O     -0.04037944     6.72922245     4.88653679
O      1.94590641     7.81336389     8.00690716
O      3.86815347     6.71410280     0.09951587
O      5.81256411     7.82238569     3.22972098
O      3.90287289     8.92222836     6.40599020
O      3.86556896     8.94715423     1.69389986
O      3.87292019     6.70879786     4.85372856
O      5.85688502     7.83724173     8.01937049
