90
CIF: CH2CCH2+H.cif | data_image0
O      0.00261135     0.00382715     0.19995339
O      1.91088056     1.10560215     3.33337986
O      0.27669684     2.14892063     6.64794068
O      0.00261135     2.21285656     1.76196664
O     11.45557158     0.01698568     4.96664735
O      1.74797408     0.45893755     8.83264098
O      3.82876252     0.00382715     0.19995339
O      5.74403843     1.10905996     3.32333757
O      3.21902461     2.43833420     7.07681269
O      3.82876252     2.21285656     1.76196664
O      3.82960723     0.12723468     5.03313719
O      5.81680130     1.05592659     8.22763081
O      7.65492518     0.00382715     0.19995339
O      9.55450965     1.10642886     3.33417667
O      7.66830739     2.19776179     6.53229012
O      7.65492518     2.21285656     1.76196664
O      7.64161450     0.00644181     4.96259543
O      9.57658294     0.96727907     8.21063348
O     -1.91046424     3.31737126     0.19995339
O      0.01839213     4.41580955     3.33982498
O     -1.76879153     5.51360419     6.54981906
O     -1.91046998     5.52641062     1.76196664
O     -1.84395635     3.26817183     4.98733807
O      0.36707424     4.28194170     8.37563953
O      1.91568694     3.31737126     0.19995339
O      3.83157269     4.42356124     3.31660207
O      1.97137770     5.40537022     6.57347574
O      1.91568120     5.52641062     1.76196664
O      1.94695991     3.33165388     4.93814925
O      4.16094993     4.85733170     8.80575992
O      5.74184959     3.31737126     0.19995339
O      7.64430575     4.39575394     3.39345418
O      5.68207874     5.56691474     6.51633264
O      5.74184385     5.52641062     1.76196664
O      5.61766922     3.24487107     5.04046608
O      7.67852704     4.56122953     8.25237701
O     -3.82354556     6.63092532     0.19995339
O     -1.90667407     7.75159819     3.38964898
O     -3.87261932     8.79732527     6.53658721
O     -3.82354556     8.83995473     1.76196664
O     -3.78522424     6.58305716     5.00671258
O     -1.86244832     7.60438734     8.24053481
O      0.00260561     6.63092532     0.19995339
O      1.90680605     7.75613511     3.31891271
O      0.01530098     8.80576550     6.51613745
O      0.00260561     8.83995473     1.76196664
O      0.06699408     6.63123038     4.97386450
O      1.90369574     7.70612169     8.16934901
O      3.82876826     6.63092532     0.19995339
O      5.76212914     7.72190710     3.37100351
O      3.80610177     8.82318464     6.49777563
O      3.82876826     8.83995473     1.76196664
O      3.78991825     6.63615489     4.94624681
O      5.68715329     7.72490747     8.19604679
Ce     1.91568694     1.10834185     0.98097142
Ce    -0.01797108     2.17632556     4.13451361
Ce     5.69819130     9.86384932     7.40683455
Ce     5.74184959     1.10834185     0.98097142
Ce     3.84629117     2.19687667     4.08483114
Ce    -1.93072874     9.89294345     7.52864254
Ce     9.56800076     1.10834185     0.98097142
Ce     7.64774801     2.21193360     4.20427916
Ce     7.62947084     0.03160324     7.35904436
Ce     0.00261135     4.42188597     0.98097142
Ce    -1.88464261     5.50226252     4.19449485
Ce     9.55944885     3.25832934     7.44161296
Ce     3.82877400     4.42188597     0.98097142
Ce     1.93075932     5.56907002     4.09542692
Ce     7.65492518     4.42188597     0.98097142
Ce     5.73689456     5.51021394     4.19325891
Ce     5.77495417     3.34067985     7.51540719
Ce    -1.91046998     7.73544003     0.98097142
Ce    -3.82047530     8.83903115     4.20598960
Ce    -3.80343474     6.59505402     7.38155042
Ce     1.91569268     7.73544003     0.98097142
Ce    -0.00811993     8.86190631     4.16944598
Ce     0.00322937     6.72809479     7.33163396
Ce     5.74184385     7.73544003     0.98097142
Ce     3.82827408     8.84429279     4.14154076
Ce     3.85456051     6.71296871     7.34346532
Ru     1.72594327     3.48600117     6.88942967
C      3.62492087     4.85893978    10.10133735
C      2.54126850     3.87790211    10.34257256
C      2.34952092     2.81025951    11.09048030
H      3.24503575     5.86637877    10.38416273
H      4.42181849     4.62859195    10.85225282
H      0.91804943     4.30022760     9.20253683
H      1.79264543     1.30846158     9.30849630
H      1.39066073     2.28519577    11.16007353
H      3.16770170     2.39271993    11.70051718
