87
CIF: 4-NHNO+2H-N2+OH+2H_fs.cif | data_image0
Ce     0.06540440     0.04303109     8.78761308
Ce     1.94027298     1.11577266     5.58930106
Ce     0.00000000     2.23543938     2.47426506
Ce     3.84683197     0.00570474     8.74780865
Ce     5.81644212     1.11409732     5.61926526
Ce     3.87189458     2.23543938     2.47426506
Ce     7.74676173     0.00149651     8.83796358
Ce     9.66544704     1.11140204     5.62284456
Ce     7.74390532     2.23543938     2.47426506
Ce    -1.92049561     3.33170544     8.72439497
Ce     0.00241728     4.45513562     5.63871088
Ce    -1.93600537     5.58869904     2.47426506
Ce     1.88893218     3.28588795     8.75289672
Ce     3.87464567     4.46737398     5.62440797
Ce     1.93588921     5.58869904     2.47426506
Ce     5.81174554     3.28184067     8.80125581
Ce     7.73100158     4.47686139     5.62024441
Ce     5.80789995     5.58869904     2.47426506
Ce    -3.82732531     6.76136458     8.73185025
Ce    -1.93675835     7.83303268     5.59201101
Ce    -3.87195266     8.94185811     2.47426506
Ce     1.96326926     7.84018541     5.67568622
Ce    -0.00005808     8.94185811     2.47426506
Ce     3.82397396     6.70757485     8.77996421
Ce     5.80187703     7.82166255     5.62058791
Ce     3.87195266     8.94185811     2.47426506
Ti    -0.35482885     6.88139827     8.63471558
O     -5.78394010    10.03737644     6.42890117
O      0.06962770     2.19155240     9.63880904
O      1.93594729     1.11771969     3.26466483
O      0.00103805     2.24184302     4.82834662
O      0.00000000     0.00000000     1.68386529
O      1.94460419     1.12651116     7.95286159
O      3.86508938     0.02223735     6.40678535
O      3.84302918     2.18040366     9.59340787
O      5.80795803     1.11771969     3.26466483
O      3.88635431     2.23619479     4.79721803
O      3.87189458     0.00000000     1.68386529
O      5.74923475     1.08285378     8.03801763
O      7.72529367     0.07846474     6.36539276
O      7.75000302     2.38836081     9.55606971
O      9.67985261     1.11771969     3.26466483
O      7.71992298     2.26074204     4.79143438
O      7.74390532     0.00000000     1.68386529
O      9.75433766     1.12510016     7.98608421
O      9.60115276     3.33806314     6.40523269
O     -1.73170544     5.79717678     9.35006837
O      0.00000000     4.47087876     3.26466483
O     -1.90254579     5.60986683     4.83907246
O     -1.93594729     3.35315907     1.68386529
O     -0.01431732     4.16441201     7.86433169
O      2.00168116     3.33721520     6.41257300
O      1.27203235     5.77278024     9.47231095
O      3.87201074     4.47087876     3.26466483
O      1.88369198     5.60085699     4.85085908
O      1.93594729     3.35315907     1.68386529
O      3.83535613     4.47304350     8.10580410
O      5.79657322     3.34376238     6.48153516
O      6.08923368     5.44728693     9.88920628
O      7.74390532     4.47087876     3.26466483
O      5.82744338     5.56325419     4.80084493
O      5.80795803     3.35315907     1.68386529
O      7.74152227     4.55493527     7.98594787
O      7.72024226     6.72848678     6.40770891
O     -3.83605844     8.96904299     9.56875479
O     -1.93600537     7.82413842     3.26466483
O     -3.86274447     8.94291036     4.79822343
O     -3.87195266     6.70641873     1.68386529
O     -2.01681428     7.88022440     7.88639517
O     -0.02343671     6.70995933     6.71356392
O     -0.12336926     8.52227811     9.43358420
O      1.93600537     7.82413842     3.26466483
O     -0.00590431     8.89845473     4.83802999
O     -0.00005808     6.70641873     1.68386529
O      2.20156236     7.95359678     7.88016969
O      3.92675501     6.64635765     6.33192359
O      4.02695429     9.22878323     9.97258936
O      5.80789995     7.82413842     3.26466483
O      3.87588598     8.94624553     4.82738059
O      3.87195266     6.70641873     1.68386529
O      5.80805676     7.80655781     8.06025050
O      3.78540481     6.63947303    10.76430276
N      5.09840590     6.28331360    13.81189901
N      4.40956898     7.10983535    14.11233967
H      4.01583763     8.50665171    10.65991105
H      5.44759047     5.78618456    10.57856700
H      1.61556518     6.10364318    10.33220291
