81
CIF: Pt-Rh-CeO2-Ov.cif | data_image0
Ce     1.93038582     1.11050507     0.88387043
Ce    -0.00998469     2.22773307     4.02146449
Ce    -5.77206552    10.03853718     7.23369158
Ce     5.81181033     1.12175166     0.90127712
Ce     3.84408936     2.21229330     4.01635846
Ce    -1.91669406    10.02614074     7.23500001
Ce     9.66901012     1.12377363     0.90450652
Ce     7.73881532     2.23811959     4.06487878
Ce     1.95517157    10.03160710     7.22915442
Ce    -0.00709724     4.47602159     0.89067279
Ce    -1.93161701     5.58045819     4.05902220
Ce    -1.90244074     3.35007820     7.22919371
Ce     3.86254305     4.47635356     0.87798423
Ce     1.95991929     5.57454749     4.06692661
Ce     1.79979156     3.24369032     7.18232027
Ce     7.74213807     4.46545905     0.90125422
Ce     5.81383216     5.62405629     4.01640517
Ce    -1.94645625     7.83004003     0.90010904
Ce    -3.86191524     8.93580647     4.05889344
Ce    -3.83367695     6.70586792     7.23499208
Ce     1.92815559     7.82745473     0.89060408
Ce     0.00908674     8.94175412     4.05884839
Ce     0.02056001     6.69411184     7.22395386
Ce     5.81127600     7.83258510     0.88371011
Ce     3.87344204     8.95393380     4.02151113
Ce     3.89844946     6.87847430     7.18238391
Rh     4.98554079     3.82781039     6.58457413
Pt     6.72790212     2.82168385     8.14735529
O     11.61334069     0.00154917     0.10141687
O      1.93007103     1.10752309     3.21906846
O     -0.02487785     2.20583742     6.39088783
O     -0.00785227     2.23805103     1.69392277
O     -5.79084046    10.04942753     4.84789197
O      1.91369757     1.01605300     8.03889626
O     -1.93899312    10.05733740     0.10496691
O      5.80676821     1.12135654     3.24515797
O      3.87192465     2.19862226     6.47786765
O      3.86763657     2.23577757     1.68132582
O      3.87266124     0.01119458     4.85567749
O      5.85523285     0.98510041     8.17206218
O      7.73821774     0.00761509     0.10924988
O      9.67473376     1.12043932     3.23797362
O      7.80698471     2.19867346     6.41168630
O      7.74357843     2.23531483     1.71563532
O      1.93951211    10.05841542     4.85191531
O      9.71254433     1.09852613     8.03454581
O      9.67032270     3.35425987     0.10911246
O      0.00295966     4.47439083     3.23606732
O     -1.93423544     5.59191530     6.39661102
O     -1.94403436     5.59119430     1.70564938
O     -1.93348548     3.35026904     4.85192815
O     -0.05771542     4.48087777     8.02873729
O      1.92738314     3.35244915     0.09928684
O      3.84572786     4.48589202     3.21747855
O      2.05158641     5.52144262     6.51840305
O      1.92862022     5.59252216     1.67404250
O      1.91612843     3.32427949     4.82838050
O      5.81155478     3.35101064     0.10766953
O      7.73980930     4.46967385     3.24505143
O      5.83960181     5.60639915     6.47772191
O      5.80528807     5.59217007     1.68114259
O      5.75165895     3.38538154     4.77465262
O      7.88209872     4.49564120     8.17210764
O     -3.87155109     6.71022987     0.10512724
O     -1.92021505     7.81488963     3.26106526
O     -3.82457709     8.91423572     6.39312360
O     -3.87509971     8.94378428     1.69355631
O      7.73431403     6.69981276     4.85561661
O     -1.89952795     7.80276906     8.02213009
O     -0.01209783     6.71325780     0.10434852
O      1.93422281     7.81944735     3.23591609
O     -0.00224672     8.93827761     6.39658035
O     -0.00628994     8.94736548     1.70514550
O      0.05475608     6.67452555     4.89971203
O      1.89789823     7.86860797     8.02879064
O      3.86815347     6.71410280     0.09951587
O      5.81366154     7.83407477     3.21887504
O      3.88483625     8.97773684     6.39095115
O      3.86556896     8.94715423     1.69389986
O      3.88678447     6.73761875     4.82834667
O      5.88471517     7.89378449     8.03892046
