81
CIF: Pt-Cu-CeO2-Ov.cif | data_image0
Ce     1.93038582     1.11050507     0.88387043
Ce     0.00221966     2.23334084     4.03346479
Ce    -5.76289565    10.04564604     7.21561896
Ce     5.81181033     1.12175166     0.90127712
Ce     3.87181121     2.23559980     4.04069412
Ce    -1.91605681    10.04919353     7.21970056
Ce     9.66901012     1.12377363     0.90450652
Ce     7.71177791     2.25493857     4.04585078
Ce     1.98624266    10.00544359     7.25121148
Ce    -0.00709724     4.47602159     0.89067279
Ce    -1.93715882     5.57552459     4.05560085
Ce    -1.85331623     3.36297585     7.23705594
Ce     3.86254305     4.47635356     0.87798423
Ce     1.94550731     5.57653744     4.05806705
Ce     1.86357626     3.25814561     7.21642939
Ce     7.74213807     4.46545905     0.90125422
Ce     5.80137979     5.57967719     4.01679427
Ce    -1.94645625     7.83004003     0.90010904
Ce    -3.87140474     8.93699463     4.05508858
Ce     7.75507771     6.67805277     7.21226537
Ce     1.92815559     7.82745473     0.89060408
Ce     0.01055704     8.94564327     4.06561812
Ce    -0.00333702     6.70146027     7.22447217
Ce     5.81127600     7.83258510     0.88371011
Ce     3.87494042     8.96845658     4.00527067
Ce     3.89702270     6.86579352     7.11718511
Cu     5.02778361     3.78356910     6.58368329
Pt     6.81957781     2.77049615     8.12663769
O     11.61334069     0.00154917     0.10141687
O      1.93822175     1.10207907     3.22868330
O     -0.01278663     2.20483051     6.39839880
O     -0.00785227     2.23805103     1.69392277
O     -5.79115730    10.05292786     4.84481133
O      1.95546149     0.95353429     8.04110493
O     -1.93899312    10.05733740     0.10496691
O      5.80522184     1.08137243     3.23603530
O      3.91951774     2.26528181     6.46203880
O      3.86763657     2.23577757     1.68132582
O      3.87763829     0.01741039     4.88200467
O      5.90528833     0.96799035     8.18881782
O      7.73821774     0.00761509     0.10924988
O      9.67735330     1.12310349     3.23167100
O      7.76553264     2.23496287     6.48539721
O      7.74357843     2.23531483     1.71563532
O      7.75347241     0.02631266     4.87935408
O      9.75873263     1.05642444     8.01746842
O      9.67032270     3.35425987     0.10911246
O     -0.01056806     4.48014933     3.23754706
O     -1.94543919     5.59518946     6.38623828
O     -1.94403436     5.59119430     1.70564938
O      9.66744147     3.33708526     4.87482654
O     -0.08920207     4.54027753     8.04091245
O      1.92738314     3.35244915     0.09928684
O      3.83833338     4.49819312     3.21663159
O      2.08577694     5.58371330     6.52125084
O      1.92862022     5.59252216     1.67404250
O      1.91928923     3.35010849     4.80649997
O      5.81155478     3.35101064     0.10766953
O      7.77295090     4.49005290     3.22491994
O      5.67205927     5.54404777     6.50378670
O      5.80528807     5.59217007     1.68114259
O      5.81329598     3.36405400     4.64040547
O      7.89035010     4.49031173     8.15238504
O     -3.87155109     6.71022987     0.10512724
O     -1.93414682     7.81418692     3.27816936
O     -3.83725509     8.89076850     6.38455852
O     -3.87509971     8.94378428     1.69355631
O      7.68626083     6.66419467     4.89009130
O     -1.91960313     7.79354472     8.00403182
O     -0.01209783     6.71325780     0.10434852
O      1.92757543     7.83144203     3.23872722
O      0.01775606     8.93068162     6.42383562
O     -0.00628994     8.94736548     1.70514550
O      0.04889566     6.67625259     4.90473656
O      1.98835598     7.85576477     8.03401930
O      3.86815347     6.71410280     0.09951587
O      5.81463101     7.83198966     3.21761463
O      3.89437645     8.95200740     6.36746686
O      3.86556896     8.94715423     1.69389986
O      3.88014872     6.74836881     4.81618229
O      5.82378211     7.83163128     7.98972821
