84
CIF: CO+Olatt—CO2.cif | data_image0
Ce     1.93596140     1.11772783     0.89035214
Ce     0.01052867     2.22567797     4.05436520
Ce     5.82459487    10.02479278     7.22256596
Ce     5.80789581     1.11772783     0.89035214
Ce     3.83082061     2.19631760     3.95797322
Ce    -2.07250460     9.88875906     7.21571672
Ce     9.67981860     1.11772783     0.89035214
Ce     7.76745102     2.21535290     4.01596506
Ce     2.01784660     9.94973034     7.36609089
Ce     0.00000000     4.47091133     0.89035214
Ce    -1.95077605     5.58569549     4.10198781
Ce    -1.63991111     3.37657389     7.28323511
Ce     3.87193441     4.47091133     0.89035214
Ce     1.96660843     5.58354925     4.09998520
Ce     1.95097487     3.32331273     7.32055590
Ce     7.74385721     4.47091133     0.89035214
Ce     5.82928445     5.64594377     3.97288422
Ce    -1.93596721     7.82410489     0.89035214
Ce    -3.87466586     8.91300940     4.03214111
Ce    -3.83323791     6.75404299     7.38525920
Ce     1.93596721     7.82410489     0.89035214
Ce     0.01226837     8.96421667     4.09192588
Ce     0.03737670     6.71723348     7.27059765
Ce     5.80789000     7.82410489     0.89035214
Ce     3.86070767     8.95247722     4.07369869
Ce     3.86320654     6.78992564     7.32341343
Mo     5.45931986     3.54586160     6.79930038
O      0.00000000     0.00000000     0.09999685
O      1.92613372     1.10165486     3.21033438
O      0.09869835     2.23281620     6.40280536
O      0.00000000     2.23545567     1.68070743
O     -5.77653806    10.04525523     4.86912350
O      2.00792696     0.96225847     8.03682515
O      3.87192279     0.00000000     0.09999685
O      5.72935006     1.08442951     3.23004223
O      4.17634888     2.20885471     6.58294971
O      3.87192279     2.23545567     1.68070743
O      3.81294304     0.03315520     4.88822511
O      6.85395041     1.40909473     9.34752069
O      7.74385721     0.00000000     0.09999685
O      9.75637944     1.08377266     3.22942073
O      7.13120342     2.57531060     6.90439685
O      7.74385721     2.23545567     1.68070743
O      1.93007792    10.05274658     4.92278134
O      9.77803800     1.25068468     7.94370997
O     -1.93596140     3.35318350     0.09999685
O      0.00287897     4.46997291     3.30320407
O     -1.92070121     5.53617783     6.50722510
O     -1.93596721     5.58864923     1.68070743
O      9.68762612     3.32058247     4.97956286
O      0.03283837     4.50732807     8.14240299
O      1.93596140     3.35318350     0.09999685
O      3.88717260     4.47091553     3.21256380
O      1.94209984     5.57216356     6.41394009
O      1.93595559     5.58864923     1.68070743
O      2.05368056     3.29335148     4.86091310
O      5.80789581     3.35318350     0.09999685
O      7.74657163     4.53829438     3.23148718
O      5.87153635     5.34171151     6.51524031
O      5.80789000     5.58864923     1.68070743
O      5.72571433     3.38806601     4.87600943
O      8.20293527     4.09891205     8.89817456
O     -3.87192860     6.70637706     0.09999685
O     -1.93429859     7.82073008     3.27074798
O     -3.85228378     8.89020769     6.38848456
O     -3.87192860     8.94183273     1.68070743
O      7.70888760     6.68182217     4.87920590
O     -1.87732080     7.86437064     8.12897561
O     -0.00000581     6.70637706     0.09999685
O      1.93570969     7.81958833     3.27785114
O     -0.07733583     9.07281117     6.52034084
O     -0.00000581     8.94183273     1.68070743
O     -0.01262131     6.75473168     4.92897357
O      3.87192860     6.70637706     0.09999685
O      5.81541354     7.83505897     3.21923088
O      3.90928727     8.95802766     6.42683511
O      3.87192860     8.94183273     1.68070743
O      3.95172816     6.68284055     4.85828209
O      5.83636209     7.95451576     8.10637848
O      4.18181459     4.29074803     8.13812548
O      1.82892014     7.75108005     8.13654967
O      4.97431290     4.18417492    10.49184774
Cr     6.96765354     2.93205685     8.70788781
C      5.41458994     3.84870371     9.45317577
