84
CIF: CO+Olatt—CO2.cif | data_image0
Ce     1.93038582     1.11050507     0.88387043
Ce    -0.01192272     2.22065156     4.08950339
Ce    -5.57088686     9.91681014     7.20735768
Ce     5.81181033     1.12175166     0.90127712
Ce     3.79593540     2.17347065     3.98798697
Ce    -1.83292442     9.94902063     7.30680336
Ce     9.66901012     1.12377363     0.90450652
Ce     7.72670947     2.25290890     4.07390488
Ce     1.90126394     9.90535675     7.29064013
Ce    -0.00709724     4.47602159     0.89067279
Ce    -1.93507423     5.56888066     4.07369403
Ce    -1.79114745     3.45848398     7.33795058
Ce     3.86254305     4.47635356     0.87798423
Ce     1.95041025     5.56924051     4.07385676
Ce     1.96356900     3.25075389     7.35283450
Ce     7.74213807     4.46545905     0.90125422
Ce     5.83237294     5.67971535     3.97580866
Ce    -1.94645625     7.83004003     0.90010904
Ce    -3.82772412     8.90037505     4.06803025
Ce    -3.79055446     6.60453825     7.37815574
Ce     1.92815559     7.82745473     0.89060408
Ce     0.01522672     8.94466079     4.04967174
Ce     0.05253817     6.66671011     7.24620426
Ce     5.81127600     7.83258510     0.88371011
Ce     3.87530154     8.98511613     4.06022063
Ce     3.92603902     6.80461751     7.20143770
Ti     5.46880995     3.53852297     6.49074081
Y      7.02620529     2.62636700     9.05881826
O     11.61334069     0.00154917     0.10141687
O      1.91645387     1.08807577     3.22861472
O     -0.05937861     2.06451465     6.66930568
O     -0.00785227     2.23805103     1.69392277
O     -5.73026357    10.02240499     4.91290682
O      2.10540448     0.91111220     8.08192466
O     -1.93899312    10.05733740     0.10496691
O      5.73111213     1.06043723     3.24144326
O      4.06102906     2.27688716     6.37709835
O      3.86763657     2.23577757     1.68132582
O     -1.94634742    10.04564486     4.90383982
O      5.97018230     0.73509946     8.42195957
O      7.73821774     0.00761509     0.10924988
O      9.75195088     1.08362352     3.25859402
O      7.02853115     2.69461335     6.78577198
O      7.74357843     2.23531483     1.71563532
O      7.77158494     0.00785709     4.97400834
O      8.87092207     1.50810341     8.39086714
O      9.67032270     3.35425987     0.10911246
O     -0.00585544     4.45334446     3.26469095
O     -1.86755379     5.57096181     6.41928118
O     -1.94403436     5.59119430     1.70564938
O     -1.90111649     3.30360765     5.00108056
O      0.02437027     4.53726270     8.08731085
O      1.92738314     3.35244915     0.09928684
O      3.79358241     4.51593045     3.21735008
O      2.15156160     5.54503587     6.50104213
O      1.92862022     5.59252216     1.67404250
O      1.88213919     3.27967294     4.90158858
O      4.51660374     4.14583400     8.22736676
O      5.81155478     3.35101064     0.10766953
O      7.76372782     4.54705387     3.23674830
O      5.74635443     5.43198879     6.35170754
O      5.80528807     5.59217007     1.68114259
O      5.65490672     3.44294102     4.63763009
O      8.21861608     4.39147205     8.57138270
O     -3.87155109     6.71022987     0.10512724
O     -1.90483364     7.80827283     3.27055875
O     -3.78242789     8.87081055     6.45427598
O     -3.87509971     8.94378428     1.69355631
O      7.73460826     6.69639240     4.85470967
O     -1.74881311     7.82456937     8.10064746
O     -0.01209783     6.71325780     0.10434852
O      1.94594887     7.83802566     3.25752825
O      0.02070885     8.90109703     6.39831822
O     -0.00628994     8.94736548     1.70514550
O      0.07453489     6.66303969     4.90481514
O      1.98989481     7.78388159     8.04256462
O      3.86815347     6.71410280     0.09951587
O      5.81346674     7.86362974     3.22029315
O      3.94291124     9.04372954     6.54096478
O      3.86556896     8.94715423     1.69389986
O      3.90995935     6.80914485     4.88768933
O      5.76899319     7.78656057     8.05203188
O      3.95833672     4.16037196    10.42206907
C      4.80851867     3.81845173     9.61675124
