83
CIF: Co-Rh-CeO2-O.cif | data_image0
Ce     1.93038582     1.11050507     0.88387043
Ce    -0.00590745     2.23923473     4.03975471
Ce    -5.79277673    10.05278443     7.21789532
Ce     5.81181033     1.12175166     0.90127712
Ce     3.85206775     2.23128156     4.01490888
Ce     3.85690256     0.00099030     7.22152701
Ce     9.66901012     1.12377363     0.90450652
Ce     7.72723915     2.24684356     4.09100744
Ce     1.97112622    10.03435763     7.21703964
Ce    -0.00709724     4.47602159     0.89067279
Ce    -1.95007444     5.59625690     4.05823798
Ce    -1.89197951     3.33833013     7.21572023
Ce     3.86254305     4.47635356     0.87798423
Ce     1.92935332     5.59391081     4.04758881
Ce     1.87003240     3.37030529     7.22326163
Ce     7.74213807     4.46545905     0.90125422
Ce     5.80363511     5.61026947     4.01618456
Ce    -1.94645625     7.83004003     0.90010904
Ce    -3.87766399     8.94711791     4.05297961
Ce    -3.87734130     6.72335323     7.22421184
Ce     1.92815559     7.82745473     0.89060408
Ce    -0.01207877     8.95393398     4.05756579
Ce    -0.02104875     6.72137067     7.19771813
Ce     5.81127600     7.83258510     0.88371011
Ce     3.86677938     8.94583608     4.04117395
Ce     3.82446430     6.75632671     7.22468551
Rh     4.90134398     3.87846731     6.55654397
Co     6.62115995     2.88853034     7.99108546
O     11.61334069     0.00154917     0.10141687
O      1.92800502     1.11891686     3.22817450
O      0.00810133     2.23878255     6.39246206
O     -0.00785227     2.23805103     1.69392277
O     -5.80649538    10.05761456     4.85683986
O      1.93112108     1.09265956     7.99487874
O     -1.93899312    10.05733740     0.10496691
O      5.79767728     1.11965086     3.24208821
O      3.83093500     2.22663988     6.42545031
O      3.86763657     2.23577757     1.68132582
O      3.85875792     0.01501091     4.86984231
O      5.95476973     1.09797243     8.01380824
O      7.73821774     0.00761509     0.10924988
O      9.67344838     1.12254075     3.25102807
O      7.73704434     2.24198286     6.52594939
O      7.74357843     2.23531483     1.71563532
O      7.74031260     0.02060825     4.87396638
O      9.73707672     1.08732728     8.00257371
O      9.67032270     3.35425987     0.10911246
O     -0.01256536     4.47512250     3.24183104
O     -1.94944658     5.61007843     6.42655549
O     -1.94403436     5.59119430     1.70564938
O      9.66034487     3.35007686     4.87303716
O     -0.00343715     4.47881910     8.00896726
O      1.92738314     3.35244915     0.09928684
O      3.86074089     4.47860820     3.21570476
O      1.86954058     5.62802605     6.36579245
O      1.92862022     5.59252216     1.67404250
O      1.92720223     3.35865010     4.84808150
O      5.81155478     3.35101064     0.10766953
O      7.73808689     4.48289718     3.24166855
O      5.79584705     5.63227045     6.42805307
O      5.80528807     5.59217007     1.68114259
O      5.81645742     3.35078760     4.81808624
O      7.84012593     4.36099609     8.01020605
O     -3.87155109     6.71022987     0.10512724
O     -1.95318923     7.83430844     3.24749905
O     -3.85314987     8.93686769     6.40500742
O     -3.87509971     8.94378428     1.69355631
O      7.72684893     6.71347008     4.87458225
O     -1.96227045     7.84349980     8.01446822
O     -0.01209783     6.71325780     0.10434852
O      1.92705787     7.83480897     3.24076437
O     -0.02500369     8.95106535     6.42597978
O     -0.00628994     8.94736548     1.70514550
O     -0.03365486     6.72943211     4.84827424
O      1.92410230     7.82539467     8.00945952
O      3.86815347     6.71410280     0.09951587
O      5.80574005     7.83029272     3.22785076
O      3.87341111     8.93402544     6.39796309
O      3.86556896     8.94715423     1.69389986
O      3.86368347     6.71393978     4.84902962
O      5.83675240     7.84556648     7.99548172
O      3.68972077     4.57867261     8.02323296
O      5.91097636     3.30450231     9.40685617
