83
CIF: Y-CeO2+CO.cif | data_image0
O      0.55978923     0.45000431     0.59999690
O      2.47288980     1.55084638     3.74498129
O      0.56291982     2.66134592     6.94564457
O      0.55978923     2.65902057     2.16203261
O      0.55880175     0.44880752     5.38039443
O      2.47464708     1.48495251     8.57608834
O      4.38603242     0.45000431     0.59999690
O      6.29970971     1.55385166     3.74308793
O      4.38325565     2.66197693     6.94463157
O      4.38603242     2.65902057     2.16203261
O      4.38717571     0.44842510     5.38006786
O      6.29892843     1.55495455     8.57364514
O      8.21216082     0.45000431     0.59999690
O     10.12494219     1.55414194     3.74290315
O      8.21271195     2.65283384     6.93394423
O      8.21216082     2.65902057     2.16203261
O      8.21241818     0.44982485     5.37946489
O     10.12578640     1.55454969     8.57340325
O     -1.35327498     3.76352871     0.59999690
O      0.55658119     4.87006592     3.74500235
O     -1.36308273     5.97823712     6.92186033
O     -1.35333237     5.97264438     2.16203261
O     -1.35548575     3.76353074     5.37962362
O      0.49342496     4.90663843     8.57665958
O      2.47296821     3.76352871     0.59999690
O      4.38881431     4.87008658     3.74527174
O      2.47359036     5.96853293     6.94617684
O      2.47291082     5.97264438     2.16203261
O      2.47232362     3.76335012     5.37094822
O      4.45228053     4.90470895     8.57890066
O      6.29909662     3.76352871     0.59999690
O      8.21221298     4.86981941     3.73990580
O      6.30750946     5.97745831     6.92202355
O      6.29903923     5.97264438     2.16203261
O      6.30198290     3.76309133     5.37925584
O      8.21181931     4.86891017     8.57007192
O     -3.26639657     7.07715251     0.59999690
O     -1.35476235     8.18091893     3.74040342
O     -3.26652160     9.27716607     6.92299417
O     -3.26639657     9.28616878     2.16203261
O     -3.26681529     7.07741183     5.38203183
O     -1.35467795     8.18146889     8.56987570
O      0.55984662     7.07715251     0.59999690
O      2.47279744     8.18186549     3.74319303
O      0.56484482     9.28947087     6.93435845
O      0.55984662     9.28616878     2.16203261
O      0.55871068     7.07911777     5.38015597
O      2.47318431     8.18121874     8.57341207
O      4.38597502     7.07715251     0.59999690
O      6.30038499     8.18102024     3.74021273
O      4.38136613     9.28933673     6.93430353
O      4.38597502     9.28616878     2.16203261
O      4.38670233     7.07931236     5.37998825
O      6.30019655     8.18148953     8.56990607
O      2.57034518     3.86123440    11.59406238
Ce     2.47285343     1.55451244     1.38101475
Ce     0.56641797     2.66306296     4.57360860
Ce     0.56274347     0.45659841     7.74993644
Ce     6.29909662     1.55451244     1.38101475
Ce     4.37920447     2.66293397     4.57375816
Ce     4.38339201     0.45653141     7.74965549
Ce    10.12522502     1.55451244     1.38101475
Ce     8.21227180     2.65809037     4.55941136
Ce     8.21238464     0.44975720     7.75936456
Ce     0.55978923     4.86803684     1.38101475
Ce    -1.35258572     5.97210424     4.55542015
Ce    -1.34759720     3.76322648     7.74953125
Ce     4.38603242     4.86803684     1.38101475
Ce     2.47278571     5.96481255     4.57402796
Ce     8.21216082     4.86803684     1.38101475
Ce     6.29806813     5.97198126     4.55533997
Ce     6.29414349     3.76235715     7.74890502
Ce    -1.35333237     8.18166064     1.38101475
Ce    -3.26639968     9.28742766     4.55574823
Ce    -3.26644631     7.07765387     7.75820124
Ce     2.47291082     8.18166064     1.38101475
Ce     0.56054029     9.28662778     4.55986255
Ce     0.56274120     7.07272228     7.74914702
Ce     6.29903923     8.18166064     1.38101475
Ce     4.38532047     9.28666553     4.55974771
Ce     4.38264420     7.07328638     7.74886750
Y      2.47149027     3.76275961     7.74865829
C      2.52153700     3.81442541    10.45315466
