83
CIF: Rh-Ti-CeO2-O.cif | data_image0
Ce     1.93038582     1.11050507     0.88387043
Ce     0.00735735     2.22797499     4.06112844
Ce    -5.75905616    10.02145304     7.17656077
Ce     5.81181033     1.12175166     0.90127712
Ce     3.83507886     2.22113735     4.00384936
Ce    -1.88634649    10.01515812     7.24658278
Ce     9.66901012     1.12377363     0.90450652
Ce     7.72037490     2.25077635     4.04560570
Ce     1.96843218     9.95737796     7.26889321
Ce    -0.00709724     4.47602159     0.89067279
Ce    -1.94554354     5.58665701     4.07598215
Ce    -1.76295406     3.34954068     7.25815846
Ce     3.86254305     4.47635356     0.87798423
Ce     1.94034287     5.57567111     4.06378891
Ce     2.01284265     3.32260438     7.28900150
Ce     7.74213807     4.46545905     0.90125422
Ce     5.82645236     5.63467352     3.99090113
Ce    -1.94645625     7.83004003     0.90010904
Ce    -3.85070997     8.92751584     4.05658117
Ce    -3.83355917     6.72387598     7.28586768
Ce     1.92815559     7.82745473     0.89060408
Ce    -0.00265357     8.95004556     4.05978348
Ce     0.02537520     6.69158326     7.21664735
Ce     5.81127600     7.83258510     0.88371011
Ce     3.87408555     8.95975131     4.04297285
Ce     3.90535199     6.70907645     7.17591522
Ti     5.45934124     3.57646951     6.68127578
Rh     6.84022988     2.73799372     8.76749109
O     11.61334069     0.00154917     0.10141687
O      1.92494045     1.10646538     3.22517032
O      0.03439666     2.19870980     6.40462864
O     -0.00785227     2.23805103     1.69392277
O     -5.79859246    10.04989129     4.84933722
O      2.03503367     0.96083773     7.99923402
O     -1.93899312    10.05733740     0.10496691
O      5.81244101     1.11991033     3.23877894
O      4.11380265     2.24687857     6.38729980
O      3.86763657     2.23577757     1.68132582
O      3.87988692     0.00878141     4.86576050
O      5.99834843     0.86740482     8.25255455
O      7.73821774     0.00761509     0.10924988
O      9.67269768     1.12400180     3.23762788
O      7.22302839     2.58302402     6.73975958
O      7.74357843     2.23531483     1.71563532
O      7.76076862     0.13374630     4.92739502
O      9.65413205     1.12680293     7.89021239
O      9.67032270     3.35425987     0.10911246
O     -0.02080491     4.45182943     3.26956669
O     -1.92295411     5.51650213     6.42750246
O     -1.94403436     5.59119430     1.70564938
O      9.60235833     3.26448011     4.93049695
O     -0.03180311     4.50221929     8.06496731
O      1.92738314     3.35244915     0.09928684
O      3.84552301     4.49411736     3.19482985
O      1.95182311     5.63879689     6.38666994
O      1.92862022     5.59252216     1.67404250
O      1.97369061     3.33062920     4.83066247
O      5.81155478     3.35101064     0.10766953
O      7.75369712     4.45231795     3.23860496
O      5.91872065     5.41885705     6.33668681
O      5.80528807     5.59217007     1.68114259
O      5.72971651     3.40382809     4.73883342
O      8.04388516     4.15472596     8.58936366
O     -3.87155109     6.71022987     0.10512724
O     -1.91684824     7.83159970     3.24479106
O     -3.84284796     8.92615080     6.38394487
O     -3.87509971     8.94378428     1.69355631
O     -3.85754250     6.70913104     4.79370159
O     -1.79071154     7.87284895     8.02533486
O     -0.01209783     6.71325780     0.10434852
O      1.93991006     7.84970237     3.27308155
O      0.04924040     8.93789081     6.38031114
O     -0.00628994     8.94736548     1.70514550
O     -0.01894201     6.69996030     4.85872718
O      1.98948419     7.80484355     8.02185888
O      3.86815347     6.71410280     0.09951587
O      5.80205731     7.84962433     3.21608965
O      3.87328256     8.91976714     6.35718938
O      3.86556896     8.94715423     1.69389986
O      3.92208214     6.69543171     4.85041090
O      5.71304507     7.84342143     7.97945212
O      4.11291961     4.46316662     7.78304365
O      6.01228790     2.61744503    10.25672302
