90
CIF: H+OH.cif | data_image0
O      0.00261135     0.00382715     0.19995339
O      1.91442024     1.10027474     3.34396985
O      0.08759164     2.25598888     6.60040177
O      0.00261135     2.21285656     1.76196664
O     11.45257828     0.00984528     4.98965304
O      1.91215074     1.22738323     8.30575226
O      3.82876252     0.00382715     0.19995339
O      5.74400477     1.10634675     3.33049462
O      3.70589427     2.20214288     6.57923713
O      3.82876252     2.21285656     1.76196664
O     -1.88086701     9.93576930     4.97221564
O      5.72057361     0.97062720     8.19236587
O      7.65492518     0.00382715     0.19995339
O      9.56860315     1.11309849     3.33317535
O      7.69452595     2.20063588     6.54649174
O      7.65492518     2.21285656     1.76196664
O      7.65660893     0.01510680     4.95364859
O      9.59367643     1.11384262     8.16761899
O     -1.91046424     3.31737126     0.19995339
O      0.01680335     4.41180380     3.35570598
O     -1.84958382     5.52111268     6.51875607
O     -1.91046998     5.52641062     1.76196664
O     -1.89515213     3.30168886     4.99080635
O     -0.25018747     4.59187086     8.53878863
O      1.91568694     3.31737126     0.19995339
O      3.81020563     4.41987822     3.36292846
O      1.93452226     5.65952225     6.60889775
O      1.91568120     5.52641062     1.76196664
O      1.90980217     3.28486448     5.03779786
O      4.25034044     4.74496509     8.75071155
O      5.74184959     3.31737126     0.19995339
O      7.66206858     4.43365036     3.36033647
O      5.69797414     5.59348722     6.53759343
O      5.74184385     5.52641062     1.76196664
O      5.73031575     3.30507043     4.96270685
O      7.77340990     4.50545488     8.17168045
O     -3.82354556     6.63092532     0.19995339
O     -1.91980048     7.73563089     3.34113438
O     -3.82135189     8.90864188     6.57962045
O     -3.82354556     8.83995473     1.76196664
O     -3.80905818     6.65197404     5.01219758
O     -1.88102041     7.74956464     8.13991411
O      0.00260561     6.63092532     0.19995339
O      1.91862244     7.72848349     3.34161370
O      0.03449535     8.82363832     6.47908072
O      0.00260561     8.83995473     1.76196664
O      0.00823899     6.62889248     4.95694176
O      1.88953987     7.84535209     8.20770719
O      3.82876826     6.63092532     0.19995339
O      5.75545664     7.74088565     3.35151407
O      3.80024716     8.84880618     6.52092507
O      3.82876826     8.83995473     1.76196664
O      3.82628676     6.64979347     4.96564528
O      5.73351486     7.81239137     8.16705627
Ce     1.91568694     1.10834185     0.98097142
Ce    -0.00312599     2.21460513     4.13989350
Ce     5.65662783     9.90894233     7.32102464
Ce     5.74184959     1.10834185     0.98097142
Ce     3.84213526     2.21660227     4.14777615
Ce    -1.81423338     9.87939578     7.30940173
Ce     9.56800076     1.10834185     0.98097142
Ce     7.64766047     2.21889008     4.16134352
Ce     7.64621110     0.02414486     7.34097697
Ce     0.00261135     4.42188597     0.98097142
Ce    -1.89846555     5.52528148     4.15755964
Ce     9.53593505     3.33633589     7.34410471
Ce     3.82877400     4.42188597     0.98097142
Ce     1.92355527     5.52113999     4.22871802
Ce     7.65492518     4.42188597     0.98097142
Ce     5.73248273     5.52544505     4.18312157
Ce     5.75109807     3.32671077     7.42155499
Ce    -1.91046998     7.73544003     0.98097142
Ce    -3.82130186     8.85079054     4.16240960
Ce    -3.81849985     6.63669930     7.34276398
Ce     1.91569268     7.73544003     0.98097142
Ce     0.01569967     8.83551286     4.12035883
Ce     0.05689632     6.66794794     7.33233330
Ce     5.74184385     7.73544003     0.98097142
Ce     3.81856195     8.83857253     4.13065266
Ce     3.79298447     6.69553086     7.37384092
Co     1.90514585     2.37061111     6.67700110
C      3.22230265     7.15793673    11.14256950
C      3.15274145     6.11377650    10.35059742
C      3.77016797     4.80702773    10.07415255
H      2.57673448     8.02851946    10.99737058
H      3.94183321     7.20331997    11.97531949
H      0.60995441     4.13395884     8.59592246
H      1.93916855     1.79076389     9.10027550
H      3.03416669     3.99686686    10.27334671
H      4.60445803     4.65551945    10.80202902
