80
CIF: Ru-CeO2-Ov.cif | data_image0
O      0.55978923     0.45000431     0.59999690
O      2.47664148     1.51518643     3.72059011
O      0.62547112     2.69885174     6.86269305
O      0.55978923     2.65902057     2.16203261
O      0.55392874     0.45613030     5.38369624
O      2.35847514     1.77775279     8.46717202
O      4.38603242     0.45000431     0.59999690
O      6.29819314     1.54247231     3.73312431
O      4.13749545     2.99371970     7.11384253
O      4.38603242     2.65902057     2.16203261
O      4.39265259     0.56785203     5.44667414
O      6.24681055     1.42998067     8.56070154
O      8.21216082     0.45000431     0.59999690
O     10.10960283     1.54516793     3.72805050
O      8.24896568     2.61786249     6.93662827
O      8.21216082     2.65902057     2.16203261
O      8.19889040     0.44332760     5.37145136
O     10.16022692     1.57279442     8.56700461
O     -1.35327498     3.76352871     0.59999690
O      0.52617859     4.89036668     3.72095511
O     -1.29424525     5.97916767     6.94841469
O     -1.35333237     5.97264438     2.16203261
O     -1.35190413     3.75467139     5.38348134
O      0.69656956     4.65990768     8.46758896
O      2.47296821     3.76352871     0.59999690
O      4.41555845     4.88405526     3.74333590
O      2.63321030     5.59301668     7.10695192
O      2.47291082     5.97264438     2.16203261
O      2.43553394     3.74110208     5.20087189
O      6.29909662     3.76352871     0.59999690
O      8.21618643     4.88210958     3.76375896
O      6.29516815     5.96927767     7.01625022
O      6.29903923     5.97264438     2.16203261
O      6.29675597     3.72665630     5.36211018
O      8.36581163     4.91221839     8.62825139
O     -3.26639657     7.07715251     0.59999690
O     -1.33612803     8.19158194     3.79796766
O     -3.23027078     9.33389547     6.95023998
O     -3.26639657     9.28616878     2.16203261
O     -3.26177310     7.08131335     5.42283012
O     -1.33525696     8.19242527     8.58100091
O      0.55984662     7.07715251     0.59999690
O      2.46154230     8.18630154     3.73318821
O      0.52127382     9.26258619     6.88808113
O      0.55984662     9.28616878     2.16203261
O      0.66447915     7.02418711     5.44451913
O      2.34072937     8.19761882     8.56204484
O      4.38597502     7.07715251     0.59999690
O      6.31355080     8.17831102     3.76345601
O      4.36807027     9.33975741     6.93348601
O      4.38597502     9.28616878     2.16203261
O      4.35378063     7.09192129     5.36199821
O      6.41311523     8.29052892     8.62790549
Ce     2.47285343     1.55451244     1.38101475
Ce     0.54790165     2.65240321     4.48403955
Ce     0.56217567     0.46233019     7.77340704
Ce     6.29909662     1.55451244     1.38101475
Ce     4.37378240     2.69204188     4.55502418
Ce     4.37240989     0.47959574     7.76044895
Ce    10.12522502     1.55451244     1.38101475
Ce     8.20754245     2.65783960     4.54877875
Ce     8.18029084     0.43127966     7.73191771
Ce     0.55978923     4.86803684     1.38101475
Ce    -1.34285737     5.96268151     4.57700121
Ce    -1.34202447     3.75961853     7.77392971
Ce     4.38603242     4.86803684     1.38101475
Ce     2.49596904     5.94524731     4.55631390
Ce     8.21216082     4.86803684     1.38101475
Ce     6.30371509     5.97550512     4.60533607
Ce     6.39555645     3.71569225     7.75930195
Ce    -1.35333237     8.18166064     1.38101475
Ce    -3.26902140     9.30043506     4.57744057
Ce    -3.24074340     7.09235787     7.79328509
Ce     2.47291082     8.18166064     1.38101475
Ce     0.57088273     9.29257006     4.56064395
Ce     0.58039408     7.04964126     7.75930472
Ce     6.29903923     8.18166064     1.38101475
Ce     4.38248349     9.28164846     4.54958107
Ce     4.39314164     7.18233338     7.76280387
Ru     2.21724120     3.61662012     7.50417724
