85
CIF: Ru-Y-CeO2-O-CO.cif | data_image0
Ce     1.93596140     1.11772783     0.89035214
Ce    -0.01239371     2.23844210     4.05025246
Ce     0.01113807     0.01238875     7.19278914
Ce     5.80789581     1.11772783     0.89035214
Ce     3.88155217     2.23256825     4.03157038
Ce     3.83863310     0.00566063     7.20816417
Ce     9.67981860     1.11772783     0.89035214
Ce     7.73800208     2.22669142     4.08421413
Ce     2.02808732     9.98248594     7.18119366
Ce     0.00000000     4.47091133     0.89035214
Ce    -1.95483579     5.57349294     4.06810908
Ce     9.69931756     3.26283101     7.28730843
Ce     3.87193441     4.47091133     0.89035214
Ce     1.93805406     5.57846389     4.03101883
Ce     1.94790430     3.37831112     7.19455603
Ce     7.74385721     4.47091133     0.89035214
Ce     5.82293576     5.59412256     4.01696949
Ce    -1.93596721     7.82410489     0.89035214
Ce    -3.86473360     8.96622960     3.99298770
Ce    -3.87129701     6.88931264     7.14361327
Ce     1.93596721     7.82410489     0.89035214
Ce    -0.00594059     8.94119669     4.05135993
Ce     0.00567892     6.69247051     7.21491700
Ce     5.80789000     7.82410489     0.89035214
Ce     3.88163725     8.93506181     4.01883211
Ce     3.87668758     6.69147288     7.17608466
Y      5.67273123     3.48175964     7.01611206
O      0.00000000     0.00000000     0.09999685
O      1.93624247     1.12788272     3.22303826
O      0.05194238     2.22110042     6.40657965
O      0.00000000     2.23545567     1.68070743
O      0.00272237     0.00134729     4.83098052
O      1.97076957     1.10963702     8.01330403
O      3.87192279     0.00000000     0.09999685
O      5.81062424     1.10299285     3.24797323
O      3.95762974     2.17650558     6.44433092
O      3.87192279     2.23545567     1.68070743
O     -1.94153477    10.05366929     4.83961642
O      5.90346600     0.84383938     8.49990688
O      7.74385721     0.00000000     0.09999685
O      9.68183250     1.11469676     3.23499061
O      7.59571907     2.16121877     6.41391414
O      7.74385721     2.23545567     1.68070743
O      1.96312856    10.02218804     4.83092220
O      9.74054805     0.92879693     8.00365266
O     -1.93596140     3.35318350     0.09999685
O      0.00112263     4.47590565     3.25202244
O     -2.10429655     5.58700810     6.53114148
O     -1.93596721     5.58864923     1.68070743
O      9.67063763     3.34394763     4.84892829
O      0.12035242     4.56115835     8.01372042
O      1.93596140     3.35318350     0.09999685
O      3.85293704     4.47733028     3.21065172
O      1.92189633     5.62472189     6.33205249
O      1.93595559     5.58864923     1.68070743
O      1.97196644     3.34041613     4.86507351
O      5.80789581     3.35318350     0.09999685
O      7.75534231     4.48532657     3.24444396
O      5.96158206     5.59033700     6.45550375
O      5.80789000     5.58864923     1.68070743
O      5.77158636     3.39867097     4.76333773
O      7.48208948     3.74745338     8.72521828
O     -3.87192860     6.70637706     0.09999685
O     -1.92726328     7.82457355     3.22229789
O     -3.85617684     8.98631716     6.36931379
O     -3.87192860     8.94183273     1.68070743
O     -3.86418289     6.76775527     4.82012053
O     -1.96026037     7.89421824     8.01137253
O     -0.00000581     6.70637706     0.09999685
O      1.92638872     7.79836635     3.24822058
O      0.00401872     9.00529247     6.43226877
O     -0.00000581     8.94183273     1.68070743
O     -0.07113316     6.70291585     4.90382968
O      3.87192860     6.70637706     0.09999685
O      5.81015290     7.83014572     3.21154669
O      3.89724402     8.88172649     6.35044633
O      3.87192860     8.94183273     1.68070743
O      3.92282261     6.66417542     4.84891233
O      5.84959765     7.86469288     7.99304942
O      1.96005243     7.78475410     7.97851212
O      3.81148316     4.54547878     7.89690190
O      5.87007024     2.82093058    12.11810758
O      6.48152530     2.17525458    14.29753847
Ru     6.68246487     2.25281364     9.38224830
C      6.17621530     2.49835419    13.21078823
