    84
 Tv_1:  11.598200   0.000000   0.000000 Tv_2:  -5.799100  10.044336   0.000000 Tv_3:   0.000000   0.000000  22.891600
Ce      2.14531905      1.20773094      3.19108904
Ce      0.21592932      2.42092894      9.58163504
Ce      0.24010517      0.08793503      6.38390922
Ce      6.01134706      1.20773094      3.19108904
Ce      4.20002805      2.25752020      9.44505643
Ce      4.07208736      0.09351745      6.31302965
Ce      9.87749105      1.20773094      3.19108904
Ce      7.99328835      2.29469100      9.52191313
Ce      7.94457217      0.08761876      6.34984039
Ce      0.21230505      4.55580941      3.19108904
Ce     -1.64636453      5.70207032      9.46886355
Ce     -1.69945686      3.43352781      6.35815019
Ce      4.07833306      4.55580941      3.19108904
Ce      2.15036778      3.49035492      6.35902889
Ce      7.94447705      4.55580941      3.19108904
Ce      6.13526985      5.67913774      9.48822460
Ce      6.02371290      3.44028642      6.32690529
Ce     -1.72076694      7.90398832      3.19108904
Ce     -3.65648824      8.92073110      9.47516147
Ce     -3.65143216      6.77545591      6.30288193
Ce      2.14526106      7.90398832      3.19108904
Ce      0.19367358      8.95196986      9.45085770
Ce      0.21442917      6.78476490      6.31415834
Ce      6.01140505      7.90398832      3.19108904
Ce      4.03936299      8.96097716      9.52312337
Ce      4.04459338      6.74582764      6.36197136
O       0.21230505      2.32375710      2.40201559
O       2.26082142      1.16454919     10.69966695
O       2.14482609      1.20198536      5.54328963
O       0.29536373      2.36858849      7.19765386
O       0.30814486      0.07510538      8.76119765
O       0.21230505      0.09170479      3.98039141
O       4.07833306      2.32375710      2.40201559
O       5.99948198      1.20431367     10.26211409
O       6.02262089      1.23435643      5.51992167
O       4.08860671      2.30220074      7.15386727
O       3.99867025      0.10708321      8.71641433
O       4.07833306      0.09170479      3.98039141
O       7.94436106      2.32375710      2.40201559
O       9.77066347      1.11144999     10.32981114
O       9.89889115      1.18359972      5.58965321
O       7.93109249      2.31837647      7.19481566
O       7.93883126      0.03930814      8.71795459
O       7.94436106      0.09170479      3.98039141
O      -1.72076694      5.67193601      2.40201559
O       0.33265900      4.84901913     10.15834303
O       0.18268983      4.52268050      5.51229226
O      -1.75083457      5.61958564      7.09508518
O      -1.73596378      3.45132849      8.74244590
O      -1.72070895      3.43978325      3.98039141
O       2.14526106      5.67193601      2.40201559
O       2.67217571      5.28072295     12.35125369
O       4.11946290      4.53458220      5.53967407
O       2.11728714      5.67870914      6.92577835
O       2.43487625      3.63719718      8.90345029
O       2.14531905      3.43978325      3.98039141
O       6.01128907      5.67193601      2.40201559
O       7.93366104      4.55240452     10.30361887
O       7.92991709      4.53082658      5.52523801
O       6.03457654      5.69198093      7.16180461
O       5.95757575      3.48091449      8.74796229
O       6.01134706      3.43978325      3.98039141
O      -3.65378095      9.02001447      2.40201559
O      -1.77001460      7.93095540     10.33724718
O      -1.72944500      7.90907242      5.52007961
O      -3.64621708      8.98913624      7.13878731
O      -3.61536115      6.77510426      8.68218554
O      -3.65378095      6.78796216      3.98039141
O       0.21224706      9.02001447      2.40201559
O       2.09105727      7.72585737     10.13467351
O       2.16530332      7.95810703      5.53388792
O       0.20282922      9.10923620      7.11010642
O      -0.01682967      6.95242255      8.53093089
O       0.21224706      6.78796216      3.98039141
O       4.07827507      9.02001447      2.40201559
O       6.01064733      7.84091155     10.26508983
O       6.00441003      7.91032635      5.53690626
O       4.11243887      8.93238336      7.25793029
O       4.00726187      6.46857672      8.84237758
O       4.07827507      6.78796216      3.98039141
O       4.32038339      4.44774700     10.98055346
Pd      2.22223732      5.65529274      9.60685293
C       3.23282744      5.03365692     11.31463790
H       2.33819387      1.14421040     11.67113809
