    41
 Tv_1:   7.865150   0.000000   0.000000 Tv_2:  -3.932575   6.811420   0.000000 Tv_3:   0.000000   0.000000  23.027330
Pd      1.90515955      3.24457891      6.97995216
Ce      3.93257893      2.27047096      0.80273272
Ce      0.02042973      4.55101602      3.96065471
Ce      3.92271997      6.80879050      7.21501514
Ce      1.96629143      5.67618082      0.80273272
Ce      1.98421218      1.12655433      4.00470599
Ce     -1.84930912      3.49766402      7.08380542
Ce     -1.96628357      5.67618082      0.80273272
Ce      5.90164676      1.14614397      3.97979042
Ce      0.00000393      2.27047096      0.80273272
Ce      3.90265990      4.51986058      4.01799276
Ce      0.10169639      6.74149367      7.15463749
O       3.93257107      4.54094874      1.60546545
O       0.03043420      6.80044651      4.72599105
O       0.08019307      2.30836289      7.65854455
O      -1.96628750      3.40570985      0.00000000
O       2.00278180      5.67831279      3.18253820
O       2.20578525      1.13899879      6.45414611
O       5.89885857      1.13523889      1.60546545
O       1.92439771      3.35658589      4.72569169
O      -1.93831509      5.63298279      7.92533919
O       0.00000000      0.00000000      0.00000000
O       3.94654351      2.28069491      3.18728183
O       0.06947680      4.64809237      6.33221639
O       1.96628357      1.13523889      1.60546545
O      -1.95673528      3.48639112      4.77936840
O       2.04189519      6.29921457      8.26952869
O       3.93257500      0.00000000      0.00000000
O      -0.01879771      2.23661140      3.18249214
O       3.78765961      4.32480196      6.54959439
O      -0.00000393      4.54094874      1.60546545
O      -3.90394979      6.76369209      4.89782098
O       4.52170620      2.07676100      8.82229975
O       1.96628750      3.40570985      0.00000000
O      -1.98802284      5.69105696      3.17705769
O       5.80697002      1.25507901      6.31614332
H       3.60238814      2.57082052      8.96189143
H       4.85124025      1.73538627      9.67387344
H       1.45458871      2.80016102      9.53266985
H       2.44847232      4.37555385      9.20701735
C       2.15397357      3.36038667      8.90241183
