83
CIF: O2—Olatt+Osur.cif | data_image0
Ce     1.93038582     1.11050507     0.88387043
Ce    -0.01493951     2.23531667     4.03832009
Ce    -5.79502644    10.05123404     7.21992996
Ce     5.81181033     1.12175166     0.90127712
Ce     3.84509524     2.22482294     4.01268684
Ce    -1.91645751    10.05927674     7.21736796
Ce     9.66901012     1.12377363     0.90450652
Ce     7.71784222     2.24924713     4.08773541
Ce     1.96681007    10.01031706     7.24834437
Ce    -0.00709724     4.47602159     0.89067279
Ce    -1.93867530     5.58216706     4.06285900
Ce    -1.87631304     3.34797460     7.24861951
Ce     3.86254305     4.47635356     0.87798423
Ce     1.93812737     5.58583680     4.05551531
Ce     1.88770984     3.28619549     7.20634679
Ce     7.74213807     4.46545905     0.90125422
Ce     5.80021305     5.61438179     4.01271478
Ce    -1.94645625     7.83004003     0.90010904
Ce    -3.87001793     8.93980789     4.06532129
Ce     7.75146300     6.68628652     7.21479663
Ce     1.92815559     7.82745473     0.89060408
Ce     0.00275156     8.94603511     4.06131069
Ce     0.00795678     6.70033840     7.21926650
Ce     5.81127600     7.83258510     0.88371011
Ce     3.86241909     8.95330215     4.03740454
Ce     3.90230086     6.77896664     7.20568712
Cu     4.93063498     3.85594730     6.46359768
Pt     6.60058824     2.89469253     8.06670576
O     11.61334069     0.00154917     0.10141687
O      1.92584074     1.10910445     3.23018978
O      0.01043396     2.23549154     6.40202293
O     -0.00785227     2.23805103     1.69392277
O     11.61436431     0.00067935     4.85947743
O      1.93535399     1.11367784     7.99437772
O     -1.93899312    10.05733740     0.10496691
O      5.80662941     1.11451461     3.24665763
O      3.79365841     2.25914788     6.35179038
O      3.86763657     2.23577757     1.68132582
O      3.87468040     0.00124825     4.86767179
O      5.79570156     1.00580936     8.06258387
O      7.73821774     0.00761509     0.10924988
O      9.66466906     1.12492089     3.24787757
O      7.81214724     2.19436875     6.57287873
O      7.74357843     2.23531483     1.71563532
O      7.74578125     0.03228887     4.88782348
O      9.77792848     1.05977809     8.03132571
O      9.67032270     3.35425987     0.10911246
O     -0.02052949     4.47488205     3.23610916
O     -1.90719319     5.57898346     6.40858094
O     -1.94403436     5.59119430     1.70564938
O      9.65361982     3.33316804     4.88677378
O      0.01806603     4.44949619     8.01801715
O      1.92738314     3.35244915     0.09928684
O      3.84474449     4.48584512     3.21528342
O      2.02262861     5.53593781     6.48498063
O      1.92862022     5.59252216     1.67404250
O      1.89192298     3.36335157     4.83406674
O      5.81155478     3.35101064     0.10766953
O      7.74459804     4.47025847     3.24783184
O      5.74462178     5.64137903     6.35066123
O      5.80528807     5.59217007     1.68114259
O      5.77474796     3.36982088     4.77643113
O      7.83615099     4.53530646     8.06049706
O     -3.87155109     6.71022987     0.10512724
O     -1.93052229     7.82080750     3.26235818
O     -3.85543282     8.92990710     6.41394748
O     -3.87509971     8.94378428     1.69355631
O      7.74151670     6.70024914     4.86466157
O     -1.90975104     7.80609104     7.98904800
O     -0.01209783     6.71325780     0.10434852
O      1.92223102     7.83951525     3.23585521
O      0.02181101     8.92032244     6.41010089
O     -0.00628994     8.94736548     1.70514550
O      0.03518915     6.68493637     4.88718747
O      1.95849582     7.81749066     8.01621316
O      3.86815347     6.71410280     0.09951587
O      5.80624239     7.83630176     3.23224187
O      3.87456999     8.93216651     6.40125179
O      3.86556896     8.94715423     1.69389986
O      3.83716579     6.73651320     4.83396103
O      5.81152430     7.82523234     7.99414784
O      4.01939250     4.38189042     8.10020549
O      5.27424884     3.66827368     9.19982702
