83
CIF: CH+OH+Olat→CO+H2O.cif | data_image0
O      0.00261135     0.00382715     0.19995339
O      1.90620373     1.13351033     3.34612245
O      0.18492420     2.28303094     6.82544062
O      0.00261135     2.21285656     1.76196664
O     -0.03721472     0.09716123     4.98668378
O      1.99567232     1.16376593     8.95502659
O      3.82876252     0.00382715     0.19995339
O      5.74421279     1.10907267     3.32253918
O      3.66613302     2.33078249     6.76363506
O      3.82876252     2.21285656     1.76196664
O      3.82680422     0.07548840     4.96038267
O      5.88620437     1.03405514     8.30378904
O      7.65492518     0.00382715     0.19995339
O      9.56399839     1.10269542     3.30820458
O      7.68013164     2.19575792     6.50858598
O      7.65492518     2.21285656     1.76196664
O      7.66320955     0.00272072     4.93118612
O      9.60289067     0.96900679     8.24429662
O     -1.91046424     3.31737126     0.19995339
O      0.00017006     4.41939617     3.31625279
O     -1.84521917     5.49147540     6.55578062
O     -1.91046998     5.52641062     1.76196664
O     -1.84972834     3.26205659     4.95581459
O      1.91568694     3.31737126     0.19995339
O      3.82943465     4.41822599     3.32945598
O      1.84814897     5.14239017     7.28199909
O      1.91568120     5.52641062     1.76196664
O      1.90116287     3.37721381     4.95485008
O      3.92832504     4.09172670     9.38579848
O      5.74184959     3.31737126     0.19995339
O      7.65355928     4.43685175     3.40046096
O      5.68142559     5.52938804     6.59952539
O      5.74184385     5.52641062     1.76196664
O      5.69743661     3.27668759     4.97125896
O      7.68211856     4.55330686     8.31867276
O     -3.82354556     6.63092532     0.19995339
O     -1.90677863     7.72913280     3.39768314
O     -3.90209007     8.96386323     6.57075895
O     -3.82354556     8.83995473     1.76196664
O     -3.82204694     6.65300771     5.04550751
O     -2.03877621     7.67870663     8.30862780
O      0.00260561     6.63092532     0.19995339
O      1.91645315     7.75183211     3.29630038
O      0.01088798     8.85435068     6.48340935
O      0.00260561     8.83995473     1.76196664
O      0.12563806     6.58874233     4.98889359
O      1.91319214     7.91848396     8.28906100
O      3.82876826     6.63092532     0.19995339
O      5.72412285     7.73149126     3.41102855
O      3.85353724     8.83689574     6.49135942
O      3.82876826     8.83995473     1.76196664
O      3.68114710     6.57451515     5.02204414
O      5.78951903     7.83835686     8.31181997
Ce     1.91568694     1.10834185     0.98097142
Ce    -0.04004264     2.20286368     4.08738638
Ce     5.63599726     9.86311598     7.37772674
Ce     5.74184959     1.10834185     0.98097142
Ce     3.87196565     2.19803526     4.11992459
Ce    -1.83313317     9.90617300     7.48010334
Ce     9.56800076     1.10834185     0.98097142
Ce     7.65224670     2.21458905     4.15870351
Ce     7.64335264     0.00039596     7.40396138
Ce     0.00261135     4.42188597     0.98097142
Ce    -1.90036929     5.52666408     4.23064101
Ce     9.45954522     3.26870705     7.39812462
Ce     3.82877400     4.42188597     0.98097142
Ce     1.91254616     5.57273550     4.04219995
Ce     7.65492518     4.42188597     0.98097142
Ce     5.72498334     5.52116900     4.25508434
Ce     5.85736596     3.27439028     7.47019964
Ce    -1.91046998     7.73544003     0.98097142
Ce    -3.82415599     8.86074413     4.22088144
Ce    -3.81892291     6.63077150     7.44331086
Ce     1.91569268     7.73544003     0.98097142
Ce     0.00095281     8.84705970     4.17102400
Ce    -0.01622864     6.77881586     7.43548932
Ce     5.74184385     7.73544003     0.98097142
Ce     3.81139619     8.83763139     4.15700287
Ce     3.81451464     6.74719622     7.49337491
Zr     1.91653678     3.22495641     6.93539533
C      2.90982558     3.55677666     9.76999029
H      1.72209026     0.79206030     9.81678923
H      2.40430686     2.32414799     9.30251162
