84
CIF: Ti-Y-CeO2-CO.cif | data_image0
Ce     1.93596140     1.11772783     0.89035214
Ce    -0.00008593     2.22079062     4.05438693
Ce    -5.70248319     9.99870222     7.25254801
Ce     5.80789581     1.11772783     0.89035214
Ce     3.87625295     2.22229949     4.02522739
Ce    -2.02944285    10.02499146     7.18019422
Ce     9.67981860     1.11772783     0.89035214
Ce     7.74329050     2.23570560     4.07429973
Ce     1.93343766     9.96262115     7.18040058
Ce     0.00000000     4.47091133     0.89035214
Ce    -1.94156212     5.59230368     4.03905885
Ce    -1.85323019     3.40363474     7.18004961
Ce     3.87193441     4.47091133     0.89035214
Ce     1.94113322     5.58542865     4.03395664
Ce     1.97510330     3.36433448     7.20325907
Ce     7.74385721     4.47091133     0.89035214
Ce     5.82150033     5.59151144     4.02536976
Ce    -1.93596721     7.82410489     0.89035214
Ce    -3.88146235     8.94758927     3.99038699
Ce    -3.88845987     6.80489449     7.17987426
Ce     1.93596721     7.82410489     0.89035214
Ce    -0.00586130     8.94494157     4.03905882
Ce     0.02546732     6.69158194     7.23431025
Ce     5.80789000     7.82410489     0.89035214
Ce     3.88441700     8.94906699     4.05438188
Ce     3.88161591     6.66666345     7.20281571
Y      5.69812681     3.41659113     7.00016407
O      0.00000000     0.00000000     0.09999685
O      1.93773211     1.12351016     3.21594024
O     -0.00326205     2.19794427     6.47995408
O      0.00000000     2.23545567     1.68070743
O     -5.78653985    10.04732105     4.80527137
O      2.09106558     1.14288585     8.07930810
O      3.87192279     0.00000000     0.09999685
O      5.79853148     1.10126673     3.24103591
O      3.97865210     2.14049583     6.41963468
O      3.87192279     2.23545567     1.68070743
O     -1.96778320    10.03520629     4.82528202
O      6.09666117     1.53175008     8.63801644
O      7.74385721     0.00000000     0.09999685
O      9.68598996     1.11415554     3.24720794
O      7.68430513     2.27010823     6.37485895
O      7.74385721     2.23545567     1.68070743
O      1.93312743    10.01927058     4.79357244
O      8.98613664     1.51846602     8.87626031
O     -1.93596140     3.35318350     0.09999685
O      0.02336118     4.48718174     3.24668762
O     -2.05531253     5.60951523     6.49536260
O     -1.93596721     5.58864923     1.68070743
O     -1.90239564     3.37581923     4.79346463
O      0.13618329     4.56995298     8.03214621
O      1.93596140     3.35318350     0.09999685
O      3.84579092     4.48579430     3.22753671
O      1.94965400     5.58053738     6.32848490
O      1.93595559     5.58864923     1.68070743
O      1.95622533     3.30502393     4.88519276
O      5.80789581     3.35318350     0.09999685
O      7.75322970     4.48757996     3.24143049
O      5.94371678     5.54350505     6.41948125
O      5.80789000     5.58864923     1.68070743
O      5.76571961     3.37740101     4.75602042
O      7.52956866     4.01494409     8.63647814
O     -3.87192860     6.70637706     0.09999685
O     -1.92582806     7.81831178     3.21866115
O     -3.84870295     8.92882376     6.38925773
O     -3.87192860     8.94183273     1.68070743
O     -3.86643255     6.74687758     4.82589351
O     -1.99604500     7.85882528     8.06358922
O     -0.00000581     6.70637706     0.09999685
O      1.93368113     7.79560564     3.24670668
O     -0.07800607     9.03471809     6.49512268
O     -0.00000581     8.94183273     1.68070743
O     -0.04203360     6.73045686     4.90843364
O      3.87192860     6.70637706     0.09999685
O      5.80373234     7.81962397     3.21607231
O      3.90246747     8.96288271     6.47927473
O      3.87192860     8.94183273     1.68070743
O      3.92361840     6.71248630     4.88503045
O      5.86305828     7.67728189     8.07816218
O      3.83561503     4.49187065     7.93368650
O      1.91787074     7.65661544     8.03208312
O      6.49053469     2.93644823    12.57434273
Ti     7.49402520     2.38011746     9.33376600
C      6.89334016     2.71737834    11.53155938
