83
CIF: Fe-Cr-CeO2-O.cif | data_image0
Ce     1.93038582     1.11050507     0.88387043
Ce    -0.01416764     2.22161504     4.03794617
Ce    -5.75967579    10.03055741     7.18552810
Ce     5.81181033     1.12175166     0.90127712
Ce     3.83534837     2.20085066     3.97776640
Ce    -1.90341796    10.03173604     7.30125602
Ce     9.66901012     1.12377363     0.90450652
Ce     7.72044476     2.25020614     4.02404078
Ce     2.02215185     9.89742593     7.26251575
Ce    -0.00709724     4.47602159     0.89067279
Ce    -1.95043730     5.58744397     4.09311148
Ce    -1.74044309     3.35379507     7.28233283
Ce     3.86254305     4.47635356     0.87798423
Ce     1.94968949     5.58726405     4.07599568
Ce     1.97577889     3.31262540     7.18458507
Ce     7.74213807     4.46545905     0.90125422
Ce     5.80957764     5.64571204     3.99829040
Ce    -1.94645625     7.83004003     0.90010904
Ce    -3.84768524     8.93423779     4.06503531
Ce    -3.82098396     6.76602670     7.30585997
Ce     1.92815559     7.82745473     0.89060408
Ce    -0.00622994     8.95411843     4.07885316
Ce     0.02605899     6.70284937     7.25032095
Ce     5.81127600     7.83258510     0.88371011
Ce     3.87709185     8.94830334     4.05793859
Ce     3.93078019     6.67903972     7.28451681
Cr     5.46358158     3.53738280     6.61317436
Fe     6.67007961     2.81943729     8.70519020
O     11.61334069     0.00154917     0.10141687
O      1.90848639     1.11429617     3.21191699
O      0.05182713     2.25523463     6.35442744
O     -0.00785227     2.23805103     1.69392277
O     -5.80210062    10.05924568     4.84330751
O      1.90899657     1.22855447     7.98706437
O     -1.93899312    10.05733740     0.10496691
O      5.82223471     1.12689228     3.22964088
O      4.13620695     2.24762620     6.34325223
O      3.86763657     2.23577757     1.68132582
O      3.87857818     0.00328534     4.79986584
O      6.35503117     1.08764191     8.56416673
O      7.73821774     0.00761509     0.10924988
O      9.67029780     1.12636534     3.22653072
O      6.99905742     2.62389975     6.65893950
O      7.74357843     2.23531483     1.71563532
O      7.77310269     0.14448099     4.92875139
O      9.64074370     1.15749899     7.83728038
O      9.67032270     3.35425987     0.10911246
O     -0.02381991     4.45349680     3.28707573
O     -1.90923175     5.48345242     6.45741175
O     -1.94403436     5.59119430     1.70564938
O      9.56653699     3.25332770     4.94747906
O      0.08101340     4.39860641     8.07517881
O      1.92738314     3.35244915     0.09928684
O      3.83422098     4.48847082     3.18652889
O      1.91262675     5.53833702     6.41611056
O      1.92862022     5.59252216     1.67404250
O      1.98566683     3.31380414     4.85214915
O      5.81155478     3.35101064     0.10766953
O      7.74762638     4.46519960     3.23998446
O      5.94956043     5.30467586     6.42683644
O      5.80528807     5.59217007     1.68114259
O      5.70331274     3.42229401     4.72609030
O      8.04358123     3.90796981     8.58915287
O     -3.87155109     6.71022987     0.10512724
O     -1.92297514     7.80671656     3.25096036
O     -3.83683072     8.97124710     6.40505517
O     -3.87509971     8.94378428     1.69355631
O      7.73952689     6.71003519     4.83756009
O     -1.75952550     7.74300081     8.07540383
O     -0.01209783     6.71325780     0.10434852
O      1.93758621     7.84768119     3.28224134
O      0.08967126     8.98328624     6.41288315
O     -0.00628994     8.94736548     1.70514550
O     -0.01563238     6.71409172     4.88362347
O      1.90947283     7.83126282     8.07748532
O      3.86815347     6.71410280     0.09951587
O      5.80521798     7.84765019     3.22036549
O      3.88411207     8.93206967     6.36719203
O      3.86556896     8.94715423     1.69389986
O      3.92397299     6.67651429     4.84105845
O      5.83755174     7.97108596     8.04485147
O      4.09990505     4.24547774     7.70121162
O      5.87312400     3.28108561    10.02649471
