84
CIF: Re-Rh-CeO2-Ov-CO2.cif | data_image0
Ce     1.93038582     1.11050507     0.88387043
Ce    -0.01499560     2.23076663     4.02275199
Ce     0.01552225     0.01295042     7.24381507
Ce     5.81181033     1.12175166     0.90127712
Ce     3.84274174     2.19405805     4.00098656
Ce    -1.97687571    10.02229274     7.30602657
Ce     9.66901012     1.12377363     0.90450652
Ce     7.73681142     2.23375126     4.07980082
Ce     2.04932139     9.95111592     7.29956864
Ce    -0.00709724     4.47602159     0.89067279
Ce    -1.93911264     5.57276590     4.08066169
Ce    -1.81970095     3.29884309     7.28349570
Ce     3.86254305     4.47635356     0.87798423
Ce     1.96114703     5.56929430     4.05853685
Ce     1.83443324     3.27931946     7.19866311
Ce     7.74213807     4.46545905     0.90125422
Ce     5.82821476     5.63794594     3.99280265
Ce    -1.94645625     7.83004003     0.90010904
Ce    -3.85695735     8.95404763     4.04100547
Ce    -3.82864548     6.82738217     7.20474779
Ce     1.92815559     7.82745473     0.89060408
Ce     0.00714297     8.94681162     4.10521072
Ce     0.02056948     6.68712558     7.24810174
Ce     5.81127600     7.83258510     0.88371011
Ce     3.87426931     8.95364051     4.03176422
Ce     3.90888136     6.81311322     7.20822773
Rh     4.94991893     3.87303574     6.56218632
Re     6.50719610     2.95905348     8.09357235
O     11.61334069     0.00154917     0.10141687
O      1.93102841     1.11114157     3.20978406
O      0.04270412     2.22465844     6.34917568
O     -0.00785227     2.23805103     1.69392277
O     -5.79446668    10.05469488     4.82980361
O      1.82048605     1.18370484     8.07211939
O     -1.93899312    10.05733740     0.10496691
O      5.80803676     1.12588915     3.25147945
O      3.83185309     2.23998895     6.43340859
O      3.86763657     2.23577757     1.68132582
O      3.86608804     0.00296466     4.82809549
O      6.02265204     1.29445084     8.59910486
O      7.73821774     0.00761509     0.10924988
O      9.67422754     1.11583923     3.23167915
O      7.63178042     2.29517122     6.58808327
O      7.74357843     2.23531483     1.71563532
O      7.76427617     0.03619299     4.85809466
O      9.85946731     1.01617422     8.08150422
O      9.67032270     3.35425987     0.10911246
O     -0.00599752     4.48103658     3.24335638
O     -2.04079132     5.58125742     6.46545743
O     -1.94403436     5.59119430     1.70564938
O      9.64836265     3.32246234     4.84489894
O      0.11992646     4.52422264     8.01506365
O      1.92738314     3.35244915     0.09928684
O      3.87031386     4.47658199     3.21708495
O      2.12281131     5.48686392     6.42864333
O      1.92862022     5.59252216     1.67404250
O      1.93220402     3.33016787     4.81684602
O      4.00699102     4.41170063     8.33852444
O      5.81155478     3.35101064     0.10766953
O      7.73291944     4.47980393     3.24842777
O      5.87508481     5.64100870     6.45333955
O      5.80528807     5.59217007     1.68114259
O      5.77274595     3.38294973     4.82674374
O      7.70329217     4.20098417     8.60628218
O     -3.87155109     6.71022987     0.10512724
O     -1.90991494     7.80638131     3.26742398
O     -3.86454971     8.92735015     6.42258237
O     -3.87509971     8.94378428     1.69355631
O     -3.87432289     6.73954688     4.84629527
O     -1.95017402     7.69847752     8.09390529
O     -0.01209783     6.71325780     0.10434852
O      1.92692397     7.81554217     3.26201344
O      0.00740999     8.91907400     6.47682289
O     -0.00628994     8.94736548     1.70514550
O      0.02661375     6.65412422     4.93867644
O      2.00170389     7.65828254     8.04999055
O      3.86815347     6.71410280     0.09951587
O      5.81491539     7.83274870     3.21091056
O      3.93411158     8.88776164     6.37550708
O      3.86556896     8.94715423     1.69389986
O      3.91134839     6.70558284     4.83892366
O      5.84190950     7.83747481     8.04330311
O      4.70506663     3.99459304    10.46896448
C      4.90888429     3.87904932     9.28277225
