87
CIF: 4-NHNO+2H-N2+H2O+H_is.cif | data_image0
Ce     5.80187008    10.04124035     8.76468395
Ce     1.92998796     1.11184035     5.58920469
Ce     0.00000000     2.23543938     2.47426506
Ce     3.79991925     0.02282670     8.73785973
Ce     5.80528629     1.10879996     5.60485202
Ce     3.87189458     2.23543938     2.47426506
Ce     7.80789103     0.04498409     8.72661749
Ce     9.68819451     1.11966955     5.58587698
Ce     7.74390532     2.23543938     2.47426506
Ce    -1.89667135     3.30583663     8.73944599
Ce    -0.00072349     4.45933601     5.67121513
Ce    -1.93600537     5.58869904     2.47426506
Ce     1.88646790     3.29025353     8.74257217
Ce     3.86291454     4.49125034     5.65004429
Ce     1.93588921     5.58869904     2.47426506
Ce     5.80791342     3.31019269     8.72790139
Ce     7.75329319     4.47540594     5.62268379
Ce     5.80789995     5.58869904     2.47426506
Ce     7.69709037     6.69602749     8.79589809
Ce    -1.96022823     7.82738100     5.60912746
Ce    -3.87195266     8.94185811     2.47426506
Ce     1.97538073     7.82145710     5.62259587
Ce    -0.00005808     8.94185811     2.47426506
Ce     3.91824040     6.70437917     8.94581868
Ce     5.79392406     7.81441661     5.63633538
Ce     3.87195266     8.94185811     2.47426506
Ni     0.01358289     7.67334324     8.12369032
O      5.80352328    10.02929382     6.40539544
O      0.00599607     2.15563818     9.61040317
O      1.93594729     1.11771969     3.26466483
O      0.00772944     2.23521897     4.81058387
O      0.00000000     0.00000000     1.68386529
O      1.89705562     1.10716811     7.92101064
O     -1.95900245    10.03856267     6.42110073
O      3.85031904     2.16456473     9.51376849
O      5.80795803     1.11771969     3.26466483
O      3.88300460     2.23170255     4.81859449
O      3.87189458     0.00000000     1.68386529
O      5.80517669     1.08365275     7.94494682
O      1.95890905    10.05108111     6.41311928
O      7.75523765     2.20595977     9.51261384
O      9.67985261     1.11771969     3.26466483
O      7.72751616     2.22993275     4.80799420
O      7.74390532     0.00000000     1.68386529
O      9.71664070     1.15181420     7.90931865
O      9.67500847     3.34259144     6.35494755
O     -2.27630143     5.38393402     9.95629650
O      0.00000000     4.47087876     3.26466483
O     -1.91592288     5.61691275     4.83431896
O     -1.93594729     3.35315907     1.68386529
O     -0.02855708     4.29734360     7.96228091
O      1.94195986     3.34322081     6.38985909
O      2.11422130     5.34545280     9.84002848
O      3.87201074     4.47087876     3.26466483
O      1.91480833     5.60696774     4.83802959
O      1.93594729     3.35315907     1.68386529
O      3.80604868     4.46969555     7.97852414
O      5.80986601     3.35322835     6.43419012
O      5.88281128     5.42633629     9.38905070
O      7.74390532     4.47087876     3.26466483
O      5.80725855     5.59238342     4.83228572
O      5.80795803     3.35315907     1.68386529
O      7.84715516     4.47018260     7.92594037
O     -3.87180619     6.74126982     6.45906834
O     -3.84233887     8.94870734     9.47961955
O     -1.93600537     7.82413842     3.26466483
O     -3.87383730     8.93184027     4.80171187
O     -3.87195266     6.70641873     1.68386529
O     -1.86034295     7.75866002     8.02778859
O      0.01281695     6.77532306     6.53337252
O     -0.00278984     8.88725739     9.43944195
O      1.93600537     7.82413842     3.26466483
O     -0.00100118     8.93004484     4.81814849
O     -0.00005808     6.70641873     1.68386529
O      1.87807603     7.78901234     8.03426182
O      3.86799081     6.73232034     6.45257541
O      3.82718192     9.05674480     9.46557661
O      5.80789995     7.82413842     3.26466483
O      3.87380099     8.93662425     4.79999073
O      3.87195266     6.70641873     1.68386529
O      5.79846097     7.80684121     8.01500999
O      4.04344643     6.63235442    11.37172187
H     -1.51074766     5.87174557    10.31882684
H      5.83556517     6.77307519    12.81335026
H      1.54797478     5.77599851    10.50190135
N      6.14175088     7.24932922    11.93081015
N      5.19526505     7.20508387    11.10723132
