83
CIF: Y-W-CeO2-Ov-O2.cif | data_image0
Ce     1.93596140     1.11772783     0.89035214
Ce    -0.02445554     2.24787837     4.09458702
Ce    -5.57213292     9.96283603     7.18167099
Ce     5.80789581     1.11772783     0.89035214
Ce     3.75221093     2.20011155     3.94136144
Ce    -1.96016393    10.02534079     7.28869455
Ce     9.67981860     1.11772783     0.89035214
Ce     7.81619987     2.21932768     3.95055200
Ce     7.75690838     0.03684370     7.37367657
Ce     0.00000000     4.47091133     0.89035214
Ce    -1.94220930     5.57754100     4.07559208
Ce    -1.91354564     3.47877959     7.37556266
Ce     3.87193441     4.47091133     0.89035214
Ce     1.93600366     5.60314360     4.12952091
Ce     1.76363543     3.33523972     7.36926230
Ce     7.74385721     4.47091133     0.89035214
Ce     5.77988987     5.64771761     4.01709726
Ce    -1.93596721     7.82410489     0.89035214
Ce    -3.85199043     8.90829288     4.02390833
Ce    -3.70123855     6.75560092     7.33109709
Ce     1.93596721     7.82410489     0.89035214
Ce     0.02581082     8.97694281     4.09022675
Ce     0.05864855     6.73779377     7.28588529
Ce     5.80789000     7.82410489     0.89035214
Ce     3.88341911     8.95415448     4.07722943
Ce     3.81410587     6.87071687     7.41500119
W      5.72455190     3.16274092     6.62584615
Y      7.07826910     3.20627193     9.63064392
O      0.00000000     0.00000000     0.09999685
O      1.89848043     1.10348888     3.20627998
O     -0.13764828     2.08981483     6.59435145
O      0.00000000     2.23545567     1.68070743
O     -5.75651294    10.03386569     4.87270527
O      1.90255781     1.02339327     8.13639381
O      3.87192279     0.00000000     0.09999685
O      5.82237089     1.10324870     3.20992553
O      4.01739419     2.43129594     6.39476027
O      3.87192279     2.23545567     1.68070743
O      3.86448856     0.07353086     4.81738403
O      5.74313201     2.17041770     8.25494018
O      7.74385721     0.00000000     0.09999685
O      9.71083605     1.11141262     3.22712319
O      7.46797310     2.50285004     6.36503830
O      7.74385721     2.23545567     1.68070743
O      7.80780072     0.07187533     4.87518236
O      8.52848591     1.88273927     8.93561788
O     -1.93596140     3.35318350     0.09999685
O      0.00214101     4.48830702     3.28055999
O     -1.92849993     5.64797733     6.42302552
O     -1.93596721     5.58864923     1.68070743
O      9.67494181     3.32185299     4.86187900
O     -0.00640770     4.64002320     8.17469818
O      1.93596140     3.35318350     0.09999685
O      3.76143212     4.44445456     3.26121836
O      2.00323723     5.57527372     6.49279041
O      1.93595559     5.58864923     1.68070743
O      1.85991785     3.26714475     4.91217699
O      5.80789581     3.35318350     0.09999685
O      7.79771054     4.43295682     3.22941624
O      5.65491395     4.95680793     6.82059752
O      5.80789000     5.58864923     1.68070743
O      5.74620709     3.25532173     4.72081051
O      7.93362541     4.74911873     8.58273808
O     -3.87192860     6.70637706     0.09999685
O     -1.93455414     7.80974776     3.27478086
O     -3.76585708     8.92155376     6.37912332
O     -3.87192860     8.94183273     1.68070743
O      7.70556464     6.67909206     4.97536504
O     -1.89710793     7.77812169     8.14998394
O     -0.00000581     6.70637706     0.09999685
O      1.95074419     7.83629035     3.27685399
O      0.02796153     9.06246927     6.46388494
O     -0.00000581     8.94183273     1.68070743
O      0.03473453     6.74213608     4.91288303
O      3.87192860     6.70637706     0.09999685
O      5.81520662     7.89980672     3.20868626
O      3.95094863     9.20992005     6.71376299
O      3.87192860     8.94183273     1.68070743
O      3.90084789     6.85001991     4.99027463
O      6.03445900     7.76569824     7.99849906
O      1.82727189     7.85698250     8.19619435
O      3.89737393     4.60471021     9.01276448
O      4.90664837     4.41179857     9.88364391
