80
CIF: Ge-CeO2-Ov.cif | data_image0
O      0.55978923     0.45000431     0.59999690
O      2.47933030     1.61763202     3.77112884
O      0.33520373     2.53587978     6.80624440
O      0.55978923     2.65902057     2.16203261
O      0.56213944     0.42282812     5.31747857
O      2.37849057     1.94154996     8.36811240
O      4.38603242     0.45000431     0.59999690
O      6.28514574     1.55736934     3.75670520
O      4.55457567     2.56580584     6.89175649
O      4.38603242     2.65902057     2.16203261
O      4.37928464     0.40705951     5.35827545
O      6.33964117     1.40924488     8.69483565
O      8.21216082     0.45000431     0.59999690
O     10.12284813     1.56805791     3.70595308
O      8.24373368     2.64153308     6.93398489
O      8.21216082     2.65902057     2.16203261
O      8.22698253     0.46075934     5.33846136
O     10.12498691     1.55643241     8.62046217
O     -1.35327498     3.76352871     0.59999690
O      0.62018944     4.83496200     3.77163709
O     -1.34080433     5.93500919     6.96473889
O     -1.35333237     5.97264438     2.16203261
O     -1.38933936     3.78200603     5.33647129
O      0.86881032     4.56820411     8.36370742
O      2.47296821     3.76352871     0.59999690
O      4.32114753     4.83583621     3.82409873
O      2.71340502     6.09494007     6.96380303
O      2.47291082     5.97264438     2.16203261
O      2.37918365     3.71279240     5.74346767
O      6.29909662     3.76352871     0.59999690
O      8.22168077     4.90551781     3.72806772
O      6.18201262     5.97855290     7.10699687
O      6.29903923     5.97264438     2.16203261
O      6.35865976     3.81028282     5.33140908
O      8.35182950     4.91913847     8.66161830
O     -3.26639657     7.07715251     0.59999690
O     -1.36090605     8.16041920     3.75582933
O     -3.29551164     9.36872452     6.97262667
O     -3.26639657     9.28616878     2.16203261
O     -3.29247669     7.07808580     5.45085204
O     -1.44962739     8.25343603     8.58770000
O      0.55984662     7.07715251     0.59999690
O      2.47898215     8.16710887     3.74434812
O      0.58445438     9.32131749     6.90987991
O      0.55984662     9.28616878     2.16203261
O      0.59024436     7.05095812     5.37379088
O      2.61365589     8.31093369     8.66671403
O      4.38597502     7.07715251     0.59999690
O      6.33509896     8.17297956     3.71493998
O      4.39990316     9.35066437     6.88309735
O      4.38597502     9.28616878     2.16203261
O      4.45802347     7.15163025     5.32021151
O      6.29583131     8.28458225     8.61619615
Ce     2.47285343     1.55451244     1.38101475
Ce     0.51893323     2.63861225     4.47760556
Ce     0.51045209     0.42476977     7.74636784
Ce     6.29909662     1.55451244     1.38101475
Ce     4.42246360     2.64453146     4.63507247
Ce     4.45716384     0.46941593     7.71866635
Ce    10.12522502     1.55451244     1.38101475
Ce     8.20092101     2.66831972     4.53432416
Ce     8.20149101     0.45719560     7.79892904
Ce     0.55978923     4.86803684     1.38101475
Ce    -1.33848040     5.97314778     4.58146620
Ce    -1.43424872     3.77143203     7.74718795
Ce     4.38603242     4.86803684     1.38101475
Ce     2.49678428     6.00013451     4.63946826
Ce     8.21216082     4.86803684     1.38101475
Ce     6.30945634     5.97497088     4.57601932
Ce     6.39136432     3.68171184     7.78147265
Ce    -1.35333237     8.18166064     1.38101475
Ce    -3.26742755     9.28904021     4.56444065
Ce    -3.22767090     7.10666763     7.79951287
Ce     2.47291082     8.18166064     1.38101475
Ce     0.57719565     9.27514774     4.56431575
Ce     0.65427351     7.06860550     7.81298337
Ce     6.29903923     8.18166064     1.38101475
Ce     4.38954415     9.30537403     4.50120477
Ce     4.39161873     7.27391181     7.67803112
Ge     1.84136173     3.38367332     7.45800702
