82
CIF: Re-Cu-CeO2.cif | data_image0
Ce     1.93038582     1.11050507     0.88387043
Ce    -0.01589265     2.23984786     4.04398773
Ce     0.05362400     0.01565586     7.20773222
Ce     5.81181033     1.12175166     0.90127712
Ce     3.87192435     2.24298460     4.04021986
Ce     3.81883582     0.03285629     7.31121322
Ce     9.66901012     1.12377363     0.90450652
Ce     7.72107779     2.24565670     4.02987909
Ce     2.15797640     9.81569716     7.21786259
Ce    -0.00709724     4.47602159     0.89067279
Ce    -1.96703344     5.58296457     4.08483556
Ce    -1.77134209     3.31674736     7.31860535
Ce     3.86254305     4.47635356     0.87798423
Ce     1.93123083     5.58826815     4.04666470
Ce     1.92191262     3.38395028     7.20183809
Ce     7.74213807     4.46545905     0.90125422
Ce     5.81002606     5.58332147     4.02611907
Ce    -1.94645625     7.83004003     0.90010904
Ce    -3.85710327     8.97173040     4.02094984
Ce    -3.87299979     6.86069774     7.16465290
Ce     1.92815559     7.82745473     0.89060408
Ce    -0.01249291     8.96337512     4.09495644
Ce    -0.02351453     6.70820360     7.24016188
Ce     5.81127600     7.83258510     0.88371011
Ce     3.89443189     8.93205592     4.01290687
Ce     3.90716364     6.65540930     7.21359595
Cu     5.04554490     3.82078714     6.67615468
Re     6.66684661     2.51944905     8.28158372
O     11.61334069     0.00154917     0.10141687
O      1.92818684     1.12664966     3.22551892
O      0.04477988     2.24742054     6.36399356
O     -0.00785227     2.23805103     1.69392277
O     -0.00044221     0.00760741     4.83231549
O      1.81853079     1.19242053     8.04451315
O     -1.93899312    10.05733740     0.10496691
O      5.82631149     1.10326874     3.24563509
O      3.90450133     2.30209438     6.42121258
O      3.86763657     2.23577757     1.68132582
O      3.88579375     0.01078226     4.83565986
O      5.47043839     1.38746320     8.92311759
O      7.73821774     0.00761509     0.10924988
O      9.67348316     1.11591224     3.22069782
O      7.44433882     2.14473733     6.65915684
O      7.74357843     2.23531483     1.71563532
O      7.80876353     0.03318936     4.89749566
O      9.76481899     0.93546591     7.98648558
O      9.67032270     3.35425987     0.10911246
O     -0.03244289     4.48535804     3.26898188
O     -2.08256508     5.54778330     6.49810899
O     -1.94403436     5.59119430     1.70564938
O      9.58907876     3.29353071     4.89508761
O      0.10179745     4.55589416     8.04716804
O      1.92738314     3.35244915     0.09928684
O      3.84865945     4.48318631     3.20312817
O      1.89600881     5.64591849     6.33140345
O      1.92862022     5.59252216     1.67404250
O      1.94186201     3.36208944     4.83206604
O      3.70061244     4.59563363     8.00859074
O      5.81155478     3.35101064     0.10766953
O      7.75481903     4.48460709     3.23363612
O      5.92125893     5.53340342     6.49315218
O      5.80528807     5.59217007     1.68114259
O      5.80849114     3.37533155     4.74827432
O      7.71670423     3.71977810     9.04033933
O     -3.87155109     6.71022987     0.10512724
O     -1.93634897     7.82710944     3.24454201
O     -3.87311015     8.95732013     6.38760681
O     -3.87509971     8.94378428     1.69355631
O     -3.88700121     6.74604883     4.84042483
O     -1.94348440     7.73129059     8.04391129
O     -0.01209783     6.71325780     0.10434852
O      1.92317288     7.82690721     3.27056134
O      0.10168934     9.02449527     6.53826588
O     -0.00628994     8.94736548     1.70514550
O     -0.08961670     6.74471834     4.92243188
O      2.03111626     7.75409527     8.06864830
O      3.86815347     6.71410280     0.09951587
O      5.80894421     7.83363574     3.21360566
O      3.93853144     8.83473717     6.35587573
O      3.86556896     8.94715423     1.69389986
O      3.92027906     6.65878432     4.84673702
O      5.86887178     7.83858593     8.01591826
