87
CIF: 2-NH2+H+NO-NH2NO+H_fs.cif | data_image0
Ce     5.79642943    10.05677660     8.80442121
Ce     1.91722938     1.11227352     5.60781079
Ce     0.00756774     2.24000014     2.48486318
Ce     3.69624600     0.03809926     8.77130265
Ce     5.80411504     1.08158423     5.63409977
Ce     3.86956107     2.23560373     2.49717833
Ce     7.94467121     0.04032540     8.71394715
Ce     9.70075089     1.12226535     5.57477471
Ce     7.75930557     2.24272536     2.50183252
Ce     9.67011214     3.28049461     8.80354280
Ce     0.02766920     4.47345406     5.65484200
Ce    -1.93197844     5.57920132     2.50629092
Ce     1.94674374     3.26428592     8.88645430
Ce     3.87026897     4.44647879     5.72474258
Ce     1.94893176     5.58685486     2.50969850
Ce     5.79538892     3.12996340     8.86983745
Ce     7.74505979     4.46327206     5.72169492
Ce     5.81867142     5.56875220     2.52223686
Ce    -3.83449275     6.75245204     8.91240628
Ce    -1.94108432     7.80934946     5.63919238
Ce    -3.87182750     8.92806403     2.48325163
Ce     1.95344293     7.84483770     5.66217539
Ce     0.01898045     8.92094743     2.48012097
Ce     3.80337295     6.82079254     8.73690988
Ce     5.82631695     7.80179410     5.66358649
Ce     3.87796222     8.91728504     2.49290554
Cr    -0.51144817     6.38540187     8.55384016
O      5.81881340    10.02111876     6.41585739
O     -0.13519324     2.18020525     9.60235564
O      1.91764805     1.12954896     3.27952147
O     -0.00281417     2.23863338     4.81923338
O      5.81774283    10.01543139     1.72830188
O      1.89418867     1.08907314     7.94356082
O     -1.96734684    10.02796580     6.45469887
O      3.81210281     2.00546759     9.71849505
O      5.83248340     1.09842220     3.31308617
O      3.85973477     2.20615357     4.82717453
O     -1.93326161    10.05517583     1.73426387
O      5.81631179     0.78503399     8.19746076
O      7.74918409     0.09540379     6.35679930
O      7.91283622     2.11698707     9.64769729
O      9.70113930     1.12713142     3.27798770
O      7.77522887     2.27497136     4.81698619
O      1.94830041    10.03645169     1.73021624
O      9.71883747     1.09950214     7.88887417
O     -1.89039940     3.38142728     6.49935381
O     -1.82198999     5.54430543     9.47963481
O      0.01221175     4.45145164     3.31270538
O     -1.90426787     5.58621209     4.85224245
O     -1.93025683     3.35833318     1.71972941
O      0.04025152     4.65767418     8.11679364
O      1.90901312     3.34694766     6.43518216
O      2.37265769     5.30501698    10.63688389
O      3.87876123     4.48456680     3.33369477
O      1.88374906     5.61308200     4.87550650
O      1.95233306     3.35845251     1.72213174
O      3.88408626     4.50437942     8.06316148
O      5.79291135     3.19981197     6.48051456
O      5.65546188     5.50647436    10.20246624
O      7.75169461     4.47699634     3.31043636
O      5.84675247     5.52993458     4.91570087
O      5.80850263     3.34961471     1.74513133
O      7.69109808     4.44477903     8.06966058
O     -3.80337552     6.74600863     6.46891399
O     -3.88991140     9.07780260     9.65262653
O     -1.92437138     7.80429486     3.29705124
O     -3.85719662     8.93618469     4.80526439
O      7.74508682     6.69905292     1.72832066
O     -1.74215671     7.78098555     8.18685305
O     -0.07871578     6.67180161     6.66851732
O      0.47318510     6.95377598     9.69583079
O      1.94468069     7.80971382     3.30225424
O     -0.00439317     8.88291696     4.85587399
O      0.01751572     6.69955826     1.72538579
O      2.06274615     8.04289925     7.89471989
O      3.87465966     6.69683296     6.35675104
O      3.92039487     9.10613222     9.70524685
O      5.80976690     7.77181987     3.33640138
O      3.87172142     8.95148182     4.82003916
O      3.87591624     6.69671960     1.72938177
O      5.79008979     7.79216255     8.04480247
O      6.84985901     6.52318012    11.75679025
N      4.65073987     6.03919903    12.11087599
N      5.73757936     6.03893406    11.41907206
H      3.04128826     5.49543692    11.35672442
H      4.87158181     6.52198899    12.99307207
H      1.60182955     5.92446390    10.69803497
