90
CIF: CH2CHCH2.cif | data_image0
O      0.00000000     0.00000000     0.00000000
O      1.91032753     1.01146706     3.12677517
O      0.28293278     2.33969693     6.33605649
O      0.00000000     2.20902941     1.56201325
O     11.44382274     0.02267203     4.81525617
O      1.78408694     1.41448938     8.28785432
O      3.82615117     0.00000000     0.00000000
O      5.75402506     1.09518544     3.13246846
O      3.47340680     2.32796996     6.43920726
O      3.82615117     2.20902941     1.56201325
O      3.86301338     0.04292844     4.80525444
O      5.68995843     0.96818925     7.97284331
O      7.65231383     0.00000000     0.00000000
O      9.55060325     1.09797658     3.13819591
O      7.69181292     2.16209295     6.37681797
O      7.65231383     2.20902941     1.56201325
O      1.90346342     9.93324347     4.77901241
O      9.65500434     1.12552662     7.95110783
O     -1.91307559     3.31354412     0.00000000
O     -0.08109135     4.45475810     3.11946008
O     -1.84335522     5.50234229     6.35456576
O     -1.91308133     5.52258347     1.56201325
O     -1.88516597     3.27428795     4.82916766
O      0.10675854     4.30340469     8.07531622
O      1.91307559     3.31354412     0.00000000
O      3.90860189     4.45620871     3.12909116
O      1.87570548     5.13499993     6.36600668
O      1.91306985     5.52258347     1.56201325
O      1.91114857     3.30501025     4.34101555
O      3.39129157     4.21089473     8.38793876
O      5.73923824     3.31354412     0.00000000
O      7.65749292     4.42710391     3.19185429
O      5.75198065     5.51729535     6.40488488
O      5.73923250     5.52258347     1.56201325
O      5.71464690     3.26078612     4.80681826
O      7.80441194     4.47144262     8.02940466
O     -3.82615691     6.62709817     0.00000000
O     -1.91232066     7.72948754     3.16977275
O     -3.80548157     8.98178159     6.40082212
O     -3.82615691     8.83612758     1.56201325
O     -3.80865970     6.66348609     4.85354196
O     -1.89999510     7.73597910     7.95212877
O     -0.00000574     6.62709817     0.00000000
O      1.91066845     7.74439472     3.12395033
O     -0.00892031     8.81684284     6.29313773
O     -0.00000574     8.83612758     1.56201325
O      0.06375653     6.61215711     4.80875017
O      1.78237953     7.71214057     7.95369938
O      3.82615691     6.62709817     0.00000000
O      5.74839317     7.73014857     3.17703224
O      3.79598327     8.87452873     6.34709943
O      3.82615691     8.83612758     1.56201325
O      3.77602179     6.62728571     4.78566263
O      5.82821572     7.83806683     8.01006548
Ce     1.91307559     1.10451471     0.78101803
Ce     0.02343313     2.22208277     3.92319438
Ce     5.68265450     9.91955706     7.13002482
Ce     5.73923824     1.10451471     0.78101803
Ce     3.80142619     2.23269158     3.95316252
Ce    -1.84982742     9.91850579     7.10439040
Ce     9.56538941     1.10451471     0.78101803
Ce     7.64803226     2.20346095     3.97141560
Ce     1.88823236     9.91619325     7.11964997
Ce     0.00000000     4.41805882     0.78101803
Ce    -1.90338630     5.51872540     3.96960308
Ce    -1.87032834     3.31744036     7.16933218
Ce     3.82616265     4.41805882     0.78101803
Ce     1.92113916     5.48050603     3.92970665
Ce     7.65231383     4.41805882     0.78101803
Ce     5.73512544     5.51773365     4.00721194
Ce     5.76809982     3.27427324     7.20070882
Ce    -1.91308133     7.73161288     0.78101803
Ce    -3.82620865     8.84644422     3.96803387
Ce    -3.81168797     6.62522664     7.19218048
Ce     1.91308133     7.73161288     0.78101803
Ce     0.01199917     8.83392007     3.93246485
Ce     0.01819484     6.58071574     7.13929410
Ce     5.73923250     7.73161288     0.78101803
Ce     3.81476170     8.82919341     3.94512063
Ce     3.81054663     6.65000258     7.17037564
Pt     1.79757084     3.31568350     7.30750385
C      3.13798468     4.54373076     9.76611773
C      2.29991812     3.53078581    10.49515505
C      2.80719990     2.58590707    11.29640226
H      2.62509638     5.52711993     9.83545297
H      4.12390394     4.64047814    10.26178235
H      1.21992630     3.60303160    10.31872597
H      1.90864134     1.61878573     9.23732909
H      2.16960835     1.86405812    11.81327852
H      3.88521330     2.50146558    11.46798944
