80
CIF: Ni-CeO2-Ov.cif | data_image0
O      0.00261135     0.00382715     0.19995339
O      1.90721376     1.10203615     3.33991943
O      0.01952531     2.31253838     6.61846997
O      0.00261135     2.21285656     1.76196664
O     11.46262136     0.02129259     4.99393383
O      1.88312892     1.08338417     8.04694256
O      3.82876252     0.00382715     0.19995339
O      5.73820858     1.11318786     3.32425800
O      3.73074624     2.25783473     6.54969516
O      3.82876252     2.21285656     1.76196664
O      3.84238729     0.01100862     4.96611336
O      5.70455793     1.12074966     8.13937865
O      7.65492518     0.00382715     0.19995339
O      9.56672847     1.10812751     3.33768352
O      7.62000901     2.21130280     6.51237576
O      7.65492518     2.21285656     1.76196664
O      7.66270204     0.01126839     4.96042083
O      9.52329895     1.12284828     8.16192707
O     -1.91046424     3.31737126     0.19995339
O      0.00926364     4.41773290     3.36693998
O     -1.67446390     5.39387536     6.73395587
O     -1.91046998     5.52641062     1.76196664
O      9.53316048     3.30061502     4.97234890
O      1.91568694     3.31737126     0.19995339
O      3.81193916     4.42030411     3.35747500
O      1.85445985     5.70109317     6.58466864
O      1.91568120     5.52641062     1.76196664
O      1.89215858     3.30207484     5.02856075
O      4.24378014     4.70414754     8.37110527
O      5.74184959     3.31737126     0.19995339
O      7.65660059     4.41932817     3.33741744
O      5.79776018     5.57728725     6.46008664
O      5.74184385     5.52641062     1.76196664
O      5.71532859     3.30742017     4.98183511
O      7.66325442     4.41687625     8.13928672
O     -3.82354556     6.63092532     0.19995339
O     -1.91474625     7.74061940     3.32325814
O     -3.82229539     8.79864378     6.49362359
O     -3.82354556     8.83995473     1.76196664
O     -3.70176782     6.57968731     5.01973263
O     -1.88756170     7.77925415     8.13145562
O      0.00260561     6.63092532     0.19995339
O      1.91752212     7.72915327     3.35511933
O      0.02191420     8.88264629     6.48908898
O      0.00260561     8.83995473     1.76196664
O     -0.03850259     6.67328699     4.95449577
O      1.86880170     7.85748053     8.24767841
O      3.82876826     6.63092532     0.19995339
O      5.77261223     7.72824313     3.37003421
O      3.82112897     8.83111384     6.54738459
O      3.82876826     8.83995473     1.76196664
O      3.83452002     6.61988582     4.97632462
O      5.81152462     7.75365228     8.17009777
Ce     1.91568694     1.10834185     0.98097142
Ce    -0.00304611     2.20676527     4.15507148
Ce     5.73634564     9.90624026     7.33602021
Ce     5.74184959     1.10834185     0.98097142
Ce     3.81943102     2.22324120     4.15165307
Ce     3.82254718     0.03148598     7.32885448
Ce     9.56800076     1.10834185     0.98097142
Ce     7.63031941     2.20540402     4.13071529
Ce     7.63839112     0.02377375     7.36252669
Ce     0.00261135     4.42188597     0.98097142
Ce    -1.88552845     5.51534483     4.14870924
Ce     9.43385518     3.21427617     7.27203030
Ce     3.82877400     4.42188597     0.98097142
Ce     1.92178496     5.52784936     4.23842338
Ce     7.65492518     4.42188597     0.98097142
Ce     5.74672094     5.51665990     4.15944077
Ce     5.65965794     3.39255474     7.39813752
Ce    -1.91046998     7.73544003     0.98097142
Ce    -3.80834904     8.83892545     4.15899888
Ce    -3.79462249     6.62847661     7.35987208
Ce     1.91569268     7.73544003     0.98097142
Ce     0.00696908     8.85657453     4.11275868
Ce     0.08373987     6.81209145     7.28112588
Ce     5.74184385     7.73544003     0.98097142
Ce     3.82495779     8.82996593     4.16777395
Ce     3.84881842     6.60254505     7.39575433
Ni     1.88075540     2.32406175     6.63960073
