85
CIF: Cr-Cu-CeO2-O-CO.cif | data_image0
Ce     1.93038582     1.11050507     0.88387043
Ce     0.00865645     2.21956451     4.01472481
Ce    -5.74962621    10.02596406     7.20762621
Ce     5.81181033     1.12175166     0.90127712
Ce     3.86787983     2.23182440     4.04455713
Ce    -2.00064433    10.04080717     7.27350986
Ce     9.66901012     1.12377363     0.90450652
Ce     7.71766408     2.25096148     4.03397356
Ce     2.11520147     9.84800720     7.22970780
Ce    -0.00709724     4.47602159     0.89067279
Ce    -1.96469654     5.58800298     4.08516787
Ce    -1.65974213     3.30406696     7.22836586
Ce     3.86254305     4.47635356     0.87798423
Ce     1.92886184     5.59281678     4.05133158
Ce     1.95588490     3.34083315     7.20743894
Ce     7.74213807     4.46545905     0.90125422
Ce     5.80938082     5.59459546     4.04384311
Ce    -1.94645625     7.83004003     0.90010904
Ce    -3.85767579     8.93407591     4.04136816
Ce    -3.88727475     6.77326140     7.27249652
Ce     1.92815559     7.82745473     0.89060408
Ce    -0.01366760     8.96773058     4.08506629
Ce    -0.01073920     6.71337251     7.24127772
Ce     5.81127600     7.83258510     0.88371011
Ce     3.88976074     8.94318475     4.01438047
Ce     3.89137118     6.69746846     7.20414052
Cu     4.95239404     3.84872411     6.60536674
Cr     7.14764537     2.58444862     8.49874958
O     11.61334069     0.00154917     0.10141687
O      1.93308351     1.11586991     3.22303857
O      0.07272847     2.24824943     6.33805669
O     -0.00785227     2.23805103     1.69392277
O     -5.80143095    10.05593703     4.82982759
O      1.82662115     1.15838061     8.04834989
O     -1.93899312    10.05733740     0.10496691
O      5.81899303     1.12069209     3.24225031
O      3.90681660     2.25151090     6.44566101
O      3.86763657     2.23577757     1.68132582
O     -1.92694817    10.05515501     4.82901556
O      6.96463803     1.02883590     9.07903304
O      7.73821774     0.00761509     0.10924988
O      9.67911624     1.11806737     3.21332140
O      7.54954221     2.35130291     6.85115710
O      7.74357843     2.23531483     1.71563532
O      7.79636198     0.11446434     4.91333929
O      9.78983876     1.05340056     7.86505321
O      9.67032270     3.35425987     0.10911246
O     -0.03124553     4.47471206     3.27131766
O     -1.97584005     5.42533942     6.49862066
O     -1.94403436     5.59119430     1.70564938
O      9.60855179     3.25094024     4.91273100
O      0.07938763     4.42886790     8.04449373
O      1.92738314     3.35244915     0.09928684
O      3.86852990     4.47285872     3.21605755
O      1.85657120     5.63572554     6.31978634
O      1.92862022     5.59252216     1.67404250
O      1.96115376     3.34984516     4.82352988
O      5.81155478     3.35101064     0.10766953
O      7.74690589     4.45978081     3.24214453
O      5.81086599     5.55361653     6.44234120
O      5.80528807     5.59217007     1.68114259
O      5.81328779     3.35030365     4.84911273
O      8.41245866     3.50573822     9.07977644
O     -3.87155109     6.71022987     0.10512724
O     -1.93398298     7.82341302     3.23748712
O     -3.86523142     8.93802563     6.40690371
O     -3.87509971     8.94378428     1.69355631
O     -3.86243448     6.70107375     4.82838891
O     -1.77153946     7.72989342     8.05984468
O     -0.01209783     6.71325780     0.10434852
O      1.91672648     7.84995076     3.27105526
O      0.12154401     9.05933311     6.49878066
O     -0.00628994     8.94736548     1.70514550
O     -0.09495565     6.76164725     4.90421910
O      2.01192781     7.77869230     8.04581007
O      3.86815347     6.71410280     0.09951587
O      5.80831284     7.82813977     3.22301488
O      3.89646305     8.87325263     6.33722272
O      3.86556896     8.94715423     1.69389986
O      3.88678881     6.68754017     4.82166665
O      5.71669197     7.89817800     8.05022804
O      3.63617987     4.60923964     7.96611978
O      5.76948583     3.39285294     8.64581938
O      6.07433586     3.34717541    11.92215895
C      4.95774259     3.16209736    11.75776347
