87
CIF: 3-NH2NO+H-NHNO+2H_ts.cif | data_image0
Ce    -5.77200067    10.04383372     8.78293532
Ce     1.92104947     1.12211130     5.61177972
Ce     0.00000000     2.23543938     2.47426506
Ce     3.76336101     0.09514023     8.79038792
Ce     5.83168771     1.08349301     5.66479364
Ce     3.87189458     2.23543938     2.47426506
Ce     2.09255364    10.01500049     8.79175707
Ce     9.70796607     1.10513869     5.60198917
Ce     7.74390532     2.23543938     2.47426506
Ce     9.62767343     3.23844950     8.81742108
Ce     0.01788145     4.51536727     5.58988744
Ce    -1.93600537     5.58869904     2.47426506
Ce     1.99606113     3.32825576     8.83508446
Ce     3.87900296     4.45506893     5.61587929
Ce     1.93588921     5.58869904     2.47426506
Ce     5.82763567     3.30321890     8.78440074
Ce     7.77645908     4.47823951     5.65507951
Ce     5.80789995     5.58869904     2.47426506
Ce     7.56238135     6.72430405     8.89273510
Ce    -1.90265006     7.81556363     5.57703773
Ce    -3.87195266     8.94185811     2.47426506
Ce     1.95552151     7.79667770     5.66973563
Ce    -0.00005808     8.94185811     2.47426506
Ce     3.90714388     6.67900558     8.72784883
Ce     5.84318971     7.80813049     5.59682608
Ce     3.87195266     8.94185811     2.47426506
Cr    -0.70272669     6.40723040     8.79062954
O     -5.78372748    10.05486207     6.42033530
O     -0.00356504     2.33705626     9.55238538
O      1.93594729     1.11771969     3.26466483
O      0.01089118     2.23716319     4.78997368
O      0.00000000     0.00000000     1.68386529
O      1.90556418     1.18747646     7.96252150
O     -1.95602380    10.01673273     6.41350199
O      3.84019690     2.32641138     9.63284194
O      5.80795803     1.11771969     3.26466483
O      3.85441430     2.23412105     4.84887088
O      3.87189458     0.00000000     1.68386529
O      5.84982997     1.03031280     8.08222536
O      7.77245458     0.00508143     6.37122574
O      7.82013944     2.32411261     9.67486936
O      9.67985261     1.11771969     3.26466483
O      7.78062956     2.26806677     4.84335835
O      7.74390532     0.00000000     1.68386529
O      9.72625584     1.09083330     7.98632564
O     -1.80358914     3.36378312     6.50775022
O     -1.95440422     5.67367297     9.69809280
O      0.00000000     4.47087876     3.26466483
O     -1.94001658     5.57329038     4.80252815
O      9.67985261     3.35315907     1.68386529
O     -0.05792218     4.87100527     8.22429947
O      1.82122263     3.40403182     6.50077489
O      2.42397654     5.32849710    10.06677544
O      3.87201074     4.47087876     3.26466483
O      1.95219236     5.56675896     4.80391922
O      1.93594729     3.35315907     1.68386529
O      3.81305960     4.44370201     7.92124158
O      5.82814347     3.30936819     6.46802808
O      5.71913640     5.42517899     9.49067094
O      7.74390532     4.47087876     3.26466483
O      5.86586440     5.55649283     4.82458111
O      5.80795803     3.35315907     1.68386529
O      7.81877096     4.42361161     7.98759697
O     -3.79988445     6.73727542     6.45639888
O     -3.95634456     9.01786497     9.53764265
O     -1.93600537     7.82413842     3.26466483
O     -3.86483141     8.94404090     4.79408182
O      7.74384724     6.70641873     1.68386529
O     -1.69390397     7.67096690     8.08855738
O      0.00834317     6.70313013     6.35503183
O      0.24629895     7.13504917     9.86380241
O      1.93600537     7.82413842     3.26466483
O      0.00911312     8.94473251     4.82185840
O     -0.00005808     6.70641873     1.68386529
O      2.18151168     7.80212466     7.96964322
O      3.93710046     6.64939143     6.35524625
O      4.08526570     8.90549086     9.77675063
O      5.80789995     7.82413842     3.26466483
O      3.90435273     8.94068892     4.81677943
O      3.87195266     6.70641873     1.68386529
O      5.76331159     7.81380372     7.93109454
O      7.14869492     6.76850246    12.26128746
N      5.30872438     7.93963230    12.00128286
N      6.34185466     7.33432397    11.47969287
H      5.19419856     7.91721061    13.01178397
H      4.67959362     8.41189861    11.28881888
H      1.66729942     5.84703317    10.40467168
