82
CIF: Pd-Rh-CeO2.cif | data_image0
Ce     1.93038582     1.11050507     0.88387043
Ce    -0.00109635     2.22949305     4.03207681
Ce    -5.77679853    10.04120328     7.23553588
Ce     5.81181033     1.12175166     0.90127712
Ce     3.85742311     2.22638512     4.03319374
Ce    -1.91400474    10.04644445     7.22208591
Ce     9.66901012     1.12377363     0.90450652
Ce     7.73943721     2.23766346     4.06826395
Ce     1.99451248     9.98724728     7.22838671
Ce    -0.00709724     4.47602159     0.89067279
Ce    -1.93640825     5.58387529     4.05349710
Ce    -1.84447348     3.33789927     7.22837153
Ce     3.86254305     4.47635356     0.87798423
Ce     1.94203164     5.58482162     4.05098292
Ce     1.87187502     3.31175771     7.20020644
Ce     7.74213807     4.46545905     0.90125422
Ce     5.80824616     5.60535366     4.03311231
Ce    -1.94645625     7.83004003     0.90010904
Ce    -3.86568498     8.93797568     4.05954411
Ce    -3.84992635     6.69328792     7.22213412
Ce     1.92815559     7.82745473     0.89060408
Ce     0.00366304     8.94412063     4.05340606
Ce     0.00598596     6.70251597     7.18760409
Ce     5.81127600     7.83258510     0.88371011
Ce     3.87631496     8.94531629     4.03212385
Ce     3.87539233     6.78182082     7.20020374
Rh     4.89481828     3.87999661     6.57004283
Pd     6.75303154     2.80691183     8.01996129
O     11.61334069     0.00154917     0.10141687
O      1.93782435     1.11351862     3.23238323
O      0.01273747     2.22431160     6.38860045
O     -0.00785227     2.23805103     1.69392277
O     -5.79465579    10.05156806     4.85345844
O      1.92279594     1.09558230     8.01956891
O     -1.93899312    10.05733740     0.10496691
O      5.80987840     1.12776245     3.24828440
O      3.82686602     2.18112632     6.44265960
O      3.86763657     2.23577757     1.68132582
O     -1.92746246    10.05692327     4.86668336
O      5.89737961     0.98553576     8.10479173
O      7.73821774     0.00761509     0.10924988
O      9.67435091     1.12059390     3.24409648
O      7.87481295     2.15928415     6.47280027
O      7.74357843     2.23531483     1.71563532
O      7.75219423     0.00576896     4.86407412
O      9.78307964     1.05766117     8.04636295
O      9.67032270     3.35425987     0.10911246
O     -0.00146232     4.46856111     3.23605580
O     -1.90756447     5.57989854     6.41108793
O     -1.94403436     5.59119430     1.70564938
O      9.67855005     3.34254761     4.86410865
O      0.02025918     4.44428303     8.02219719
O      1.92738314     3.35244915     0.09928684
O      3.86487631     4.47481055     3.22037857
O      1.89585172     5.61139080     6.38352655
O      1.92862022     5.59252216     1.67404250
O      1.92406138     3.34519071     4.84940604
O      3.73773619     4.54790154     7.98896490
O      5.81155478     3.35101064     0.10766953
O      7.73580515     4.46373450     3.24816140
O      5.83218075     5.65438434     6.44259442
O      5.80528807     5.59217007     1.68114259
O      5.80720902     3.35330721     4.85301129
O      7.90257428     4.45862036     8.10462822
O     -3.87155109     6.71022987     0.10512724
O     -1.94136016     7.82706085     3.24543692
O     -3.83970395     8.92276787     6.41588419
O     -3.87509971     8.94378428     1.69355631
O     -3.86564471     6.69984855     4.86663995
O     -1.91730302     7.81285721     8.00268396
O     -0.01209783     6.71325780     0.10434852
O      1.93705578     7.82610788     3.23589341
O      0.02142356     8.92095628     6.41102686
O     -0.00628994     8.94736548     1.70514550
O     -0.00817447     6.71077239     4.84156227
O      1.96875870     7.81918272     8.02218187
O      3.86815347     6.71410280     0.09951587
O      5.81232295     7.82430109     3.23219615
O      3.88761089     8.93572712     6.38865575
O      3.86556896     8.94715423     1.69389986
O      3.87262821     6.72023753     4.84938917
O      5.82007848     7.84588428     8.01965074
