82
CIF: Mo-W-CeO2.cif | data_image0
Ce     1.93596140     1.11772783     0.89035214
Ce    -0.00081530     2.23016420     4.02264437
Ce    -5.79240286    10.05108983     7.23840097
Ce     5.80789581     1.11772783     0.89035214
Ce     3.83957774     2.19607475     3.96564206
Ce    -1.96309596     9.97905293     7.34209880
Ce     9.67981860     1.11772783     0.89035214
Ce     7.77486884     2.21803108     4.04147694
Ce     2.05825867     9.92128339     7.28677315
Ce     0.00000000     4.47091133     0.89035214
Ce    -1.94804914     5.58240676     4.09201335
Ce    -1.75402268     3.31773410     7.28552892
Ce     3.87193441     4.47091133     0.89035214
Ce     1.93619631     5.58939560     4.05070156
Ce     1.78829763     3.34287797     7.24536923
Ce     7.74385721     4.47091133     0.89035214
Ce     5.82635168     5.63659935     3.96611721
Ce    -1.93596721     7.82410489     0.89035214
Ce    -3.86008499     8.93527353     4.07328492
Ce    -3.81460956     6.77036033     7.34259279
Ce     1.93596721     7.82410489     0.89035214
Ce    -0.00034352     8.95672404     4.09234486
Ce    -0.00990122     6.71338086     7.22503887
Ce     5.80789000     7.82410489     0.89035214
Ce     3.87677705     8.94570344     4.02263832
Ce     3.80705380     6.84039310     7.24637250
W      5.03202267     3.80169076     6.78448550
Mo     6.78192698     2.79282607     8.16795567
O      0.00000000     0.00000000     0.09999685
O      1.93868206     1.11388990     3.21014364
O      0.05735478     2.22970014     6.32529062
O      0.00000000     2.23545567     1.68070743
O     -5.78946471    10.04844877     4.81974703
O      1.85772307     1.23525878     8.05198124
O      3.87192279     0.00000000     0.09999685
O      5.80789461     1.16102113     3.24024752
O      3.93728667     2.32670623     6.49572848
O      3.87192279     2.23545567     1.68070743
O      3.86523230     0.05513926     4.84935103
O      6.13882398     1.20132136     8.71756648
O      7.74385721     0.00000000     0.09999685
O      9.68606323     1.11440343     3.21313385
O      7.73454045     2.24362216     6.59982000
O      7.74385721     2.23545567     1.68070743
O      7.76445383     0.05402609     4.81739364
O      9.89996285     0.99192189     8.09492087
O     -1.93596140     3.35318350     0.09999685
O      0.00366855     4.46675789     3.25438289
O     -1.92575913     5.56764996     6.42960306
O     -1.93596721     5.58864923     1.68070743
O      9.64459101     3.30947498     4.81627634
O      0.13969307     4.50954319     8.10778067
O      1.93596140     3.35318350     0.09999685
O      3.89350598     4.45881293     3.20921346
O      1.91361991     5.60331071     6.34817886
O      1.93595559     5.58864923     1.68070743
O      1.99315904     3.32666924     4.85057502
O      5.80789581     3.35318350     0.09999685
O      7.70693134     4.44941665     3.24019498
O      5.76249629     5.48732175     6.49564745
O      5.80789000     5.58864923     1.68070743
O      5.74706574     3.38902050     4.96189584
O      7.83702985     4.14720514     8.71670868
O     -3.87192860     6.70637706     0.09999685
O     -1.94608034     7.83044879     3.26321187
O     -3.86093510     8.93600364     6.45255547
O     -3.87192860     8.94183273     1.68070743
O      7.69375637     6.68483140     4.84898340
O     -1.81617238     7.75615059     8.14854170
O     -0.00000581     6.70637706     0.09999685
O      1.94248233     7.82375069     3.25445956
O      0.02350318     8.94525682     6.42889103
O     -0.00000581     8.94183273     1.68070743
O     -0.02081023     6.71906376     4.84340502
O      3.87192860     6.70637706     0.09999685
O      5.81267642     7.82401696     3.21020275
O      3.90505544     8.89558563     6.32596948
O      3.87192860     8.94183273     1.68070743
O      3.92498389     6.67102543     4.85085222
O      5.66697092     7.83362242     8.05204557
O      3.76120095     4.53537543     8.02089009
O      1.97152204     7.68538279     8.10865883
