83
CIF: Pd-Rh-CeO2-Ov-O2.cif | data_image0
Ce     1.93038582     1.11050507     0.88387043
Ce    -0.01885739     2.23308248     4.03346166
Ce    -5.80240308    10.05497872     7.22525991
Ce     5.81181033     1.12175166     0.90127712
Ce     3.84081878     2.21604893     4.00840344
Ce    -1.91816571    10.04862467     7.22379529
Ce     9.66901012     1.12377363     0.90450652
Ce     7.71709704     2.25014824     4.08562222
Ce     1.94519823    10.04198165     7.23879561
Ce    -0.00709724     4.47602159     0.89067279
Ce    -1.93588010     5.58417128     4.06007717
Ce    -1.91410070     3.35232017     7.23779806
Ce     3.86254305     4.47635356     0.87798423
Ce     1.94881059     5.58084608     4.06348706
Ce     1.84461911     3.26800812     7.19982764
Ce     7.74213807     4.46545905     0.90125422
Ce     5.80900697     5.62443829     4.00873505
Ce    -1.94645625     7.83004003     0.90010904
Ce    -3.86708346     8.93837026     4.06469813
Ce    -3.85189579     6.69633487     7.22390408
Ce     1.92815559     7.82745473     0.89060408
Ce     0.00338744     8.94359535     4.06019047
Ce     0.01558662     6.69726174     7.22093476
Ce     5.81127600     7.83258510     0.88371011
Ce     3.86376820     8.95818995     4.03431170
Ce     3.89974326     6.82595809     7.20071215
Rh     4.81901443     3.92409715     6.40870783
Pd     6.50358278     2.95632343     8.00639416
O     11.61334069     0.00154917     0.10141687
O      1.92338404     1.10981732     3.22887859
O     -0.01148092     2.22931875     6.39887577
O     -0.00785227     2.23805103     1.69392277
O      5.80904705    10.05746538     4.85923662
O      1.89836208     1.10197905     8.01139431
O     -1.93899312    10.05733740     0.10496691
O      5.80449638     1.10534807     3.24309940
O      3.78154865     2.20339046     6.38854987
O      3.86763657     2.23577757     1.68132582
O     -1.93502773    10.04961828     4.86103663
O      5.79202743     1.01343945     8.07117990
O      7.73821774     0.00761509     0.10924988
O      9.66700818     1.12435435     3.24446721
O      7.75900920     2.22549837     6.54764171
O      7.74357843     2.23531483     1.71563532
O      7.74437477     0.03705412     4.88577542
O      9.72637683     1.09057157     8.02970493
O      9.67032270     3.35425987     0.10911246
O     -0.01653662     4.47352729     3.23981085
O     -1.91271227     5.58510813     6.41004755
O     -1.94403436     5.59119430     1.70564938
O      9.64755001     3.33269631     4.88514542
O     -0.00236109     4.44420073     8.01493009
O      1.92738314     3.35244915     0.09928684
O      3.83483416     4.49212687     3.21281842
O      2.02356264     5.53688830     6.50687357
O      1.92862022     5.59252216     1.67404250
O      1.88589001     3.35354174     4.84265580
O      5.81155478     3.35101064     0.10766953
O      7.75219652     4.47924444     3.24320836
O      5.79233622     5.68189906     6.38892157
O      5.80528807     5.59217007     1.68114259
O      5.77434724     3.37136719     4.72799058
O      7.83671009     4.53692276     8.07252480
O     -3.87155109     6.71022987     0.10512724
O     -1.92342963     7.81664785     3.25745409
O     -3.85488418     8.93176694     6.41973556
O     -3.87509971     8.94378428     1.69355631
O     -3.86270052     6.70985512     4.86098743
O     -1.90625197     7.80577198     8.00152018
O     -0.01209783     6.71325780     0.10434852
O      1.92539206     7.83649254     3.23969001
O      0.01332385     8.92524109     6.41228462
O     -0.00628994     8.94736548     1.70514550
O      0.04238480     6.68263670     4.89584975
O      1.95507743     7.83857186     8.01506301
O      3.86815347     6.71410280     0.09951587
O      5.80800161     7.83784394     3.22880339
O      3.86929341     8.95415388     6.40041257
O      3.86556896     8.94715423     1.69389986
O      3.84649369     6.74850759     4.84343260
O      5.80292700     7.86391552     8.01077154
O      4.05191871     4.37091101     8.20832743
O      5.06629166     3.81645593     9.14450712
