81
CIF: Co-Sc-CeO2-Ov.cif | data_image0
Ce     1.93038582     1.11050507     0.88387043
Ce    -0.00773311     2.23110965     4.02913461
Ce    -5.77227380    10.05801017     7.22533551
Ce     5.81181033     1.12175166     0.90127712
Ce     3.83918332     2.23152691     4.01631406
Ce     3.86766050     0.01292351     7.33247304
Ce     9.66901012     1.12377363     0.90450652
Ce     7.75850786     2.21920030     4.00211016
Ce     1.98584217     9.94722115     7.26751543
Ce    -0.00709724     4.47602159     0.89067279
Ce    -1.95907483     5.58286124     4.07016744
Ce    -1.86678347     3.34691437     7.25425043
Ce     3.86254305     4.47635356     0.87798423
Ce     1.93483937     5.58543251     4.09052029
Ce     1.79860020     3.27572600     7.21581242
Ce     7.74213807     4.46545905     0.90125422
Ce     5.79602773     5.62917357     4.00205332
Ce    -1.94645625     7.83004003     0.90010904
Ce    -3.86406019     8.95853040     4.05817047
Ce    -3.85050829     6.78704375     7.22595946
Ce     1.92815559     7.82745473     0.89060408
Ce    -0.00842084     8.96167648     4.09127836
Ce    -0.01186740     6.70358845     7.24805557
Ce     5.81127600     7.83258510     0.88371011
Ce     3.87582984     8.94629624     4.03500315
Ce     3.89235043     6.83067874     7.21357234
Sc     5.74350036     3.43563407     6.65023229
Co     7.18397632     2.52097288     8.48169455
O     11.61334069     0.00154917     0.10141687
O      1.92681558     1.11127656     3.20937283
O     -0.04449137     2.22638398     6.35841235
O     -0.00785227     2.23805103     1.69392277
O     -5.79821997    10.05690765     4.83153949
O      1.79680244     1.02952281     8.08059783
O     -1.93899312    10.05733740     0.10496691
O      5.81411044     1.10355851     3.22616247
O      4.01992187     2.47546832     6.60355052
O      3.86763657     2.23577757     1.68132582
O      3.86968377     0.09744796     4.86397670
O      6.22463081     1.02977419     8.55266621
O      7.73821774     0.00761509     0.10924988
O      9.67883481     1.11537365     3.21575798
O      7.52386893     2.32123314     6.66117069
O      7.74357843     2.23531483     1.71563532
O      7.76842499     0.07388207     4.88089624
O      9.71002319     1.09724329     7.99103223
O      9.67032270     3.35425987     0.10911246
O     -0.02385474     4.47496575     3.25922616
O     -2.05065761     5.55070343     6.41142222
O     -1.94403436     5.59119430     1.70564938
O      9.60295832     3.30359276     4.87373291
O     -0.11515510     4.53629621     8.05943910
O      1.92738314     3.35244915     0.09928684
O      3.85224288     4.48464397     3.22251425
O      1.99025068     5.56272030     6.45968786
O      1.92862022     5.59252216     1.67404250
O      1.93752038     3.31306557     4.79991439
O      5.81155478     3.35101064     0.10766953
O      7.75363907     4.48619608     3.22150281
O      5.78244266     5.41753374     6.54823680
O      5.80528807     5.59217007     1.68114259
O      5.82705354     3.35220711     4.67708739
O      7.92701546     4.13547568     8.49211514
O     -3.87155109     6.71022987     0.10512724
O     -1.94094645     7.82980789     3.28228871
O     -3.83720977     8.90832375     6.37025219
O     -3.87509971     8.94378428     1.69355631
O      7.67356240     6.69496232     4.87063278
O     -1.94102321     7.70464392     8.05473006
O     -0.01209783     6.71325780     0.10434852
O      1.91800827     7.83550527     3.26974201
O      0.03179305     8.96575759     6.41707702
O     -0.00628994     8.94736548     1.70514550
O     -0.01519200     6.68510005     4.90705112
O      1.85399039     7.84916183     8.09527150
O      3.86815347     6.71410280     0.09951587
O      5.81363432     7.83863111     3.20975408
O      3.89250774     8.94980212     6.39149830
O      3.86556896     8.94715423     1.69389986
O      3.90979430     6.71752391     4.80297770
O      5.96098459     7.86578393     8.04373612
