85
CIF: Cu-Cu-CeO2-O-CO.cif | data_image0
Ce     1.93038582     1.11050507     0.88387043
Ce    -0.00097113     2.23243938     4.03658041
Ce    -5.76863487    10.03684168     7.21404298
Ce     5.81181033     1.12175166     0.90127712
Ce     3.86281499     2.23199694     4.02329230
Ce     3.89818720     0.01531906     7.21485197
Ce     9.66901012     1.12377363     0.90450652
Ce     7.72751864     2.24468465     4.08625979
Ce     1.99373672     9.99790028     7.22352512
Ce    -0.00709724     4.47602159     0.89067279
Ce    -1.94391460     5.58728608     4.05447295
Ce    -1.85424038     3.33342801     7.22389961
Ce     3.86254305     4.47635356     0.87798423
Ce     1.92651948     5.59385192     4.03438127
Ce     1.91013268     3.35512566     7.19144696
Ce     7.74213807     4.46545905     0.90125422
Ce     5.80623445     5.59814745     4.02321982
Ce    -1.94645625     7.83004003     0.90010904
Ce    -3.87082618     8.94116473     4.05795285
Ce     7.74345278     6.67610823     7.21480200
Ce     1.92815559     7.82745473     0.89060408
Ce    -0.00297242     8.94900238     4.05432653
Ce    -0.01180689     6.71282214     7.19587910
Ce     5.81127600     7.83258510     0.88371011
Ce     3.87398675     8.94392301     4.03655811
Ce     3.85716836     6.72751659     7.19136884
Cu     4.95926537     3.84314344     6.56112119
Cu     6.81791685     2.76903241     8.01681300
O     11.61334069     0.00154917     0.10141687
O      1.93328701     1.11260326     3.22905444
O      0.03172977     2.22364312     6.39315936
O     -0.00785227     2.23805103     1.69392277
O     -5.79652666    10.05283705     4.85759973
O      1.97258602     1.09592564     7.98992760
O     -1.93899312    10.05733740     0.10496691
O      5.80593338     1.12096600     3.24804163
O      3.87920594     2.24297544     6.41252995
O      3.86763657     2.23577757     1.68132582
O      3.87100187     0.01251962     4.87398892
O      6.00472403     1.04524047     8.13750497
O      7.73821774     0.00761509     0.10924988
O      9.67650343     1.11943423     3.24928856
O      7.82863967     2.18630867     6.45556748
O      7.74357843     2.23531483     1.71563532
O      1.94273186    10.05494012     4.86178526
O      9.77730503     1.06125053     8.02342301
O      9.67032270     3.35425987     0.10911246
O     -0.00478124     4.47523821     3.23562001
O     -1.94496782     5.58299207     6.42278353
O     -1.94403436     5.59119430     1.70564938
O     -1.92887995     3.34931548     4.86181725
O      0.02752883     4.46826493     8.00811792
O      1.92738314     3.35244915     0.09928684
O      3.85594309     4.48011320     3.21281278
O      1.88339933     5.61871125     6.35457303
O      1.92862022     5.59252216     1.67404250
O      1.93677739     3.35305263     4.84363229
O      5.81155478     3.35101064     0.10766953
O      7.73976203     4.47072126     3.24791486
O      5.80522364     5.57847419     6.41246207
O      5.80528807     5.59217007     1.68114259
O      5.77996829     3.36921589     4.82048207
O      7.90405112     4.33501202     8.13953301
O     -3.87155109     6.71022987     0.10512724
O     -1.95006794     7.83223912     3.24695766
O     -3.83979115     8.92306080     6.41205506
O     -3.87509971     8.94378428     1.69355631
O      7.73247015     6.70084906     4.87383498
O     -1.93098760     7.82094581     8.00152537
O     -0.01209783     6.71325780     0.10434852
O      1.92965583     7.82572285     3.23551989
O      0.00028476     8.95133113     6.42234663
O     -0.00628994     8.94736548     1.70514550
O     -0.03142555     6.72408513     4.84893151
O      1.95192961     7.80111094     8.00811613
O      3.86815347     6.71410280     0.09951587
O      5.81094753     7.82889821     3.22884831
O      3.89798502     8.91993478     6.39310085
O      3.86556896     8.94715423     1.69389986
O      3.87235001     6.70552040     4.84361704
O      5.84505668     7.80311917     7.99019375
O      3.75077471     4.54101867     7.92764042
O      5.64491538     3.43386838    10.23291685
O      6.38372298     3.06908963    12.43745220
C      6.01777773     3.25046335    11.33588450
