83
CIF: Ni-Rh-CeO2-Ov-O2.cif | data_image0
Ce     1.93038582     1.11050507     0.88387043
Ce    -0.02557737     2.23418332     4.02538011
Ce    -5.80495919    10.05812317     7.21957583
Ce     5.81181033     1.12175166     0.90127712
Ce     3.83467010     2.21850848     4.00601048
Ce    -1.89780340    10.05211063     7.22866834
Ce     9.66901012     1.12377363     0.90450652
Ce     7.71390804     2.25301296     4.09926209
Ce     7.73151552     0.03656430     7.22252470
Ce    -0.00709724     4.47602159     0.89067279
Ce    -1.94101273     5.58649744     4.05599301
Ce     9.64264630     3.34649025     7.22252821
Ce     3.86254305     4.47635356     0.87798423
Ce     1.94602560     5.58301448     4.05660338
Ce     1.80400565     3.26398004     7.17523367
Ce     7.74213807     4.46545905     0.90125422
Ce     5.80428923     5.62979631     4.00579175
Ce    -1.94645625     7.83004003     0.90010904
Ce    -3.86876684     8.94025877     4.07042973
Ce    -3.84557001     6.67780194     7.22860369
Ce     1.92815559     7.82745473     0.89060408
Ce    -0.00054550     8.94778104     4.05598490
Ce     0.01380726     6.69895291     7.21710856
Ce     5.81127600     7.83258510     0.88371011
Ce     3.86033994     8.96489464     4.02544273
Ce     3.88365131     6.86595433     7.17516883
Rh     4.86062737     3.90112540     6.46668466
Ni     6.47535918     2.96916879     8.03171834
O     11.61334069     0.00154917     0.10141687
O      1.92422679     1.11263072     3.22569311
O     -0.02580408     2.21818566     6.38494207
O     -0.00785227     2.23805103     1.69392277
O     -5.80051141    10.05550872     4.85214251
O      1.88700843     1.11410456     8.01080154
O     -1.93899312    10.05733740     0.10496691
O      5.79248120     1.11418065     3.24457866
O      3.79266532     2.20793136     6.40774196
O      3.86763657     2.23577757     1.68132582
O      3.86520043     0.00273338     4.86480927
O      5.87514313     1.03289994     8.08054548
O      7.73821774     0.00761509     0.10924988
O      9.66897419     1.12407415     3.24425637
O      7.72637479     2.24629805     6.47345726
O      7.74357843     2.23531483     1.71563532
O      7.73395167     0.02073148     4.86112901
O      9.69531007     1.10912970     8.01715742
O      9.67032270     3.35425987     0.10911246
O     -0.00969652     4.47922647     3.23338933
O     -1.93523033     5.59976248     6.40380911
O     -1.94403436     5.59119430     1.70564938
O      9.65743209     3.35171164     4.86091889
O     -0.00021508     4.45210620     7.98575206
O      1.92738314     3.35244915     0.09928684
O      3.82991985     4.49533275     3.21096017
O      2.04171785     5.52789427     6.50847894
O      1.92862022     5.59252216     1.67404250
O      1.88164435     3.34900070     4.84179996
O      5.81155478     3.35101064     0.10766953
O      7.73932049     4.48614077     3.24446351
O      5.79304310     5.67231439     6.40693807
O      5.80528807     5.59217007     1.68114259
O      5.74916852     3.38736516     4.74288483
O      7.85213469     4.45646026     8.08044018
O     -3.87155109     6.71022987     0.10512724
O     -1.92737875     7.81955272     3.26050997
O     -3.85060220     8.92990880     6.43114284
O     -3.87509971     8.94378428     1.69355631
O      7.73883479     6.71142525     4.86432850
O     -1.90533478     7.80701395     8.00840977
O     -0.01209783     6.71325780     0.10434852
O      1.92400780     7.82861296     3.23327383
O     -0.00911822     8.93674188     6.40408841
O     -0.00628994     8.94736548     1.70514550
O      0.04553993     6.68062239     4.89908945
O      1.95235563     7.83443236     7.98550953
O      3.86815347     6.71410280     0.09951587
O      5.80661307     7.83709297     3.22551384
O      3.87413094     8.97352817     6.38482816
O      3.86556896     8.94715423     1.69389986
O      3.84856240     6.75591936     4.84168844
O      5.78660620     7.86913551     8.01089042
O      4.14339916     4.31616196     8.26007880
O      5.13316277     3.74539927     9.12278667
