83
CIF: Sc-W-CeO2-O.cif | data_image0
Ce     1.93596140     1.11772783     0.89035214
Ce    -0.01742464     2.21071184     4.03735427
Ce    -5.62416374     9.93250238     7.16928748
Ce     5.80789581     1.11772783     0.89035214
Ce     3.83539852     2.19082708     3.96701172
Ce    -1.96474855     9.93665207     7.25585113
Ce     9.67981860     1.11772783     0.89035214
Ce     7.72017209     2.25764488     4.04158905
Ce     2.00059658    10.05421440     7.22247421
Ce     0.00000000     4.47091133     0.89035214
Ce    -1.93685300     5.59636610     4.05307623
Ce    -1.80660271     3.46777728     7.20488780
Ce     3.87193441     4.47091133     0.89035214
Ce     1.95176712     5.60030308     4.06874275
Ce     1.88810361     3.32275499     7.19837141
Ce     7.74385721     4.47091133     0.89035214
Ce     5.82521237     5.62845777     4.01302605
Ce    -1.93596721     7.82410489     0.89035214
Ce    -3.84116301     8.89945618     4.02491191
Ce    -3.72771925     6.65510295     7.44487947
Ce     1.93596721     7.82410489     0.89035214
Ce     0.01799597     8.96049318     4.06526794
Ce     0.08006760     6.75334451     7.22749204
Ce     5.80789000     7.82410489     0.89035214
Ce     3.89372618     8.95951963     4.05877625
Ce     3.89306235     6.74545473     7.31901348
W      5.56075245     3.36575979     6.88692066
Sc     7.73991146     2.88492305     9.55691620
O      0.00000000     0.00000000     0.09999685
O      1.91582121     1.11971437     3.19559179
O     -0.09754196     2.13708359     6.45088628
O      0.00000000     2.23545567     1.68070743
O     -5.74006548    10.02765174     4.82525233
O      1.91945851     1.20161304     7.97496383
O      3.87192279     0.00000000     0.09999685
O      5.81079405     1.14519620     3.23102241
O      4.20910199     2.13139148     6.38324023
O      3.87192279     2.23545567     1.68070743
O     -1.95664117    10.05393028     4.76382655
O      5.97252295     2.55887006     8.51755650
O      7.74385721     0.00000000     0.09999685
O      9.70220438     1.11919259     3.23083271
O      7.32768924     2.49666193     6.37458259
O      7.74385721     2.23545567     1.68070743
O      7.79261047     0.06619809     4.81420173
O      9.02268892     1.73016794     8.53677767
O     -1.93596140     3.35318350     0.09999685
O      0.01932578     4.45712647     3.27568200
O     -1.85089831     5.56952843     6.35584991
O     -1.93596721     5.58864923     1.68070743
O      9.64478591     3.31365209     4.84940983
O      0.10822349     4.42054773     8.01036032
O      1.93596140     3.35318350     0.09999685
O      3.83123096     4.48730672     3.21538788
O      1.92479705     5.53488528     6.36420929
O      1.93595559     5.58864923     1.68070743
O      1.95975634     3.24434473     4.91633050
O      5.80789581     3.35318350     0.09999685
O      7.72521869     4.45644331     3.23391977
O      6.08191944     5.16086502     6.61675653
O      5.80789000     5.58864923     1.68070743
O      5.64226365     3.43253705     4.81306347
O      8.37489630     4.50123980     8.61718453
O     -3.87192860     6.70637706     0.09999685
O     -1.92196645     7.79990202     3.23047701
O     -3.81303263     8.90260481     6.40052711
O     -3.87192860     8.94183273     1.68070743
O      7.70743392     6.67456816     4.82544103
O     -1.71461468     7.74168982     8.12993771
O     -0.00000581     6.70637706     0.09999685
O      1.97917402     7.82260896     3.26404093
O      0.04114658     9.04023010     6.40243061
O     -0.00000581     8.94183273     1.68070743
O      0.02895862     6.75630500     4.83973638
O      3.87192860     6.70637706     0.09999685
O      5.80478532     7.82801764     3.20792753
O      3.95576454     9.13352264     6.47776612
O      3.87192860     8.94183273     1.68070743
O      3.98656544     6.72274885     4.91661734
O      5.87991973     7.91994140     8.07746173
O      1.90016403     7.78825420     8.05435262
O      3.99332996     4.25704736     7.71409460
O      7.75022335     2.71057920    11.52369510
