84
CIF: Co-Mo-CeO2-Ov-CO2.cif | data_image0
Ce     1.93596140     1.11772783     0.89035214
Ce     0.01413185     2.25943495     4.06375308
Ce     0.00938795     0.02406496     7.20017767
Ce     5.80789581     1.11772783     0.89035214
Ce     3.81402455     2.23563434     3.96761424
Ce    -2.06104616     9.97763634     7.20126788
Ce     9.67981860     1.11772783     0.89035214
Ce     7.80702775     2.21930162     3.96536150
Ce     7.80276404     0.04518551     7.32420736
Ce     0.00000000     4.47091133     0.89035214
Ce    -1.94393242     5.59061636     4.07482377
Ce    -1.82981373     3.41632689     7.29336536
Ce     3.87193441     4.47091133     0.89035214
Ce     1.95362696     5.60131650     4.09999236
Ce     1.84959008     3.36792723     7.32470570
Ce     7.74385721     4.47091133     0.89035214
Ce     5.79423639     5.59169594     4.04481303
Ce    -1.93596721     7.82410489     0.89035214
Ce    -3.89333771     8.92868863     4.03034545
Ce    -3.80284357     6.74090327     7.30162665
Ce     1.93596721     7.82410489     0.89035214
Ce     0.00731527     8.98103519     4.07158796
Ce     0.03074096     6.74591828     7.25989063
Ce     5.80789000     7.82410489     0.89035214
Ce     3.87251622     8.94010009     4.07083147
Ce     3.82305083     6.81677381     7.31424243
Mo     5.84926655     3.13288736     6.75132490
O      0.00000000     0.00000000     0.09999685
O      1.91800701     1.10976049     3.21141520
O      0.00992428     2.24983030     6.43766561
O      0.00000000     2.23545567     1.68070743
O      0.01756144     0.02805254     4.88210465
O      1.98964654     1.00503664     8.01414950
O      3.87192279     0.00000000     0.09999685
O      5.80046500     1.08770446     3.20556175
O      4.12607009     2.41295358     6.51638707
O      3.87192279     2.23545567     1.68070743
O      3.82140904     0.08446653     4.88406673
O      5.96081690     1.94089853     8.25467464
O      7.74385721     0.00000000     0.09999685
O      9.70519673     1.11869829     3.23144613
O      7.58951087     2.48365057     6.36897450
O      7.74385721     2.23545567     1.68070743
O      7.74949804     0.05119635     4.86929044
O      9.75032975     1.29862415     8.06522552
O     -1.93596140     3.35318350     0.09999685
O      0.00275638     4.49559278     3.28313422
O     -1.92837397     5.59809287     6.44482868
O     -1.93596721     5.58864923     1.68070743
O     -1.91858106     3.33303637     4.90303989
O     -0.08186179     4.54413643     8.11924898
O      1.93596140     3.35318350     0.09999685
O      3.79878175     4.43595635     3.23169602
O      1.92787713     5.57616910     6.46779277
O      1.93595559     5.58864923     1.68070743
O      1.96747035     3.30357638     4.87488251
O      5.80789581     3.35318350     0.09999685
O      7.82819502     4.43326910     3.23001568
O      5.68441736     4.98283154     6.66954763
O      5.80789000     5.58864923     1.68070743
O      5.81538370     3.21239517     4.76376326
O      7.98089152     4.64435011     8.43087185
O     -3.87192860     6.70637706     0.09999685
O     -1.94669142     7.83239948     3.27574852
O     -3.84688137     8.94717963     6.38395493
O     -3.87192860     8.94183273     1.68070743
O      7.72754260     6.69094903     4.98146597
O     -1.98149613     7.85744069     8.06799553
O     -0.00000581     6.70637706     0.09999685
O      1.92668399     7.83920257     3.26475714
O     -0.10409252     9.11694349     6.50222611
O     -0.00000581     8.94183273     1.68070743
O      0.00733309     6.77648732     4.92455890
O      3.87192860     6.70637706     0.09999685
O      5.81472169     7.90248563     3.23211943
O      3.91610751     9.04206007     6.47976409
O      3.87192860     8.94183273     1.68070743
O      3.85982765     6.75958961     4.90895578
O      5.96106414     7.80582840     7.96438855
O      3.86854564     4.70170573     8.96020298
O      1.79252123     7.83352510     8.09745257
O      5.07803987     3.47367384    10.52094024
Co     6.60593076     3.65411499     9.02112753
C      4.86490464     4.13407708     9.48661522
