84
CIF: Pt-Sc-CeO2-Ov-CO2.cif | data_image0
Ce     1.93038582     1.11050507     0.88387043
Ce    -0.01770753     2.22707502     4.03028113
Ce    -5.76887077    10.02617552     7.19286292
Ce     5.81181033     1.12175166     0.90127712
Ce     3.84497443     2.21901012     4.00353419
Ce     3.91199469     0.02150954     7.24389861
Ce     9.66901012     1.12377363     0.90450652
Ce     7.74939492     2.23220452     4.04249235
Ce     1.92402645    10.05932128     7.22508208
Ce    -0.00709724     4.47602159     0.89067279
Ce    -1.93635156     5.58307543     4.06656491
Ce     9.65690359     3.34886861     7.24241536
Ce     3.86254305     4.47635356     0.87798423
Ce     1.95608470     5.58318388     4.06851638
Ce     1.83675025     3.27440910     7.16251442
Ce     7.74213807     4.46545905     0.90125422
Ce     5.81382551     5.62546719     4.02335517
Ce    -1.94645625     7.83004003     0.90010904
Ce    -3.85449819     8.94056477     4.06170132
Ce    -3.83565547     6.71005788     7.25689541
Ce     1.92815559     7.82745473     0.89060408
Ce     0.00708462     8.95008855     4.05731037
Ce     0.01462534     6.70785001     7.24940622
Ce     5.81127600     7.83258510     0.88371011
Ce     3.87361332     8.93094520     4.05969954
Ce     3.92903769     6.76390751     7.27693417
Sc     5.70927760     3.41304706     6.65206421
Pt     6.70683161     2.83362170     8.88371631
O     11.61334069     0.00154917     0.10141687
O      1.92225741     1.10657776     3.21532010
O     -0.01009344     2.18838862     6.42392649
O     -0.00785227     2.23805103     1.69392277
O     -5.78516251    10.04456911     4.86635016
O      1.96724358     1.13277399     7.97750246
O     -1.93899312    10.05733740     0.10496691
O      5.80319090     1.08011148     3.23099533
O      3.95481763     2.32961738     6.39803009
O      3.86763657     2.23577757     1.68132582
O      3.86192637     0.03433892     4.86953046
O      5.86749857     0.97547678     8.35529215
O      7.73821774     0.00761509     0.10924988
O      9.69178266     1.10623625     3.24183383
O      7.58165094     2.32147734     6.31234306
O      7.74357843     2.23531483     1.71563532
O      1.95686127    10.04482637     4.86762817
O      9.56312883     1.18644778     7.99543771
O      9.67032270     3.35425987     0.10911246
O      0.00348778     4.48407651     3.24670165
O     -1.98920913     5.56891981     6.44269670
O     -1.94403436     5.59119430     1.70564938
O     -1.92093208     3.34399106     4.86830879
O      0.00187512     4.43608846     7.97812051
O      1.92738314     3.35244915     0.09928684
O      3.81820559     4.49244075     3.21822469
O      2.04902132     5.43262737     6.49589192
O      1.92862022     5.59252216     1.67404250
O      1.90171089     3.30402749     4.84966407
O      4.32180438     4.21981624     8.41593723
O      5.81155478     3.35101064     0.10766953
O      7.77370361     4.50128229     3.24144541
O      5.88561108     5.43900133     6.39624746
O      5.80528807     5.59217007     1.68114259
O      5.76500050     3.36797851     4.62154188
O      7.96298880     4.43653522     8.41768102
O     -3.87155109     6.71022987     0.10512724
O     -1.91771454     7.81979186     3.26692417
O     -3.81948815     8.95925239     6.42108513
O     -3.87509971     8.94378428     1.69355631
O     -3.87340270     6.73078771     4.87797773
O     -1.89434913     7.82421106     7.99693367
O     -0.01209783     6.71325780     0.10434852
O      1.92576857     7.81110654     3.24704645
O     -0.02833762     9.02464338     6.40437448
O     -0.00628994     8.94736548     1.70514550
O      0.03811933     6.68919047     4.94066419
O      1.82104437     7.85316862     7.98067003
O      3.86815347     6.71410280     0.09951587
O      5.81819594     7.83847895     3.22641886
O      3.91378071     8.99311113     6.45247237
O      3.86556896     8.94715423     1.69389986
O      3.88962707     6.72429990     4.84339649
O      5.97345536     7.86747262     8.02387441
O      4.76838483     3.91076824    10.64107198
C      5.01234327     3.79691493     9.45590423
