    36
 Tv_1:   7.865149   0.000000   0.000000 Tv_2:  -3.932574   6.811419   0.000000 Tv_3:   0.000000   0.000000  23.027334
Pd      1.96595373      4.43660957      6.53660585
Ru     -1.96654233      3.51844985      7.10869808
Ce      3.93257441      2.27047284      0.80273332
Ce      0.00451164      4.54798818      3.99064836
Ce      7.78504761      0.04921454      7.10190755
Ce      1.96628723      5.67618214      0.80273332
Ce      1.96603260      1.13692707      4.04064654
Ce     -1.96628714      5.67618214      0.80273332
Ce      5.89866488      1.09078489      3.94630956
Ce      0.00000004      2.27047284      0.80273332
Ce      3.92722117      4.54786015      3.99076641
Ce      4.01221485      0.04921608      7.10196323
O       3.93257433      4.54094576      1.60546686
O       3.88459200      0.02667108      4.70025370
O      -0.63928156      2.45463631      7.69087370
O      -1.96628718      3.40570930      0.00000000
O       1.96548336      5.64906258      3.17322929
O       1.96619207      0.81794234      6.51389050
O       5.89886151      1.13523646      1.60546686
O       1.96540099      3.37001171      4.82233961
O      -1.96611488      5.03703633      8.05597361
O       0.00000000      0.00000000      0.00000000
O       3.97149799      2.31601270      3.19922337
O      -0.02878166      4.67366302      6.34771945
O       1.96628714      1.13523646      1.60546686
O      -1.96651320      3.36380044      5.18098770
O       1.96605826      5.80285429      8.03284804
O       3.93257436      0.00000000      0.00000000
O      -0.03917681      2.31645993      3.19914283
O       3.96092473      4.67336469      6.34804565
O      -0.00000004      4.54094576      1.60546686
O       0.04751824      0.02616006      4.69942115
O       4.57133832      2.45458540      7.69079305
O       1.96628718      3.40570930      0.00000000
O      -1.96679751      5.58511152      3.20688281
O       5.89870399      0.79942107      6.14564945
