90
CIF: CH2CHCH2.cif | data_VESTA_phase_1
O     -0.00101584     0.09961518     0.10145935
O      1.91325924     1.20161490     3.24637991
O     -0.06483611     2.27210279     6.46062037
O     -0.00101584     2.30864459     1.66347260
O      0.00292127     0.09619560     4.86525875
O      1.88759339     1.03176908     8.14943500
O      3.82513533     0.09961518     0.10145935
O      5.73386058     1.19319517     3.25974663
O      3.87360315     2.22336382     6.50918309
O      3.82513533     2.30864459     1.66347260
O      3.80043941     0.07141357     4.87620760
O      5.76769335     1.06409605     8.45440612
O      7.65129798     0.09961518     0.10145935
O      9.56454575     1.21114797     3.24168102
O      7.66031432     2.23449734     6.48087575
O      7.65129798     2.30864459     1.66347260
O      7.66771219     0.07963449     4.86941019
O      9.55684944     1.15105679     8.12911120
O     -1.91409143     3.41315929     0.10145935
O     -0.00394859     4.52255485     3.25828678
O     -1.91588207     5.64797473     6.39620463
O     -1.91409717     5.62219864     1.66347260
O     -1.93426483     3.41402413     4.88987085
O     -0.11650068     4.60843206     8.10333578
O      1.91205974     3.41315929     0.10145935
O      3.81900009     4.51531806     3.25689536
O      1.97762473     5.65749786     6.47421520
O      1.91205400     5.62219864     1.66347260
O      1.91112999     3.39962014     4.87611636
O      3.80644265     4.64991436     8.52356636
O      5.73822240     3.41315929     0.10145935
O      7.65668138     4.51427430     3.23721024
O      5.67011492     5.64985351     6.47004095
O      5.73821666     5.62219864     1.66347260
O      5.75318457     3.41708585     4.85490296
O      7.76149125     4.59258668     8.11542513
O     -3.82717276     6.72671335     0.10145935
O     -1.91114720     7.82114824     3.24806785
O     -3.85685607     8.89353479     6.41588976
O     -3.82717276     8.93574276     1.66347260
O     -3.85289026     6.70403874     4.87477056
O     -1.93071799     7.82230136     8.06567629
O     -0.00102158     6.72671335     0.10145935
O      1.90606798     7.82761960     3.23768926
O      0.00285814     9.00807087     6.47544694
O     -0.00102158     8.93574276     1.66347260
O      0.01962818     6.74365220     4.90700124
O      1.94620244     7.86741199     8.09154295
O      3.82514107     6.72671335     0.10145935
O      5.73824535     7.82785817     3.22986539
O      3.84490125     8.94601144     6.41721274
O      3.82514107     8.93574276     1.66347260
O      3.82569204     6.75271807     4.85592942
O      5.71064538     7.83776900     8.10477281
Ce     1.91205974     1.20412988     0.88247738
Ce     0.00031566     2.30560275     4.06549081
Ce    -0.00185951     0.08861089     7.27557984
Ce     5.73822240     1.20412988     0.88247738
Ce     3.82514681     2.30307783     4.09411750
Ce     3.73067330     0.04063735     7.23183006
Ce     9.56437357     1.20412988     0.88247738
Ce     7.64612119     2.30685527     4.06295889
Ce     7.73643376     0.06597604     7.24193493
Ce    -0.00101584     4.51767400     0.88247738
Ce    -1.91916491     5.61904746     4.05185037
Ce    -1.91621495     3.43715600     7.26319395
Ce     3.82514681     4.51767400     0.88247738
Ce     1.91849342     5.61677105     4.07301815
Ce     1.84421628     3.36889361     7.30146931
Ce     7.65129798     4.51767400     0.88247738
Ce     5.73205846     5.61031957     4.05602462
Ce     5.79354286     3.42810008     7.29323486
Ce    -1.91409717     7.83122805     0.88247738
Ce    -3.83901853     8.92727333     4.03775372
Ce    -3.83191336     6.70897924     7.24464934
Ce     1.91206548     7.83122805     0.88247738
Ce     0.00175047     8.93692569     4.06357476
Ce    -0.00613524     6.72817462     7.24857267
Ce     5.73821666     7.83122805     0.88247738
Ce     3.83059334     8.94091189     4.02105673
Ce     3.82745972     6.81532423     7.21855458
C      3.93295829     4.72174544     9.95047535
C      4.12326550     3.35032449    10.53728814
C      5.23696931     2.94807640    11.16212537
H      3.02368021     5.18456187    10.38489382
H      4.79071528     5.36535233    10.23142743
H      3.29027330     2.64738191    10.40213826
H      5.73425659     1.17169357     9.42242140
H      5.33013427     1.94187465    11.58116983
H      6.08914203     3.61984513    11.29515391
