90
CIF: CH2CHCH2.cif | data_image0
O      0.00261135     0.00382715     0.19995339
O      1.90992153     1.11484853     3.33226975
O      0.26025918     2.12774172     6.63545284
O      0.00261135     2.21285656     1.76196664
O     11.45572870     0.02240749     4.96677004
O      1.74194222     0.49017438     8.83467987
O      3.82876252     0.00382715     0.19995339
O      5.74087008     1.10851782     3.32971302
O      3.19730800     2.61587855     7.11445508
O      3.82876252     2.21285656     1.76196664
O      3.82295507     0.15264262     5.05114402
O      5.82432454     1.06060109     8.21689821
O      7.65492518     0.00382715     0.19995339
O      9.55217064     1.10885711     3.33076417
O      7.67973647     2.20147352     6.52286995
O      7.65492518     2.21285656     1.76196664
O      7.64800036     0.00416027     4.96654895
O      9.58827983     0.97762006     8.20165921
O     -1.91046424     3.31737126     0.19995339
O      0.02019941     4.41863374     3.32951923
O     -1.80798598     5.53814856     6.53205096
O     -1.91046998     5.52641062     1.76196664
O     -1.83337426     3.27547229     4.98681941
O      0.36998523     4.29647056     8.12204450
O      1.91568694     3.31737126     0.19995339
O      3.81987643     4.41747431     3.32571428
O      2.10348047     5.39351387     6.55914486
O      1.91568120     5.52641062     1.76196664
O      1.90107991     3.32333026     4.96489727
O      4.29798249     4.94987585     8.83890943
O      5.74184959     3.31737126     0.19995339
O      7.64808582     4.39904625     3.39557264
O      5.71055500     5.58272861     6.49916895
O      5.74184385     5.52641062     1.76196664
O      5.61848858     3.24895242     5.03835595
O      7.70168256     4.55749259     8.24636011
O     -3.82354556     6.63092532     0.19995339
O     -1.89429304     7.75979386     3.39841350
O     -3.86982789     8.81572206     6.54608596
O     -3.82354556     8.83995473     1.76196664
O     -3.78585686     6.60811776     4.98988163
O     -1.84430719     7.60907244     8.23955436
O      0.00260561     6.63092532     0.19995339
O      1.90206535     7.75430229     3.32133448
O      0.01208039     8.80080387     6.51188012
O      0.00260561     8.83995473     1.76196664
O      0.08764719     6.60864471     4.99366376
O      1.90045385     7.70360896     8.15432268
O      3.82876826     6.63092532     0.19995339
O      5.76734364     7.73257643     3.36386577
O      3.82026807     8.81668635     6.50986040
O      3.82876826     8.83995473     1.76196664
O      3.80615576     6.64882556     4.92570680
O      5.71190850     7.73310699     8.21156523
Ce     1.91568694     1.10834185     0.98097142
Ce    -0.02878728     2.17634190     4.11286523
Ce     5.69548797     9.84673555     7.42131464
Ce     5.74184959     1.10834185     0.98097142
Ce     3.84358907     2.20412485     4.09475958
Ce    -1.93027852     9.91372137     7.55146326
Ce     9.56800076     1.10834185     0.98097142
Ce     7.64344040     2.21542956     4.20847713
Ce     7.62928787     0.02847419     7.35519689
Ce     0.00261135     4.42188597     0.98097142
Ce    -1.88429878     5.51022543     4.19381100
Ce     9.56616962     3.27064479     7.43120783
Ce     3.82877400     4.42188597     0.98097142
Ce     1.94042366     5.57162238     4.09741545
Ce     7.65492518     4.42188597     0.98097142
Ce     5.74219562     5.52151330     4.19185480
Ce     5.76581629     3.36046621     7.51908800
Ce    -1.91046998     7.73544003     0.98097142
Ce    -3.81944037     8.84795931     4.21060880
Ce    -3.78332936     6.60116219     7.37999521
Ce     1.91569268     7.73544003     0.98097142
Ce    -0.00476984     8.86362385     4.18157523
Ce     0.01982927     6.70316993     7.34214085
Ce     5.74184385     7.73544003     0.98097142
Ce     3.83249451     8.84105100     4.14623191
Ce     3.88141842     6.69962977     7.37561043
Ru     1.58036340     3.52985569     6.91027323
C      4.18304210     4.81661746    10.24972256
C      3.08148363     3.86343200    10.61693112
C      3.27476783     2.70827569    11.26224310
H      3.98319189     5.80718393    10.70844203
H      5.14454339     4.46757653    10.68155564
H      2.07605887     4.15969389    10.29481034
H      1.77220841     1.28541988     9.39690966
H      2.44866158     2.04529126    11.52830559
H      4.27465430     2.38929738    11.56940765
