81
CIF: Sc-Cu-CeO2-Ov.cif | data_image0
Ce     1.93038582     1.11050507     0.88387043
Ce     0.00528464     2.23411414     4.03773261
Ce    -5.79029078    10.04561421     7.23271311
Ce     5.81181033     1.12175166     0.90127712
Ce     3.86713693     2.22179433     4.01881030
Ce    -1.96152468    10.00961080     7.24824970
Ce     9.66901012     1.12377363     0.90450652
Ce     7.72273484     2.24799598     4.04404971
Ce     1.97218313    10.03030737     7.24092678
Ce    -0.00709724     4.47602159     0.89067279
Ce    -1.94640054     5.58164897     4.08470063
Ce    -1.88775958     3.35225037     7.24013714
Ce     3.86254305     4.47635356     0.87798423
Ce     1.94441488     5.57899939     4.07029916
Ce     1.79416788     3.24987603     7.27642953
Ce     7.74213807     4.46545905     0.90125422
Ce     5.81867591     5.59976377     4.00723235
Ce    -1.94645625     7.83004003     0.90010904
Ce    -3.87931423     8.92810938     4.07899712
Ce     7.72997061     6.66489168     7.32578412
Ce     1.92815559     7.82745473     0.89060408
Ce     0.00594252     8.94827749     4.07158983
Ce    -0.01764082     6.70407058     7.25081225
Ce     5.81127600     7.83258510     0.88371011
Ce     3.86676770     8.96492019     4.00029459
Ce     3.84682277     6.93287994     7.15902071
Cu     4.61034395     4.02249832     6.40234134
Sc     6.44933902     2.91053585     7.67768275
O     11.61334069     0.00154917     0.10141687
O      1.93958598     1.10661340     3.22748051
O     -0.02852958     2.19832293     6.40446237
O     -0.00785227     2.23805103     1.69392277
O     -5.79645766    10.05231423     4.84217230
O      1.94112191     0.95151661     8.08474133
O     -1.93899312    10.05733740     0.10496691
O      5.79022141     1.09704929     3.23402816
O      3.99084727     2.30184806     6.61488907
O      3.86763657     2.23577757     1.68132582
O      3.85934753     0.05172047     4.90782497
O      6.11508363     1.07188072     8.30052670
O      7.73821774     0.00761509     0.10924988
O      9.68027820     1.12652938     3.23244798
O      7.75215425     2.19927542     6.42164134
O      7.74357843     2.23531483     1.71563532
O      7.73574299     0.00699482     4.83176489
O      9.70640265     1.09194036     8.02780516
O      9.67032270     3.35425987     0.10911246
O      0.00524831     4.48398011     3.25411898
O     -1.92650169     5.57035896     6.41524460
O     -1.94403436     5.59119430     1.70564938
O      9.66948972     3.34150757     4.85567235
O     -0.09451678     4.53198536     8.08025622
O      1.92738314     3.35244915     0.09928684
O      3.83921480     4.49258043     3.22391246
O      2.08595173     5.56981671     6.53886873
O      1.92862022     5.59252216     1.67404250
O      1.94598764     3.32617717     4.84593347
O      5.81155478     3.35101064     0.10766953
O      7.76188019     4.48227491     3.22669944
O      5.60627691     5.53811033     6.59532550
O      5.80528807     5.59217007     1.68114259
O      5.79650450     3.37512956     4.71394956
O      7.86059365     4.19262431     8.24217784
O     -3.87155109     6.71022987     0.10512724
O     -1.93451682     7.82453635     3.29195562
O     -3.84781211     8.92870134     6.41369510
O     -3.87509971     8.94378428     1.69355631
O      7.67261957     6.65925374     4.87169646
O     -1.82251642     7.87344794     8.06808811
O     -0.01209783     6.71325780     0.10434852
O      1.92125185     7.81489754     3.23451878
O     -0.00437841     8.99132903     6.43056663
O     -0.00628994     8.94736548     1.70514550
O      0.05112095     6.69479810     4.92711788
O      1.94988553     7.86970591     8.04119844
O      3.86815347     6.71410280     0.09951587
O      5.81135770     7.83121548     3.21428100
O      3.86281848     8.98861073     6.34869784
O      3.86556896     8.94715423     1.69389986
O      3.88027073     6.75447652     4.82966289
O      5.66834463     7.93578204     8.06877167
