83
CIF: H+OH→H2O.cif | data_VESTA_phase_1
O      0.00261135     0.00382715     0.19995339
O      1.91382743     1.04742560     3.33613767
O      0.37881230     2.19048017     6.61591157
O      0.00261135     2.21285656     1.76196664
O     11.44416161     0.01251527     4.99078276
O      1.90527597     0.87404091     8.82600556
O      3.82876252     0.00382715     0.19995339
O      5.75268526     1.11858071     3.34250169
O      3.44996170     2.19375064     6.61812415
O      3.82876252     2.21285656     1.76196664
O      3.85878445     0.01363856     4.99062309
O      5.67903369     1.13491319     8.10427099
O      7.65492518     0.00382715     0.19995339
O      9.55332555     1.11839184     3.34277541
O      7.64837671     2.22555076     6.55402776
O      7.65492518     2.21285656     1.76196664
O      7.65179156     0.01627283     4.98241145
O      9.62079022     1.13629494     8.10228651
O     -1.91046424     3.31737126     0.19995339
O     -0.06631683     4.45176754     3.32103738
O     -1.90642382     5.52204667     6.55015004
O     -1.91046998     5.52641061     1.76196664
O     -1.84080717     3.27115722     5.05734265
O      0.09955273     4.39380365     8.05771556
O      1.91568694     3.31737126     0.19995339
O      3.89432178     4.45271190     3.32028465
O      1.91113573     5.57651145     6.45893243
O      1.91568120     5.52641061     1.76196664
O      1.91424639     3.35652745     4.64279179
O      3.72108878     4.39644786     8.06177576
O      5.74184959     3.31737126     0.19995339
O      7.65322636     4.40582189     3.39628792
O      5.72724324     5.52120172     6.55049219
O      5.74184385     5.52641061     1.76196664
O      5.66581624     3.27295647     5.05608810
O      7.64955326     4.44502778     8.16143312
O     -3.82354556     6.63092532     0.19995339
O     -1.92653409     7.73970456     3.34672156
O     -3.82840669     8.94332747     6.57517273
O     -3.82354556     8.83995473     1.76196664
O     -3.82741954     6.66075719     5.01991127
O     -1.91489492     7.74837280     8.14414306
O      0.00260561     6.63092532     0.19995339
O      1.91399960     7.75807487     3.33415319
O      0.02323241     8.84096867     6.52923317
O      0.00260561     8.83995473     1.76196664
O     -0.02000123     6.64699934     4.96131211
O      1.91094633     7.75159357     8.16293858
O      3.82876826     6.63092532     0.19995339
O      5.75335101     7.73982385     3.34669875
O      3.79875208     8.84148559     6.52900507
O      3.82876826     8.83995473     1.76196664
O      3.84604335     6.64786417     4.96042251
O      5.73538147     7.74866108     8.14386934
Ce     1.91568694     1.10834185     0.98097142
Ce     0.04221779     2.22688280     4.15283071
Ce     5.68909456     9.90660553     7.32603579
Ce     5.74184959     1.10834185     0.98097142
Ce     3.78473687     2.22684304     4.15182706
Ce    -1.86724208     9.90641666     7.32754126
Ce     9.56800076     1.10834185     0.98097142
Ce     7.65246305     2.20541102     4.18020284
Ce     7.64946717     0.01457298     7.31777854
Ce     0.00261135     4.42188597     0.98097142
Ce    -1.90613112     5.53074473     4.16448667
Ce    -1.84897984     3.34302806     7.35619075
Ce     3.82877400     4.42188597     0.98097142
Ce     1.91334533     5.52904488     4.12714653
Ce     7.65492518     4.42188597     0.98097142
Ce     5.73243151     5.53148034     4.16391642
Ce     5.66700426     3.34215328     7.35614513
Ce    -1.91046998     7.73544002     0.98097142
Ce    -3.82604213     8.84515368     4.16124764
Ce     7.64992057     6.62403645     7.36652373
Ce     1.91569268     7.73544002     0.98097142
Ce    -0.00102732     8.84783766     4.13873406
Ce     0.04220058     6.60129226     7.32165625
Ce     5.74184385     7.73544002     0.98097142
Ce     3.82685710     8.84783766     4.13839191
Ce     3.77990444     6.60221674     7.32316172
Rh     1.91081433     3.38795976     7.32188436
H      1.90856455     2.26820605     8.55242114
H      1.89865863     0.81452629     9.79986022
