84
CIF: Rh-Ti-CeO2-Ov-CO2.cif | data_image0
Ce     1.93038582     1.11050507     0.88387043
Ce    -0.00332691     2.24616141     4.07675400
Ce    -5.75005928    10.03624557     7.20181328
Ce     5.81181033     1.12175166     0.90127712
Ce     3.80486822     2.21883844     3.99219357
Ce    -1.90792958     9.99563556     7.31256852
Ce     9.66901012     1.12377363     0.90450652
Ce     7.76887981     2.22837074     4.00715580
Ce     1.88915075    10.03072329     7.29443098
Ce    -0.00709724     4.47602159     0.89067279
Ce    -1.95077709     5.58276924     4.09654185
Ce    -1.86761374     3.40831686     7.31881965
Ce     3.86254305     4.47635356     0.87798423
Ce     1.94231189     5.58314984     4.10582800
Ce     1.87577952     3.29083973     7.32588168
Ce     7.74213807     4.46545905     0.90125422
Ce     5.80046881     5.65160349     3.98436928
Ce    -1.94645625     7.83004003     0.90010904
Ce    -3.86908097     8.92637511     4.09246235
Ce     7.76275570     6.64915889     7.37751305
Ce     1.92815559     7.82745473     0.89060408
Ce    -0.00604632     8.95665769     4.07595237
Ce    -0.00813292     6.70483958     7.26053487
Ce     5.81127600     7.83258510     0.88371011
Ce     3.85915831     8.97272272     4.04113083
Ce     3.83751845     6.90699916     7.20451915
Ti     5.63311448     3.43447803     6.52815307
Rh     6.84268320     2.70850621     8.57500898
O     11.61334069     0.00154917     0.10141687
O      1.92234288     1.09226853     3.22449501
O     -0.03338052     2.17781451     6.50284130
O     -0.00785227     2.23805103     1.69392277
O     -5.79780954    10.05539884     4.88070628
O      2.00240477     0.97050441     8.05070242
O     -1.93899312    10.05733740     0.10496691
O      5.79382095     1.10817962     3.23684912
O      4.09483354     2.44834464     6.50223930
O      3.86763657     2.23577757     1.68132582
O      3.85399858     0.07376757     4.92913337
O      5.86048942     0.86978907     8.36641645
O      7.73821774     0.00761509     0.10924988
O      9.68240707     1.12296168     3.23771562
O      7.31800791     2.45937522     6.64275372
O      7.74357843     2.23531483     1.71563532
O      7.74254492     0.12608408     4.92709256
O      9.44587486     1.23286801     8.03028029
O      9.67032270     3.35425987     0.10911246
O     -0.09410888     4.42433400     3.27994409
O     -1.93132973     5.56523295     6.42806424
O     -1.94403436     5.59119430     1.70564938
O      9.59171965     3.27418326     4.94733000
O     -0.05787277     4.55107897     8.09111412
O      1.92738314     3.35244915     0.09928684
O      3.92037339     4.45450105     3.22585698
O      2.11708413     5.59653839     6.62791843
O      1.92862022     5.59252216     1.67404250
O      1.93056514     3.23480196     4.89535993
O      4.19531708     4.10525957     8.96507151
O      5.81155478     3.35101064     0.10766953
O      7.75837931     4.47331887     3.23345987
O      5.59284082     5.27157739     6.56766974
O      5.80528807     5.59217007     1.68114259
O      5.82738837     3.35921774     4.68928859
O      8.02821765     4.36650751     8.43699928
O     -3.87155109     6.71022987     0.10512724
O     -1.95278054     7.83431117     3.29281946
O     -3.86402505     8.92912289     6.43199775
O     -3.87509971     8.94378428     1.69355631
O      7.64670136     6.65733709     4.89508226
O     -1.82786011     7.86154553     8.08398566
O     -0.01209783     6.71325780     0.10434852
O      1.93292531     7.93121712     3.27318882
O     -0.00082994     8.97542233     6.42083690
O     -0.00628994     8.94736548     1.70514550
O     -0.03467117     6.73511056     4.94785305
O      1.94227197     7.88834311     8.06393368
O      3.86815347     6.71410280     0.09951587
O      5.81275382     7.85419173     3.21235905
O      3.85122267     9.02531679     6.42722339
O      3.86556896     8.94715423     1.69389986
O      3.98564122     6.80506688     4.91067481
O      5.68547337     7.87020795     8.02231827
O      5.84910031     3.30702129    10.42080976
C      5.23873722     3.57394316     9.36781133
