83
CIF: Co-Mo-CeO2-O.cif | data_image0
Ce     1.93596140     1.11772783     0.89035214
Ce    -0.02365913     2.23383747     4.04809087
Ce     5.79187582    10.05233012     7.18320181
Ce     5.80789581     1.11772783     0.89035214
Ce     3.86100763     2.20586854     3.97144532
Ce    -2.07583579     9.92276905     7.13342283
Ce     9.67981860     1.11772783     0.89035214
Ce     7.73734296     2.24954216     4.06111867
Ce     2.06783369    10.00854581     7.24821184
Ce     0.00000000     4.47091133     0.89035214
Ce    -1.94581882     5.58987749     4.07881384
Ce    -1.90311257     3.39064018     7.34124023
Ce     3.87193441     4.47091133     0.89035214
Ce     1.96083905     5.59132163     4.05858622
Ce     1.83833830     3.37299830     7.18830887
Ce     7.74385721     4.47091133     0.89035214
Ce     5.81441094     5.59608578     4.00004335
Ce    -1.93596721     7.82410489     0.89035214
Ce    -3.89372332     8.91764971     4.00117743
Ce    -3.79269175     6.74171035     7.30509882
Ce     1.93596721     7.82410489     0.89035214
Ce     0.00670512     8.95739474     4.06786176
Ce     0.04124643     6.72231885     7.23131615
Ce     5.80789000     7.82410489     0.89035214
Ce     3.87331469     8.94177266     4.04603972
Ce     3.88104596     6.68470264     7.28785774
Mo     5.61983047     3.37336861     6.91458886
O      0.00000000     0.00000000     0.09999685
O      1.91807816     1.11940805     3.20437366
O      0.03552355     2.25438739     6.35913473
O      0.00000000     2.23545567     1.68070743
O      0.00459555     0.00146538     4.82746121
O      2.00026313     1.13441880     7.89100399
O      3.87192279     0.00000000     0.09999685
O      5.80312059     1.11854444     3.23443689
O      4.38976574     2.01567809     6.45627001
O      3.87192279     2.23545567     1.68070743
O     -1.99513677    10.05240753     4.80154114
O      6.09759256     2.91340089     8.61256000
O      7.74385721     0.00000000     0.09999685
O      9.67954115     1.12026178     3.23111885
O      7.35679676     2.43118481     6.48228915
O      7.74385721     2.23545567     1.68070743
O      7.75515662     0.04513552     4.84328269
O      9.82735116     1.05138921     8.03426449
O     -1.93596140     3.35318350     0.09999685
O      0.01616632     4.46941128     3.28897065
O     -1.91473314     5.66272092     6.38353968
O     -1.93596721     5.58864923     1.68070743
O      9.61353942     3.32452441     4.85967180
O      0.13704937     4.51244028     8.06374090
O      1.93596140     3.35318350     0.09999685
O      3.85127808     4.46358801     3.19122232
O      1.87271653     5.55560939     6.33973890
O      1.93595559     5.58864923     1.68070743
O      2.04588165     3.27769434     4.89682272
O      5.80789581     3.35318350     0.09999685
O      7.73362976     4.46908072     3.23259231
O      6.08954996     5.17057420     6.56357794
O      5.80789000     5.58864923     1.68070743
O      5.70083690     3.39691322     4.79310916
O      8.21342075     4.91997705     8.61806760
O     -3.87192860     6.70637706     0.09999685
O     -1.94431978     7.81093564     3.24077462
O     -3.86135455     8.92332614     6.34822749
O     -3.87192860     8.94183273     1.68070743
O      7.67985906     6.69046168     4.86056977
O     -1.95489088     7.88141777     8.05867452
O     -0.00000581     6.70637706     0.09999685
O      1.95673288     7.82159175     3.25890663
O     -0.08030856     9.08278709     6.48020694
O     -0.00000581     8.94183273     1.68070743
O      0.01022647     6.78309989     4.86432116
O      3.87192860     6.70637706     0.09999685
O      5.80039857     7.82659580     3.20629516
O      3.91189082     8.92560520     6.36249554
O      3.87192860     8.94183273     1.68070743
O      3.96487486     6.63767770     4.86434261
O      5.94122170     7.82031312     7.95840521
O      1.84084338     7.74392760     8.04320081
O      3.95824300     4.23497642     7.59380342
O      6.24067538     4.76854755    11.09195569
Co     6.94150833     4.20562271     9.70606347
