81
CIF: Rh-Y-CeO2-Ov.cif | data_image0
Ce     1.93596140     1.11772783     0.89035214
Ce    -0.00555767     2.23088353     4.02690758
Ce    -5.70419152     9.99999219     7.20917590
Ce     5.80789581     1.11772783     0.89035214
Ce     3.86379016     2.24942604     4.06336944
Ce     3.85690281     0.01267246     7.22041050
Ce     9.67981860     1.11772783     0.89035214
Ce     7.75653926     2.22816379     3.98818069
Ce     1.90725292    10.05775271     7.20432850
Ce     0.00000000     4.47091133     0.89035214
Ce    -1.94524885     5.58328766     4.04681162
Ce     9.66438259     3.37715812     7.20670598
Ce     3.87193441     4.47091133     0.89035214
Ce     1.93487747     5.58867909     4.08902568
Ce     1.77354516     3.26843523     7.20716776
Ce     7.74385721     4.47091133     0.89035214
Ce     5.79290524     5.58903419     4.06230020
Ce    -1.93596721     7.82410489     0.89035214
Ce    -3.87576528     8.94514870     4.02183960
Ce     7.72709098     6.71790737     7.21951394
Ce     1.93596721     7.82410489     0.89035214
Ce    -0.00013593     8.95250310     4.04621338
Ce    -0.01927747     6.71729908     7.24538057
Ce     5.80789000     7.82410489     0.89035214
Ce     3.87378274     8.94885729     4.02576108
Ce     3.86575063     6.88886267     7.20420318
Y      5.98908079     3.24841697     6.96522351
O      0.00000000     0.00000000     0.09999685
O      1.93593985     1.11208721     3.21831679
O     -0.10547315     2.12466522     6.46694494
O      0.00000000     2.23545567     1.68070743
O     -5.77643218    10.04068395     4.83704269
O      1.94971405     0.95405561     8.06649941
O      3.87192279     0.00000000     0.09999685
O      5.79593289     1.09682028     3.22975213
O      3.95104614     2.32524686     6.54910163
O      3.87192279     2.23545567     1.68070743
O      3.84594089     0.06244259     4.87775720
O      6.01601986     1.22218167     8.22252578
O      7.74385721     0.00000000     0.09999685
O      9.69261879     1.11041305     3.22605135
O      7.77773946     2.21419569     6.22643103
O      7.74385721     2.23545567     1.68070743
O      1.93623691    10.00310430     4.81458762
O      9.40334707     1.27687113     8.31870487
O     -1.93596140     3.35318350     0.09999685
O      0.00830592     4.49685760     3.23685133
O     -2.05319977     5.59654782     6.41878070
O     -1.93596721     5.58864923     1.68070743
O     -1.88866448     3.38198835     4.81566209
O     -0.13525868     4.55614107     8.03290235
O      1.93596140     3.35318350     0.09999685
O      3.84507952     4.48683311     3.26401987
O      2.00844831     5.54890407     6.49020245
O      1.93595559     5.58864923     1.68070743
O      1.89032432     3.30608073     4.83634417
O      5.80789581     3.35318350     0.09999685
O      7.75623410     4.49257272     3.22927756
O      5.76984222     5.47616694     6.55357863
O      5.80789000     5.58864923     1.68070743
O      5.81159219     3.35278730     4.74261305
O      7.75647549     4.22790449     8.22567559
O     -3.87192860     6.70637706     0.09999685
O     -1.93716851     7.82493299     3.26108335
O     -3.83507668     8.92231993     6.37456603
O     -3.87192860     8.94183273     1.68070743
O      7.67695132     6.69902750     4.87840870
O     -1.95380612     7.83557625     8.01447103
O     -0.00000581     6.70637706     0.09999685
O      1.91783304     7.80313671     3.23676567
O     -0.06486373     9.03753604     6.41555846
O     -0.00000581     8.94183273     1.68070743
O      0.00099662     6.70447887     4.92351469
O      3.87192860     6.70637706     0.09999685
O      5.81337436     7.82715902     3.21767789
O      3.91561247     9.08280195     6.46962959
O      3.87192860     8.94183273     1.68070743
O      3.89176403     6.76967687     4.83395079
O      5.95959367     7.89757973     8.06638023
O      1.79274128     7.89999334     8.03219427
Rh     7.69679712     2.25373983     9.13887155
