82
CIF: Cr-CeO2-Ov+CO.cif | data_image0
O      0.55978923     0.45000431     0.59999690
O      2.47460858     1.55100773     3.71894079
O      0.93064549     2.87638018     7.08116477
O      0.55978923     2.65902057     2.16203261
O      0.56119175     0.54049275     5.42317497
O      2.49788489     1.02924523     8.85158043
O      4.38603242     0.45000431     0.59999690
O      6.31346162     1.53422441     3.72706591
O      4.02686957     2.98466558     7.27618306
O      4.38603242     2.65902057     2.16203261
O      4.38096240     0.58843064     5.44866764
O      6.27519698     1.43160098     8.57507340
O      8.21216082     0.45000431     0.59999690
O     10.11437694     1.54982485     3.73956292
O      8.26901320     2.63694322     6.94644006
O      8.21216082     2.65902057     2.16203261
O      8.19038694     0.44085861     5.39105204
O     10.23929723     1.62641155     8.56265986
O     -1.35327498     3.76352871     0.59999690
O      0.55936780     4.87162503     3.72373058
O     -1.39579685     6.00707861     6.86030254
O     -1.35333237     5.97264438     2.16203261
O     -1.27265757     3.71936222     5.42492237
O      0.14767060     5.15249360     8.84203053
O      2.47296821     3.76352871     0.59999690
O      4.39965470     4.87836897     3.72697714
O      2.53419712     5.55217515     7.17689638
O      2.47291082     5.97264438     2.16203261
O      2.50528937     3.77236157     5.26259118
O      6.29909662     3.76352871     0.59999690
O      8.21752840     4.84068609     3.78227831
O      6.24665561     5.94244158     6.99332873
O      6.29903923     5.97264438     2.16203261
O      6.25635313     3.69107300     5.38933565
O      8.30101689     4.91544275     8.64671160
O     -3.26639657     7.07715251     0.59999690
O     -1.34163970     8.19307194     3.80336274
O     -3.25406360     9.23155097     6.85705950
O     -3.26639657     9.28616878     2.16203261
O     -3.31503347     7.04862134     5.35660139
O     -1.39802607     8.15757543     8.62168024
O      0.55984662     7.07715251     0.59999690
O      2.46118869     8.20494000     3.72999615
O      0.48907576     9.25044344     6.91085826
O      0.55984662     9.28616878     2.16203261
O      0.65919297     7.01842706     5.43340039
O      2.35011301     8.22865019     8.57354726
O      4.38597502     7.07715251     0.59999690
O      6.28035901     8.20224667     3.77879825
O      4.38986123     9.35303459     6.94787463
O      4.38597502     9.28616878     2.16203261
O      4.31178636     7.08618546     5.37870068
O      6.38265460     8.23350259     8.63570254
O      3.77750436     5.36030825    10.17870398
Ce     2.47285343     1.55451244     1.38101475
Ce     0.53542719     2.64472942     4.51802871
Ce     0.64223558     0.44674379     7.87597299
Ce     6.29909662     1.55451244     1.38101475
Ce     4.43162419     2.64050397     4.48358635
Ce     4.32254806     0.37900502     7.87183072
Ce    10.12522502     1.55451244     1.38101475
Ce     8.22475566     2.65626493     4.58929584
Ce     8.18375811     0.43670953     7.75763532
Ce     0.55978923     4.86803684     1.38101475
Ce    -1.34918212     5.95806126     4.58001766
Ce    -1.31043396     3.83917696     7.87999133
Ce     4.38603242     4.86803684     1.38101475
Ce     2.47725740     6.02222999     4.49466159
Ce     8.21216082     4.86803684     1.38101475
Ce     6.28273703     5.96432058     4.61237638
Ce     6.42314979     3.69476887     7.81101612
Ce    -1.35333237     8.18166064     1.38101475
Ce    -3.27768610     9.29925457     4.58049392
Ce    -3.29848517     7.05996966     7.76959477
Ce     2.47291082     8.18166064     1.38101475
Ce     0.54832081     9.28255216     4.60318004
Ce     0.46699320     7.06653211     7.85740931
Ce     6.29903923     8.18166064     1.38101475
Ce     4.38926818     9.30084216     4.58640554
Ce     4.38490151     7.22002083     7.79697025
Cr     2.47201478     3.78520547     7.09331548
C      2.99686668     5.13456288    10.99090106
