87
CIF: 4-NHNO+2H-N2+OH+2H_ts.cif | data_image0
Ce     5.80543746    10.03334335     8.77093960
Ce     1.93349963     1.11093050     5.59980751
Ce     0.00000000     2.23543938     2.47426506
Ce     3.83909064     0.02294887     8.76039798
Ce     5.81309707     1.11808372     5.60887098
Ce     3.87189458     2.23543938     2.47426506
Ce     7.79153755     0.05397904     8.74977472
Ce     9.69225757     1.11749503     5.59524972
Ce     7.74390532     2.23543938     2.47426506
Ce    -1.87683784     3.30027425     8.75381371
Ce     0.01151883     4.45534701     5.68645590
Ce    -1.93600537     5.58869904     2.47426506
Ce     1.91894409     3.26416153     8.77924301
Ce     3.86577226     4.47764815     5.64195697
Ce     1.93588921     5.58869904     2.47426506
Ce     5.82204295     3.33439213     8.74189218
Ce     7.76065373     4.47700520     5.61904315
Ce     5.80789995     5.58869904     2.47426506
Ce     7.70158499     6.68512926     8.77938450
Ce    -1.95295534     7.82493602     5.59065561
Ce    -3.87195266     8.94185811     2.47426506
Ce     1.96863003     7.81826283     5.60397491
Ce    -0.00005808     8.94185811     2.47426506
Ce     3.90563194     6.67783735     8.87714361
Ce     5.79884916     7.81609459     5.63222070
Ce     3.87195266     8.94185811     2.47426506
Cu    -0.00302368     7.66104916     8.11994323
O      5.80886043    10.03773300     6.41469138
O      0.01356321     2.13711014     9.62762681
O      1.93594729     1.11771969     3.26466483
O      0.00615965     2.22845347     4.81237061
O      0.00000000     0.00000000     1.68386529
O      1.91987700     1.09984359     7.94891938
O     -1.94586212    10.03127423     6.43381133
O      3.87540450     2.15090421     9.55825413
O      5.80795803     1.11771969     3.26466483
O      3.88393547     2.22468362     4.81898467
O      3.87189458     0.00000000     1.68386529
O      5.81305234     1.12832938     7.93627302
O      1.95873738    10.04299144     6.42564953
O      7.76499214     2.21518389     9.53055771
O      9.67985261     1.11771969     3.26466483
O      7.74176628     2.23104003     4.81221014
O      7.74390532     0.00000000     1.68386529
O      9.71640862     1.15032828     7.91959533
O     -1.92129940     3.35260178     6.38533813
O     -2.26626147     5.37682826     9.97112095
O      0.00000000     4.47087876     3.26466483
O     -1.91563882     5.60837396     4.82588816
O      9.67985261     3.35315907     1.68386529
O      0.02026498     4.31365627     8.01995071
O      1.93710955     3.32946856     6.39550085
O      2.41936223     5.15237814    10.17411467
O      3.87201074     4.47087876     3.26466483
O      1.91731073     5.59810837     4.83327899
O      1.93594729     3.35315907     1.68386529
O      3.81931898     4.40895156     7.95627144
O      5.82497087     3.36989629     6.42535267
O      5.91887221     5.45765212     9.50825540
O      7.74390532     4.47087876     3.26466483
O      5.81461507     5.59312661     4.82409705
O      5.80795803     3.35315907     1.68386529
O      7.83305373     4.47367113     7.93820979
O     -3.85815840     6.73247643     6.44283015
O     -3.82802350     8.91939140     9.51640703
O     -1.93600537     7.82413842     3.26466483
O     -3.87080028     8.93721482     4.80238381
O      7.74384724     6.70641873     1.68386529
O     -1.84670725     7.75371557     8.02182170
O      0.00242422     6.74261221     6.48270681
O     -0.00582878     8.93267625     9.47360753
O      1.93600537     7.82413842     3.26466483
O      0.00198474     8.93928733     4.81368485
O     -0.00005808     6.70641873     1.68386529
O      1.82598254     7.78100520     8.02290888
O      3.86244874     6.72745098     6.42547094
O      3.82377782     9.07019794     9.50541958
O      5.80789995     7.82413842     3.26466483
O      3.87514543     8.94076068     4.80137127
O      3.87195266     6.70641873     1.68386529
O      5.84222678     7.82002688     7.99456286
O      5.50445703     7.50826055    11.35846160
H     -1.49686051     5.85920162    10.32669787
H      4.06800295     6.32482558    13.00569024
H      1.96525677     5.39243538    10.99629087
N      3.77916957     7.32221470    12.85161731
N      4.52868826     7.87749103    12.04085016
