87
CIF: 3-NH2NO+H-NHNO+2H_is.cif | data_image0
Ce    -5.79915206    10.05438237     8.77437122
Ce     1.93101328     1.12022610     5.61667833
Ce     0.00000000     2.23543938     2.47426506
Ce     3.86731993     0.01064872     8.78020384
Ce     5.81093806     1.11538400     5.62538253
Ce     3.87189458     2.23543938     2.47426506
Ce     1.94904441    10.05912123     8.77814549
Ce     9.68267929     1.10853196     5.59862434
Ce     7.74390532     2.23543938     2.47426506
Ce     9.67046645     3.24612202     8.74144874
Ce     0.00265781     4.47379837     5.62741601
Ce    -1.93600537     5.58869904     2.47426506
Ce     1.92376238     3.32314881     8.79080226
Ce     3.86214906     4.47402513     5.62268087
Ce     1.93588921     5.58869904     2.47426506
Ce     5.79267786     3.35434043     8.77489662
Ce     7.74858968     4.48253690     5.63899483
Ce     5.80789995     5.58869904     2.47426506
Ce     7.69029517     6.73940088     8.84603940
Ce    -1.93991839     7.81690733     5.63807025
Ce    -3.87195266     8.94185811     2.47426506
Ce     0.08790764     6.78522570     8.74573132
Ce     1.94542064     7.83017201     5.59658106
Ce    -0.00005808     8.94185811     2.47426506
Ce     3.88791530     6.71572750     8.76504630
Ce     5.82091844     7.81839890     5.62027075
Ce     3.87195266     8.94185811     2.47426506
O      0.01109374     0.00366069     6.42026369
O     -0.05122068     2.21663543     9.52600805
O      1.93594729     1.11771969     3.26466483
O     -0.00089856     2.23302402     4.80273256
O      0.00000000     0.00000000     1.68386529
O      1.93470395     1.16168281     7.96051344
O     -1.94470059    10.04298239     6.45009438
O      3.90570769     2.22599289     9.52379378
O      5.80795803     1.11771969     3.26466483
O      3.87419871     2.23366902     4.82865184
O      3.87189458     0.00000000     1.68386529
O      5.82183287     1.10786124     7.96712803
O      1.93569681    10.05853037     6.41164572
O      7.76974858     2.19822520     9.58304133
O      9.67985261     1.11771969     3.26466483
O      7.73939978     2.24218229     4.82096768
O      7.74390532     0.00000000     1.68386529
O      9.67144622     1.08917544     7.94763235
O     -1.91194975     3.32912764     6.42179886
O     -1.84266951     5.53651358     9.98308891
O      0.00000000     4.47087876     3.26466483
O     -1.92838770     5.58502355     4.82793299
O     -1.93594729     3.35315907     1.68386529
O     -0.03694751     4.52853701     8.02826250
O      1.89867100     3.36266549     6.42087494
O      1.93994425     5.70392293     9.66849740
O      3.87201074     4.47087876     3.26466483
O      1.93822821     5.58865224     4.80618970
O      1.93594729     3.35315907     1.68386529
O      3.79549328     4.46868762     7.96701451
O      5.80886471     3.37502774     6.45559604
O      5.67592175     5.50471744     9.59566531
O      7.74390532     4.47087876     3.26466483
O      5.80670984     5.57899130     4.81375338
O      5.80795803     3.35315907     1.68386529
O      7.82414367     4.43631245     8.01140699
O      7.73859865     6.71244587     6.40050997
O     -3.85995601     9.08931301     9.58110671
O     -1.93600537     7.82413842     3.26466483
O     -3.86412039     8.94780409     4.81203511
O     -3.87195266     6.70641873     1.68386529
O     -1.86069093     7.77480989     8.01714820
O      0.03254843     6.71426748     6.41343567
O      0.05414515     8.93924978     9.59046247
O      1.93600537     7.82413842     3.26466483
O     -0.00599139     8.94669225     4.81424437
O     -0.00005808     6.70641873     1.68386529
O      1.96080612     7.83495536     7.94741964
O      3.87793248     6.70076304     6.41330771
O      3.86382960     8.94972792     9.58940112
O      5.80789995     7.82413842     3.26466483
O      3.87700824     8.94177794     4.80638147
O      3.87195266     6.70641873     1.68386529
O      5.76332785     7.85165291     7.97696070
O      2.05417197     2.38686488    12.35350836
H     -1.78632971     5.49300953    10.95419425
H      2.24611095     4.66778692    13.05918661
H      2.07598878     5.28123632    11.28824918
N      2.11587756     4.54916138    12.04982914
N      2.01690229     3.33457170    11.56316554
