86
CIF: 3-NH2NO+H-NHNO+2H_ts.cif | data_image0
Ce     5.74873995     9.92436078     8.72382124
Ce     1.93278822     1.04626204     5.50350769
Ce     0.00000000     2.23543938     2.47426506
Ce    -1.98262898     9.93183102     8.68963231
Ce     5.83292686     1.08236047     5.57788475
Ce     3.87189458     2.23543938     2.47426506
Ce     1.99990523    10.00631988     8.71230166
Ce     9.66422646     1.07220779     5.59217196
Ce     7.74390532     2.23543938     2.47426506
Ce     9.68993729     3.26885975     8.73339322
Ce     0.04141654     4.55044103     5.60768813
Ce    -1.93600537     5.58869904     2.47426506
Ce     1.93915773     3.21634938     8.63893602
Ce     3.88650957     4.49502216     5.58548911
Ce     1.93588921     5.58869904     2.47426506
Ce     5.85063217     3.39300488     8.66379236
Ce     7.76927930     4.49117809     5.60565429
Ce     5.80789995     5.58869904     2.47426506
Ce    -3.82217791     6.71471547     8.66827185
Ce    -1.86708959     7.75911054     5.61212997
Ce    -3.87195266     8.94185811     2.47426506
Ce     1.88926642     7.80003237     5.66011972
Ce    -0.00005808     8.94185811     2.47426506
Ce     3.86501116     6.79769552     8.74474521
Ce     5.77253267     7.78994759     5.58105839
Ce     3.87195266     8.94185811     2.47426506
Cu     0.49498332     6.82751590     8.16696373
O      5.70858795     9.96826103     6.22660570
O     -0.01334068     1.93121492     9.36503271
O      1.93594729     1.11771969     3.26466483
O     -0.10450422     2.23014280     4.71787326
O      0.00000000     0.00000000     1.68386529
O      1.88831366     0.83110718     7.64541518
O     -1.86925883     9.98044738     6.30288531
O      3.46069634     2.04987755     9.54923183
O      5.80795803     1.11771969     3.26466483
O      3.98238609     2.20899122     4.73611565
O      3.87189458     0.00000000     1.68386529
O      5.64014083     1.23008152     8.04607817
O      7.60619924     0.11643856     6.36261550
O      7.82943536     2.21473461     9.37883617
O      9.67985261     1.11771969     3.26466483
O      7.86222718     2.30365150     4.79426924
O      7.74390532     0.00000000     1.68386529
O      9.64473085     0.98293528     7.85803008
O     -1.69218012     3.41775011     6.60343396
O     -2.13113979     5.21431249     9.74859892
O      0.00000000     4.47087876     3.26466483
O     -1.97264170     5.46499375     4.72752244
O      9.67985261     3.35315907     1.68386529
O      0.68441994     4.58912699     8.08353421
O      2.00482765     3.14290380     6.08230221
O      3.87201074     4.47087876     3.26466483
O      1.99474543     5.56613518     4.82521389
O      1.93594729     3.35315907     1.68386529
O      3.90468073     4.36613764     7.96135454
O      5.89970816     3.35525827     6.40591523
O      5.78442791     5.49793582     9.37524717
O      7.74390532     4.47087876     3.26466483
O      5.81575778     5.58299708     4.78481844
O      5.80795803     3.35315907     1.68386529
O      7.84601262     4.44109258     7.91447168
O     -3.86722524     6.69903260     6.34348058
O     -3.84771073     8.86463281     9.45410293
O     -1.93600537     7.82413842     3.26466483
O     -3.90775769     8.87685520     4.71868497
O      7.74384724     6.70641873     1.68386529
O     -1.99274788     7.74687646     7.91684172
O     -0.05709599     6.67560127     6.11521373
O     -0.06499606     8.94184068     9.79434174
O      1.93600537     7.82413842     3.26466483
O      0.01902189     8.98104721     4.72193342
O     -0.00005808     6.70641873     1.68386529
O      2.24628152     8.06804971     7.82242859
O      3.90628125     6.57592336     6.51367071
O      3.98030650     8.84838336     9.69860357
O      5.80789995     7.82413842     3.26466483
O      3.80039379     8.86155669     4.80188788
O      3.87195266     6.70641873     1.68386529
O      5.77197655     7.74856503     7.93316994
O      0.63754673     5.69001228     9.72484794
N      1.03031161     7.31243580    12.15732793
N     -0.19922858     7.26090820    11.25999706
H     -1.58383946     5.66168624    10.43212149
H      1.39671213     6.27927101    12.59736403
H      0.05998879     9.07379181    10.68548280
