84
CIF: CO+Olatt—CO2.cif | data_image0
Ce     1.93038582     1.11050507     0.88387043
Ce    -0.00684072     2.23314333     4.04023197
Ce    -5.78755632    10.04751898     7.21947472
Ce     5.81181033     1.12175166     0.90127712
Ce     3.85232846     2.22388688     4.01131520
Ce    -1.92124644    10.05674279     7.20729026
Ce     9.66901012     1.12377363     0.90450652
Ce     7.72514153     2.24600476     4.07709646
Ce     1.96628695    10.03909895     7.22640660
Ce    -0.00709724     4.47602159     0.89067279
Ce    -1.93670600     5.58507433     4.05660504
Ce    -1.90338215     3.33669712     7.22641937
Ce     3.86254305     4.47635356     0.87798423
Ce     1.94465967     5.58337602     4.05741707
Ce     1.88176377     3.31269825     7.21259885
Ce     7.74213807     4.46545905     0.90125422
Ce     5.80792782     5.61112258     4.01127962
Ce    -1.94645625     7.83004003     0.90010904
Ce    -3.86732588     8.93899859     4.05639900
Ce    -3.86240601     6.69455956     7.20732920
Ce     1.92815559     7.82745473     0.89060408
Ce     0.00253573     8.94390632     4.05649142
Ce     0.00936979     6.70067868     7.21408827
Ce     5.81127600     7.83258510     0.88371011
Ce     3.87034491     8.94856580     4.04028053
Ce     3.87963389     6.77306563     7.21263459
Rh     4.85035037     3.90573226     6.41323387
Ni     6.58709955     2.90293681     7.89104438
O     11.61334069     0.00154917     0.10141687
O      1.92855291     1.11137363     3.23052076
O      0.00793622     2.22437590     6.40452899
O     -0.00785227     2.23805103     1.69392277
O     -5.80029090    10.05487799     4.86045984
O      1.93010420     1.09971960     8.01160134
O     -1.93899312    10.05733740     0.10496691
O      5.80670472     1.09683124     3.23927836
O      3.80367983     2.19426542     6.39157497
O      3.86763657     2.23577757     1.68132582
O     -1.93377345    10.04649151     4.86322909
O      5.90357746     1.10684336     8.03960665
O      7.73821774     0.00761509     0.10924988
O      9.67519129     1.12016625     3.24660253
O      7.73364932     2.24102644     6.52652836
O      7.74357843     2.23531483     1.71563532
O      7.75195952     0.02433771     4.88334871
O      9.72715914     1.09007789     8.01212082
O      9.67032270     3.35425987     0.10911246
O     -0.01170281     4.47383161     3.24170563
O     -1.93325167     5.58089820     6.43132693
O     -1.94403436     5.59119430     1.70564938
O      9.66246594     3.33361412     4.88334017
O      0.01244143     4.45652787     8.01280158
O      1.92738314     3.35244915     0.09928684
O      3.83964411     4.48946166     3.21049767
O      1.96816793     5.56977083     6.44848496
O      1.92862022     5.59252216     1.67404250
O      1.90575169     3.35693111     4.84908318
O      3.93935896     4.43163875     8.12841847
O      5.81155478     3.35101064     0.10766953
O      7.76104645     4.48204760     3.23916445
O      5.80920621     5.66791772     6.39156317
O      5.80528807     5.59217007     1.68114259
O      5.80597908     3.35409515     4.71661339
O      7.80077711     4.39297279     8.03963634
O     -3.87155109     6.71022987     0.10512724
O     -1.93042823     7.82079693     3.24994014
O     -3.85330252     8.93079250     6.41525112
O     -3.87509971     8.94378428     1.69355631
O     -3.85973431     6.71066013     4.86319730
O     -1.92621443     7.81816172     7.99651610
O     -0.01209783     6.71325780     0.10434852
O      1.92742299     7.83243574     3.24155417
O      0.00780729     8.94290955     6.43130072
O     -0.00628994     8.94736548     1.70514550
O      0.01089104     6.69986872     4.88519316
O      1.95435283     7.82000191     8.01283015
O      3.86815347     6.71410280     0.09951587
O      5.80958274     7.83346383     3.23031731
O      3.88524638     8.94002609     6.40459985
O      3.86556896     8.94715423     1.69389986
O      3.85340327     6.73036776     4.84907923
O      5.82031066     7.83769134     8.01163063
O      5.21603564     3.69239739    10.31811302
C      5.44738185     3.56019518     9.18577480
