84
CIF: Re-W-CeO2-CO.cif | data_image0
Ce     1.93596140     1.11772783     0.89035214
Ce     0.01441735     2.21719663     4.00523022
Ce    -5.77362515    10.04347449     7.25004978
Ce     5.80789581     1.11772783     0.89035214
Ce     3.84674702     2.19372332     4.02325433
Ce    -1.95589696     9.95352709     7.32213459
Ce     9.67981860     1.11772783     0.89035214
Ce     7.77367389     2.19891932     4.02660773
Ce     2.04254190     9.95035257     7.28857190
Ce     0.00000000     4.47091133     0.89035214
Ce    -1.95035777     5.57656906     4.07204879
Ce    -1.74327299     3.29367189     7.21817764
Ce     3.87193441     4.47091133     0.89035214
Ce     1.93740761     5.59107703     4.06304533
Ce     1.81177747     3.32053515     7.21582294
Ce     7.74385721     4.47091133     0.89035214
Ce     5.80718003     5.64929889     3.98937239
Ce    -1.93596721     7.82410489     0.89035214
Ce    -3.85392623     8.93360407     4.07605065
Ce    -3.82285048     6.72466219     7.33588950
Ce     1.93596721     7.82410489     0.89035214
Ce    -0.00320390     8.95156037     4.09066166
Ce     0.00633053     6.70745756     7.22898761
Ce     5.80789000     7.82410489     0.89035214
Ce     3.87803899     8.95022407     4.03853744
Ce     3.82717825     6.86319014     7.25849759
W      5.14086949     3.76788011     6.89004194
Re     6.84213262     2.82966899     8.34147284
O      0.00000000     0.00000000     0.09999685
O      1.87280546     1.07656238     3.21849646
O      0.02074360     2.22759623     6.34082162
O      0.00000000     2.23545567     1.68070743
O      5.81529312    10.04216375     4.85785804
O      1.84036293     1.22155525     8.04018804
O      3.87192279     0.00000000     0.09999685
O      5.89132674     1.12331052     3.25315360
O      3.96500438     2.31133303     6.59498888
O      3.87192279     2.23545567     1.68070743
O     -1.93720825     9.99507035     4.88945370
O      6.17152630     1.12738120     8.65616927
O      7.74385721     0.00000000     0.09999685
O      9.68216874     1.11400144     3.21829358
O      7.80190509     2.27577619     6.69371576
O      7.74385721     2.23545567     1.68070743
O      7.78649313     0.06116003     4.86211734
O      9.90193259     1.15687964     8.08821864
O     -1.93596140     3.35318350     0.09999685
O     -0.00925150     4.46775056     3.25039896
O     -1.92074028     5.47383598     6.44552255
O     -1.93596721     5.58864923     1.68070743
O      9.64725024     3.28756198     4.85300362
O      0.05553670     4.40639007     8.06898362
O      1.93596140     3.35318350     0.09999685
O      3.89805674     4.54907476     3.23987044
O      1.91930584     5.60508382     6.41156227
O      1.93595559     5.58864923     1.68070743
O      1.91061786     3.37242958     4.91045482
O      5.80789581     3.35318350     0.09999685
O      7.70007533     4.43554344     3.25757857
O      5.75359278     5.54270962     6.52988633
O      5.80789000     5.58864923     1.68070743
O      5.78824146     3.43098528     5.09823335
O      8.06686044     4.24353261     8.58026280
O     -3.87192860     6.70637706     0.09999685
O     -1.94092958     7.80155161     3.25051994
O     -3.88485104     8.91347492     6.48294293
O     -3.87192860     8.94183273     1.68070743
O      7.71466187     6.67363195     4.86918935
O     -1.80487823     7.70562139     8.11963849
O     -0.00000581     6.70637706     0.09999685
O      1.94027120     7.82768425     3.26924330
O      0.06057042     8.92855971     6.45655662
O     -0.00000581     8.94183273     1.68070743
O     -0.03033138     6.70283609     4.87280011
O      3.87192860     6.70637706     0.09999685
O      5.80657532     7.82231480     3.22836477
O      3.91467322     8.94010572     6.38892977
O      3.87192860     8.94183273     1.68070743
O      3.90487454     6.71879610     4.89402973
O      5.68307012     7.86142828     8.09859269
O      3.81864356     4.52927162     7.99209215
O      1.98512723     7.70796031     8.12581963
O      5.22297067     3.89049372    10.87271280
C      5.85523096     3.48058640     9.99435049
