89
CIF: CH2CO+Olat.cif | data_image0
O      0.00261135     0.00382715     0.19995339
O      1.91944063     1.09010461     3.32993556
O     -0.02508677     2.31489164     6.63303264
O      0.00261135     2.21285656     1.76196664
O      0.07041335     0.03957188     5.02896727
O      1.94456342     0.66364171     8.36613877
O      3.82876252     0.00382715     0.19995339
O      5.74978178     1.09953603     3.33068462
O      3.77677720     2.26174785     6.63787815
O      3.82876252     2.21285656     1.76196664
O      3.82842225     0.06630261     4.98634195
O      5.77253151     1.16026753     8.19122790
O      7.65492518     0.00382715     0.19995339
O      9.57578041     1.09393817     3.35555644
O      7.67910693     2.19701997     6.52152214
O      7.65492518     2.21285656     1.76196664
O      1.89029295     9.92719754     4.99770455
O      9.54955745     1.12201527     8.18365799
O     -1.91046424     3.31737126     0.19995339
O     -0.01137035     4.42810286     3.34520388
O     -1.93740537     5.49641873     6.48012795
O     -1.91046998     5.52641062     1.76196664
O      9.55829596     3.29232918     4.96192173
O      1.91568694     3.31737126     0.19995339
O      3.85535233     4.44147628     3.33257337
O      1.98734322     5.43014540     6.64596650
O      1.91568120     5.52641062     1.76196664
O      1.94322259     3.32553097     4.83854002
O      4.05849270     4.55174648     8.72792075
O      5.74184959     3.31737126     0.19995339
O      7.64325583     4.40760843     3.33748694
O      5.63860104     5.46032488     6.56469275
O      5.74184385     5.52641062     1.76196664
O      5.74390478     3.27967552     4.98562907
O      7.61667233     4.38784980     8.12274341
O     -3.82354556     6.63092532     0.19995339
O     -1.91992732     7.73879020     3.37263896
O     -3.69191313     8.72313998     6.51290422
O     -3.82354556     8.83995473     1.76196664
O      7.59178606     6.58041510     4.96893982
O     -1.99914488     7.51342495     8.56854117
O      0.00260561     6.63092532     0.19995339
O      1.92810309     7.75529618     3.33363879
O     -0.08840865     8.87234390     6.61168000
O      0.00260561     8.83995473     1.76196664
O      0.05090237     6.63772587     4.94368270
O      2.05427507     7.83170246     8.18306950
O      3.82876826     6.63092532     0.19995339
O      5.73544253     7.74784261     3.35077784
O      3.86755940     8.90181823     6.50894959
O      3.82876826     8.83995473     1.76196664
O      3.80892475     6.66433783     4.98710317
O      5.76093618     7.72609770     8.11194085
O     -0.84136619     4.95360636     8.96236643
O     -1.63634106     4.90682189    11.08760431
Ce     1.91568694     1.10834185     0.98097142
Ce     0.02158528     2.22849573     4.20417811
Ce     0.07639120     0.07907370     7.39168463
Ce     5.74184959     1.10834185     0.98097142
Ce     3.82735533     2.20600940     4.12954254
Ce     3.77920877     0.07793275     7.38748363
Ce     9.56800076     1.10834185     0.98097142
Ce     7.65946058     2.20094695     4.13187781
Ce     7.67137488     0.01240287     7.36446507
Ce     0.00261135     4.42188597     0.98097142
Ce    -1.90849892     5.51214035     4.16202215
Ce     9.55863754     3.26207597     7.34739063
Ce     3.82877400     4.42188597     0.98097142
Ce     1.91401733     5.53771930     4.14068119
Ce     7.65492518     4.42188597     0.98097142
Ce     5.72319832     5.51446887     4.14075751
Ce     5.81557232     3.24761503     7.33556591
Ce    -1.91046998     7.73544003     0.98097142
Ce    -3.81395536     8.84333081     4.16247996
Ce     7.58547650     6.55023920     7.28774602
Ce     1.91569268     7.73544003     0.98097142
Ce    -0.00411495     8.84078978     4.17801158
Ce     0.06915302     6.63774552     7.35477680
Ce     5.74184385     7.73544003     0.98097142
Ce     3.83776036     8.85635919     4.14958824
Ce     3.85304268     6.77575930     7.33128215
Cu     2.41928694     3.59677983     6.78224804
C     -1.94684348     6.96090757     9.89255782
C     -1.45483764     5.48360557    10.02433149
C      2.90760517     3.90586492     8.74327475
H     -2.93928737     6.99425019    10.37934993
H     -1.28119046     7.56696235    10.53619954
H      2.89703243     2.83755490     9.02815667
H      2.01060063     4.46648510     9.06456022
