90
CIF: H+OH.cif | data_image0
O      0.00261135     0.00382715     0.19995339
O      1.91555724     1.10255620     3.33479145
O      0.14721666     2.28537935     6.55773507
O      0.00261135     2.21285656     1.76196664
O     -0.01328404     0.03308695     4.97037380
O      1.89252855     1.30004175     8.44558403
O      3.82876252     0.00382715     0.19995339
O      5.74728686     1.10586259     3.32701005
O      3.62616537     2.23734533     6.54838077
O      3.82876252     2.21285656     1.76196664
O      3.84945748     0.01948389     4.95673230
O      5.68433671     0.98139946     8.20368773
O      7.65492518     0.00382715     0.19995339
O      9.56213878     1.10780605     3.32650777
O      7.68792220     2.17929673     6.53939962
O      7.65492518     2.21285656     1.76196664
O      1.91598802     9.93708699     4.95158581
O      9.62472745     1.14244480     8.18179835
O     -1.91046424     3.31737126     0.19995339
O     -0.00614981     4.41454848     3.34033493
O     -1.86925374     5.43862542     6.56741255
O     -1.91046998     5.52641062     1.76196664
O      9.58276641     3.27448650     4.98797494
O      0.20226671     4.19712527     8.47646816
O      1.91568694     3.31737126     0.19995339
O      3.83588379     4.42410432     3.34991295
O      1.94240528     5.28938205     6.60294031
O      1.91568120     5.52641062     1.76196664
O      1.90559423     3.30640762     4.93474350
O      3.55672041     4.09544895     8.52241633
O      5.74184959     3.31737126     0.19995339
O      7.65904432     4.43530122     3.37967593
O      5.75982534     5.54124453     6.60251165
O      5.74184385     5.52641062     1.76196664
O      5.72209423     3.28904311     4.97261230
O      7.78400369     4.43361979     8.26010560
O     -3.82354556     6.63092532     0.19995339
O     -1.91676832     7.72615733     3.35253210
O     -3.82347693     8.98441054     6.54148190
O     -3.82354556     8.83995473     1.76196664
O     -3.79687362     6.66182879     5.03919679
O     -2.00979705     7.79838961     8.19123802
O      0.00260561     6.63092532     0.19995339
O      1.91977617     7.73531831     3.32524362
O     -0.01010786     8.86242559     6.48100776
O      0.00260561     8.83995473     1.76196664
O      0.04161144     6.61445649     4.96071724
O      1.90658293     7.91825963     8.24130171
O      3.82876826     6.63092532     0.19995339
O      5.75817397     7.72949820     3.36599603
O      3.84653142     8.89773788     6.51780493
O      3.82876826     8.83995473     1.76196664
O      3.79988083     6.63720619     4.96777111
O      5.85489947     7.87044334     8.23264627
Ce     1.91568694     1.10834185     0.98097142
Ce    -0.00824067     2.20720681     4.12565898
Ce     5.68980436     9.93123265     7.32216477
Ce     5.74184959     1.10834185     0.98097142
Ce     3.84085340     2.21052197     4.13667325
Ce    -1.84343369     9.90685079     7.31447699
Ce     9.56800076     1.10834185     0.98097142
Ce     7.64630515     2.20592338     4.14850614
Ce     1.89884693     9.92632452     7.34571381
Ce     0.00261135     4.42188597     0.98097142
Ce    -1.89300189     5.52278219     4.18331311
Ce     9.50463923     3.28707006     7.34115808
Ce     3.82877400     4.42188597     0.98097142
Ce     1.92378415     5.53383861     4.15820353
Ce     7.65492518     4.42188597     0.98097142
Ce     5.73627274     5.52670590     4.21130712
Ce     5.77168155     3.27724227     7.40202963
Ce    -1.91046998     7.73544003     0.98097142
Ce    -3.81825544     8.85044804     4.15835168
Ce    -3.81033860     6.64064840     7.38277071
Ce     1.91569268     7.73544003     0.98097142
Ce     0.01178231     8.82631431     4.13806030
Ce     0.03402584     6.66916030     7.41487765
Ce     5.74184385     7.73544003     0.98097142
Ce     3.82366838     8.83237860     4.14559142
Ce     3.82808858     6.70923751     7.43441148
Zr     1.90948051     3.29030636     7.05988150
C      3.62619423     6.63722103    10.80517687
C      3.08557080     5.51984081    10.36582938
C      3.50512727     4.17281394     9.93450138
H      3.04495528     7.55930793    10.90207739
H      4.69491482     6.69829318    11.07015787
H      0.31343177     4.14717696     9.44208288
H      1.88213958     1.37957417     9.41528279
H      2.83959941     3.39290393    10.36062266
H      4.51373358     3.97160923    10.38155073
