84
CIF: Ti-Cr-CeO2-Ov-CO2.cif | data_image0
Ce     1.93038582     1.11050507     0.88387043
Ce     0.01054323     2.23314646     4.05433632
Ce     5.81992514    10.01240980     7.25564421
Ce     5.81181033     1.12175166     0.90127712
Ce     3.78267761     2.21028433     3.91263005
Ce    -2.07170292     9.88754379     7.26602357
Ce     9.66901012     1.12377363     0.90450652
Ce     7.80267277     2.22957731     4.06291939
Ce     7.79665331     0.03530593     7.43181091
Ce    -0.00709724     4.47602159     0.89067279
Ce    -1.94486657     5.58550331     4.12531433
Ce    -1.70851526     3.34663617     7.31243221
Ce     3.86254305     4.47635356     0.87798423
Ce     1.96151892     5.59220305     4.12036137
Ce     1.81738064     3.29735800     7.32074037
Ce     7.74213807     4.46545905     0.90125422
Ce     5.80470358     5.65347311     3.94668264
Ce    -1.94645625     7.83004003     0.90010904
Ce    -3.88722936     8.90593389     4.07640707
Ce    -3.79083018     6.67178833     7.43352169
Ce     1.92815559     7.82745473     0.89060408
Ce     0.00975777     8.98675576     4.12026760
Ce     0.03874188     6.71230073     7.29171685
Ce     5.81127600     7.83258510     0.88371011
Ce     3.86590802     8.95198518     4.08412237
Ce     3.78765758     6.89878588     7.32032453
Cr     5.04852171     3.62299400     6.53183728
Ti     6.88062357     3.09598042     8.12272165
O     11.61334069     0.00154917     0.10141687
O      1.91733767     1.09471353     3.20015156
O      0.05358010     2.22180305     6.39077524
O     -0.00785227     2.23805103     1.69392277
O     -5.78111661    10.05666608     4.87352078
O      1.96686024     0.93902064     8.08576280
O     -1.93899312    10.05733740     0.10496691
O      5.79042789     1.16344591     3.25803715
O      4.09730295     2.29196142     6.91740844
O      3.86763657     2.23577757     1.68132582
O      3.82194344     0.11751958     4.92671722
O      6.54413013     1.57430913     8.92711222
O      7.73821774     0.00761509     0.10924988
O      9.68488164     1.12277543     3.25394392
O      7.76388905     2.42759302     6.65855266
O      7.74357843     2.23531483     1.71563532
O      7.72411767     0.09310383     4.88111799
O      9.91260723     1.18345780     8.11859139
O      9.67032270     3.35425987     0.10911246
O      0.01949899     4.48463499     3.30186405
O     -1.84761356     5.53385435     6.46140441
O     -1.94403436     5.59119430     1.70564938
O      9.69281362     3.30350471     4.89670267
O      0.00335391     4.50764436     8.18747035
O      1.92738314     3.35244915     0.09928684
O      3.79708018     4.43355241     3.19260604
O      1.94425367     5.54104391     6.48241709
O      1.92862022     5.59252216     1.67404250
O      2.01511408     3.26711891     4.88026739
O      3.28200390     4.58431687     9.63514175
O      5.81155478     3.35101064     0.10766953
O      7.79894346     4.39948102     3.25542964
O      5.60569194     4.86981393     7.54319495
O      5.80528807     5.59217007     1.68114259
O      5.72703974     3.36597217     4.95447053
O      8.19769828     4.28204320     8.60141110
O     -3.87155109     6.71022987     0.10512724
O     -1.94448406     7.84185858     3.30873765
O     -3.82215357     8.89069861     6.40949746
O     -3.87509971     8.94378428     1.69355631
O      7.71764996     6.63642307     4.97296914
O     -1.88414473     7.83721619     8.16039566
O     -0.01209783     6.71325780     0.10434852
O      1.93596550     7.83988402     3.28568841
O     -0.08323758     9.08318245     6.51981905
O     -0.00628994     8.94736548     1.70514550
O      0.02939467     6.77532536     4.93247280
O      1.80950208     7.77862238     8.17194314
O      3.86815347     6.71410280     0.09951587
O      5.81264215     7.91328334     3.21181241
O      3.86901506     9.01729797     6.42801509
O      3.86556896     8.94715423     1.69389986
O      3.89428154     6.72413493     4.92930820
O      5.82717556     7.88656764     8.05516881
O      4.07192163     4.41810868    11.84398642
C      3.67694650     4.49727721    10.74721450
