81
CIF: Re-Sc-CeO2-Ov.cif | data_image0
Ce     1.93038582     1.11050507     0.88387043
Ce    -0.00395067     2.23289713     4.03054261
Ce     0.01868249     0.00521036     7.24283618
Ce     5.81181033     1.12175166     0.90127712
Ce     3.84550703     2.22151195     4.00323726
Ce    -2.05267605    10.02336429     7.28966814
Ce     9.66901012     1.12377363     0.90450652
Ce     7.77245786     2.21513908     3.95733650
Ce     2.04461178     9.89808144     7.39809817
Ce    -0.00709724     4.47602159     0.89067279
Ce    -1.96602863     5.57936283     4.10996811
Ce    -1.73635654     3.30399819     7.32354489
Ce     3.86254305     4.47635356     0.87798423
Ce     1.94049698     5.58186930     4.10686141
Ce     1.83599357     3.28155661     7.23433406
Ce     7.74213807     4.46545905     0.90125422
Ce     5.80170280     5.62341840     3.99778660
Ce    -1.94645625     7.83004003     0.90010904
Ce    -3.87797758     8.95576929     4.02306660
Ce    -3.87203685     6.85860062     7.22433906
Ce     1.92815559     7.82745473     0.89060408
Ce    -0.00826819     8.96846195     4.13795750
Ce    -0.00640738     6.70996502     7.30183233
Ce     5.81127600     7.83258510     0.88371011
Ce     3.86976135     8.94996254     4.05559207
Ce     3.88646391     6.81086918     7.23624520
Sc     5.63537503     3.46768717     6.69684982
Re     7.10268045     2.78001455     9.02326210
O     11.61334069     0.00154917     0.10141687
O      1.92745254     1.11089686     3.20034670
O      0.02731031     2.22789181     6.33885553
O     -0.00785227     2.23805103     1.69392277
O      5.80215581    10.05779397     4.81054228
O      1.79148204     1.03204628     8.10530926
O     -1.93899312    10.05733740     0.10496691
O      5.80667793     1.09916452     3.21867276
O      4.00585275     2.39862710     6.62504449
O      3.86763657     2.23577757     1.68132582
O      3.85268187     0.08087219     4.84235714
O      6.59799134     1.20522923     9.64471360
O      7.73821774     0.00761509     0.10924988
O      9.68244194     1.11079613     3.20308406
O      7.44202639     2.53569052     7.16074653
O      7.74357843     2.23531483     1.71563532
O      7.76057519     0.15850137     4.93219753
O      9.84891102     1.03140325     8.06848700
O      9.67032270     3.35425987     0.10911246
O     -0.03263666     4.47791830     3.28089076
O     -2.13562151     5.54370550     6.48973008
O     -1.94403436     5.59119430     1.70564938
O      9.57449883     3.27646990     4.89705056
O      0.00081216     4.60482452     8.11258306
O      1.92738314     3.35244915     0.09928684
O      3.87949905     4.47075998     3.22663709
O      2.03109553     5.53981165     6.41162951
O      1.92862022     5.59252216     1.67404250
O      1.96945658     3.30692271     4.78451828
O      5.81155478     3.35101064     0.10766953
O      7.75164865     4.49163686     3.21846118
O      5.79715864     5.42019027     6.60158923
O      5.80528807     5.59217007     1.68114259
O      5.86888309     3.31609553     4.74612257
O      7.47264117     4.37990310     9.63595393
O     -3.87155109     6.71022987     0.10512724
O     -1.93828405     7.82198716     3.29094226
O     -3.86431234     8.92329996     6.34601901
O     -3.87509971     8.94378428     1.69355631
O      7.66308911     6.70451192     4.86152776
O     -1.99660611     7.73557360     8.08749357
O     -0.01209783     6.71325780     0.10434852
O      1.91065918     7.85176786     3.30592000
O     -0.00549160     9.00628567     6.48545278
O     -0.00628994     8.94736548     1.70514550
O     -0.03628004     6.68768098     4.95107674
O      1.83267424     7.70999245     8.15832966
O      3.86815347     6.71410280     0.09951587
O      5.80990780     7.83398786     3.20240928
O      3.89428444     8.90927232     6.39095546
O      3.86556896     8.94715423     1.69389986
O      3.93446562     6.70138229     4.79688047
O      5.95655504     7.87745072     8.06200934
