84
CIF: CO+Olatt—CO2.cif | data_image0
Ce     1.93596140     1.11772783     0.89035214
Ce     0.01427729     2.23588524     4.03695754
Ce    -5.76082232    10.04085950     7.22172854
Ce     5.80789581     1.11772783     0.89035214
Ce     3.81866010     2.19903866     3.97330679
Ce    -1.95725668     9.97391331     7.23780420
Ce     9.67981860     1.11772783     0.89035214
Ce     7.79776994     2.19994957     4.05338353
Ce     2.00400570     9.97962768     7.31797328
Ce     0.00000000     4.47091133     0.89035214
Ce    -1.93612990     5.57850750     4.06647258
Ce    -1.81867015     3.29873666     7.25539303
Ce     3.87193441     4.47091133     0.89035214
Ce     1.95082464     5.58002400     4.08543352
Ce     1.82127977     3.31585846     7.31556042
Ce     7.74385721     4.47091133     0.89035214
Ce     5.81314680     5.66015907     3.97498279
Ce    -1.93596721     7.82410489     0.89035214
Ce    -3.86001103     8.93550278     4.03273305
Ce    -3.81744568     6.75955239     7.24698850
Ce     1.93596721     7.82410489     0.89035214
Ce     0.01156401     8.94777937     4.07236951
Ce     0.01405616     6.68688704     7.23836098
Ce     5.80789000     7.82410489     0.89035214
Ce     3.87251609     8.93571276     4.06062150
Ce     3.82905663     6.82543996     7.32559370
Mo     5.15775250     3.73983454     6.68948613
O      0.00000000     0.00000000     0.09999685
O      1.94141921     1.10135432     3.19851567
O      0.00664898     2.20632213     6.36185719
O      0.00000000     2.23545567     1.68070743
O     -5.76861464    10.04677714     4.82190273
O      2.01066428     0.95077266     8.00992888
O      3.87192279     0.00000000     0.09999685
O      5.81355958     1.15433765     3.24708785
O      3.93333981     2.28677191     6.44733629
O      3.87192279     2.23545567     1.68070743
O      3.86104330     0.05189219     4.85550030
O      5.88374635     1.11516948     8.31007241
O      7.74385721     0.00000000     0.09999685
O      9.68261350     1.11953749     3.23592313
O      7.86025567     2.22533303     6.57251303
O      7.74385721     2.23545567     1.68070743
O      7.74827836     0.01953115     4.82653945
O      9.92869679     1.13483579     8.12497536
O     -1.93596140     3.35318350     0.09999685
O     -0.00769660     4.47509267     3.24641591
O     -1.98595328     5.58393169     6.41671312
O     -1.93596721     5.58864923     1.68070743
O      9.67492209     3.33526857     4.84782489
O     -0.09715948     4.50838822     8.07806563
O      1.93596140     3.35318350     0.09999685
O      3.90487982     4.45599932     3.23001162
O      1.96106581     5.54510739     6.41245099
O      1.93595559     5.58864923     1.68070743
O      1.96243164     3.31212783     4.79513528
O      5.80789581     3.35318350     0.09999685
O      7.72188828     4.44651151     3.24802715
O      5.79300750     5.53415151     6.43529915
O      5.80789000     5.58864923     1.68070743
O      5.78091256     3.37672278     4.91803106
O      7.90851000     4.37381903     8.29116496
O     -3.87192860     6.70637706     0.09999685
O     -1.93216475     7.82282717     3.25452976
O     -3.79685191     8.89322245     6.35144683
O     -3.87192860     8.94183273     1.68070743
O      7.70767772     6.68765523     4.85539334
O     -1.96585005     7.82054272     8.06100242
O     -0.00000581     6.70637706     0.09999685
O      1.92655376     7.82533342     3.25054200
O     -0.07506956     8.95869233     6.41767860
O     -0.00000581     8.94183273     1.68070743
O      0.00130886     6.70022081     4.87620099
O      3.87192860     6.70637706     0.09999685
O      5.82200562     7.83003680     3.20776975
O      3.94982555     8.95989373     6.40215515
O      3.87192860     8.94183273     1.68070743
O      3.90288794     6.70879126     4.80155115
O      6.00349265     7.84034699     8.03615789
O      4.05634089     4.38014670     8.27474435
O      1.78032680     7.71740676     8.11863765
O      4.91927069     3.97194594    10.47366786
Os     6.61565284     2.90640585     8.10923468
C      5.17538850     3.77468741     9.33141466
