81
CIF: Mo-CeO2.cif | data_image0
Ce     1.93596140     1.11772783     0.89035214
Ce    -0.00252470     2.23081066     3.98694670
Ce     5.79932309    10.05523812     7.22385304
Ce     5.80789581     1.11772783     0.89035214
Ce     3.83041788     2.21150975     4.03442804
Ce    -2.05299681    10.03927796     7.11886250
Ce     9.67981860     1.11772783     0.89035214
Ce     7.78584898     2.21302487     4.06158023
Ce     7.79358948     0.01341680     7.23897264
Ce     0.00000000     4.47091133     0.89035214
Ce    -1.93039604     5.59199238     4.05149580
Ce    -1.85957337     3.27592597     7.15585439
Ce     3.87193441     4.47091133     0.89035214
Ce     1.94812757     5.58971570     4.06295122
Ce     1.86005205     3.26204275     7.11990767
Ce     7.74385721     4.47091133     0.89035214
Ce     5.81003317     5.63573494     4.06224551
Ce    -1.93596721     7.82410489     0.89035214
Ce    -3.87799864     8.94217882     3.98690434
Ce    -3.90115290     6.81191939     7.15602116
Ce     1.93596721     7.82410489     0.89035214
Ce     0.00713752     8.95069075     4.06237576
Ce     0.00599996     6.71058130     7.24735457
Ce     5.80789000     7.82410489     0.89035214
Ce     3.86606000     8.93756334     4.05234080
Ce     3.90898366     6.74135562     7.24002551
Mo     5.90015302     3.40554120     7.16862781
O      0.00000000     0.00000000     0.09999685
O      1.93980201     1.12006014     3.20570931
O      0.02229668     2.21290598     6.33561364
O      0.00000000     2.23545567     1.68070743
O      5.80502693    10.05783423     4.80015747
O      1.87894708     1.08664507     8.05247958
O      3.87192279     0.00000000     0.09999685
O      5.80892519     1.18978715     3.27472132
O      3.59018502     2.07250927     6.28340617
O      3.87192279     2.23545567     1.68070743
O     -1.94945925    10.01123656     4.76799568
O      5.79338328     1.74149887     7.85422534
O      7.74385721     0.00000000     0.09999685
O      9.66973701     1.12490184     3.22426008
O      7.91358645     2.26639841     6.31908662
O      7.74385721     2.23545567     1.68070743
O      1.93536402    10.03173464     4.80632846
O      9.83208476     1.20097002     8.07454856
O     -1.93596140     3.35318350     0.09999685
O     -0.00051407     4.51290883     3.21069039
O     -2.04818896     5.52434401     6.50079881
O     -1.93596721     5.58864923     1.68070743
O     -1.86366620     3.38128748     4.79829968
O     -0.00421163     4.39577741     7.98725014
O      1.93596140     3.35318350     0.09999685
O      3.93504970     4.43565826     3.27498259
O      1.98900995     5.44648115     6.45378723
O      1.93595559     5.58864923     1.68070743
O      1.88797855     3.36510498     4.76787950
O      5.80789581     3.35318350     0.09999685
O      7.68986943     4.43973593     3.28953981
O      5.92047558     5.71917840     6.32046029
O      5.80789000     5.58864923     1.68070743
O      5.76714107     3.32997327     5.25432102
O      7.29147303     4.20824755     7.99767320
O     -3.87192860     6.70637706     0.09999685
O     -1.90062766     7.80251958     3.21002813
O     -3.88101455     8.97326351     6.33587673
O     -3.87192860     8.94183273     1.68070743
O     -3.81187780     6.75583505     4.79918862
O     -2.00429362     7.85914148     7.98696686
O     -0.00000581     6.70637706     0.09999685
O      1.90861097     7.80716002     3.23420277
O     -0.09664581     9.05535869     6.45290139
O     -0.00000581     8.94183273     1.68070743
O     -0.00160685     6.70496219     4.93826536
O      3.87192860     6.70637706     0.09999685
O      5.80876035     7.81121531     3.22426700
O      3.91482275     8.96698176     6.42063394
O      3.87192860     8.94183273     1.68070743
O      3.84906005     6.71902345     4.80836353
O      5.95537321     7.91592502     8.07409256
O      4.40734216     4.14531129     7.85589521
O      1.75667209     7.72024207     8.04765845
