82
CIF: Cu-Fe-CeO2.cif | data_image0
Ce     1.93038582     1.11050507     0.88387043
Ce    -0.00287494     2.23747658     4.03172775
Ce    -5.77582783    10.04044242     7.21006461
Ce     5.81181033     1.12175166     0.90127712
Ce     3.85734231     2.23137039     4.01307481
Ce    -1.87045007    10.05830590     7.25070874
Ce     9.66901012     1.12377363     0.90450652
Ce     7.75904506     2.22626187     4.09352091
Ce     7.78510549     0.00320168     7.21509363
Ce    -0.00709724     4.47602159     0.89067279
Ce    -1.94408033     5.58814438     4.05691531
Ce     9.69691112     3.31496460     7.21523569
Ce     3.86254305     4.47635356     0.87798423
Ce     1.92627813     5.59388630     4.03342952
Ce     1.85777767     3.34267726     7.18016610
Ce     7.74213807     4.46545905     0.90125422
Ce     5.80385131     5.60295861     4.01326479
Ce    -1.94645625     7.83004003     0.90010904
Ce    -3.87135679     8.94115904     4.08248469
Ce    -3.83869490     6.64954099     7.25067382
Ce     1.92815559     7.82745473     0.89060408
Ce    -0.00384757     8.94843693     4.05672241
Ce    -0.00137384     6.70649860     7.20323604
Ce     5.81127600     7.83258510     0.88371011
Ce     3.86849673     8.94263758     4.03178403
Ce     3.84174824     6.77849761     7.18008565
Fe     4.96514671     3.83960549     6.58808538
Cu     6.74939739     2.80871659     8.14416094
O     11.61334069     0.00154917     0.10141687
O      1.94017112     1.10976055     3.22871367
O      0.00729142     2.21366240     6.38675144
O     -0.00785227     2.23805103     1.69392277
O     -5.78437470    10.04557511     4.86001419
O      1.99136924     1.13053904     7.95650189
O     -1.93899312    10.05733740     0.10496691
O      5.79306776     1.14079294     3.25408421
O      3.92226422     2.33532555     6.42533633
O      3.86763657     2.23577757     1.68132582
O      3.86836907     0.04458583     4.90818969
O      5.96289587     1.03427529     8.11217490
O      7.73821774     0.00761509     0.10924988
O      9.68397141     1.11500135     3.25398727
O      7.96851944     2.10499719     6.30569070
O      7.74357843     2.23531483     1.71563532
O      1.91993442     9.99869899     4.81932916
O      9.78976373     1.05359117     8.05179294
O      9.67032270     3.35425987     0.10911246
O      0.01212946     4.48521689     3.22115756
O     -1.93953714     5.59472940     6.42229589
O     -1.94403436     5.59119430     1.70564938
O     -1.89184529     3.39681640     4.81945010
O      0.03808266     4.45944336     7.99627186
O      1.92738314     3.35244915     0.09928684
O      3.86522265     4.47455998     3.21567632
O      1.90521895     5.60587382     6.37361845
O      1.92862022     5.59252216     1.67404250
O      1.92299562     3.34071018     4.84684143
O      3.85481399     4.48027736     7.87489204
O      5.81155478     3.35101064     0.10766953
O      7.71607748     4.47172161     3.25395082
O      5.74615070     5.49434414     6.42537871
O      5.80528807     5.59217007     1.68114259
O      5.75511374     3.38328458     4.93055339
O      7.89295047     4.37695181     8.11209945
O     -3.87155109     6.71022987     0.10512724
O     -1.96058666     7.83811529     3.26470252
O     -3.82544087     8.91457644     6.44237271
O     -3.87509971     8.94378428     1.69355631
O      7.70316128     6.68668073     4.90813516
O     -1.91638194     7.81223790     8.02755874
O     -0.01209783     6.71325780     0.10434852
O      1.92936820     7.80583512     3.22099409
O     -0.00748360     8.94097091     6.42214298
O     -0.00628994     8.94736548     1.70514550
O     -0.01681300     6.71557737     4.85245850
O      1.96445479     7.79602267     7.99629708
O      3.86815347     6.71410280     0.09951587
O      5.81672233     7.82411334     3.22849123
O      3.89402859     8.94562048     6.38674033
O      3.86556896     8.94715423     1.69389986
O      3.87593000     6.72321964     4.84681669
O      5.82416529     7.76908327     7.95655340
