86
CIF: 4-NHNO+2H-N2+H2O+H_ts.cif | data_image0
Ce     0.01151638     0.01995296     8.76178033
Ce     1.94223043     1.13768420     5.58346751
Ce     0.01588369     2.26786807     2.46589866
Ce    -1.98200677    10.05628279     8.76296044
Ce     5.81440946     1.13430424     5.62824671
Ce     3.89332611     2.26326896     2.47357282
Ce     7.77568601     0.04055129     8.80786271
Ce     9.69439644     1.13462506     5.61031860
Ce     7.75446409     2.26581230     2.47429330
Ce     9.64259147     3.30704879     8.78556923
Ce     0.00706077     4.48122272     5.58469602
Ce    -1.91651110     5.61504600     2.47483753
Ce     1.94142316     3.27175219     8.74228449
Ce     3.86898863     4.50022521     5.62337986
Ce     1.95558258     5.61353222     2.47595324
Ce     5.78379785     3.37323573     8.77016296
Ce     7.75726942     4.50752461     5.64261428
Ce     5.82536419     5.60937576     2.47437763
Ce    -3.85107662     6.76528759     8.84627015
Ce    -1.94419202     7.86427670     5.66934635
Ce    -3.84537502     8.96394824     2.46404059
Ce     1.96681999     7.86234269     5.59072470
Ce     0.01732373     8.96688990     2.47353355
Ce     3.95236454     6.75634040     8.79972708
Ce     5.82879606     7.84214740     5.61742250
Ce     3.88609319     8.97027333     2.46494346
Ni     0.52204352     6.46464916     8.06046288
O     -0.00116060     0.02884494     6.40888198
O     -0.00023818     2.26989677     9.51402425
O      1.96315609     1.14625178     3.25171739
O     -0.00016915     2.24996914     4.78404273
O      0.00913894     0.03264469     1.69022172
O      1.92448698     1.14558684     7.92493531
O      3.87116875     0.05794977     6.39314636
O      3.85098422     2.26594022     9.50603598
O      5.82446302     1.15347636     3.25974995
O      3.88155251     2.27042766     4.81242284
O      3.89469147     0.01917611     1.68278722
O      5.83052795     1.09341668     7.97310496
O      1.97019452    10.03052562     6.45999233
O      7.77150200     2.22339545     9.58021083
O      9.68124686     1.15374337     3.25886840
O      7.76165208     2.26292958     4.85340224
O      7.75596084     0.02454083     1.68485862
O      9.67804223     1.13666124     7.96132627
O     -1.85250669     3.38314670     6.46857700
O     -2.07569782     5.36027065     9.93284518
O      0.02221989     4.50125774     3.26998283
O     -1.93954116     5.58220528     4.81385830
O     -1.91613667     3.38604299     1.68587882
O      0.10929047     4.66469155     8.11328593
O      1.89663763     3.36061833     6.41705163
O      3.89831147     4.49057726     3.27482301
O      1.97333842     5.60366759     4.80325275
O      1.95788982     3.38695201     1.68755758
O      3.75633872     4.52329565     7.97553173
O      5.77315511     3.38086018     6.46318822
O      5.68577933     5.53565458     9.56676282
O      7.75284753     4.49151116     3.25913024
O      5.81321938     5.60524078     4.82642486
O      5.82408169     3.38121033     1.68206077
O      7.75822278     4.41890615     7.97421714
O     -3.86199773     6.72629200     6.40174193
O     -3.91085295     9.12977721     9.62417549
O     -1.91208800     7.84820557     3.27326806
O     -3.86871516     8.97376890     4.80567382
O     -3.84457501     6.73298963     1.68610538
O     -1.90750671     7.95593567     7.99532980
O      0.01412710     6.72654005     6.25341379
O      0.01981249     9.42679998    10.02492290
O      1.95434901     7.84985491     3.26782139
O      0.02575628     8.99682043     4.81404870
O      0.01868220     6.73440753     1.69191660
O      1.86038889     7.73130413     8.08923937
O      3.87635826     6.75871135     6.44162626
O      3.86663702     8.99521508     9.54225744
O      5.82901959     7.84304971     3.25116365
O      3.89061964     8.97525733     4.79123227
O      3.88711715     6.72499860     1.68814840
O      5.78047257     7.87630876     7.97995986
O      2.29286598     5.33934180    10.17886856
N      0.76532722     6.40976461    11.45598586
N      1.83018236     6.45560070    10.80573685
H      0.36072044     5.45466045    11.47567236
H     -1.23777275     5.85435043     9.82746962
H      0.07059321     8.65763164    10.63427022
