82
CIF: Ni-Mo-CeO2.cif | data_image0
Ce     1.93596140     1.11772783     0.89035214
Ce    -0.00206628     2.23976150     4.03963889
Ce     5.80582871    10.05197777     7.18241229
Ce     5.80789581     1.11772783     0.89035214
Ce     3.82474783     2.20140481     3.97671523
Ce    -2.08942394     9.91462887     7.14731876
Ce     9.67981860     1.11772783     0.89035214
Ce     7.75351788     2.24561081     4.06597070
Ce     7.80717999     0.06392089     7.26975266
Ce     0.00000000     4.47091133     0.89035214
Ce    -1.93593406     5.59760413     4.05215180
Ce    -1.83848520     3.39362171     7.23298584
Ce     3.87193441     4.47091133     0.89035214
Ce     1.96096482     5.58992130     4.07938089
Ce     1.90028131     3.32478488     7.24202979
Ce     7.74385721     4.47091133     0.89035214
Ce     5.81933948     5.60728407     4.01802883
Ce    -1.93596721     7.82410489     0.89035214
Ce    -3.89033009     8.91260271     3.99935077
Ce    -3.81518061     6.69635181     7.27299865
Ce     1.93596721     7.82410489     0.89035214
Ce     0.00373208     8.96828966     4.06947191
Ce     0.04567227     6.72418688     7.22915916
Ce     5.80789000     7.82410489     0.89035214
Ce     3.86938349     8.95149537     4.05727841
Ce     3.85878214     6.76766764     7.28158402
Mo     5.55554823     3.37208736     6.87956458
O      0.00000000     0.00000000     0.09999685
O      1.91549521     1.10811140     3.19752893
O      0.00223794     2.21716509     6.35741244
O      0.00000000     2.23545567     1.68070743
O     -5.80018745    10.04654754     4.82981444
O      1.95154204     0.96460605     7.98074117
O      3.87192279     0.00000000     0.09999685
O      5.79984661     1.13380203     3.24439120
O      4.16902892     2.08569199     6.42435046
O      3.87192279     2.23545567     1.68070743
O     -1.99958209    10.04426532     4.80476967
O      5.97573247     2.21386565     8.37761390
O      7.74385721     0.00000000     0.09999685
O      9.67987110     1.12080189     3.23682253
O      7.52756844     2.52904047     6.37793909
O      7.74385721     2.23545567     1.68070743
O      7.74720436     0.04789590     4.85648938
O      9.77308787     1.24962186     8.01658357
O     -1.93596140     3.35318350     0.09999685
O      0.01712510     4.49002796     3.26636824
O     -1.94701774     5.60211567     6.36504012
O     -1.93596721     5.58864923     1.68070743
O     -1.93152984     3.34562594     4.84773945
O     -0.04487827     4.51885152     8.02596205
O      1.93596140     3.35318350     0.09999685
O      3.87480348     4.47738098     3.21070981
O      1.91312223     5.59823217     6.37709476
O      1.93595559     5.58864923     1.68070743
O      2.00421083     3.30146413     4.83532650
O      5.80789581     3.35318350     0.09999685
O      7.72146953     4.45552300     3.24982109
O      6.13111308     5.21083933     6.48132232
O      5.80789000     5.58864923     1.68070743
O      5.66126735     3.36631918     4.87790883
O      8.31100436     4.74845315     8.58653518
O     -3.87192860     6.70637706     0.09999685
O     -1.93163087     7.81437434     3.23045671
O     -3.87126860     8.88638710     6.34090276
O     -3.87192860     8.94183273     1.68070743
O      7.71069455     6.70025949     4.83286257
O     -1.96794290     7.82895190     8.03388638
O     -0.00000581     6.70637706     0.09999685
O      1.95234051     7.82774474     3.26816578
O     -0.09071265     9.10383173     6.48262952
O     -0.00000581     8.94183273     1.68070743
O      0.00041667     6.78215882     4.88243688
O      3.87192860     6.70637706     0.09999685
O      5.79940934     7.82295782     3.20945273
O      3.89627743     9.00036340     6.42455503
O      3.87192860     8.94183273     1.68070743
O      3.97158011     6.68414942     4.87840479
O      5.94549815     7.81582871     7.98949259
O      4.18097720     4.27382011     7.75529599
O      1.81695099     7.79271723     8.07320207
Ni     7.01982983     3.60052477     8.86299868
