89
CIF: HCO.cif | data_VESTA_phase_1
O      0.00781110     0.10540063     0.08330251
O      1.92661444     1.20896103     3.26175392
O     -0.02989566     2.31769057     6.44406024
O      0.01574271     2.31584161     1.70373244
O      0.01455469     0.11004291     4.88699678
O      1.75858119     1.23586041     8.15351801
O      3.84129127     0.11103697     0.08530980
O      5.74974103     1.20119739     3.27963704
O      3.82399896     2.39467090     6.60202022
O      3.83922515     2.32370466     1.72029257
O      3.82984724     0.11586813     4.90695562
O      5.87690521     0.86380205     8.77817276
O      7.65754227     0.10492348     0.08626782
O      9.57904305     1.21305658     3.24302682
O      7.61216789     2.22045121     6.56426949
O      7.66234600     2.31676609     1.70838570
O      7.70043155     0.09710019     4.88364369
O      9.58385252     1.16396969     8.12080832
O     -1.90110355     3.42072412     0.08378152
O      0.00340336     4.52332028     3.27947737
O     -1.85351957     5.60882848     6.41048376
O     -1.90404777     5.63439581     1.71066671
O     -1.94968041     3.39046481     4.91822382
O     -0.00004591     4.51323053     8.10495529
O      1.92842229     3.42237427     0.08432896
O      3.82892896     4.52311153     3.28741529
O      1.98248586     5.58410610     6.49412842
O      1.92690714     5.62752683     1.72271045
O      1.91070528     3.39325813     4.91290906
O      3.72681080     4.69091951     8.52028170
O      5.74835214     3.41961077     0.08389557
O      7.67148286     4.52557681     3.25596015
O      5.69142469     5.65596700     6.51780531
O      5.75226056     5.62391837     1.71520592
O      5.76810658     3.42650957     4.87846580
O     -3.81633135     6.73036156     0.07944760
O     -1.89756244     7.83211277     3.28226020
O     -3.86297983     8.89781921     6.46967598
O     -3.80977140     8.93952020     1.69764214
O     -3.82340782     6.70643444     4.91457420
O     -1.87613789     7.68297331     8.11994153
O      0.01394633     6.73088842     0.08419210
O      1.92132860     7.83369333     3.26243822
O      0.08907863     8.99352771     6.51395040
O      0.00835058     8.93481828     1.71477253
O      0.04361817     6.75029255     4.93318724
O      1.99195560     7.82242064     8.11439868
O      3.83563239     6.72947685     0.08708898
O      5.76065132     7.83346470     3.25276674
O      3.86433429     8.94201530     6.43083037
O      3.82798773     8.94089201     1.70418864
O      3.83594230     6.74999433     4.89224310
O      5.71447919     7.85693455     8.14094964
O      5.82896540     2.76664974     9.97323984
O      7.82270016     4.61043013     8.11752366
Ce     1.92927744     1.21572067     0.89107679
Ce     0.00320249     2.30171596     4.06727000
Ce     0.01096193     0.09877022     7.29519653
Ce     5.74745108     1.21134679     0.90013240
Ce     3.84623275     2.31661698     4.13597404
Ce     3.75469773     0.05316255     7.33830763
Ce     9.57472141     1.21141637     0.88494087
Ce     7.64573093     2.31500660     4.09384377
Ce     7.77532854     0.03471272     7.23525157
Ce     0.01310267     4.52632236     0.90031488
Ce    -1.90575233     5.62261615     4.08268963
Ce    -1.91098077     3.41977976     7.27569389
Ce     3.83761816     4.52354892     0.90289243
Ce     1.93247419     5.62506155     4.10043589
Ce     1.83769651     3.35873428     7.27286544
Ce     7.66191556     4.52514936     0.89146456
Ce     5.75143411     5.61361987     4.09270327
Ce     5.79801946     3.50321157     7.40317957
Ce    -1.90040910     7.83513473     0.89604939
Ce    -3.81124065     8.94363563     4.08433196
Ce    -3.78105228     6.72064956     7.28417925
Ce     1.91952075     7.83302731     0.90257308
Ce     0.01310267     8.94998770     4.10689115
Ce     0.01839998     6.71820416     7.27537455
Ce     5.74795039     7.83357404     0.88886421
Ce     3.85168502     8.94151827     4.03718347
Ce     3.86089649     6.81337587     7.26118666
C      3.36042967     4.64614686     9.91386513
C      2.47551463     3.51306275    10.21256347
C      5.94330239     1.53086885     9.89853674
H      2.82952771     5.58345002    10.19858087
H      4.27856913     4.58566799    10.52998890
H      1.43192129     3.39720456    10.50535399
H      6.11173739     0.92846593    10.81630135
