84
CIF: 1-NH3-NH2+H_ts.cif | data_image0
Ce     5.79127111    10.05542093     8.79755627
Ce     1.93346757     1.09633638     5.56816250
Ce     0.00000000     2.23543938     2.47426506
Ce     3.82025240     0.07523313     8.77357156
Ce     5.80447940     1.12353696     5.62480700
Ce     3.87189458     2.23543938     2.47426506
Ce     1.98280285    10.03777497     8.72727651
Ce     9.68904958     1.11293200     5.58288447
Ce     7.74390532     2.23543938     2.47426506
Ce    -1.88557994     3.28796009     8.70361014
Ce     0.01199964     4.50982738     5.64442700
Ce    -1.93600537     5.58869904     2.47426506
Ce     1.88094218     3.19486496     8.67912560
Ce     3.86257263     4.49276496     5.63776635
Ce     1.93588921     5.58869904     2.47426506
Ce     5.84313469     3.35855455     8.80832402
Ce     7.75609121     4.48903420     5.62087801
Ce     5.80789995     5.58869904     2.47426506
Ce     7.70586137     6.72801876     8.77729831
Ce    -1.87914350     7.80377545     5.61032935
Ce    -3.87195266     8.94185811     2.47426506
Ce     1.91153046     7.81019884     5.67668937
Ce    -0.00005808     8.94185811     2.47426506
Ce     3.96587212     6.82761158     8.76595736
Ce     5.81453421     7.83415985     5.59417955
Ce     3.87195266     8.94185811     2.47426506
Co    -0.82756284     7.33152096     9.42367145
O     -5.80377448    10.05696725     6.40545174
O     -0.01272420     2.16725501     9.61849828
O      1.93594729     1.11771969     3.26466483
O      0.00500978     2.23271280     4.80229220
O      0.00000000     0.00000000     1.68386529
O      1.90683645     1.10786643     7.94391367
O     -1.94670997    10.05263044     6.44865414
O      3.84573341     2.20173766     9.57895989
O      5.80795803     1.11771969     3.26466483
O      3.89909059     2.23725268     4.81591575
O      3.87189458     0.00000000     1.68386529
O      5.80972024     1.09867095     8.01389562
O      7.73912488     0.04092282     6.41124950
O      7.76562016     2.25569898     9.53149758
O      9.67985261     1.11771969     3.26466483
O      7.71779062     2.26234456     4.82593503
O      7.74390532     0.00000000     1.68386529
O      9.69005818     1.13114759     7.93122604
O     -1.93221615     3.34964317     6.40793156
O     -1.81315517     5.74929265     9.80000841
O      0.00000000     4.47087876     3.26466483
O     -1.97332044     5.57205755     4.80721262
O      9.67985261     3.35315907     1.68386529
O      0.05765205     4.30542059     7.98477712
O      1.97254175     3.30644277     6.38749573
O      3.87201074     4.47087876     3.26466483
O      1.97135055     5.56401426     4.82748634
O      1.93594729     3.35315907     1.68386529
O      3.65985510     4.51944287     8.15355622
O      5.77883705     3.40740437     6.53513978
O      5.95399775     5.52366243     9.58800362
O      7.74390532     4.47087876     3.26466483
O      5.83127941     5.57627554     4.81433132
O      5.80795803     3.35315907     1.68386529
O      7.86665720     4.51107080     8.00870972
O     -3.85086159     6.72998568     6.45563055
O     -3.89324621     8.97475730     9.59170107
O     -1.93600537     7.82413842     3.26466483
O     -3.85905976     8.93560011     4.79869574
O      7.74384724     6.70641873     1.68386529
O     -1.93422031     7.83647358     8.07374513
O     -0.01127498     6.70526219     6.22196693
O     -0.17300408     8.95898054     9.71427928
O      1.93600537     7.82413842     3.26466483
O     -0.00359399     8.99338781     4.81802883
O     -0.00005808     6.70641873     1.68386529
O      2.02374970     7.93565232     7.98062291
O      3.92059607     6.69612901     6.38143051
O      3.91399959     9.12124826     9.66067697
O      5.80789995     7.82413842     3.26466483
O      3.87389722     8.95061826     4.81258942
O      3.87195266     6.70641873     1.68386529
O      5.85403904     7.85862989     7.97518455
N      0.46305157     6.16778676    10.28445181
H     -0.70586990     5.58289546    10.25958004
H      0.93898270     6.61141849    11.07359664
H      1.08616068     6.04057175     9.47914449
