     8
 Tv_1:  11.598200   0.000000   0.000000 Tv_2:  -5.799100  10.044336   0.000000 Tv_3:   0.000000   0.000000  22.891600
O       0.53018799      4.73739998     10.52453450
O       2.14570758      7.53313117     10.52509837
O       3.75874149      4.73910160     10.52512247
O       2.14530398      3.74124828      8.80726172
O       0.47336958      6.63603067      8.80778223
O       3.81841131      6.63648855      8.80791197
O       2.14512445      5.67185293      6.80875642
Ir      2.14574613      5.67130414      9.74993564
