85
CIF: 1-NH3-NH2+H_is.cif | data_image0
Ce     5.81300533    10.04891133     8.81898864
Ce     1.91760678     1.11800993     5.56773240
Ce     0.00000000     2.23543938     2.47426506
Ce     3.73759818     0.02470368     8.70430360
Ce     5.80435304     1.11443282     5.62641552
Ce     3.87189458     2.23543938     2.47426506
Ce     2.03849605    10.03304986     8.72956914
Ce     9.68662382     1.09993124     5.57435888
Ce     7.74390532     2.23543938     2.47426506
Ce     9.71646333     3.22788733     8.70756820
Ce    -0.00874467     4.51486970     5.63840477
Ce    -1.93600537     5.58869904     2.47426506
Ce     1.85018658     3.28541237     8.69798089
Ce     3.85805768     4.47752469     5.62332276
Ce     1.93588921     5.58869904     2.47426506
Ce     5.79696676     3.34855446     8.84207910
Ce     7.75019954     4.47980853     5.64103722
Ce     5.80789995     5.58869904     2.47426506
Ce    -3.86888572     6.78484504     8.80240771
Ce    -1.90241409     7.81205548     5.66693351
Ce    -3.87195266     8.94185811     2.47426506
Ce     1.90030433     7.80376388     5.64385641
Ce    -0.00005808     8.94185811     2.47426506
Ce     3.92047875     6.78424216     8.71822297
Ce     5.82522964     7.82551829     5.60009558
Ce     3.87195266     8.94185811     2.47426506
Mn     0.07102109     6.69592905    10.06166194
O      5.80701594    10.05123315     6.41358393
O     -0.02058631     2.17734801     9.65960971
O      1.93594729     1.11771969     3.26466483
O     -0.00979582     2.23404268     4.80168509
O      0.00000000     0.00000000     1.68386529
O      1.88461695     1.13639114     7.94492596
O      3.85618654     0.09797446     6.39071624
O      3.83381329     2.26075205     9.53715428
O      5.80795803     1.11771969     3.26466483
O      3.90048634     2.26665493     4.80101701
O      3.87189458     0.00000000     1.68386529
O      5.80782947     0.91804241     8.13656150
O      7.74543253     0.05076685     6.42216152
O      7.76946432     2.16941597     9.58607648
O      9.67985261     1.11771969     3.26466483
O      7.70886693     2.25182591     4.81553132
O      7.74390532     0.00000000     1.68386529
O      9.70111391     1.08237682     7.96941066
O      9.64265905     3.30441057     6.40882323
O     -1.40448146     5.89027123     9.95941697
O      0.00000000     4.47087876     3.26466483
O     -1.97271518     5.55888420     4.82626652
O     -1.93594729     3.35315907     1.68386529
O     -0.02162573     4.25287628     7.95017792
O      1.95366555     3.32905717     6.39464899
O      1.51453319     5.82319131     9.92386862
O      3.87201074     4.47087876     3.26466483
O      1.97602640     5.57140196     4.81869164
O      1.93594729     3.35315907     1.68386529
O      3.64882383     4.57326956     8.07390848
O      5.78707886     3.34769188     6.58567379
O      5.68380858     5.48845525     9.59029316
O      7.74390532     4.47087876     3.26466483
O      5.80812442     5.54773107     4.81734678
O      5.80795803     3.35315907     1.68386529
O      7.89276957     4.46214547     8.12400721
O      7.71664511     6.67671820     6.40743917
O     -3.92819952     9.12791829     9.70435111
O     -1.93600537     7.82413842     3.26466483
O     -3.86969662     8.94190811     4.81295933
O     -3.87195266     6.70641873     1.68386529
O     -2.04551450     8.03084805     7.94159937
O      0.00558339     6.70206644     6.23832803
O      0.09760452     8.37746836     9.99154346
O      1.93600537     7.82413842     3.26466483
O      0.00189444     8.99191026     4.82949477
O     -0.00005808     6.70641873     1.68386529
O      2.12912508     7.92387237     7.94848931
O      3.92769250     6.68836702     6.41227767
O      3.90696969     8.97024298     9.68262761
O      5.80789995     7.82413842     3.26466483
O      3.86842284     8.93750779     4.81194521
O      3.87195266     6.70641873     1.68386529
O      5.78209978     7.85794147     8.00317598
N      0.08881706     6.65918441    12.02652673
H      0.08414688     7.62750391    12.36190539
H      0.93568091     6.17237846    12.33606736
H     -0.75006152     6.16277566    12.34258462
