83
CIF: Ti-Cu-CeO2-Ov-O2.cif | data_image0
Ce     1.93038582     1.11050507     0.88387043
Ce    -0.01585409     2.23617532     4.07575392
Ce    -5.77937295    10.04683116     7.18914385
Ce     5.81181033     1.12175166     0.90127712
Ce     3.85340802     2.21227466     4.01653594
Ce    -1.90744087    10.04926951     7.23868788
Ce     9.66901012     1.12377363     0.90450652
Ce     7.73077372     2.25169628     4.09763528
Ce     2.01128309     9.92611235     7.24892144
Ce    -0.00709724     4.47602159     0.89067279
Ce    -1.94634167     5.55231640     4.09054283
Ce     9.71672888     3.25887208     7.40856827
Ce     3.86254305     4.47635356     0.87798423
Ce     1.94660226     5.55744397     4.07176620
Ce     1.90790549     3.27104573     7.28465404
Ce     7.74213807     4.46545905     0.90125422
Ce     5.81960756     5.62556915     3.98026006
Ce    -1.94645625     7.83004003     0.90010904
Ce    -3.85608816     8.95981288     4.00683097
Ce    -3.85581789     6.86563222     7.12408871
Ce     1.92815559     7.82745473     0.89060408
Ce     0.00089595     8.94079600     4.07048937
Ce     0.01537123     6.65753138     7.25864721
Ce     5.81127600     7.83258510     0.88371011
Ce     3.87293375     8.95421456     4.01378304
Ce     3.92183449     6.78170010     7.14956069
Cu     4.98377129     3.86864734     6.38546227
Ti     6.57084926     2.64885069     8.27471111
O     11.61334069     0.00154917     0.10141687
O      1.93536574     1.11083075     3.22090663
O      0.01481449     2.15626415     6.44264050
O     -0.00785227     2.23805103     1.69392277
O     -5.79871866    10.04849356     4.82557419
O      2.01826846     0.93323768     8.03775602
O     -1.93899312    10.05733740     0.10496691
O      5.81514729     1.09984012     3.25203211
O      4.03997019     2.20475900     6.44756323
O      3.86763657     2.23577757     1.68132582
O      3.88273574     0.00068019     4.85972045
O      6.06182760     0.86222650     8.45355148
O      7.73821774     0.00761509     0.10924988
O      9.66876435     1.11678396     3.24203472
O      7.49182903     2.32499348     6.64519265
O      7.74357843     2.23531483     1.71563532
O      7.76823462     0.05172491     4.90439761
O      9.71860421     0.85214045     7.99965662
O      9.67032270     3.35425987     0.10911246
O     -0.01057479     4.47192246     3.26117682
O     -2.13565402     5.56227449     6.52505858
O     -1.94403436     5.59119430     1.70564938
O      9.63748896     3.30988805     4.87479631
O      0.03519980     4.64700844     8.06919628
O      1.92738314     3.35244915     0.09928684
O      3.83842904     4.48476013     3.20595022
O      2.09298410     5.58788234     6.43429071
O      1.92862022     5.59252216     1.67404250
O      1.94596434     3.31999138     4.83895871
O      5.81155478     3.35101064     0.10766953
O      7.75781227     4.48124387     3.24291866
O      5.87219995     5.58090803     6.39046680
O      5.80528807     5.59217007     1.68114259
O      5.77548593     3.39680298     4.69768143
O      7.98063007     3.22409550     9.10905560
O     -3.87155109     6.71022987     0.10512724
O     -1.91049012     7.81864363     3.25400779
O     -3.83450429     8.94133856     6.34446543
O     -3.87509971     8.94378428     1.69355631
O     -3.87389303     6.74530405     4.81199197
O     -1.94999352     7.86719224     7.99538492
O     -0.01209783     6.71325780     0.10434852
O      1.91230012     7.82201920     3.26980802
O      0.02522945     8.95069612     6.43445195
O     -0.00628994     8.94736548     1.70514550
O     -0.02605011     6.64480461     4.94587471
O      2.00935984     7.78791705     8.01095904
O      3.86815347     6.71410280     0.09951587
O      5.81236685     7.84361584     3.19802052
O      3.90593949     8.86984668     6.33354462
O      3.86556896     8.94715423     1.69389986
O      3.91236255     6.70437597     4.80856612
O      5.85247349     7.83942571     7.96642368
O      4.11656386     4.42202258     8.09104458
O      5.28377746     4.02456666     8.85849264
