87
CIF: 3-NH2NO+H-NHNO+2H_ts.cif | data_image0
Ce     5.79408389    10.05908144     8.78218867
Ce     1.92647916     1.12842342     5.61898095
Ce     0.00000000     2.23543938     2.47426506
Ce     3.81595603     0.05994185     8.76290024
Ce     5.80637757     1.11679192     5.61656414
Ce     3.87189458     2.23543938     2.47426506
Ce     7.78867117     0.04922026     8.74911619
Ce     9.68571978     1.12150620     5.60107275
Ce     7.74390532     2.23543938     2.47426506
Ce    -1.88775810     3.30627976     8.76555890
Ce    -0.00109262     4.46602562     5.69521342
Ce    -1.93600537     5.58869904     2.47426506
Ce     1.90788003     3.35749667     8.80923811
Ce     3.86435451     4.48229043     5.63415613
Ce     1.93588921     5.58869904     2.47426506
Ce     5.81180958     3.34690420     8.75117339
Ce     7.75041292     4.47586719     5.62707458
Ce     5.80789995     5.58869904     2.47426506
Ce     7.68218110     6.70250190     8.78395013
Ce    -1.95941190     7.82625338     5.60068727
Ce    -3.87195266     8.94185811     2.47426506
Ce     1.95710310     7.81658070     5.60847191
Ce    -0.00005808     8.94185811     2.47426506
Ce     3.89161578     6.66420243     8.87286821
Ce     5.79435503     7.82209867     5.63347796
Ce     3.87195266     8.94185811     2.47426506
Co    -0.00991517     7.65403799     8.14912349
O      5.81068050    10.04226198     6.43008112
O     -0.03285972     2.15835529     9.63008501
O      1.93594729     1.11771969     3.26466483
O      0.00171365     2.23659170     4.82466601
O      0.00000000     0.00000000     1.68386529
O      1.91156439     1.13356803     7.97370613
O     -1.96602599    10.04088129     6.44934164
O      3.89388912     2.19784192     9.55757560
O      5.80795803     1.11771969     3.26466483
O      3.87650469     2.22586511     4.82072718
O      3.87189458     0.00000000     1.68386529
O      5.80356231     1.13623610     7.94424524
O      1.95469928    10.03565390     6.43708505
O      7.75203295     2.20808547     9.53163437
O      9.67985261     1.11771969     3.26466483
O      7.73599675     2.22434184     4.81392870
O      7.74390532     0.00000000     1.68386529
O      9.70213078     1.14412382     7.92827435
O      9.66283565     3.35040015     6.39384068
O     -2.28199162     5.39443214     9.95000734
O      0.00000000     4.47087876     3.26466483
O     -1.92354016     5.60932276     4.83440813
O      9.67985261     3.35315907     1.68386529
O     -0.02447473     4.32439029     7.99427403
O      1.94362326     3.35910563     6.41379087
O      2.31152208     5.25373614     9.93553865
O      3.87201074     4.47087876     3.26466483
O      1.91219892     5.60380617     4.83106258
O      1.93594729     3.35315907     1.68386529
O      3.88104505     4.46838788     7.93731702
O      5.82318655     3.35944753     6.42091910
O      5.83971868     5.55231756     9.52941321
O      7.74390532     4.47087876     3.26466483
O      5.80995927     5.60049499     4.82602020
O      5.80795803     3.35315907     1.68386529
O      7.78145754     4.48720966     7.96345819
O     -3.86647283     6.74234113     6.45552512
O     -3.86408263     8.92934473     9.50403085
O     -1.93600537     7.82413842     3.26466483
O     -3.87676477     8.94256254     4.80767136
O      7.74384724     6.70641873     1.68386529
O     -1.83184157     7.76328626     8.03855898
O     -0.00626833     6.77120838     6.49781296
O     -0.01349417     8.94104929     9.42527029
O      1.93600537     7.82413842     3.26466483
O     -0.00662978     8.94451377     4.81475569
O     -0.00005808     6.70641873     1.68386529
O      1.81327915     7.75775707     8.04241369
O      3.84734640     6.73589466     6.44651779
O      3.83433465     9.00174518     9.45056850
O      5.80789995     7.82413842     3.26466483
O      3.87487861     8.94310284     4.80553458
O      3.87195266     6.70641873     1.68386529
O      5.78913440     7.79689622     8.00481755
O      4.66878336     7.66345084    12.26772777
N      2.83898598     6.43587639    12.02512722
N      3.89946897     6.99634983    11.54160124
H      2.37356607     5.71967215    11.04487099
H      2.69186890     6.57109819    13.04149493
H     -1.49590016     5.85920504    10.29398122
