84
CIF: Mo-Rh-CeO2-CO.cif | data_image0
Ce     1.93038582     1.11050507     0.88387043
Ce    -0.01025853     2.23650976     4.05307111
Ce    -5.79767763    10.05384170     7.25807112
Ce     5.81181033     1.12175166     0.90127712
Ce     3.85184085     2.20010289     4.00322760
Ce    -2.03927427     9.99617282     7.22965240
Ce     9.66901012     1.12377363     0.90450652
Ce     7.75546920     2.22904342     4.08398804
Ce     2.05546227     9.90646932     7.33458149
Ce    -0.00709724     4.47602159     0.89067279
Ce    -1.94737917     5.57645729     4.09136233
Ce    -1.74535233     3.32412333     7.34369290
Ce     3.86254305     4.47635356     0.87798423
Ce     1.95175297     5.57905904     4.04468620
Ce     1.90575465     3.33461532     7.22309604
Ce     7.74213807     4.46545905     0.90125422
Ce     5.82841356     5.62387892     4.00334950
Ce    -1.94645625     7.83004003     0.90010904
Ce    -3.87985612     8.94730931     4.02462809
Ce    -3.86956096     6.83345603     7.22645325
Ce     1.92815559     7.82745473     0.89060408
Ce     0.00332044     8.95640355     4.09017568
Ce     0.01645910     6.69556950     7.24463341
Ce     5.81127600     7.83258510     0.88371011
Ce     3.86741968     8.94890914     4.05194326
Ce     3.87257418     6.74172458     7.22438345
Rh     4.94467398     3.85173481     6.65153795
Mo     6.53374306     2.92072838     8.03583198
O     11.61334069     0.00154917     0.10141687
O      1.93258474     1.11050792     3.22612837
O      0.11393006     2.21120945     6.42729497
O     -0.00785227     2.23805103     1.69392277
O     -5.79339638    10.04957554     4.87746845
O      1.96730567     1.07134571     8.07609187
O     -1.93899312    10.05733740     0.10496691
O      5.73392312     1.07982681     3.25386251
O      3.88824828     2.15990599     6.49860984
O      3.86763657     2.23577757     1.68132582
O     -1.97674239    10.04773873     4.89233230
O      6.11093835     1.31426575     8.71336837
O      7.73821774     0.00761509     0.10924988
O      9.74246911     1.08123586     3.24562887
O      7.61102444     2.30553789     6.68264368
O      7.74357843     2.23531483     1.71563532
O      1.94631687     9.98720683     4.92310881
O      9.86106401     1.00951642     8.09152343
O      9.67032270     3.35425987     0.10911246
O      0.01102621     4.48997656     3.25707043
O     -2.03769357     5.62698500     6.56500949
O     -1.94403436     5.59119430     1.70564938
O     -1.86946844     3.38278707     4.92277637
O      0.15812267     4.54183795     8.07655315
O      1.92738314     3.35244915     0.09928684
O      3.87191429     4.47088281     3.21340570
O      1.96680140     5.56971053     6.36179899
O      1.92862022     5.59252216     1.67404250
O      1.98113918     3.33263592     4.86374406
O      3.74970399     4.54069445     8.15261698
O      5.81155478     3.35101064     0.10766953
O      7.73894834     4.55349757     3.25348084
O      5.88344408     5.61166816     6.50159760
O      5.80528807     5.59217007     1.68114259
O      5.73289966     3.39776045     4.90367155
O      7.71620643     4.06635430     8.74218970
O     -3.87155109     6.71022987     0.10512724
O     -1.93439139     7.82378687     3.26335931
O     -3.86627264     8.94070782     6.42510472
O     -3.87509971     8.94378428     1.69355631
O     -3.88319947     6.74948599     4.89122885
O     -2.01475168     7.87191282     8.10263960
O     -0.01209783     6.71325780     0.10434852
O      1.92462324     7.80514313     3.25740901
O     -0.08123835     9.00661220     6.56161236
O     -0.00628994     8.94736548     1.70514550
O     -0.02967534     6.72199014     4.94442506
O      1.95312567     7.65162165     8.07399776
O      3.86815347     6.71410280     0.09951587
O      5.81233434     7.83076036     3.22549606
O      3.94872631     8.85305610     6.42965122
O      3.86556896     8.94715423     1.69389986
O      3.91282369     6.67687858     4.86418255
O      5.86623749     7.82268585     8.07660842
O      4.58753835     4.03180229    10.75474458
C      5.05239728     3.76920776     9.73634900
