82
CIF: Ru-Sc-CeO2.cif | data_image0
Ce     1.93038582     1.11050507     0.88387043
Ce    -0.00900162     2.22813387     4.04147425
Ce    -5.77213443    10.03861825     7.23097164
Ce     5.81181033     1.12175166     0.90127712
Ce     3.85269509     2.22490441     4.01549713
Ce    -1.96600891    10.04199519     7.24422304
Ce     9.66901012     1.12377363     0.90450652
Ce     7.71467863     2.25204143     4.11444115
Ce     2.02024227     9.95111270     7.24634346
Ce    -0.00709724     4.47602159     0.89067279
Ce    -1.95843943     5.58970713     4.06816170
Ce    -1.79973994     3.33373487     7.24656029
Ce     3.86254305     4.47635356     0.87798423
Ce     1.92570972     5.59426477     4.03565890
Ce     1.93010700     3.34832009     7.19286239
Ce     7.74213807     4.46545905     0.90125422
Ce     5.80706701     5.61006693     4.01557310
Ce    -1.94645625     7.83004003     0.90010904
Ce    -3.87097065     8.94099608     4.05187920
Ce    -3.87191613     6.74103305     7.24404741
Ce     1.92815559     7.82745473     0.89060408
Ce    -0.01260953     8.96053078     4.06780260
Ce    -0.01388755     6.71417649     7.21492921
Ce     5.81127600     7.83258510     0.88371011
Ce     3.87346351     8.95302849     4.04135167
Ce     3.87274555     6.71351239     7.19277419
Sc     5.34231352     3.62158781     6.83979467
Ru     7.03616072     2.64312905     8.52089816
O     11.61334069     0.00154917     0.10141687
O      1.92478298     1.11046505     3.23514579
O      0.06166344     2.22083822     6.42817590
O     -0.00785227     2.23805103     1.69392277
O     -5.78279046    10.04468742     4.89510713
O      1.96886270     1.09808026     8.03485590
O     -1.93899312    10.05733740     0.10496691
O      5.73242441     1.07483933     3.25381113
O      3.91191217     2.19556555     6.45679868
O      3.86763657     2.23577757     1.68132582
O     -1.96760698    10.04420661     4.90203032
O      6.04053646     1.02155660     8.48152124
O      7.73821774     0.00761509     0.10924988
O      9.74271835     1.08145593     3.25130367
O      7.60410390     2.31568977     6.66667017
O      7.74357843     2.23531483     1.71563532
O      1.95407451    10.00796984     4.94562608
O      9.78024796     1.05946665     7.98387789
O      9.67032270     3.35425987     0.10911246
O     -0.00374298     4.48272835     3.25407354
O     -1.99684421     5.57200907     6.49480055
O     -1.94403436     5.59119430     1.70564938
O     -1.88175632     3.36270670     4.94666256
O      0.03856931     4.47037406     8.02059879
O      1.92738314     3.35244915     0.09928684
O      3.82589369     4.49749966     3.19859635
O      1.88454318     5.61811542     6.37320557
O      1.92862022     5.59252216     1.67404250
O      1.95402012     3.34951343     4.87036157
O      3.79368905     4.51589181     7.87922790
O      5.81155478     3.35101064     0.10766953
O      7.74327212     4.55668511     3.25429669
O      5.86208391     5.57342497     6.45666935
O      5.80528807     5.59217007     1.68114259
O      5.66154240     3.43730526     4.81220705
O      7.94347611     4.31719962     8.48231998
O     -3.87155109     6.71022987     0.10512724
O     -1.94705411     7.83022416     3.25279155
O     -3.84728933     8.92731520     6.46122627
O     -3.87509971     8.94378428     1.69355631
O     -3.87465584     6.74100333     4.90193250
O     -1.93981725     7.82606746     8.04130053
O     -0.01209783     6.71325780     0.10434852
O      1.92371314     7.82106531     3.25404492
O     -0.01620674     9.00245727     6.49452452
O     -0.00628994     8.94736548     1.70514550
O     -0.05168741     6.73587660     4.90494745
O      1.95536968     7.79063060     8.02052774
O      3.86815347     6.71410280     0.09951587
O      5.80818815     7.83692091     3.23500201
O      3.91471566     8.89538107     6.42774023
O      3.86556896     8.94715423     1.69389986
O      3.88388377     6.69216723     4.87034354
O      5.84086875     7.80518328     8.03471378
