83
CIF: Mo-Sc-CeO2-Ov-O2.cif | data_image0
Ce     1.93038582     1.11050507     0.88387043
Ce    -0.00780876     2.23856484     4.06578148
Ce     5.77326669    10.05134522     7.22099424
Ce     5.81181033     1.12175166     0.90127712
Ce     3.85585253     2.21990645     4.01885939
Ce    -2.11323575     9.96619198     7.15698435
Ce     9.66901012     1.12377363     0.90450652
Ce     7.74734990     2.24787685     3.96246860
Ce     2.04034703     9.96030179     7.34176554
Ce    -0.00709724     4.47602159     0.89067279
Ce    -1.95283469     5.60448582     4.11265688
Ce    -1.68761402     3.42697846     7.39042796
Ce     3.86254305     4.47635356     0.87798423
Ce     1.94660435     5.60168961     4.05817910
Ce     1.95312179     3.35870831     7.21312154
Ce     7.74213807     4.46545905     0.90125422
Ce     5.82702111     5.59186711     4.05875688
Ce    -1.94645625     7.83004003     0.90010904
Ce    -3.89768705     8.91991946     4.02286772
Ce    -3.88264519     6.72919788     7.33337142
Ce     1.92815559     7.82745473     0.89060408
Ce    -0.00528925     8.97596652     4.09053616
Ce     0.02664476     6.75677951     7.23340395
Ce     5.81127600     7.83258510     0.88371011
Ce     3.87058558     8.95806167     4.05103005
Ce     3.88541975     6.70590268     7.20889471
Sc     5.33356606     3.52451410     6.90468941
Mo     6.95717515     3.36656415     9.50406859
O     11.61334069     0.00154917     0.10141687
O      1.91921560     1.12396259     3.22665230
O      0.11603902     2.25325782     6.37552966
O     -0.00785227     2.23805103     1.69392277
O     11.59211024     0.01263412     4.83745186
O      1.93379397     1.06963882     8.03161797
O     -1.93899312    10.05733740     0.10496691
O      5.78894656     1.11574893     3.21998303
O      3.89946934     2.16927957     6.43016903
O      3.86763657     2.23577757     1.68132582
O     -1.98114286    10.04637101     4.82358700
O      7.73821774     0.00761509     0.10924988
O      9.68493968     1.12716344     3.21083136
O      6.58296500     2.21682313     8.00735381
O      7.74357843     2.23531483     1.71563532
O      7.74630740     0.18397564     4.94027508
O      9.78827608     1.09425279     8.00695528
O      9.67032270     3.35425987     0.10911246
O     -0.03402843     4.46934003     3.29960408
O     -1.86409062     5.63473453     6.43394731
O     -1.94403436     5.59119430     1.70564938
O      9.52220840     3.26175124     4.97634805
O      0.20467216     4.55431519     8.08935983
O      1.92738314     3.35244915     0.09928684
O      3.89842236     4.45725299     3.23312343
O      1.94878539     5.60818745     6.33961200
O      1.92862022     5.59252216     1.67404250
O      1.98688159     3.35882952     4.83272269
O      3.82009270     4.44210971     7.94378369
O      5.81155478     3.35101064     0.10766953
O      7.74256037     4.47282016     3.22648598
O      5.80470252     5.48506491     6.44927178
O      5.80528807     5.59217007     1.68114259
O      5.86646781     3.28367762     4.90700986
O      8.10841431     4.58764619     8.70389398
O     -3.87155109     6.71022987     0.10512724
O     -1.93339308     7.82351740     3.25328075
O     -3.91444086     8.95050639     6.37873011
O     -3.87509971     8.94378428     1.69355631
O      7.72741492     6.69489336     4.82530147
O     -1.87384382     7.94598541     8.07491589
O     -0.01209783     6.71325780     0.10434852
O      1.93714753     7.87202739     3.27006650
O     -0.05238483     9.09121042     6.48677647
O     -0.00628994     8.94736548     1.70514550
O      0.01337062     6.78507413     4.87924032
O      1.94129544     7.72425508     8.05231005
O      3.86815347     6.71410280     0.09951587
O      5.79657428     7.82951814     3.22644006
O      3.87115159     8.89196645     6.35423141
O      3.86556896     8.94715423     1.69389986
O      3.90644458     6.68854490     4.83527798
O      5.67093317     7.87574517     8.03910882
O      6.38444658     3.89717834    11.14065939
O      5.56178991     3.86417808    12.16179769
