83
CIF: Ti-Cr-CeO2-Ov-O2.cif | data_image0
Ce     1.93038582     1.11050507     0.88387043
Ce    -0.00980357     2.23235886     4.01806884
Ce    -5.78101898    10.04770817     7.22534122
Ce     5.81181033     1.12175166     0.90127712
Ce     3.80390166     2.20901248     3.97726328
Ce    -2.04676408     9.97855666     7.17922733
Ce     9.66901012     1.12377363     0.90450652
Ce     7.77862594     2.22825740     4.08801012
Ce     2.02396092    10.05826807     7.39931909
Ce    -0.00709724     4.47602159     0.89067279
Ce    -1.93563802     5.58536127     4.08931717
Ce    -1.76106434     3.33634454     7.28333901
Ce     3.86254305     4.47635356     0.87798423
Ce     1.96168479     5.59976122     4.07792742
Ce     1.83194161     3.28703536     7.16615144
Ce     7.74213807     4.46545905     0.90125422
Ce     5.80862902     5.63452144     4.03962353
Ce    -1.94645625     7.83004003     0.90010904
Ce    -3.88325771     8.92243456     4.03216199
Ce    -3.81706597     6.71560399     7.28262149
Ce     1.92815559     7.82745473     0.89060408
Ce     0.01630297     8.97665240     4.09417215
Ce     0.04370525     6.72041004     7.26528009
Ce     5.81127600     7.83258510     0.88371011
Ce     3.87036368     8.94970441     4.07584908
Ce     3.87739533     6.82385925     7.28100854
Cr     5.03892480     3.72025700     6.57092824
Ti     6.82803043     3.02978668     8.13261821
O     11.61334069     0.00154917     0.10141687
O      1.92236755     1.10538667     3.20296316
O      0.05174013     2.22797662     6.35834622
O     -0.00785227     2.23805103     1.69392277
O      0.02739283     0.01319673     4.85125896
O      1.94184936     1.09186907     7.99909962
O     -1.93899312    10.05733740     0.10496691
O      5.80429254     1.15563166     3.26886713
O      3.90428556     2.23489638     6.49243124
O      3.86763657     2.23577757     1.68132582
O      3.83607617     0.02737938     4.85201862
O      6.68591822     1.44475152     8.88901567
O      7.73821774     0.00761509     0.10924988
O      9.67229794     1.13252403     3.25075534
O      7.76083028     2.38588757     6.61219630
O      7.74357843     2.23531483     1.71563532
O      7.74767171     0.05929981     4.87085826
O      9.94570440     1.19210603     8.09549399
O      9.67032270     3.35425987     0.10911246
O     -0.00413904     4.49588125     3.26720090
O     -1.91597279     5.56286983     6.48613080
O     -1.94403436     5.59119430     1.70564938
O     -1.91932106     3.32516633     4.89504487
O      0.07088229     4.41945804     8.07462196
O      1.92738314     3.35244915     0.09928684
O      3.80894493     4.43583481     3.21531989
O      1.94131457     5.48001087     6.44885085
O      1.92862022     5.59252216     1.67404250
O      1.93363220     3.30578926     4.84039852
O      5.81155478     3.35101064     0.10766953
O      7.78117150     4.41057499     3.28381254
O      5.86126617     5.34130208     6.62588354
O      5.80528807     5.59217007     1.68114259
O      5.67032694     3.33179807     4.97018619
O      8.10923114     4.31588709     8.49540346
O     -3.87155109     6.71022987     0.10512724
O     -1.92796458     7.81818769     3.26987522
O     -3.83307550     8.93077878     6.39089782
O     -3.87509971     8.94378428     1.69355631
O     -3.83865199     6.70727280     4.94843341
O     -1.98549064     7.83246179     8.05202395
O     -0.01209783     6.71325780     0.10434852
O      1.91510798     7.83988975     3.25778850
O     -0.08599220     9.09252413     6.51964462
O     -0.00628994     8.94736548     1.70514550
O      0.02131605     6.76125349     4.94127162
O      1.79804492     7.71830891     8.10344509
O      3.86815347     6.71410280     0.09951587
O      5.81684330     7.88899958     3.22792983
O      3.95396884     8.99895596     6.44664331
O      3.86556896     8.94715423     1.69389986
O      3.83550131     6.75707179     4.87886147
O      5.99921795     7.82556921     8.03666195
O      3.87019125     4.38761493     8.07329034
O      4.91542185     3.57308976     8.59932052
