    36
 Tv_1:   7.865149   0.000000   0.000000 Tv_2:  -3.932574   6.811419   0.000000 Tv_3:   0.000000   0.000000  23.027334
Pd      1.65320478      3.79644098      7.23273060
Rh     -1.75483480      3.21751963      7.03330401
Ce      3.93257441      2.27047284      0.80273332
Ce      0.02625456      4.56478452      3.93200263
Ce      7.90087916     -0.25516890      7.12962818
Ce      1.96628723      5.67618214      0.80273332
Ce      1.96711210      1.13683716      4.02557872
Ce     -1.96628714      5.67618214      0.80273332
Ce      5.92038572      1.12616154      4.00604597
Ce      0.00000004      2.27047284      0.80273332
Ce      3.85589696      4.50961429      4.00123111
Ce      3.98097943      0.05569726      7.14450128
O       3.93257433      4.54094576      1.60546686
O       3.93239593      0.13509312      4.80363121
O      -0.07135038      2.79876313      7.75558175
O      -1.96628718      3.40570930      0.00000000
O       1.96605188      5.72766308      3.18050137
O       2.00629216      1.06470138      6.63477315
O       5.89886151      1.13523646      1.60546686
O       1.93101588      3.32381860      4.40733447
O      -1.95988775      5.18465339      7.48630187
O       0.00000000      0.00000000      0.00000000
O       4.05393479      2.29408232      3.18574781
O       0.32285045      4.79655569      6.14421928
O       1.96628714      1.13523646      1.60546686
O      -2.02259855      3.47912726      5.15675447
O       1.86115686      5.78203194      8.13942049
O       3.93257436      0.00000000      0.00000000
O      -0.12170318      2.26310934      3.20210341
O       3.29061277      4.53767873      6.33873585
O      -0.00000004      4.54094576      1.60546686
O       0.07220814     -0.05617656      4.82726576
O       4.72515723      2.60287401      8.00472998
O       1.96628718      3.40570930      0.00000000
O      -1.95896553      5.63429623      3.20260308
O       6.08596297      1.14527033      6.42380492
