85
CIF: NH3.cif | data_image0
Ce     0.02131614     0.01552930     8.73591523
Ce     1.92348247     1.11200738     5.63211263
Ce     0.00000000     2.23543938     2.47426506
Ce    -1.90472695    10.00727765     8.78226336
Ce     5.80547145     1.10801375     5.62573953
Ce     3.87189458     2.23543938     2.47426506
Ce     7.76497528     0.00055137     8.75433837
Ce     9.69188313     1.13742292     5.62354283
Ce     7.74390532     2.23543938     2.47426506
Ce     9.59446901     3.37760970     8.81371178
Ce    -0.01416189     4.52932147     5.63077922
Ce    -1.93600537     5.58869904     2.47426506
Ce     1.90339685     3.41067343     8.78268123
Ce     3.86111819     4.47573514     5.62586395
Ce     1.93588921     5.58869904     2.47426506
Ce     5.76386391     3.33043415     8.76958801
Ce     7.73959925     4.46992040     5.61103929
Ce     5.80789995     5.58869904     2.47426506
Ce     7.71920313     6.62472423     8.81308623
Ce    -1.89328501     7.78463278     5.63129910
Ce    -3.87195266     8.94185811     2.47426506
Ce     1.93633507     7.82542596     5.56781712
Ce    -0.00005808     8.94185811     2.47426506
Ce     3.88003645     6.72859598     8.75467744
Ce     5.82956441     7.82711337     5.62351997
Ce     3.87195266     8.94185811     2.47426506
Ir     0.26358610     6.86138237     8.87533833
O      0.00795343     0.00677517     6.44053180
O      0.01572412     2.34458520     9.50588251
O      1.93594729     1.11771969     3.26466483
O      0.00528220     2.22783782     4.81611853
O      0.00000000     0.00000000     1.68386529
O      1.93853711     1.12263115     7.99041432
O     -1.95478205     9.96406544     6.50342023
O      3.86808082     2.23518507     9.56732380
O      5.80795803     1.11771969     3.26466483
O      3.83820323     2.21661785     4.85110002
O      3.87189458     0.00000000     1.68386529
O      5.78212524     1.07338115     7.98628337
O      7.76504458     0.01301706     6.43106895
O      7.70871011     2.21056964     9.53426026
O      9.67985261     1.11771969     3.26466483
O      7.74971739     2.24630156     4.83406574
O      7.74390532     0.00000000     1.68386529
O      9.70744080     1.12266032     7.98485385
O     -1.87535092     3.38049038     6.48111920
O     -2.59254809     5.21304980     9.97851821
O      0.00000000     4.47087876     3.26466483
O     -1.99444066     5.55554847     4.79768990
O     -1.93594729     3.35315907     1.68386529
O     -0.05104441     4.90539017     8.16903377
O      1.84256620     3.38757125     6.50377566
O      1.95822546     5.78932948     9.59805284
O      3.87201074     4.47087876     3.26466483
O      2.00014297     5.55272723     4.79397538
O      1.93594729     3.35315907     1.68386529
O      3.81773027     4.47361385     7.98740786
O      5.75834951     3.32643012     6.43162386
O      5.76631652     5.57482545     9.53371976
O      7.74390532     4.47087876     3.26466483
O      5.81933835     5.59046588     4.83403217
O      5.80795803     3.35315907     1.68386529
O      7.68317030     4.43868719     7.88727293
O     -3.81977249     6.74866090     6.48125807
O     -3.77194850     8.90528480     9.50460588
O     -1.93600537     7.82413842     3.26466483
O     -3.87697683     8.95209043     4.81612588
O     -3.87195266     6.70641873     1.68386529
O     -1.58700284     7.56620480     8.16762386
O      0.01610565     6.71614710     6.06229753
O      0.18196579     8.86599538     9.59693910
O      1.93600537     7.82413842     3.26466483
O      0.00062535     9.01738218     4.79422533
O     -0.00005808     6.70641873     1.68386529
O      1.82514395     7.76240256     7.87468059
O      3.89244996     6.72075193     6.43090311
O      3.86510584     8.94108505     9.51468006
O      5.80789995     7.82413842     3.26466483
O      3.89794698     8.95784275     4.81074132
O      3.87195266     6.70641873     1.68386529
O      5.82310297     7.84990520     7.98444548
N     -0.49192814     6.42988137    10.70226697
H     -1.44708751     5.87700266    10.54470355
H     -0.61797289     7.32875253    11.18438235
H      0.22179280     5.87551733    11.19109293
