82
CIF: Mo-Mo-CeO2.cif | data_image0
Ce     1.93596140     1.11772783     0.89035214
Ce    -0.00528966     2.23819168     4.06284037
Ce    -0.00117825     0.00500299     7.20694690
Ce     5.80789581     1.11772783     0.89035214
Ce     3.85108200     2.21245884     3.96450359
Ce    -2.04978446     9.93691170     7.22318796
Ce     9.67981860     1.11772783     0.89035214
Ce     7.75757851     2.23008821     4.03670477
Ce     2.04746680     9.88966640     7.36659554
Ce     0.00000000     4.47091133     0.89035214
Ce    -1.94899323     5.57752779     4.09182908
Ce    -1.71822738     3.35808971     7.35274907
Ce     3.87193441     4.47091133     0.89035214
Ce     1.95934331     5.57919640     4.08214226
Ce     1.91252987     3.34647421     7.29207947
Ce     7.74385721     4.47091133     0.89035214
Ce     5.81911248     5.62096763     3.96554218
Ce    -1.93596721     7.82410489     0.89035214
Ce    -3.87875101     8.94488146     3.99930505
Ce    -3.82061645     6.86050386     7.23027384
Ce     1.93596721     7.82410489     0.89035214
Ce     0.00688543     8.96405346     4.09369148
Ce     0.03660510     6.69388922     7.26969845
Ce     5.80789000     7.82410489     0.89035214
Ce     3.86744515     8.94997661     4.06482199
Ce     3.86816144     6.73902553     7.29337331
Mo     5.38484290     3.59839041     6.88279225
Mo     6.94946806     2.73557124     8.86634290
O      0.00000000     0.00000000     0.09999685
O      1.93090421     1.10847017     3.20816186
O      0.08013154     2.18622741     6.40423810
O      0.00000000     2.23545567     1.68070743
O     -5.78006673    10.04386779     4.85214271
O      2.03002482     0.97280476     8.03272474
O      3.87192279     0.00000000     0.09999685
O      5.73629411     1.08039593     3.23126476
O      4.20219495     2.20426436     6.56507444
O      3.87192279     2.23545567     1.68070743
O      3.82534734     0.04112635     4.88993999
O      6.59074487     1.06770646     9.34453377
O      7.74385721     0.00000000     0.09999685
O      9.74629086     1.08072238     3.23681076
O      7.15541309     2.57732863     6.95143394
O      7.74385721     2.23545567     1.68070743
O      1.92915712    10.04154152     4.93897274
O      9.82398578     1.04673823     8.06124566
O     -1.93596140     3.35318350     0.09999685
O      0.00987178     4.48100691     3.28471502
O     -2.06121103     5.63737839     6.53820989
O     -1.93596721     5.58864923     1.68070743
O     -1.91853558     3.37361934     4.93266944
O      0.07239370     4.61251784     8.12768831
O      1.93596140     3.35318350     0.09999685
O      3.88011403     4.46907804     3.19823134
O      1.92984799     5.59882647     6.36439326
O      1.93595559     5.58864923     1.68070743
O      2.04341757     3.29564760     4.85796733
O      5.80789581     3.35318350     0.09999685
O      7.74111173     4.55435626     3.23089821
O      5.99460642     5.32147157     6.55910832
O      5.80789000     5.58864923     1.68070743
O      5.71663532     3.40663205     4.88715089
O      8.17992118     3.94913162     9.27464057
O     -3.87192860     6.70637706     0.09999685
O     -1.94144577     7.82833129     3.26518717
O     -3.84189901     8.92281700     6.36215486
O     -3.87192860     8.94183273     1.68070743
O      7.68542859     6.72595990     4.89163355
O     -2.02006882     7.87443199     8.12283295
O     -0.00000581     6.70637706     0.09999685
O      1.93417757     7.81694693     3.28435751
O     -0.09955211     9.04200325     6.54809904
O     -0.00000581     8.94183273     1.68070743
O     -0.04677387     6.74117483     4.92846974
O      3.87192860     6.70637706     0.09999685
O      5.81466703     7.83450145     3.20755137
O      3.95261495     8.90973862     6.41401428
O      3.87192860     8.94183273     1.68070743
O      3.97694142     6.65234279     4.85798864
O      5.98508289     7.81570759     8.03350888
O      4.10518671     4.33869643     8.01484152
O      1.85286972     7.70756496     8.13068180
