84
CIF: Y-Mo-CeO2-Ov-CO2.cif | data_image0
Ce     1.93596140     1.11772783     0.89035214
Ce    -0.01664709     2.21807199     4.05396807
Ce    -5.62117955     9.92824094     7.24213219
Ce     5.80789581     1.11772783     0.89035214
Ce     3.78508143     2.19014794     3.95861620
Ce    -2.00561744     9.95161004     7.33188655
Ce     9.67981860     1.11772783     0.89035214
Ce     7.77336470     2.23698476     4.00649787
Ce     1.96360965    10.02037752     7.26743909
Ce     0.00000000     4.47091133     0.89035214
Ce    -1.96160101     5.59309041     4.06788865
Ce    -1.81911800     3.50359559     7.24917923
Ce     3.87193441     4.47091133     0.89035214
Ce     1.93881975     5.59276361     4.11259195
Ce     1.74139784     3.26486866     7.30643546
Ce     7.74385721     4.47091133     0.89035214
Ce     5.80723684     5.64889652     3.98777589
Ce    -1.93596721     7.82410489     0.89035214
Ce    -3.86059724     8.90465456     4.06099111
Ce    -3.75418277     6.70631638     7.44840605
Ce     1.93596721     7.82410489     0.89035214
Ce     0.01294971     8.97362614     4.08551892
Ce     0.03612737     6.75199526     7.27607702
Ce     5.80789000     7.82410489     0.89035214
Ce     3.88099663     8.95980905     4.05104683
Ce     3.80760209     6.91263005     7.30795570
Mo     5.74615454     3.20383716     6.84183944
O      0.00000000     0.00000000     0.09999685
O      1.91451238     1.10388980     3.20921253
O     -0.17317482     2.10658559     6.59710906
O      0.00000000     2.23545567     1.68070743
O     -5.73624144    10.04681290     4.90211825
O      1.85874309     1.02109729     8.18456868
O      3.87192279     0.00000000     0.09999685
O      5.73061964     1.10598172     3.23869706
O      4.09612812     2.39735253     6.69971820
O      3.87192279     2.23545567     1.68070743
O      3.82795725     0.08613919     4.89370699
O      5.84952733     2.36176265     8.62081934
O      7.74385721     0.00000000     0.09999685
O      9.75799553     1.08808727     3.24001004
O      7.44692070     2.50770179     6.56360788
O      7.74385721     2.23545567     1.68070743
O      1.96353722    10.03603950     4.88411658
O      8.96806934     1.69445749     8.74026238
O     -1.93596140     3.35318350     0.09999685
O      0.01577014     4.47400903     3.28673830
O     -1.88211579     5.57748405     6.44343701
O     -1.93596721     5.58864923     1.68070743
O     -1.89061949     3.35491747     4.94484492
O     -0.07790080     4.50232355     8.16400728
O      1.93596140     3.35318350     0.09999685
O      3.77257861     4.42544312     3.25992514
O      1.97611782     5.53865411     6.53045360
O      1.93595559     5.58864923     1.68070743
O      1.90084190     3.22375032     4.93901714
O      5.80789581     3.35318350     0.09999685
O      7.80594967     4.50725642     3.21996312
O      5.62052380     4.95663295     7.18823700
O      5.80789000     5.58864923     1.68070743
O      5.68602239     3.34909376     4.95648094
O      8.22474605     4.51399765     8.73105558
O     -3.87192860     6.70637706     0.09999685
O     -1.93263673     7.82682972     3.28502948
O     -3.82346142     8.90493658     6.45374421
O     -3.87192860     8.94183273     1.68070743
O      7.72047581     6.68305300     4.97388278
O     -1.78417878     7.75422463     8.21713383
O     -0.00000581     6.70637706     0.09999685
O      1.94450834     7.81206173     3.26401182
O     -0.00036829     9.02816508     6.47851997
O     -0.00000581     8.94183273     1.68070743
O      0.03851185     6.73966558     4.92299376
O      3.87192860     6.70637706     0.09999685
O      5.81349377     7.90913267     3.21976955
O      3.93553786     9.14316037     6.56924314
O      3.87192860     8.94183273     1.68070743
O      3.88709111     6.79428518     4.96185146
O      5.85518823     7.87528093     8.15142300
O      3.53536850     4.25897033     9.63936871
O      1.84916300     7.84393963     8.19111789
O      5.33829257     3.84192470    11.09062726
Y      7.61391785     2.86645188     9.71767207
C      4.45474992     4.01599629    10.32679555
