90
CIF: H+OH.cif | data_image0
O      0.00261135     0.00382715     0.19995339
O      1.91496957     1.09639508     3.34917815
O      0.07791945     2.17232709     6.60397724
O      0.00261135     2.21285656     1.76196664
O      5.70668810     9.93222700     4.97476908
O      1.94514955     1.13287800     8.38947331
O      3.82876252     0.00382715     0.19995339
O      5.74477573     1.10749456     3.33203368
O      3.83295515     2.23877753     6.59727029
O      3.82876252     2.21285656     1.76196664
O      3.84422222     0.01230554     4.98329149
O      5.74425125     1.08117235     8.19309318
O      7.65492518     0.00382715     0.19995339
O      9.56908077     1.10804935     3.32982303
O      7.63495602     2.19603910     6.55266683
O      7.65492518     2.21285656     1.76196664
O      7.66428308     0.01252081     4.95357246
O      9.57566504     0.95044540     8.21575142
O     -1.91046424     3.31737126     0.19995339
O      0.01184359     4.41895253     3.35941329
O     -1.87354988     5.58387586     6.55041072
O     -1.91046998     5.52641062     1.76196664
O     -1.89477505     3.30552565     4.96751828
O     -0.26448171     4.76956451     8.69043291
O      1.91568694     3.31737126     0.19995339
O      3.82484943     4.41131629     3.35107756
O      1.92889368     5.63304752     6.58805653
O      1.91568120     5.52641062     1.76196664
O      1.92612092     3.28431237     4.97542673
O      4.24438030     4.56274473     8.63956581
O      5.74184959     3.31737126     0.19995339
O      7.65825031     4.43771405     3.35719128
O      5.65210600     5.50841328     6.50371056
O      5.74184385     5.52641062     1.76196664
O      5.74974477     3.30023483     4.96657475
O      7.53566344     4.52359459     8.17966829
O     -3.82354556     6.63092532     0.19995339
O     -1.92407650     7.73828094     3.35204637
O     -3.83380466     8.93671203     6.58151226
O     -3.82354556     8.83995473     1.76196664
O     -3.84092319     6.65448891     5.02251508
O     -1.89800602     7.81195517     8.15473615
O      0.00260561     6.63092532     0.19995339
O      1.90996911     7.73146870     3.33566447
O      0.02773771     8.85788818     6.49659148
O      0.00260561     8.83995473     1.76196664
O      0.00864893     6.64154881     4.95951046
O      1.88079814     7.81242268     8.19703010
O      3.82876826     6.63092532     0.19995339
O      5.75292414     7.73525725     3.33888505
O      3.79407810     8.79969059     6.50101257
O      3.82876826     8.83995473     1.76196664
O      3.82081333     6.63439899     4.94714410
O      5.71302123     7.73090043     8.15173863
Ce     1.91568694     1.10834185     0.98097142
Ce    -0.01484091     2.21529454     4.15798324
Ce     5.63608552     9.88209652     7.32313736
Ce     5.74184959     1.10834185     0.98097142
Ce     3.84593043     2.21278360     4.13847578
Ce    -1.81066632     9.90949591     7.32697077
Ce     9.56800076     1.10834185     0.98097142
Ce     7.67199831     2.21821497     4.16013058
Ce     7.66222118     0.01278083     7.34614580
Ce     0.00261135     4.42188597     0.98097142
Ce    -1.90279556     5.52173079     4.18077390
Ce    -1.89195874     3.33118582     7.44744298
Ce     3.82877400     4.42188597     0.98097142
Ce     1.91543454     5.51874181     4.21038946
Ce     7.65492518     4.42188597     0.98097142
Ce     5.73042246     5.52704767     4.15597721
Ce     5.80113460     3.31104252     7.32597693
Ce    -1.91046998     7.73544003     0.98097142
Ce    -3.82828017     8.84995904     4.16175487
Ce     7.63828048     6.63806130     7.34585677
Ce     1.91569268     7.73544003     0.98097142
Ce     0.01153981     8.84062801     4.12494675
Ce     0.03489544     6.68700839     7.33908079
Ce     5.74184385     7.73544003     0.98097142
Ce     3.81612763     8.83179908     4.12433167
Ce     3.76301784     6.64558305     7.34437371
Cu     1.94410627     2.45306296     6.74546340
C      3.39179860     6.91267480    10.83767785
C      3.27927716     5.64309214    10.51164184
C      4.16823425     4.55852365    10.05099542
H      2.52272648     7.55094031    11.01157170
H      4.38138275     7.39388375    10.91570237
H      0.48913640     4.51376998     9.25162838
H      1.96162178     1.67357114     9.19943405
H      3.82417166     3.57242299    10.42661045
H      5.17792856     4.72905493    10.50002394
