81
CIF: Ti-Ti-CeO2-Ov.cif | data_image0
Ce     1.93596140     1.11772783     0.89035214
Ce     0.00054664     2.21321386     4.06284697
Ce    -5.59841343     9.94062876     7.26291041
Ce     5.80789581     1.11772783     0.89035214
Ce     3.82111781     2.19847269     3.97179718
Ce    -1.91650174     9.99374847     7.33587858
Ce     9.67981860     1.11772783     0.89035214
Ce     7.80438150     2.19857808     4.02085341
Ce     1.90972670     9.86104085     7.26710541
Ce     0.00000000     4.47091133     0.89035214
Ce    -1.94055462     5.57566158     4.06222865
Ce    -1.78691384     3.46876598     7.26753519
Ce     3.87193441     4.47091133     0.89035214
Ce     1.94447929     5.58296460     4.07684238
Ce     1.84861535     3.28670270     7.22901309
Ce     7.74385721     4.47091133     0.89035214
Ce     5.81638854     5.65332115     3.97162108
Ce    -1.93596721     7.82410489     0.89035214
Ce    -3.85747912     8.93529158     4.05795060
Ce    -3.80765033     6.73012928     7.33358385
Ce     1.93596721     7.82410489     0.89035214
Ce     0.01029359     8.94983866     4.06158920
Ce     0.03273692     6.68506425     7.28265601
Ce     5.80789000     7.82410489     0.89035214
Ce     3.89135002     8.95245880     4.06358999
Ce     3.89027051     6.81285960     7.22838509
Ti     5.73539093     3.40281534     6.48817092
Ti     7.35140264     2.44552099     8.74357218
O      0.00000000     0.00000000     0.09999685
O      1.94528018     1.09130375     3.20606127
O     -0.02483158     2.14433932     6.52804071
O      0.00000000     2.23545567     1.68070743
O     -5.72497161    10.01694365     4.84483336
O      2.20316797     1.01272058     8.10661603
O      3.87192279     0.00000000     0.09999685
O      5.73197370     1.05759827     3.22441109
O      4.14528371     2.53245409     6.61018999
O      3.87192279     2.23545567     1.68070743
O      3.84133455     0.11898283     4.95209973
O      5.94690264     1.28906963     8.62471041
O      7.74385721     0.00000000     0.09999685
O      9.76987078     1.06525090     3.23844709
O      7.36926747     2.44355731     6.68715945
O      7.74385721     2.23545567     1.68070743
O      1.94261966     9.98990086     4.87767367
O      8.90949486     1.55484031     8.69556540
O     -1.93596140     3.35318350     0.09999685
O      0.01221401     4.48133739     3.25485687
O     -2.01583174     5.65588868     6.47896432
O     -1.93596721     5.58864923     1.68070743
O     -1.87611961     3.38156159     4.87662716
O      0.04283425     4.62255029     8.13172769
O      1.93596140     3.35318350     0.09999685
O      3.85257373     4.48056530     3.23447920
O      2.04315810     5.52583973     6.41577997
O      1.93595559     5.58864923     1.68070743
O      1.93955632     3.25693978     4.83792478
O      5.80789581     3.35318350     0.09999685
O      7.75647728     4.56931417     3.22296639
O      5.70470136     5.21827882     6.60064418
O      5.80789000     5.58864923     1.68070743
O      5.78088009     3.37019749     4.68645474
O      7.63234896     4.23809805     8.63601089
O     -3.87192860     6.70637706     0.09999685
O     -1.94282341     7.82980449     3.29295166
O     -3.72691577     8.85613319     6.43521777
O     -3.87192860     8.94183273     1.68070743
O      7.63035603     6.67847477     4.94681653
O     -1.92954517     7.82349089     8.16879513
O     -0.00000581     6.70637706     0.09999685
O      1.93106675     7.80635616     3.25529908
O     -0.09880510     8.96456591     6.47236035
O     -0.00000581     8.94183273     1.68070743
O      0.01447667     6.69323561     4.91344354
O      1.83125087     7.70437524     8.13262467
O      3.87192860     6.70637706     0.09999685
O      5.83568131     7.83242297     3.20747165
O      3.94513682     9.00547828     6.52175382
O      3.87192860     8.94183273     1.68070743
O      3.95473351     6.74821913     4.83552584
O      6.03099502     7.64810997     8.11371066
