82
CIF: Y-Cu-CeO2.cif | data_image0
Ce     1.93038582     1.11050507     0.88387043
Ce    -0.01382871     2.23213987     4.06444308
Ce    -5.79181910    10.03282693     7.21702071
Ce     5.81181033     1.12175166     0.90127712
Ce     3.84442766     2.18420246     3.98324981
Ce    -1.90283033    10.01600448     7.25442912
Ce     9.66901012     1.12377363     0.90450652
Ce     7.72876705     2.25044430     4.11702814
Ce     1.96748211    10.02735480     7.25243526
Ce    -0.00709724     4.47602159     0.89067279
Ce    -1.93020328     5.57966298     4.07503337
Ce    -1.89440625     3.35182528     7.31113435
Ce     3.86254305     4.47635356     0.87798423
Ce     1.94937579     5.58377383     4.03889093
Ce     1.90552304     3.30764898     7.22260977
Ce     7.74213807     4.46545905     0.90125422
Ce     5.83518161     5.64038336     3.97136128
Ce    -1.94645625     7.83004003     0.90010904
Ce    -3.85935438     8.93192035     4.07103651
Ce    -3.83360025     6.67273028     7.25331629
Ce     1.92815559     7.82745473     0.89060408
Ce     0.00760702     8.94175805     4.06032450
Ce     0.04187594     6.68982141     7.21705134
Ce     5.81127600     7.83258510     0.88371011
Ce     3.87075840     8.95331346     4.03628692
Ce     3.89208292     6.76823948     7.19033221
Cu     4.71793763     3.99067744     6.20956547
Y      6.22615931     3.06502083     8.06380711
O     11.61334069     0.00154917     0.10141687
O      1.92456100     1.10392940     3.22705224
O      0.06253840     2.18923315     6.43195043
O     -0.00785227     2.23805103     1.69392277
O     -5.79407780    10.04731527     4.86527506
O      2.00326959     1.10596698     8.02278218
O     -1.93899312    10.05733740     0.10496691
O      5.80454652     1.10105992     3.24927278
O      3.96172898     2.23139520     6.40669208
O      3.86763657     2.23577757     1.68132582
O     -1.94305260    10.04896608     4.87632021
O      5.91128436     0.92852143     8.33793315
O      7.73821774     0.00761509     0.10924988
O      9.67547855     1.11902509     3.25557633
O      7.60700241     2.24100700     6.57642343
O      7.74357843     2.23531483     1.71563532
O      7.75708039     0.03093117     4.88244654
O      9.71252265     0.93747535     8.05323414
O      9.67032270     3.35425987     0.10911246
O      0.00393238     4.46496790     3.25235550
O     -1.92049687     5.63739763     6.43036648
O     -1.94403436     5.59119430     1.70564938
O      9.65483604     3.33074510     4.86589579
O      0.17368181     4.53393686     8.04630042
O      1.92738314     3.35244915     0.09928684
O      3.83004677     4.48233337     3.19659077
O      2.02530909     5.57000953     6.39902878
O      1.92862022     5.59252216     1.67404250
O      1.94914516     3.32928615     4.87077613
O      4.03782022     4.37436266     7.98464250
O      5.81155478     3.35101064     0.10766953
O      7.75476016     4.48058375     3.24415781
O      5.79844369     5.57109687     6.34892516
O      5.80528807     5.59217007     1.68114259
O      5.74050660     3.39462505     4.69733426
O      7.78016969     4.57180392     8.29940796
O     -3.87155109     6.71022987     0.10512724
O     -1.92656051     7.82161279     3.25813691
O     -3.84589046     8.92156066     6.44405976
O     -3.87509971     8.94378428     1.69355631
O     -3.87011671     6.71015816     4.86827108
O     -1.90402294     7.83598409     8.03956801
O     -0.01209783     6.71325780     0.10434852
O      1.93234670     7.83545475     3.24088159
O      0.01294231     8.95256319     6.42216352
O     -0.00628994     8.94736548     1.70514550
O      0.03186396     6.69981998     4.87877843
O      1.97825502     7.79160805     8.00723612
O      3.86815347     6.71410280     0.09951587
O      5.82153289     7.84685944     3.21701023
O      3.89534234     8.90706858     6.37436963
O      3.86556896     8.94715423     1.69389986
O      3.88730143     6.71820136     4.82261204
O      5.81444374     7.78625274     7.99785204
