89
CIF: CH2COCH2.cif | data_image0
O      0.00261135     0.00382715     0.19995339
O      1.92249167     1.12088923     3.34854760
O      0.10884771     2.28752835     6.62645319
O      0.00261135     2.21285656     1.76196664
O     -0.01378252     0.04594476     4.99700981
O      1.95171785     1.07432647     8.01998120
O      3.82876252     0.00382715     0.19995339
O      5.74490170     1.10868085     3.33555518
O      3.79001581     2.29982277     6.64056021
O      3.82876252     2.21285656     1.76196664
O      3.85152965     0.04293309     5.00726332
O      5.76892168     1.08523515     8.14796745
O      7.65492518     0.00382715     0.19995339
O      9.57180531     1.11340346     3.33315906
O      7.67962590     2.23179114     6.54703467
O      7.65492518     2.21285656     1.76196664
O      7.65518738     0.01977919     4.97234966
O      9.60052008     1.07892720     8.14997304
O     -1.91046424     3.31737126     0.19995339
O      0.04153770     4.40262711     3.36225665
O     -1.98001572     5.58432362     6.42357244
O     -1.91046998     5.52641062     1.76196664
O     -1.87366635     3.29822102     4.98722796
O      1.91568694     3.31737126     0.19995339
O      3.80436928     4.40265103     3.36814727
O      1.93781535     5.72704385     6.49437080
O      1.91568120     5.52641062     1.76196664
O      1.93814901     3.23587141     5.11593290
O      4.42603148     4.69337396     8.68840752
O      5.74184959     3.31737126     0.19995339
O      7.65495401     4.41006275     3.34702212
O      5.69606205     5.51328231     6.51526043
O      5.74184385     5.52641062     1.76196664
O      5.74456293     3.29083199     4.98811692
O      7.64198846     4.45479520     8.14431801
O     -3.82354556     6.63092532     0.19995339
O     -1.92264793     7.76120636     3.34570422
O     -3.82733718     8.82034645     6.49770158
O     -3.82354556     8.83995473     1.76196664
O      7.60561970     6.64341929     4.94061509
O     -1.94049608     7.77978139     8.15186999
O      0.00260561     6.63092532     0.19995339
O      1.91543001     7.73750325     3.35017851
O      0.03131080     8.81358604     6.52952337
O      0.00260561     8.83995473     1.76196664
O     -0.02207520     6.63318162     4.94080107
O      1.96283132     7.79625752     8.23722481
O      3.82876826     6.63092532     0.19995339
O      5.74223156     7.76526439     3.32909922
O      3.81063940     8.83651837     6.50526848
O      3.82876826     8.83995473     1.76196664
O      3.86288829     6.65597052     4.93894779
O      5.72304580     7.77900856     8.13589021
O     -0.60108282     4.77254332     8.43404439
O      1.91048225     3.73025280     8.34833250
Ce     1.91568694     1.10834185     0.98097142
Ce    -0.00480429     2.22628400     4.15280728
Ce     5.69142078     9.92064033     7.33778557
Ce     5.74184959     1.10834185     0.98097142
Ce     3.85460806     2.21649209     4.14531770
Ce    -1.84147384     9.88236933     7.33457950
Ce     9.56800076     1.10834185     0.98097142
Ce     7.67074078     2.21425928     4.16261184
Ce     7.67473583     0.00573705     7.36127725
Ce     0.00261135     4.42188597     0.98097142
Ce    -1.91270647     5.53199302     4.14474441
Ce    -1.89448842     3.40797029     7.40259760
Ce     3.82877400     4.42188597     0.98097142
Ce     1.91652495     5.54770568     4.22199775
Ce     7.65492518     4.42188597     0.98097142
Ce     5.73285480     5.53085868     4.15391381
Ce     5.83003995     3.32386599     7.35067920
Ce    -1.91046998     7.73544003     0.98097142
Ce    -3.83003609     8.84822768     4.15101710
Ce     7.63159020     6.64751157     7.31330226
Ce     1.91569268     7.73544003     0.98097142
Ce     0.01139282     8.83416647     4.15245529
Ce    -0.00972296     6.59991762     7.38477443
Ce     5.74184385     7.73544003     0.98097142
Ce     3.82478030     8.84755635     4.13395139
Ce     3.77812057     6.68576419     7.34519628
Mn     1.94969537     2.57258258     6.93637575
C      1.52982487     3.83734394    10.64856954
C      2.37574471     3.76408760     9.58997511
C      3.88105420     3.88419563     9.70972456
H      0.45443599     3.77246606    10.48566942
H      1.91248690     4.04050696    11.64841381
H      4.30425849     2.84924542     9.65587920
H      4.15016330     4.27153449    10.70961511
