84
CIF: Os-Cu-CeO2-CO.cif | data_image0
Ce     1.93038582     1.11050507     0.88387043
Ce     0.01384740     2.22015018     4.02485466
Ce    -5.76518487    10.00944944     7.21747943
Ce     5.81181033     1.12175166     0.90127712
Ce     3.86969587     2.23550996     4.03122791
Ce    -1.99022998    10.02510495     7.18691795
Ce     9.66901012     1.12377363     0.90450652
Ce     7.72340208     2.25486881     4.09446635
Ce     2.07699597     9.97505472     7.19298446
Ce    -0.00709724     4.47602159     0.89067279
Ce    -1.95150499     5.58917545     4.07710901
Ce    -1.74575082     3.28879120     7.20389937
Ce     3.86254305     4.47635356     0.87798423
Ce     1.93173531     5.59415789     4.04128625
Ce     1.95290269     3.34855104     7.20497461
Ce     7.74213807     4.46545905     0.90125422
Ce     5.80618470     5.59149206     4.03961126
Ce    -1.94645625     7.83004003     0.90010904
Ce    -3.87316811     8.92239039     4.03955891
Ce     7.72742533     6.70924119     7.27407511
Ce     1.92815559     7.82745473     0.89060408
Ce    -0.00404815     8.96163244     4.05775447
Ce    -0.00189681     6.72822335     7.20404923
Ce     5.81127600     7.83258510     0.88371011
Ce     3.88255392     8.94487017     4.01608182
Ce     3.86336024     6.71252535     7.19054886
Cu     5.02058361     3.78892883     6.63736709
Os     6.79900892     2.79521419     8.39634913
O     11.61334069     0.00154917     0.10141687
O      1.93590719     1.11408372     3.22455209
O      0.06729225     2.21418568     6.38080029
O     -0.00785227     2.23805103     1.69392277
O     -5.79402973    10.04658115     4.84080685
O      1.97622752     1.07467343     8.01327306
O     -1.93899312    10.05733740     0.10496691
O      5.80957387     1.11731304     3.24913598
O      3.90619436     2.19737458     6.43294842
O      3.86763657     2.23577757     1.68132582
O     -1.94824529    10.05110454     4.85439244
O      6.04464589     1.11456906     8.38341832
O      7.73821774     0.00761509     0.10924988
O      9.68160013     1.12315592     3.23602201
O      7.77913701     2.23652224     6.63429104
O      7.74357843     2.23531483     1.71563532
O      7.77261539     0.04741283     4.87417837
O      9.82420369     1.03675628     8.00175583
O      9.67032270     3.35425987     0.10911246
O     -0.00865610     4.47742774     3.25779587
O     -1.91200365     5.49903515     6.46075120
O     -1.94403436     5.59119430     1.70564938
O      9.67725186     3.30133796     4.88713328
O      0.05817806     4.42419886     8.02859156
O      1.92738314     3.35244915     0.09928684
O      3.85579397     4.47785236     3.21401438
O      1.87684130     5.62112643     6.35452716
O      1.92862022     5.59252216     1.67404250
O      1.95940880     3.34972625     4.84798266
O      3.71221647     4.54027274     7.96614033
O      5.81155478     3.35101064     0.10766953
O      7.75181009     4.45760256     3.25458989
O      5.76351983     5.56338109     6.40873649
O      5.80528807     5.59217007     1.68114259
O      5.79295486     3.35162807     4.81260444
O      7.92161095     4.25976247     8.41375542
O     -3.87155109     6.71022987     0.10512724
O     -1.93590888     7.82699254     3.24024806
O     -3.84305037     8.94133250     6.41166240
O     -3.87509971     8.94378428     1.69355631
O      7.74407068     6.69847229     4.83202166
O     -1.80779013     7.88858320     8.01179076
O     -0.01209783     6.71325780     0.10434852
O      1.92119828     7.83571444     3.24356469
O      0.03991943     9.05930963     6.43955254
O     -0.00628994     8.94736548     1.70514550
O     -0.04478114     6.75697103     4.88371020
O      1.95918339     7.83004587     7.99440303
O      3.86815347     6.71410280     0.09951587
O      5.80582615     7.82594053     3.22135809
O      3.88213131     8.92320821     6.34908305
O      3.86556896     8.94715423     1.69389986
O      3.86543521     6.70672219     4.82777618
O      5.70487623     7.87644606     8.02476558
O      5.33757660     3.63859316    10.95945456
C      5.89338940     3.31861463     9.98726020
