84
CIF: Ti-Mo-CeO2-CO.cif | data_image0
Ce     1.93596140     1.11772783     0.89035214
Ce     0.00065647     2.22441522     4.00266108
Ce    -5.76483079    10.05017443     7.26210401
Ce     5.80789581     1.11772783     0.89035214
Ce     3.83590646     2.19498414     4.00689656
Ce    -2.05443705     9.98764146     7.20238769
Ce     9.67981860     1.11772783     0.89035214
Ce     7.75980839     2.22116774     4.06226683
Ce     2.08873323     9.96152606     7.28726364
Ce     0.00000000     4.47091133     0.89035214
Ce    -1.94592012     5.60130503     4.06983594
Ce    -1.66063363     3.39248606     7.22182282
Ce     3.87193441     4.47091133     0.89035214
Ce     1.95582155     5.60511422     4.06678397
Ce     1.86325700     3.33071146     7.15000563
Ce     7.74385721     4.47091133     0.89035214
Ce     5.80659673     5.62741161     4.02230981
Ce    -1.93596721     7.82410489     0.89035214
Ce    -3.88270843     8.93048666     4.03672716
Ce    -3.82786707     6.74666449     7.32364375
Ce     1.93596721     7.82410489     0.89035214
Ce     0.00884402     8.97902911     4.07001386
Ce     0.04238405     6.77131617     7.24822998
Ce     5.80789000     7.82410489     0.89035214
Ce     3.88722092     8.94850404     4.06736979
Ce     3.89094055     6.76586441     7.32300070
Mo     5.20134670     3.54348563     6.98690446
O      0.00000000     0.00000000     0.09999685
O      1.86180471     1.06562465     3.21890996
O      0.07187598     2.22401900     6.38274602
O      0.00000000     2.23545567     1.68070743
O     -5.79097512    10.04126891     4.88922660
O      1.93070165     1.10264490     8.03504011
O      3.87192279     0.00000000     0.09999685
O      5.81706779     1.04960971     3.24006122
O      3.82052505     2.19353400     6.48159680
O      3.87192279     2.23545567     1.68070743
O     -1.97276605     9.97360092     4.90882120
O      5.51523126     2.14353845     8.35152357
O      7.74385721     0.00000000     0.09999685
O      9.73789815     1.08447956     3.24043555
O      7.79652114     2.40909595     6.98093378
O      7.74385721     2.23545567     1.68070743
O      1.97125946    10.01868257     4.94638642
O      9.93596675     1.20087744     8.12411672
O     -1.93596140     3.35318350     0.09999685
O     -0.01660898     4.51072140     3.25577438
O     -1.91844103     5.59678245     6.49396267
O     -1.93596721     5.58864923     1.68070743
O     -1.88394127     3.37240221     4.94403164
O      0.09647651     4.45121001     8.08054902
O      1.93596140     3.35318350     0.09999685
O      3.90802688     4.54367457     3.24962057
O      1.90471898     5.56866517     6.41676393
O      1.93595559     5.58864923     1.68070743
O      1.88329154     3.38704122     4.86536966
O      5.80789581     3.35318350     0.09999685
O      7.71315857     4.54030859     3.27592897
O      5.90748438     5.34902128     6.70170987
O      5.80789000     5.58864923     1.68070743
O      5.73012655     3.35541889     5.16883878
O      8.12698084     4.59771209     8.63472108
O     -3.87192860     6.70637706     0.09999685
O     -1.95256016     7.79736721     3.25621742
O     -3.85684256     8.92683040     6.43816819
O     -3.87192860     8.94183273     1.68070743
O      7.69260088     6.69428612     4.96075430
O     -1.97188635     7.85154062     8.08839681
O     -0.00000581     6.70637706     0.09999685
O      1.95107531     7.82329741     3.26954145
O     -0.06007765     9.10048930     6.58691212
O     -0.00000581     8.94183273     1.68070743
O     -0.00731469     6.78579328     4.93035354
O      3.87192860     6.70637706     0.09999685
O      5.81864198     7.81327006     3.23778109
O      3.96532078     8.95918177     6.48314731
O      3.87192860     8.94183273     1.68070743
O      3.95330223     6.70408324     4.90512206
O      5.99233839     7.83474482     8.10902575
O      3.87236180     4.36137027     7.96738834
O      1.82711059     7.75169113     8.14396987
O      7.98456233     1.91377513    11.62854071
Ti     7.18725301     3.06099658     8.55722575
C      7.54995576     2.33011263    10.64985726
