90
CIF: H2O.cif | data_image0
O      0.00261135     0.00382715     0.19995339
O      1.91180408     1.10721082     3.33674898
O      0.11226410     2.29304511     6.61692197
O      0.00261135     2.21285656     1.76196664
O     -0.01554197     0.03378900     4.99789991
O      1.91828732     1.16100438     8.07490904
O      3.82876252     0.00382715     0.19995339
O      5.74166175     1.11375522     3.32449158
O      3.72218825     2.26050122     6.58289093
O      3.82876252     2.21285656     1.76196664
O      3.83916307     0.02615096     4.97750708
O      5.70175475     0.98312771     8.20757400
O      7.65492518     0.00382715     0.19995339
O      9.57356676     1.11113627     3.32875870
O      7.66330405     2.19152619     6.56119598
O      7.65492518     2.21285656     1.76196664
O      7.66469954     0.01817449     4.94448365
O      9.59958337     0.97258191     8.21184352
O     -1.91046424     3.31737126     0.19995339
O      0.03056188     4.41263322     3.36459721
O     -1.74776375     5.54848124     6.60402777
O     -1.91046998     5.52641062     1.76196664
O     -1.89868266     3.30648406     4.96703502
O      0.41036764     4.63816033     8.84110806
O      1.91568694     3.31737126     0.19995339
O      3.80127148     4.41290162     3.36027214
O      1.89644987     5.64570145     6.58807803
O      1.91568120     5.52641062     1.76196664
O      1.91514266     3.26057038     5.05242500
O      4.12646874     4.76158820     8.74013363
O      5.74184959     3.31737126     0.19995339
O      7.65955802     4.42941752     3.35319193
O      5.66026236     5.59614753     6.52834973
O      5.74184385     5.52641062     1.76196664
O      5.72699998     3.30746208     4.96104269
O      7.66988991     4.61110334     8.24457394
O     -3.82354556     6.63092532     0.19995339
O     -1.92572272     7.74210679     3.34633128
O     -3.82287567     8.82108206     6.53957435
O     -3.82354556     8.83995473     1.76196664
O     -3.78725648     6.59265387     5.01790710
O     -1.85351670     7.80285763     8.17888765
O      0.00260561     6.63092532     0.19995339
O      1.91865815     7.73599555     3.33169227
O      0.02209147     8.87328889     6.45969499
O      0.00260561     8.83995473     1.76196664
O      0.01169885     6.66703032     4.92748571
O      1.88944053     7.84063818     8.18853760
O      3.82876826     6.63092532     0.19995339
O      5.76351207     7.73845725     3.36377806
O      3.81354252     8.82790522     6.49531346
O      3.82876826     8.83995473     1.76196664
O      3.80769212     6.64023435     4.94595515
O      5.72019357     7.79083813     8.19371246
Ce     1.91568694     1.10834185     0.98097142
Ce    -0.01866770     2.21185915     4.13308973
Ce     5.69145319     9.89025378     7.35610110
Ce     5.74184959     1.10834185     0.98097142
Ce     3.84967733     2.21549072     4.13027268
Ce    -1.86134200     9.92000539     7.34844740
Ce     9.56800076     1.10834185     0.98097142
Ce     7.65614399     2.22711260     4.17283008
Ce     7.65833630     0.04012192     7.34665471
Ce     0.00261135     4.42188597     0.98097142
Ce    -1.89720564     5.51533510     4.18057876
Ce     9.51164238     3.29609171     7.42616610
Ce     3.82877400     4.42188597     0.98097142
Ce     1.92127521     5.53363795     4.21070342
Ce     7.65492518     4.42188597     0.98097142
Ce     5.73815353     5.51767980     4.18273585
Ce     5.74822319     3.34827824     7.44150289
Ce    -1.91046998     7.73544003     0.98097142
Ce    -3.81851217     8.84238798     4.16883183
Ce    -3.81887201     6.62770863     7.37268459
Ce     1.91569268     7.73544003     0.98097142
Ce     0.01013062     8.85903935     4.10569987
Ce     0.04676173     6.79167596     7.26511553
Ce     5.74184385     7.73544003     0.98097142
Ce     3.82340664     8.84413914     4.13259314
Ce     3.79228662     6.69944456     7.34101061
Fe     1.91847915     2.38500768     6.72840351
C      2.88650931     6.77010949    11.14386417
C      2.77229630     5.61753609    10.52091607
C      3.68007929     4.54258295    10.05493049
H      2.06482236     7.48369641    11.24018253
H      3.85366191     7.07767118    11.57515884
H      0.93950833     4.90694987     9.63922634
H      1.10619277     4.30301204     8.21869643
H      3.19965350     3.54605374    10.15323015
H      4.54156791     4.54393308    10.77021497
