85
CIF: Pt-Cr-CeO2-O-CO.cif | data_image0
Ce     1.93038582     1.11050507     0.88387043
Ce    -0.01038457     2.22487029     4.02531784
Ce    -5.77974132    10.03279562     7.21575862
Ce     5.81181033     1.12175166     0.90127712
Ce     3.86321128     2.23426146     4.00250513
Ce    -1.90150186    10.03749589     7.20845663
Ce     9.66901012     1.12377363     0.90450652
Ce     7.70854981     2.25780594     4.06972896
Ce     1.97466434     9.96601840     7.21818995
Ce    -0.00709724     4.47602159     0.89067279
Ce    -1.94573809     5.58546372     4.08195697
Ce    -1.80534207     3.33730992     7.25369172
Ce     3.86254305     4.47635356     0.87798423
Ce     1.94110552     5.59436417     4.06719630
Ce     1.86659952     3.31900874     7.19538458
Ce     7.74213807     4.46545905     0.90125422
Ce     5.80489122     5.60614934     4.01132287
Ce    -1.94645625     7.83004003     0.90010904
Ce    -3.87013720     8.93341820     4.06824240
Ce    -3.81972386     6.72402587     7.31511891
Ce     1.92815559     7.82745473     0.89060408
Ce     0.00073328     8.95078880     4.04461990
Ce     0.00611870     6.72301862     7.20640271
Ce     5.81127600     7.83258510     0.88371011
Ce     3.87357344     8.94369193     4.04183999
Ce     3.84380353     6.79936981     7.30124438
Cr     5.05775231     3.78216364     6.79559976
Pt     6.77936447     2.74095134     8.18647923
O     11.61334069     0.00154917     0.10141687
O      1.93020878     1.11502388     3.22275089
O      0.02620098     2.22710254     6.37895544
O     -0.00785227     2.23805103     1.69392277
O      5.81355675    10.04900302     4.84465965
O      1.99508730     1.15546991     7.98238015
O     -1.93899312    10.05733740     0.10496691
O      5.80631990     1.14154462     3.23319783
O      3.96242162     2.32638013     6.40048605
O      3.86763657     2.23577757     1.68132582
O      3.88491975     0.04449380     4.85863029
O      5.86026810     0.92843984     8.18572723
O      7.73821774     0.00761509     0.10924988
O      9.67224918     1.12594348     3.23830251
O      7.71746624     2.24014337     6.55997174
O      7.74357843     2.23531483     1.71563532
O      7.74266458     0.05848147     4.86245336
O      9.74431249     1.10802691     8.02830805
O      9.67032270     3.35425987     0.10911246
O     -0.01201388     4.46371844     3.25582913
O     -1.85039280     5.55089542     6.43025970
O     -1.94403436     5.59119430     1.70564938
O      9.63886931     3.31259586     4.89038427
O      0.04805707     4.40099924     8.08443824
O      1.92738314     3.35244915     0.09928684
O      3.86419243     4.47374588     3.21272549
O      1.88296645     5.55892522     6.41841173
O      1.92862022     5.59252216     1.67404250
O      1.94746577     3.33692185     4.84956285
O      5.81155478     3.35101064     0.10766953
O      7.72902045     4.45996164     3.24538751
O      5.74775780     5.37993491     6.46478306
O      5.80528807     5.59217007     1.68114259
O      5.76515028     3.37219862     4.88648990
O      7.98331539     4.33958931     8.28091972
O     -3.87155109     6.71022987     0.10512724
O     -1.94708291     7.82618595     3.26151416
O     -3.81306671     8.98838794     6.39145061
O     -3.87509971     8.94378428     1.69355631
O      7.70775345     6.67664231     4.86897075
O     -1.81241839     7.90001605     8.04511688
O     -0.01209783     6.71325780     0.10434852
O      1.93629446     7.83362692     3.24627804
O      0.02100487     8.94644971     6.35636322
O     -0.00628994     8.94736548     1.70514550
O      0.00097193     6.71738358     4.83990005
O      1.83471428     7.88114782     8.07792698
O      3.86815347     6.71410280     0.09951587
O      5.81177140     7.82787447     3.22234141
O      3.84984341     8.98938994     6.37652562
O      3.86556896     8.94715423     1.69389986
O      3.89673466     6.70166986     4.83794373
O      5.82328019     7.96530719     8.04797278
O      3.89038851     4.34561654     8.01398432
O      5.80374206     3.27496374    10.09757836
O      5.96668140     3.10968159    12.43654295
C      5.90452101     3.18013881    11.27066283
