82
CIF: 2.2-CO+Olat — CO2.cif | data_VESTA_phase_1
O      0.55978923     0.45000431     0.59999690
O      2.51205825     1.61621419     3.79270392
O      0.84622372     2.62295581     6.99948478
O      0.55978923     2.65902057     2.16203261
O      0.56149378     0.40830319     5.34570684
O      2.58103829     2.22813218     9.00353464
O      4.38603242     0.45000431     0.59999690
O      6.29152655     1.55410487     3.73369419
O      4.03030796     2.51252488     6.94307540
O      4.38603242     2.65902057     2.16203261
O      4.41744907     0.43260813     5.33843042
O      6.22566292     1.44177527     8.57593648
O      8.21216082     0.45000431     0.59999690
O     10.08975072     1.54897549     3.74913663
O      8.16286640     2.66443824     6.90397889
O      8.21216082     2.65902057     2.16203261
O      8.18616202     0.44000399     5.37193846
O      9.98556038     1.68311492     8.58289356
O     -1.35327498     3.76352870     0.59999690
O      0.56819149     4.88187425     3.73314675
O     -1.35854361     5.90979944     7.00445738
O     -1.35333237     5.97264438     2.16203261
O     -1.35294210     3.73593340     5.44467987
O      1.17694226     4.79652364     8.31384842
O      2.47296821     3.76352870     0.59999690
O      4.35376061     4.84904021     3.73289584
O      3.81106287     4.82368156     8.15648154
O      2.47291082     5.97264438     2.16203261
O      2.47870173     4.11496130     5.71233359
O      6.29909662     3.76352870     0.59999690
O      8.20702419     4.86929930     3.80025407
O      6.34026426     5.97973208     6.93712197
O      6.29903923     5.97264438     2.16203261
O      6.20312488     3.72102239     5.38658254
O      8.26810129     4.84937819     8.65517877
O     -3.26639657     7.07715251     0.59999690
O     -1.31807042     8.13756382     3.77977060
O     -3.20957226     9.37465070     6.99800213
O     -3.26639657     9.28616877     2.16203261
O     -3.24017394     7.10710375     5.41678311
O     -1.42601423     8.22118475     8.69037476
O      0.55984662     7.07715251     0.59999690
O      2.47149323     8.21155224     3.70182848
O      0.51208458     9.28946908     6.89950811
O      0.55984662     9.28616877     2.16203261
O      0.70095756     7.00137476     5.47164141
O      2.46004916     8.28491441     8.60641078
O      4.38597502     7.07715251     0.59999690
O      6.27435471     8.13632123     3.78485725
O      4.37132272     9.35129012     6.94339474
O      4.38597502     9.28616877     2.16203261
O      4.24382528     7.02832392     5.45207034
O      6.42833879     8.10482918     8.71968574
O      1.56370458     2.49600348    11.05694555
Ce     2.47285343     1.55451244     1.38101475
Ce     0.53293528     2.63296607     4.57130391
Ce     0.50353884     0.41969520     7.88960335
Ce     6.29909662     1.55451244     1.38101475
Ce     4.40530482     2.63271755     4.53978035
Ce     4.45302094     0.36411690     7.74521541
Ce    10.12522502     1.55451244     1.38101475
Ce     8.19598188     2.65085928     4.55786876
Ce     8.17982589     0.44030221     7.75735039
Ce     0.55978923     4.86803684     1.38101475
Ce    -1.33417475     5.95948293     4.62048249
Ce    -1.49799590     3.72780193     7.75853651
Ce     4.38603242     4.86803684     1.38101475
Ce     2.46754462     6.04693102     4.41838499
Ce     8.21216082     4.86803684     1.38101475
Ce     6.27989309     5.96713724     4.62372152
Ce     6.23812857     3.73783207     7.79649252
Ce    -1.35333237     8.18166064     1.38101475
Ce    -3.27230800     9.28622842     4.60535939
Ce    -3.27381168     7.06305663     7.82087652
Ce     2.47291082     8.18166064     1.38101475
Ce     0.56248094     9.26961755     4.55882679
Ce     0.50445712     7.15893442     7.93481297
Ce     6.29903923     8.18166064     1.38101475
Ce     4.39306874     9.29386285     4.59415963
Ce     4.46184217     7.19422381     7.89820276
W      2.45009156     3.67054365     7.56606488
C      1.58838909     1.92516036    10.00293640
