83
CIF: Y-Y-CeO2-O.cif | data_image0
Ce     1.93596140     1.11772783     0.89035214
Ce    -0.00626515     2.22426699     4.03361469
Ce    -5.69948219    10.01490685     7.19341266
Ce     5.80789581     1.11772783     0.89035214
Ce     3.86659486     2.22574143     4.05955381
Ce     3.87268595     0.02416017     7.31322902
Ce     9.67981860     1.11772783     0.89035214
Ce     7.73372909     2.23664518     4.01579277
Ce     1.92675226    10.03360910     7.13666448
Ce     0.00000000     4.47091133     0.89035214
Ce    -1.94896951     5.59213362     4.02514711
Ce     9.65946934     3.35631612     7.12332827
Ce     3.87193441     4.47091133     0.89035214
Ce     1.92673396     5.59146900     4.04246538
Ce     1.93929768     3.37025361     7.20616725
Ce     7.74385721     4.47091133     0.89035214
Ce     5.81302520     5.59962111     4.04262780
Ce    -1.93596721     7.82410489     0.89035214
Ce    -3.84878881     8.94936230     4.02742966
Ce    -3.87058415     6.74852131     7.20497941
Ce     1.93596721     7.82410489     0.89035214
Ce    -0.01635447     8.94813467     4.04725982
Ce    -0.01266610     6.69446876     7.20627218
Ce     5.80789000     7.82410489     0.89035214
Ce     3.88605906     8.94273287     4.03965037
Ce     3.86991487     6.68763791     7.22997295
Y      5.73227316     3.40569352     7.02309537
Y      7.55634161     2.34074414     9.63262802
O      0.00000000     0.00000000     0.09999685
O      1.93036155     1.12750326     3.22538962
O     -0.14432936     2.13466227     6.43846660
O      0.00000000     2.23545567     1.68070743
O     -5.76675429    10.03564392     4.84246124
O      1.81573669     1.19027598     8.03511014
O      3.87192279     0.00000000     0.09999685
O      5.80459433     1.10955362     3.23319222
O      3.89975952     2.25433609     6.41665603
O      3.87192279     2.23545567     1.68070743
O     -1.94275619    10.05007942     4.81718945
O      6.12754369     1.31667222     8.34991019
O      7.74385721     0.00000000     0.09999685
O      9.69386811     1.10162593     3.23537059
O      7.74329082     2.22703017     6.26160659
O      7.74385721     2.23545567     1.68070743
O      1.94465574    10.01649869     4.80756379
O      9.17344725     1.40256504     8.44301838
O     -1.93596140     3.35318350     0.09999685
O      0.01504179     4.48426428     3.23127999
O     -2.06398000     5.52508781     6.41223761
O     -1.93596721     5.58864923     1.68070743
O     -1.91204277     3.36879550     4.78717331
O     -0.01134756     4.47409011     7.92365272
O      1.93596140     3.35318350     0.09999685
O      3.83760948     4.49528262     3.25007408
O      1.92093579     5.60164978     6.36640904
O      1.93595559     5.58864923     1.68070743
O      1.89129889     3.32258415     4.89105155
O      5.80789581     3.35318350     0.09999685
O      7.74319969     4.49124741     3.22776223
O      5.91300015     5.57544109     6.43667988
O      5.80789000     5.58864923     1.68070743
O      5.77851036     3.38339074     4.77459399
O      7.73488094     4.09514177     8.34955328
O     -3.87192860     6.70637706     0.09999685
O     -1.92946745     7.81792311     3.21672130
O     -3.87673133     8.92539286     6.43902676
O     -3.87192860     8.94183273     1.68070743
O     -3.86673588     6.74266969     4.83866672
O     -1.93200645     7.66551159     8.02441504
O     -0.00000581     6.70637706     0.09999685
O      1.93750764     7.79827123     3.24405668
O      0.03195345     8.98910141     6.44134791
O     -0.00000581     8.94183273     1.68070743
O     -0.05085804     6.71249985     4.88741964
O      3.87192860     6.70637706     0.09999685
O      5.80171395     7.82308781     3.22404648
O      3.91295951     9.08563497     6.47815464
O      3.87192860     8.94183273     1.68070743
O      3.90263599     6.74453572     4.91135309
O      5.82892112     7.82158788     8.01671895
O      1.95630496     7.80347580     7.96760060
O      3.81847777     4.54002072     7.94863157
O      7.36471053     2.38047589    11.76119540
