85
CIF: Pt-Rh-CeO2-O-CO.cif | data_image0
Ce     1.93038582     1.11050507     0.88387043
Ce    -0.00218402     2.23145019     4.04169187
Ce    -5.77899989    10.04301261     7.22891667
Ce     5.81181033     1.12175166     0.90127712
Ce     3.85953550     2.22921237     4.02979873
Ce    -1.93371738    10.05004018     7.21721356
Ce     9.66901012     1.12377363     0.90450652
Ce     7.72250335     2.24786103     4.06362977
Ce     1.98352726     9.97445681     7.23189741
Ce    -0.00709724     4.47602159     0.89067279
Ce    -1.94048253     5.58743549     4.05336447
Ce    -1.83833985     3.35480762     7.23188161
Ce     3.86254305     4.47635356     0.87798423
Ce     1.93999093     5.58636277     4.04949791
Ce     1.90202706     3.34381557     7.21794380
Ce     7.74213807     4.46545905     0.90125422
Ce     5.80722563     5.60267046     4.02974516
Ce    -1.94645625     7.83004003     0.90010904
Ce    -3.86883922     8.94021452     4.05408967
Ce    -3.86234937     6.70958575     7.21719660
Ce     1.92815559     7.82745473     0.89060408
Ce    -0.00112148     8.94647618     4.05316571
Ce    -0.00354888     6.70857077     7.18838199
Ce     5.81127600     7.83258510     0.88371011
Ce     3.87441131     8.94586730     4.04173341
Ce     3.86330731     6.74079661     7.21788046
Rh     4.86653305     3.89689212     6.51531163
Pt     6.73635733     2.81739473     8.08995854
O     11.61334069     0.00154917     0.10141687
O      1.93161997     1.11375135     3.23391689
O      0.02030794     2.23441827     6.40694874
O     -0.00785227     2.23805103     1.69392277
O     -5.80397042    10.05744093     4.86249647
O      1.92566458     1.08624893     8.03197553
O     -1.93899312    10.05733740     0.10496691
O      5.80886295     1.11104415     3.24224391
O      3.82278734     2.18539872     6.42716214
O      3.86763657     2.23577757     1.68132582
O     -1.93323841    10.05161462     4.86479115
O      5.87375726     0.97443545     8.13053702
O      7.73821774     0.00761509     0.10924988
O      9.67556847     1.12020997     3.24406498
O      7.73665543     2.23960705     6.52165337
O      7.74357843     2.23531483     1.71563532
O      7.75951498     0.02959170     4.89230132
O      9.73455629     1.08623694     8.01324383
O      9.67032270     3.35425987     0.10911246
O     -0.01217068     4.46540835     3.24350626
O     -1.91466408     5.58245843     6.41422666
O     -1.94403436     5.59119430     1.70564938
O      9.66202086     3.32502574     4.89229227
O      0.01078291     4.46212407     8.03503811
O      1.92738314     3.35244915     0.09928684
O      3.85841079     4.47882031     3.21607124
O      1.88729037     5.61691562     6.37653969
O      1.92862022     5.59252216     1.67404250
O      1.92702914     3.35406603     4.85058544
O      5.81155478     3.35101064     0.10766953
O      7.75002053     4.47348497     3.24213800
O      5.82686337     5.65663893     6.42707841
O      5.80528807     5.59217007     1.68114259
O      5.82200511     3.34522583     4.79883030
O      7.90099696     4.48572938     8.13053018
O     -3.87155109     6.71022987     0.10512724
O     -1.94262439     7.82805842     3.24157145
O     -3.85461360     8.93206805     6.41122333
O     -3.87509971     8.94378428     1.69355631
O     -3.86351651     6.70820955     4.86466608
O     -1.93129857     7.82155826     8.00452414
O     -0.01209783     6.71325780     0.10434852
O      1.93468281     7.83739423     3.24333895
O      0.01613579     8.92675485     6.41421855
O     -0.00628994     8.94736548     1.70514550
O     -0.01783583     6.71680791     4.84152374
O      1.94922087     7.81942007     8.03500533
O      3.86815347     6.71410280     0.09951587
O      5.80929077     7.82996528     3.23373135
O      3.88313958     8.92504268     6.40694168
O      3.86556896     8.94715423     1.69389986
O      3.86683673     6.71389797     4.85049534
O      5.83017754     7.84907634     8.03211201
O      3.70971145     4.56486856     8.05002089
O      5.73048835     3.39954798     9.94543159
O      5.90909857     3.29972739    12.28788897
C      5.83885397     3.33702899    11.11991937
