84
CIF: Cu-Mo-CeO2-CO.cif | data_image0
Ce     1.93596140     1.11772783     0.89035214
Ce    -0.00118190     2.23140812     4.04346526
Ce     5.80576317    10.04790794     7.17975014
Ce     5.80789581     1.11772783     0.89035214
Ce     3.84706503     2.20954387     3.97843319
Ce    -2.09920608     9.88244414     7.13716888
Ce     9.67981860     1.11772783     0.89035214
Ce     7.73889332     2.24574511     4.07687456
Ce     7.83995069     0.03863492     7.24185235
Ce     0.00000000     4.47091133     0.89035214
Ce    -1.93770339     5.59230647     4.04814789
Ce    -1.89211540     3.39036871     7.22856111
Ce     3.87193441     4.47091133     0.89035214
Ce     1.96054609     5.58493971     4.07886464
Ce     1.86297046     3.33609629     7.25827471
Ce     7.74385721     4.47091133     0.89035214
Ce     5.81695616     5.58457033     4.01140943
Ce    -1.93596721     7.82410489     0.89035214
Ce    -3.89321339     8.90887887     3.99667153
Ce    -3.79837457     6.67537137     7.27838149
Ce     1.93596721     7.82410489     0.89035214
Ce     0.00713926     8.96062681     4.06724794
Ce     0.04318825     6.71395562     7.22824180
Ce     5.80789000     7.82410489     0.89035214
Ce     3.87534948     8.94385239     4.04708081
Ce     3.85199188     6.74842543     7.28327604
Mo     5.56000628     3.38804840     6.96440572
O      0.00000000     0.00000000     0.09999685
O      1.91934986     1.10560503     3.19887288
O     -0.01893352     2.20656482     6.35586496
O      0.00000000     2.23545567     1.68070743
O     -5.79348311    10.04004033     4.83010651
O      1.96021243     0.96372784     7.96671981
O      3.87192279     0.00000000     0.09999685
O      5.79852841     1.11984850     3.24101189
O      4.30261760     2.05643102     6.49176689
O      3.87192279     2.23545567     1.68070743
O     -2.00136311    10.05365857     4.81681900
O      6.15691095     2.69351986     8.50303513
O      7.74385721     0.00000000     0.09999685
O      9.68434940     1.11600512     3.24068287
O      7.52538776     2.45811151     6.39453506
O      7.74385721     2.23545567     1.68070743
O      7.75037477     0.02480048     4.84374961
O      9.77399770     1.23030054     8.03420504
O     -1.93596140     3.35318350     0.09999685
O      0.02094695     4.48015328     3.27492063
O     -1.93468442     5.61373545     6.34695635
O     -1.93596721     5.58864923     1.68070743
O      9.66820567     3.34458040     4.84981364
O     -0.06397244     4.51573233     8.02959703
O      1.93596140     3.35318350     0.09999685
O      3.86711552     4.47442636     3.20494006
O      1.89068752     5.59697890     6.36839814
O      1.93595559     5.58864923     1.68070743
O      2.02925146     3.28128509     4.86032183
O      5.80789581     3.35318350     0.09999685
O      7.72756329     4.45709754     3.23959952
O      6.13134750     5.15618806     6.53644752
O      5.80789000     5.58864923     1.68070743
O      5.67929688     3.36982400     4.85221274
O      8.27551844     4.72865378     8.46236936
O     -3.87192860     6.70637706     0.09999685
O     -1.93842182     7.81590247     3.23404054
O     -3.87312309     8.87345178     6.33647363
O     -3.87192860     8.94183273     1.68070743
O      7.69145734     6.68091001     4.84562148
O     -1.96509333     7.82035258     8.04900756
O     -0.00000581     6.70637706     0.09999685
O      1.95752866     7.81900562     3.26429340
O     -0.08857320     9.09521650     6.49210322
O     -0.00000581     8.94183273     1.68070743
O      0.00155759     6.78421369     4.87084761
O      3.87192860     6.70637706     0.09999685
O      5.79979517     7.81895647     3.20533664
O      3.90790864     8.98729339     6.41533108
O      3.87192860     8.94183273     1.68070743
O      3.97659724     6.66655057     4.88270728
O      5.95283336     7.79067057     7.98626622
O      4.10633819     4.29239622     7.75152152
O      1.82493340     7.77717406     8.07693170
O      6.58304119     3.58172302    12.59579198
Cu     7.26225836     3.88938860     9.76918856
C      6.85202906     3.69549364    11.47818806
