87
CIF: 5-NHNO+2H-N2O+H_fs.cif | data_image0
Ce     5.79401975    10.02099880     8.76546185
Ce     1.91475033     1.09714766     5.57848762
Ce    -0.01424859     2.24308715     2.46909578
Ce     3.79992376     0.02123035     8.76178989
Ce     5.79176533     1.08792472     5.57736387
Ce     3.85742076     2.22684641     2.45763478
Ce     7.78646802     0.02384122     8.76174664
Ce     9.66889832     1.09751643     5.57747294
Ce     7.72607436     2.22820160     2.45635986
Ce     9.70069676     3.26853248     8.74239959
Ce    -0.01605463     4.46320709     5.67706962
Ce    -1.94506344     5.56434181     2.46046368
Ce     1.88028724     3.26753059     8.74403822
Ce     3.85464885     4.46793885     5.63008564
Ce     1.91460830     5.56368236     2.46449076
Ce     5.79105327     3.22857731     8.70662339
Ce     7.72822747     4.46678843     5.62716526
Ce     5.79071114     5.57232894     2.45383713
Ce    -3.84045710     6.71938375     8.83704182
Ce    -1.98336631     7.80936052     5.56295767
Ce    -3.89719652     8.92757774     2.43197908
Ce     1.95340912     7.80890844     5.56441156
Ce    -0.01549059     8.93071840     2.43607045
Ce     3.80985638     6.71827577     8.84936118
Ce     5.79073707     7.79637978     5.63505289
Ce     3.86505875     8.92804397     2.43411472
Mn    -0.01207452     7.55685230     8.21221386
O      5.79148400    10.01487186     6.40532069
O     -0.01633923     2.16072579     9.59737910
O      1.91237941     1.12247040     3.24212641
O     -0.01682476     2.22066583     4.82035742
O      5.79263131    10.03685374     1.66707773
O      1.90021117     1.11099785     7.91839664
O     -1.96911767    10.01665255     6.41440254
O      3.86807249     2.15910787     9.55001114
O      5.79162413     1.11637266     3.23033558
O      3.86006551     2.20393164     4.80032327
O     -1.95562554    10.05251538     1.66968786
O      5.79306075     1.08840739     7.92489121
O      1.93601692    10.01688290     6.41516824
O      7.71769315     2.15875467     9.55214258
O      9.67233926     1.12177512     3.24134970
O      7.72382997     2.20337773     4.79719743
O      1.92239805    10.05256738     1.67166241
O      9.68393670     1.11063951     7.91699476
O      9.65008293     3.34456683     6.40338143
O     -2.22477149     5.22541587    10.05554028
O     -0.01537384     4.44789600     3.28073222
O     -1.92733039     5.58402185     4.81234842
O      9.67277109     3.35688809     1.67787029
O     -0.01822773     4.34558796     8.00319113
O      1.93194122     3.34504049     6.40618505
O      2.21042589     5.20472455    10.06302381
O      3.85422988     4.44679236     3.26441580
O      1.89673893     5.58349077     4.81404015
O      1.91104911     3.35203866     1.67823872
O      3.88550594     4.41806122     7.98149093
O      5.79162844     3.31717150     6.39825054
O      5.80490049     5.43556107     9.94641038
O      7.72974983     4.44781552     3.26056414
O      5.79181557     5.56837854     4.81443928
O      5.79076448     3.34426668     1.67202172
O      7.69579547     4.41412919     7.97940999
O     -3.86422781     6.71224531     6.38627340
O     -3.85632413     9.07056824     9.60943424
O     -1.95408643     7.80798198     3.23229979
O     -3.89089288     8.93961307     4.76812821
O      7.72020762     6.68705242     1.67420009
O     -1.85603605     7.78201670     8.01217613
O     -0.01278833     6.76204606     6.45846440
O     -0.01194574     8.92622159     9.48941671
O      1.92318669     7.80409254     3.23504570
O     -0.01592792     8.93301348     4.76878797
O     -0.01733426     6.67702019     1.67708839
O      1.83251841     7.78281271     8.01330131
O      3.83354288     6.71216342     6.38453280
O      3.83034637     9.07920844     9.62587876
O      5.79047559     7.80629208     3.24320812
O      3.85840591     8.94048534     4.76925882
O      3.86228490     6.68058962     1.67332113
O      5.78843975     7.79804276     8.01445921
O      4.14231365     6.94430396    12.13572789
H     -1.48828429     5.56513155    10.59450099
H      5.71054290     5.35775047    10.91403984
H      1.57746031     5.50807645    10.73832172
N      5.13184035     8.90487377    12.96304527
N      4.64690716     7.95117171    12.55842032
