84
CIF: Ru-CeO2+CO2.cif | data_image0
O      0.55978923     0.45000431     0.59999690
O      2.46641480     1.49069496     3.72762591
O      0.66390057     2.77889976     6.90920651
O      0.55978923     2.65902057     2.16203261
O      0.54101616     0.46522519     5.40774895
O      2.43590902     1.94625860     8.58903695
O      4.38603242     0.45000431     0.59999690
O      6.31468841     1.55238414     3.73134186
O      4.37484099     2.69963140     6.89708164
O      4.38603242     2.65902057     2.16203261
O      4.39825584     0.45785059     5.36879677
O      6.28994226     1.58079291     8.56674297
O      8.21216082     0.45000431     0.59999690
O     10.12170242     1.54678594     3.74073651
O      8.21342070     2.63700121     6.93873815
O      8.21216082     2.65902057     2.16203261
O      8.21126702     0.44741694     5.38090685
O     10.16216989     1.58674103     8.55086621
O     -1.35327498     3.76352871     0.59999690
O      0.50315088     4.90386589     3.74522310
O     -1.23752850     5.92602991     7.02588981
O     -1.35333237     5.97264438     2.16203261
O     -1.37133258     3.75523923     5.39696901
O      0.85673880     4.56759587     8.77956830
O      2.47296821     3.76352871     0.59999690
O      4.44477040     4.89862326     3.73916510
O      2.32880843     5.73349750     6.95732688
O      2.47291082     5.97264438     2.16203261
O      2.48521598     3.74631231     5.10083124
O      6.29909662     3.76352871     0.59999690
O      8.21723472     4.89543536     3.75959278
O      6.26205603     5.86988901     7.04177770
O      6.29903923     5.97264438     2.16203261
O      6.33333644     3.75171516     5.37807372
O      8.27361611     4.83113081     8.54918440
O     -3.26639657     7.07715251     0.59999690
O     -1.37124345     8.17043117     3.75760483
O     -3.24024228     9.42597402     6.97771761
O     -3.26639657     9.28616878     2.16203261
O     -3.26047324     7.08316729     5.48992065
O     -1.35811416     8.21006489     8.54111616
O      0.55984662     7.07715251     0.59999690
O      2.47332767     8.18740146     3.74136536
O      0.54005361     9.33212452     6.92186368
O      0.55984662     9.28616878     2.16203261
O      0.56907596     7.11714906     5.39725424
O      2.33773027     8.22455900     8.58048853
O      4.38597502     7.07715251     0.59999690
O      6.31035477     8.17326547     3.77572626
O      4.37178222     9.32733035     6.96798326
O      4.38597502     9.28616878     2.16203261
O      4.35608474     7.06811252     5.40771234
O      6.42768935     8.26502037     8.56826331
O      3.84387978     4.54065596     8.73963748
O      5.78579330     5.41320045    10.62270747
O      4.18676613     4.33713563    11.97425965
Ce     2.47285343     1.55451244     1.38101475
Ce     0.58501014     2.67725713     4.54492846
Ce     0.55161711     0.48924748     7.72824003
Ce     6.29909662     1.55451244     1.38101475
Ce     4.37180957     2.67437091     4.54620373
Ce     4.40255685     0.53493722     7.70050932
Ce    10.12522502     1.55451244     1.38101475
Ce     8.22242536     2.65486270     4.53133745
Ce     8.21235875     0.44312911     7.73216737
Ce     0.55978923     4.86803684     1.38101475
Ce    -1.35027154     5.97490291     4.57248260
Ce    -1.34008969     3.72551065     7.73353502
Ce     4.38603242     4.86803684     1.38101475
Ce     2.47357896     5.93578164     4.57556662
Ce     8.21216082     4.86803684     1.38101475
Ce     6.28790858     5.97319876     4.59051051
Ce     6.33035610     3.70974247     7.70354910
Ce    -1.35333237     8.18166064     1.38101475
Ce    -3.26711447     9.29753163     4.56690366
Ce    -3.26252565     7.09714075     7.80923585
Ce     2.47291082     8.18166064     1.38101475
Ce     0.56484501     9.29353191     4.53289935
Ce     0.57199631     7.13758772     7.72281043
Ce     6.29903923     8.18166064     1.38101475
Ce     4.37712123     9.27293579     4.56984641
Ce     4.33129840     7.05764295     7.82772206
Ru     2.34070660     3.77835483     7.95411961
C      4.96885722     4.86792538    11.28164619
