80
CIF: CeO2-Ov.cif | data_image0
O      0.00426884     0.00904002     0.19974992
O      1.91791826     1.11962111     3.36023221
O      0.17704942     2.20032563     6.68025404
O      0.00426884     2.21806943     1.76176317
O     11.45183250     0.01049561     4.93758928
O      3.83042001     0.00904002     0.19974992
O      5.74600545     1.12401479     3.33079400
O      3.66048664     2.20391111     6.67589632
O      3.83042001     2.21806943     1.76176317
O      3.86150078     0.00885717     4.93704251
O      5.86197629     1.19143359     8.19158671
O      7.65658267     0.00904002     0.19974992
O      9.56669484     1.12424613     3.33020080
O      7.65593620     2.26035732     6.48257964
O      7.65658267     2.21806943     1.76176317
O      7.65687425     0.02360812     4.95603139
O      9.45043295     1.19231367     8.19248633
O     -1.90880675     3.32258414     0.19974992
O     -0.00115055     4.42705854     3.33044686
O     -1.91545650     5.49792158     6.51081005
O     -1.90881249     5.53162349     1.76176317
O     -1.83954407     3.28106308     5.00899197
O      0.02627258     4.47969883     8.18382207
O      1.91734443     3.32258414     0.19974992
O      3.83571331     4.42637019     3.33098580
O      1.91690341     5.59060860     6.49099629
O      1.91733869     5.53162349     1.76176317
O      1.91623673     3.37733267     4.94585768
O      3.80627368     4.48151860     8.18425782
O      5.74350708     3.32258414     0.19974992
O      7.65774856     4.41726953     3.37665672
O      5.75018577     5.49621017     6.51064473
O      5.74350134     5.53162349     1.76176317
O      5.67653123     3.28273806     5.00716456
O      7.65698012     4.41079362     8.17399248
O     -3.82188807     6.63613819     0.19974992
O     -1.91740347     7.73545806     3.34268901
O     -3.82202062     8.88306382     6.62274968
O     -3.82188807     8.84516760     1.76176317
O     -3.82282147     6.66062074     4.99556822
O     -1.87713852     7.59047320     8.22266843
O      0.00426310     6.63613819     0.19974992
O      1.91714743     7.74628838     3.32648486
O      0.06680203     8.81423027     6.51787985
O      0.00426310     8.84516760     1.76176317
O     -0.00448101     6.63415596     4.95589445
O      1.91722005     7.73345274     8.20512561
O      3.83042575     6.63613819     0.19974992
O      5.75203780     7.73577687     3.34245626
O      3.76802244     8.81515217     6.51792309
O      3.83042575     8.84516760     1.76176317
O      3.83978728     6.63484194     4.95572627
O      5.71320118     7.58781502     8.22327348
Ce     1.91734443     1.11355473     0.98076795
Ce     0.01212088     2.21038035     4.16222147
Ce     5.60530357     9.85026811     7.34177245
Ce     5.74350708     1.11355473     0.98076795
Ce     3.82327596     2.21066118     4.16219990
Ce    -1.77092648     9.85185792     7.34038080
Ce     9.56965825     1.11355473     0.98076795
Ce     7.65672173     2.20974710     4.15361244
Ce     7.65613663     0.03598279     7.35963209
Ce     0.00426884     4.42709884     0.98076795
Ce    -1.90128406     5.53271263     4.16138695
Ce    -1.91602447     3.31990526     7.35980562
Ce     3.83043149     4.42709884     0.98076795
Ce     1.91713286     5.55662559     4.10878629
Ce     1.91736273     3.53220193     7.25739942
Ce     7.65658267     4.42709884     0.98076795
Ce     5.73638060     5.53267769     4.16128749
Ce     5.75145499     3.32052146     7.35864157
Ce    -1.90881249     7.74065290     0.98076795
Ce    -3.82198259     8.84860249     4.18783134
Ce     7.65672156     6.61894895     7.36242251
Ce     1.91735017     7.74065290     0.98076795
Ce     0.00629867     8.84618920     4.13430406
Ce    -0.00521571     6.64460136     7.37425143
Ce     5.74350134     7.74065290     0.98076795
Ce     3.82807938     8.84636287     4.13405708
Ce     3.83922498     6.64452272     7.37408719
