84
CIF: CO+Olatt—CO2.cif | data_image0
Ce     1.93596140     1.11772783     0.89035214
Ce     0.00016891     2.23810147     4.06735872
Ce    11.60300106     0.00596951     7.21375587
Ce     5.80789581     1.11772783     0.89035214
Ce     3.87029053     2.21949004     4.01686550
Ce    -2.09315705     9.98004463     7.13687226
Ce     9.67981860     1.11772783     0.89035214
Ce     7.77242687     2.23342315     3.91864208
Ce     2.02657494     9.96781359     7.39130564
Ce     0.00000000     4.47091133     0.89035214
Ce    -1.94126417     5.59376307     4.09984765
Ce    -1.75776106     3.38618870     7.40522427
Ce     3.87193441     4.47091133     0.89035214
Ce     1.96509889     5.59497271     4.08724263
Ce     1.95121507     3.32958115     7.22138970
Ce     7.74385721     4.47091133     0.89035214
Ce     5.81687022     5.61911846     4.02397189
Ce    -1.93596721     7.82410489     0.89035214
Ce    -3.87953137     8.93732055     3.99155424
Ce    -3.89984710     6.76532093     7.21834630
Ce     1.93596721     7.82410489     0.89035214
Ce     0.00698854     8.96857551     4.08988024
Ce     0.01767590     6.72303498     7.26721659
Ce     5.80789000     7.82410489     0.89035214
Ce     3.86670857     8.94949797     4.08337312
Ce     3.90192812     6.72077205     7.31875817
Y      5.61999023     3.50292546     6.93607565
O      0.00000000     0.00000000     0.09999685
O      1.92636377     1.12321498     3.21887686
O      0.11025080     2.27016271     6.39141373
O      0.00000000     2.23545567     1.68070743
O     -0.00805842     0.02468451     4.83220741
O      1.95757670     1.08810251     8.00563663
O      3.87192279     0.00000000     0.09999685
O      5.80483248     1.09042955     3.20587798
O      3.91927058     2.17047322     6.41180359
O      3.87192279     2.23545567     1.68070743
O     -1.96678528    10.05073941     4.80219656
O      7.57829217     3.14410509    11.19901233
O      7.74385721     0.00000000     0.09999685
O      9.69441519     1.12140205     3.20338478
O      6.67811175     1.99798289     8.21956592
O      7.74385721     2.23545567     1.68070743
O      7.74689735     0.18600520     4.96293233
O      9.83214567     1.08340560     8.03381366
O     -1.93596140     3.35318350     0.09999685
O     -0.03696450     4.46547299     3.30344809
O     -1.95328381     5.63420106     6.47222682
O     -1.93596721     5.58864923     1.68070743
O      9.52655900     3.26173200     4.98093741
O      0.14901703     4.52731212     8.09441152
O      1.93596140     3.35318350     0.09999685
O      3.89648990     4.45305491     3.24167288
O      2.00059524     5.48933396     6.40985414
O      1.93595559     5.58864923     1.68070743
O      1.98598093     3.33110884     4.83160468
O      5.80789581     3.35318350     0.09999685
O      7.77425878     4.49274583     3.20706319
O      5.85332685     5.61327439     6.33967345
O      5.80789000     5.58864923     1.68070743
O      5.91012349     3.28832933     4.79625419
O      7.56969416     4.45148162     8.22425792
O     -3.87192860     6.70637706     0.09999685
O     -1.90653395     7.81093068     3.24739585
O     -3.88433302     8.94498749     6.32911999
O     -3.87192860     8.94183273     1.68070743
O     -3.85345277     6.71922388     4.82538181
O     -2.01756798     7.87420834     8.03274652
O     -0.00000581     6.70637706     0.09999685
O      1.91633162     7.88506016     3.27812009
O     -0.09312307     9.09118664     6.50086004
O     -0.00000581     8.94183273     1.68070743
O      0.02968034     6.74939349     4.92897101
O      3.87192860     6.70637706     0.09999685
O      5.81169621     7.83888989     3.22736682
O      3.92110022     8.92328814     6.40450669
O      3.87192860     8.94183273     1.68070743
O      3.86977089     6.71128445     4.78080384
O      5.97245244     7.89074643     8.06297001
O      4.04399669     4.30918333     8.26358936
O      1.78806058     7.74247663     8.10089149
O      4.18698406     4.13101992    10.75439868
Os     6.80563350     3.36757642     9.69283394
C      4.93049284     3.95072347     9.83852066
