84
CIF: CO+O — CO2.cif | data_image0
O      0.55978923     0.45000431     0.59999690
O      2.47538425     1.59491774     3.75792132
O      0.35563061     2.55731876     6.98164886
O      0.55978923     2.65902057     2.16203261
O      0.58973828     0.43618243     5.35975115
O      2.52046021     1.08828255     8.75998210
O      4.38603242     0.45000431     0.59999690
O      6.30237173     1.55698271     3.73465571
O      4.30996213     2.73702332     6.98240998
O      4.38603242     2.65902057     2.16203261
O      4.39056060     0.49186758     5.38863364
O      6.29924412     1.56573497     8.53150239
O      8.21216082     0.45000431     0.59999690
O     10.12763024     1.55439247     3.76938608
O      8.31215016     2.61001166     6.99885569
O      8.21216082     2.65902057     2.16203261
O      8.17217279     0.43858635     5.38173035
O     10.08774759     1.39118393     8.85594700
O     -1.35327498     3.76352871     0.59999690
O      0.59491953     4.85296836     3.75925683
O     -1.40611045     5.99604104     6.86799830
O     -1.35333237     5.97264438     2.16203261
O     -1.36288330     3.79991262     5.34591186
O      2.47296821     3.76352871     0.59999690
O      4.38670527     4.86473909     3.75585642
O      2.50802135     5.87415140     6.97553599
O      2.47291082     5.97264438     2.16203261
O      2.50981355     3.78598474     5.48662414
O      4.37279175     4.86269794     8.44279082
O      6.29909662     3.76352871     0.59999690
O      8.19221435     4.85718060     3.73546123
O      6.30045549     5.97919563     6.91061408
O      6.29903923     5.97264438     2.16203261
O      6.32977130     3.72005856     5.42008963
O      8.16661518     4.88703801     8.56037633
O     -3.26639657     7.07715251     0.59999690
O     -1.34055971     8.18922619     3.74456856
O     -3.26233334     9.22926686     6.85760804
O     -3.26639657     9.28616878     2.16203261
O     -3.28420489     7.06754300     5.32457320
O     -1.40016248     8.15564633     8.57977374
O      0.55984662     7.07715251     0.59999690
O      2.47343133     8.18769067     3.73671380
O      0.51124086     9.26107453     6.94681566
O      0.55984662     9.28616878     2.16203261
O      0.59430478     7.06231056     5.39092848
O      2.48002745     8.17843426     8.52834464
O      4.38597502     7.07715251     0.59999690
O      6.27961076     8.17667090     3.73698184
O      4.38068838     9.37170900     6.95418752
O      4.38597502     9.28616878     2.16203261
O      4.36427219     7.11403443     5.40270846
O      6.28496412     8.15719301     8.55503059
O     10.56188548     1.58513697    10.16883915
O      0.21712909     5.14559379     8.74306892
O     -0.88443904     3.52978981    11.71105602
Ce     2.47285343     1.55451244     1.38101475
Ce     0.54402159     2.65411727     4.65193310
Ce     0.68036754     0.45733734     7.79580071
Ce     6.29909662     1.55451244     1.38101475
Ce     4.40023566     2.63875812     4.53640723
Ce     4.31684551     0.41228830     7.82018424
Ce    10.12522502     1.55451244     1.38101475
Ce     8.23205432     2.65936038     4.56739288
Ce     8.09834556     0.38342268     7.72251653
Ce     0.55978923     4.86803684     1.38101475
Ce    -1.35279024     5.97075900     4.54054997
Ce    -1.29211137     3.87938848     7.81013454
Ce     4.38603242     4.86803684     1.38101475
Ce     2.46220212     5.99601424     4.53505536
Ce     8.21216082     4.86803684     1.38101475
Ce     6.30187931     5.97503364     4.55503695
Ce     6.39089857     3.73904591     7.74945635
Ce    -1.35333237     8.18166064     1.38101475
Ce    -3.26720542     9.29142607     4.53980867
Ce    -3.28184338     7.07643473     7.73079212
Ce     2.47291082     8.18166064     1.38101475
Ce     0.54652924     9.28147407     4.56018699
Ce     0.49500193     7.04580419     7.81363088
Ce     6.29903923     8.18166064     1.38101475
Ce     4.39389064     9.30247700     4.56516478
Ce     4.41002906     7.17233587     7.74015559
Fe     3.25246647     4.21619805     7.17512376
C     -1.07806150     3.30458565    10.58717906
