82
CIF: Cu-Sc-CeO2.cif | data_image0
Ce     1.93038582     1.11050507     0.88387043
Ce    -0.00614264     2.23903786     4.04321117
Ce    -5.80160832    10.05583637     7.19578869
Ce     5.81181033     1.12175166     0.90127712
Ce     3.85807801     2.22714710     4.02230232
Ce     3.86351621     0.00473501     7.22758621
Ce     9.66901012     1.12377363     0.90450652
Ce     7.73566999     2.23991679     4.08395204
Ce     7.75791982     0.01097549     7.20935289
Ce    -0.00709724     4.47602159     0.89067279
Ce    -1.94980319     5.59386883     4.05981095
Ce     9.67666745     3.33489063     7.20935866
Ce     3.86254305     4.47635356     0.87798423
Ce     1.92806798     5.59297713     4.03340897
Ce     1.92934027     3.36068326     7.18037145
Ce     7.74213807     4.46545905     0.90125422
Ce     5.80797933     5.60474932     4.02208247
Ce    -1.94645625     7.83004003     0.90010904
Ce    -3.87445705     8.94326917     4.05398358
Ce     7.73524812     6.71152370     7.22741024
Ce     1.92815559     7.82745473     0.89060408
Ce    -0.01159380     8.95083883     4.05965587
Ce    -0.00241630     6.70738780     7.21558080
Ce     5.81127600     7.83258510     0.88371011
Ce     3.86558735     8.94508664     4.04319677
Ce     3.86187884     6.70816991     7.18033213
Sc     5.49132788     3.53651658     6.84563482
Cu     7.00812776     2.65885520     8.73042383
O     11.61334069     0.00154917     0.10141687
O      1.92697703     1.11638731     3.22720575
O      0.01178130     2.22144803     6.40090554
O     -0.00785227     2.23805103     1.69392277
O     -5.79979120    10.05468464     4.86188896
O      1.96082446     1.11989806     7.98340776
O     -1.93899312    10.05733740     0.10496691
O      5.79276031     1.11484633     3.25285914
O      3.94826997     2.20868741     6.41252365
O      3.86763657     2.23577757     1.68132582
O     -1.96036743    10.05581973     4.86918356
O      6.04082915     1.10172500     8.29005818
O      7.73821774     0.00761509     0.10924988
O      9.68304470     1.11571033     3.25168502
O      7.71847884     2.24941429     6.32130302
O      7.74357843     2.23531483     1.71563532
O      1.93127250    10.02843469     4.84655302
O      9.69128320     1.11091615     7.98956947
O      9.67032270     3.35425987     0.10911246
O      0.00653129     4.48554909     3.24044948
O     -2.00879975     5.57925817     6.44891217
O     -1.94403436     5.59119430     1.70564938
O     -1.91179485     3.37247684     4.84677847
O      0.03104925     4.48856016     7.97101745
O      1.92738314     3.35244915     0.09928684
O      3.84002997     4.48926015     3.20889648
O      1.90911451     5.60387302     6.35952849
O      1.92862022     5.59252216     1.67404250
O      1.94802838     3.34148405     4.86034595
O      3.86476585     4.47513781     7.82460503
O      5.81155478     3.35101064     0.10766953
O      7.73855253     4.48520392     3.25271186
O      5.86890214     5.53638944     6.41210657
O      5.80528807     5.59217007     1.68114259
O      5.72671334     3.40012363     4.79593874
O      7.87189137     4.27553015     8.28898221
O     -3.87155109     6.71022987     0.10512724
O     -1.94499753     7.82927437     3.24186507
O     -3.86408214     8.93717910     6.43293701
O     -3.87509971     8.94378428     1.69355631
O     -3.88096377     6.72927816     4.86903416
O     -1.94963321     7.83177892     8.00699770
O     -0.01209783     6.71325780     0.10434852
O      1.92632800     7.81072720     3.24023840
O     -0.02843239     9.00890748     6.44856070
O     -0.00628994     8.94736548     1.70514550
O     -0.03872446     6.72837680     4.88636212
O      1.93604927     7.78787578     7.97100298
O      3.86815347     6.71410280     0.09951587
O      5.80450364     7.83247264     3.22699397
O      3.88985303     8.93827609     6.40093330
O      3.86556896     8.94715423     1.69389986
O      3.88776015     6.70164062     4.86018213
O      5.81839165     7.80144659     7.98352304
