81
CIF: Fe-Ti-CeO2-Ov.cif | data_image0
Ce     1.93038582     1.11050507     0.88387043
Ce    -0.00661369     2.22017978     4.04727476
Ce    -5.64666568     9.96687231     7.21611257
Ce     5.81181033     1.12175166     0.90127712
Ce     3.81139550     2.20962000     3.98171557
Ce    -1.88580780    10.02858772     7.39329239
Ce     9.66901012     1.12377363     0.90450652
Ce     7.76231159     2.22455880     4.01744018
Ce     1.92378604     9.96832697     7.23445789
Ce    -0.00709724     4.47602159     0.89067279
Ce    -1.95122082     5.58111926     4.07538221
Ce    -1.86278980     3.40908275     7.23400080
Ce     3.86254305     4.47635356     0.87798423
Ce     1.93762328     5.58753673     4.10447008
Ce     1.78758056     3.26704202     7.25398003
Ce     7.74213807     4.46545905     0.90125422
Ce     5.79973271     5.65360851     3.98171751
Ce    -1.94645625     7.83004003     0.90010904
Ce    -3.85108529     8.92972222     4.08934877
Ce    -3.81967112     6.67886351     7.39297807
Ce     1.92815559     7.82745473     0.89060408
Ce    -0.00136386     8.95863383     4.07552508
Ce     0.00508216     6.70329052     7.25366654
Ce     5.81127600     7.83258510     0.88371011
Ce     3.88181889     8.95525344     4.04695088
Ce     3.87240918     6.87905517     7.25437954
Ti     5.76027115     3.38027015     6.53896960
Fe     7.22925280     2.53272294     8.65417353
O     11.61334069     0.00154917     0.10141687
O      1.92544974     1.10441124     3.20379734
O     -0.09113780     2.14631504     6.44429892
O     -0.00785227     2.23805103     1.69392277
O     -5.76388469    10.03386307     4.83586800
O      1.86207679     1.02722725     8.10260112
O     -1.93899312    10.05733740     0.10496691
O      5.80541100     1.11700595     3.22585784
O      4.15301997     2.53657290     6.69508891
O      3.86763657     2.23577757     1.68132582
O      3.86709908     0.12161144     4.88031887
O      6.17345152     1.03349055     8.50726834
O      7.73821774     0.00761509     0.10924988
O      9.69192651     1.11061516     3.23006227
O      7.41470863     2.42551831     6.40407947
O      7.74357843     2.23531483     1.71563532
O      7.76844435     0.04941849     4.84811395
O      9.18656677     1.40233529     8.17613576
O      9.67032270     3.35425987     0.10911246
O      0.00332271     4.46560080     3.26661746
O     -1.94396607     5.54244724     6.37670088
O     -1.94403436     5.59119430     1.70564938
O      9.64915909     3.30682699     4.84793820
O     -0.07670446     4.50612388     8.08053536
O      1.92738314     3.35244915     0.09928684
O      3.83212464     4.49370404     3.22239599
O      1.99999029     5.55115907     6.45990707
O      1.92862022     5.59252216     1.67404250
O      1.94080261     3.26521256     4.85590581
O      5.81155478     3.35101064     0.10766953
O      7.74291673     4.47322528     3.22591092
O      5.68805758     5.19457152     6.69450704
O      5.80528807     5.59217007     1.68114259
O      5.75856406     3.38127166     4.67423073
O      8.00009180     4.19615445     8.50708066
O     -3.87155109     6.71022987     0.10512724
O     -1.94584207     7.82975877     3.29176643
O     -3.81639145     8.90984249     6.40486601
O     -3.87509971     8.94378428     1.69355631
O      7.63600541     6.64971083     4.88008300
O     -1.77005288     7.72814282     8.12465194
O     -0.01209783     6.71325780     0.10434852
O      1.94225646     7.82372216     3.26661883
O      0.03593935     8.97185212     6.37722030
O     -0.00628994     8.94736548     1.70514550
O      0.01458174     6.69808882     4.87493230
O      1.86683760     7.87251649     8.08111942
O      3.86815347     6.71410280     0.09951587
O      5.81410059     7.83974530     3.20351486
O      3.90314103     9.06511728     6.44416441
O      3.86556896     8.94715423     1.69389986
O      3.95059995     6.74592237     4.85658740
O      5.84959336     7.93353972     8.10269238
