87
CIF: 4-NHNO+2H-N2+OH+2H_ts.cif | data_image0
Ce     0.01158694     0.01515023     8.73603959
Ce     1.92656009     1.10971005     5.61532474
Ce     0.00000000     2.23543938     2.47426506
Ce    -1.91170133    10.00126651     8.76716284
Ce     5.80179875     1.10651662     5.62534748
Ce     3.87189458     2.23543938     2.47426506
Ce     1.96267614    10.03280873     8.73127062
Ce     9.68694354     1.12843175     5.60192796
Ce     7.74390532     2.23543938     2.47426506
Ce     9.65630069     3.33120421     8.74517922
Ce    -0.01612543     4.51082276     5.64216276
Ce    -1.93600537     5.58869904     2.47426506
Ce     1.92167788     3.32912489     8.76919382
Ce     3.85959342     4.49393273     5.64392963
Ce     1.93588921     5.58869904     2.47426506
Ce     5.79645678     3.33952623     8.78040912
Ce     7.74219821     4.47269452     5.61370959
Ce     5.80789995     5.58869904     2.47426506
Ce     7.70913045     6.69071001     8.76617707
Ce    -1.91529700     7.80056636     5.61265290
Ce    -3.87195266     8.94185811     2.47426506
Ce     1.96055447     7.82064542     5.61745137
Ce    -0.00005808     8.94185811     2.47426506
Ce     3.92323795     6.78074261     8.85194280
Ce     5.81236647     7.81791886     5.60918686
Ce     3.87195266     8.94185811     2.47426506
Rh     0.01624046     6.83726539     8.60262601
O     -5.79679364    10.05867337     6.42238305
O      0.02300962     2.29632146     9.49200123
O      1.93594729     1.11771969     3.26466483
O      0.01628527     2.23169662     4.81418496
O      0.00000000     0.00000000     1.68386529
O      1.95316448     1.11318434     7.96897127
O     -1.94612772     9.98471370     6.47550721
O      3.85374791     2.22515363     9.55778383
O      5.80795803     1.11771969     3.26466483
O      3.85488717     2.22947292     4.85197782
O      3.87189458     0.00000000     1.68386529
O      5.78793448     1.08508839     7.98726756
O      7.74407328     0.01158524     6.41879858
O      7.72615978     2.21929018     9.50867548
O      9.67985261     1.11771969     3.26466483
O      7.72184964     2.24404068     4.82581601
O      7.74390532     0.00000000     1.68386529
O      9.69403244     1.14499001     7.93036657
O     -1.91559151     3.34300392     6.40249365
O     -2.43314921     5.29239327    10.09614834
O      0.00000000     4.47087876     3.26466483
O     -1.95783210     5.58268387     4.81407789
O      9.67985261     3.35315907     1.68386529
O     -0.19721994     4.74081305     8.02654567
O      1.87127866     3.37535048     6.49720334
O      1.55737751     5.69124491     9.62242985
O      3.87201074     4.47087876     3.26466483
O      1.95973760     5.56527574     4.81351497
O      1.93594729     3.35315907     1.68386529
O      3.77278633     4.51667578     8.06558716
O      5.77571886     3.36705144     6.47792361
O      5.88568067     5.53864631     9.49246597
O      7.74390532     4.47087876     3.26466483
O      5.81891516     5.56903769     4.81175475
O      5.80795803     3.35315907     1.68386529
O      7.80806782     4.48017117     7.93569395
O     -3.87856613     6.73136124     6.42829049
O     -3.80400292     8.91290643     9.50983434
O     -1.93600537     7.82413842     3.26466483
O     -3.86851055     8.95045049     4.80687203
O      7.74384724     6.70641873     1.68386529
O     -1.81889240     7.56891384     8.03196547
O      0.03566776     6.74265501     6.27820646
O      0.02778174     8.76461760     9.40804760
O      1.93600537     7.82413842     3.26466483
O     -0.00261334     8.98065281     4.80352633
O     -0.00005808     6.70641873     1.68386529
O      2.03914465     7.82037102     7.94220226
O      3.91958055     6.69361870     6.38153014
O      3.92889601     9.08339836     9.50506411
O      5.80789995     7.82413842     3.26466483
O      3.88553242     8.95448711     4.80922442
O      3.87195266     6.70641873     1.68386529
O      5.81705812     7.84258270     7.99035380
O      3.51699835     6.63941644    11.06295694
H     -1.78514424     5.64402973    10.73363216
H      4.40016843     5.91379026    12.06343256
H      1.92455311     6.11765559    10.44944574
N      4.86435171     6.64833500    12.86380676
N      4.34662484     7.59324136    12.38600380
