86
CIF: 5-NHNO+2H-N2O+3H_fs.cif | data_image0
Ce     5.81037488    10.05172150     8.80081273
Ce     1.92227646     1.11898092     5.58267916
Ce     0.00000000     2.23543938     2.47426506
Ce     3.79072797     0.06567816     8.76049467
Ce     5.81049885     1.10284483     5.62958377
Ce     3.87189458     2.23543938     2.47426506
Ce     7.83556963     0.04160727     8.75623930
Ce     9.69377342     1.09758301     5.56275794
Ce     7.74390532     2.23543938     2.47426506
Ce     9.72629703     3.20020686     8.69583237
Ce    -0.00648294     4.48533233     5.69373020
Ce    -1.93600537     5.58869904     2.47426506
Ce     1.88140031     3.22766972     8.75584385
Ce     3.85858604     4.47916520     5.65513198
Ce     1.93588921     5.58869904     2.47426506
Ce     5.79898538     3.33579602     8.79632965
Ce     7.75729966     4.47564203     5.64429759
Ce     5.80789995     5.58869904     2.47426506
Ce    -3.89666323     6.75520479     8.79587554
Ce    -1.93646407     7.82538472     5.61426816
Ce    -3.87195266     8.94185811     2.47426506
Ce     1.94579950     7.81594932     5.61480320
Ce    -0.00005808     8.94185811     2.47426506
Ce     3.98518373     6.74601199     8.78842897
Ce     5.81835086     7.82465124     5.60584752
Ce     3.87195266     8.94185811     2.47426506
Co     0.00926247     7.67408132     8.13984108
O      5.80477992    10.04309464     6.39847152
O     -0.11957293     2.07416408     9.68549784
O      1.93594729     1.11771969     3.26466483
O      0.00023722     2.23169539     4.79962409
O      0.00000000     0.00000000     1.68386529
O      1.90297205     1.09433195     7.93062569
O     -1.95716793    10.05358063     6.43335600
O      3.95606169     2.12442825     9.62858153
O      5.80795803     1.11771969     3.26466483
O      3.88977758     2.23620398     4.82827288
O      3.87189458     0.00000000     1.68386529
O      5.84017913     1.03541978     8.00046903
O      1.96750940    10.02532945     6.43161923
O      7.76987489     2.18149277     9.60870830
O      9.67985261     1.11771969     3.26466483
O      7.72137283     2.22601896     4.82215811
O      7.74390532     0.00000000     1.68386529
O      9.68923120     1.09791988     7.90688093
O      9.69110634     3.30862146     6.36508991
O     -2.76374298     4.98148763    10.70502923
O      0.00000000     4.47087876     3.26466483
O     -1.91598231     5.59561851     4.83991020
O     -1.93594729     3.35315907     1.68386529
O     -0.12627513     4.38281855     8.09467461
O      1.90982970     3.35269757     6.37613612
O      3.87201074     4.47087876     3.26466483
O      1.92217464     5.60147032     4.83603538
O      1.93594729     3.35315907     1.68386529
O      3.80652097     4.48394605     8.04369035
O      5.80963766     3.35653146     6.48970288
O      5.88428556     5.38023545     9.71997329
O      7.74390532     4.47087876     3.26466483
O      5.81095354     5.57173758     4.83366718
O      5.80795803     3.35315907     1.68386529
O      7.89261894     4.44688652     8.00443634
O     -3.85902017     6.73090364     6.39972564
O     -3.84221333     9.08056054     9.64605079
O     -1.93600537     7.82413842     3.26466483
O     -3.86652365     8.94699973     4.79666645
O     -3.87195266     6.70641873     1.68386529
O     -1.80178857     7.80148393     8.06936925
O      0.01348330     6.75593770     6.49425215
O     -0.00582159     8.86014857     9.75358683
O      1.93600537     7.82413842     3.26466483
O      0.00086569     8.95045915     4.81145274
O     -0.00005808     6.70641873     1.68386529
O      1.82739868     7.77631784     8.10256867
O      3.87950157     6.73700326     6.40585940
O      3.85634156     9.07822024     9.63489337
O      5.80789995     7.82413842     3.26466483
O      3.87504095     8.93690932     4.78792114
O      3.87195266     6.70641873     1.68386529
O      5.82745299     7.85299353     8.00399120
O      1.97415981     5.42773521    10.85755796
H      7.95234250     4.60411195    10.85750894
H     -0.11894613     8.33255897    10.56140273
H     -2.37160414     5.15437122    11.57982225
N     -0.09330672     6.16003399    11.68489714
N      0.91601851     5.80191485    11.28424916
