83
CIF: Cr-Cu-CeO2-Ov-O2.cif | data_image0
Ce     1.93038582     1.11050507     0.88387043
Ce    -0.01614576     2.21428863     4.00877467
Ce    -5.79370401    10.04230742     7.20261869
Ce     5.81181033     1.12175166     0.90127712
Ce     3.84112222     2.19531483     4.00329769
Ce    -1.98871331     9.98682427     7.26068141
Ce     9.66901012     1.12377363     0.90450652
Ce     7.70289058     2.24056994     4.03930291
Ce     2.01706821     9.97258687     7.31419442
Ce    -0.00709724     4.47602159     0.89067279
Ce    -1.95083296     5.56892041     4.09088735
Ce    -1.77161804     3.30563293     7.25394739
Ce     3.86254305     4.47635356     0.87798423
Ce     1.95103995     5.57107928     4.06709520
Ce     1.88943116     3.23461021     7.17463467
Ce     7.74213807     4.46545905     0.90125422
Ce     5.81733817     5.62534670     4.00934793
Ce    -1.94645625     7.83004003     0.90010904
Ce    -3.85971210     8.92076129     4.05436364
Ce    -3.86824080     6.73127501     7.29189779
Ce     1.92815559     7.82745473     0.89060408
Ce     0.00153526     8.94717761     4.10489623
Ce     0.01960194     6.68972016     7.27402025
Ce     5.81127600     7.83258510     0.88371011
Ce     3.86163922     8.96081598     4.03190072
Ce     3.91888542     6.80726801     7.19144863
Cu     4.97229613     3.82464648     6.40292591
Cr     6.75136815     2.90760551     8.33398338
O     11.61334069     0.00154917     0.10141687
O      1.91841756     1.10154754     3.21027328
O      0.04195097     2.23617952     6.33554335
O     -0.00785227     2.23805103     1.69392277
O     -5.80419727    10.05505262     4.83314025
O      1.82133123     1.16873740     8.04759592
O     -1.93899312    10.05733740     0.10496691
O      5.80051106     1.09943084     3.23397009
O      3.89714863     2.25089305     6.41801960
O      3.86763657     2.23577757     1.68132582
O     -1.95468309    10.04765399     4.81774893
O      6.53227545     1.36348172     8.93794410
O      7.73821774     0.00761509     0.10924988
O      9.67273439     1.11930026     3.21208614
O      7.42001826     2.47580860     6.75734827
O      7.74357843     2.23531483     1.71563532
O      7.76649769     0.10907542     4.88054889
O      9.82743698     1.17926668     7.96179303
O      9.67032270     3.35425987     0.10911246
O     -0.02831771     4.46564282     3.26382330
O     -1.96898150     5.43786161     6.47784068
O     -1.94403436     5.59119430     1.70564938
O      9.59585523     3.24588651     4.91403950
O      0.06633560     4.39338993     8.02692645
O      1.92738314     3.35244915     0.09928684
O      3.83839188     4.49246041     3.21402907
O      2.12155863     5.44096819     6.48263539
O      1.92862022     5.59252216     1.67404250
O      1.92943851     3.31734792     4.81468726
O      5.81155478     3.35101064     0.10766953
O      7.75574734     4.46997967     3.23804180
O      5.78567913     5.55069211     6.40066695
O      5.80528807     5.59217007     1.68114259
O      5.76651332     3.36367556     4.70605491
O      8.04140199     3.89995620     8.81825686
O     -3.87155109     6.71022987     0.10512724
O     -1.90561393     7.79478527     3.26962087
O     -3.89076315     8.92416566     6.43409187
O     -3.87509971     8.94378428     1.69355631
O     -3.86051762     6.69902336     4.82959960
O     -1.77229883     7.69178316     8.09449978
O     -0.01209783     6.71325780     0.10434852
O      1.91568831     7.83181374     3.26814498
O      0.02922513     8.96811528     6.45090727
O     -0.00628994     8.94736548     1.70514550
O      0.02631323     6.65785479     4.95360399
O      1.99008548     7.67339959     8.04082377
O      3.86815347     6.71410280     0.09951587
O      5.80601071     7.83350779     3.22250931
O      3.91104772     8.92060818     6.37237157
O      3.86556896     8.94715423     1.69389986
O      3.87100982     6.72816489     4.83125783
O      5.69778066     7.87992618     8.07435773
O      4.16135012     4.32497595     8.17578783
O      5.27372723     3.78994860     8.92186435
