90
CIF: CH2CHCH2.cif | data_image0
O      0.00261135     0.00382715     0.19995339
O      1.91341821     1.10766043     3.35030873
O      0.14134762     2.19321970     6.52807721
O      0.00261135     2.21285656     1.76196664
O      5.72235019     9.93303465     4.97182465
O      1.86322369     1.28182805     8.40967023
O      3.82876252     0.00382715     0.19995339
O      5.74444628     1.10921807     3.33588676
O      3.62531996     2.25803155     6.56468236
O      3.82876252     2.21285656     1.76196664
O      3.85296931     0.02172085     4.97034829
O      5.70309698     0.96734162     8.18531575
O      7.65492518     0.00382715     0.19995339
O      9.56148124     1.11021654     3.33727147
O      7.70123031     2.17397620     6.55216476
O      7.65492518     2.21285656     1.76196664
O      1.90866036     9.93937271     4.96236339
O      9.62092847     1.11722927     8.18553730
O     -1.91046424     3.31737126     0.19995339
O     -0.00722761     4.42028744     3.33038662
O     -1.86367173     5.52554895     6.52438107
O     -1.91046998     5.52641062     1.76196664
O     -1.88041591     3.29954634     5.00150705
O      0.10730246     4.32909982     8.10393038
O      1.91568694     3.31737126     0.19995339
O      3.82916724     4.41646692     3.35467974
O      1.94233697     5.37643184     6.52090555
O      1.91568120     5.52641062     1.76196664
O      1.87040576     3.33024308     4.96416146
O      3.48521968     4.24138883     8.50241081
O      5.74184959     3.31737126     0.19995339
O      7.66357758     4.43090931     3.37346001
O      5.76004471     5.53061068     6.58059844
O      5.74184385     5.52641062     1.76196664
O      5.73059525     3.28804784     4.97469051
O      7.81109463     4.47573733     8.22078032
O     -3.82354556     6.63092532     0.19995339
O     -1.91171769     7.73136141     3.35040898
O     -3.80191849     8.96124713     6.56324399
O     -3.82354556     8.83995473     1.76196664
O     -3.81198310     6.66428017     5.01821207
O     -1.89108514     7.74266554     8.14729786
O      0.00260561     6.63092532     0.19995339
O      1.91312059     7.74002344     3.32474499
O     -0.00380813     8.82228904     6.47792740
O      0.00260561     8.83995473     1.76196664
O      0.03804757     6.61784806     4.97464847
O      1.78058204     7.75833146     8.18203771
O      3.82876826     6.63092532     0.19995339
O      5.75900394     7.73081017     3.34982967
O      3.80725438     8.88497764     6.53938440
O      3.82876826     8.83995473     1.76196664
O      3.81971954     6.64601312     4.94651719
O      5.84876682     7.83859566     8.21939627
Ce     1.91568694     1.10834185     0.98097142
Ce    -0.01105218     2.19961496     4.13136645
Ce     5.68734759     9.91665704     7.34827195
Ce     5.74184959     1.10834185     0.98097142
Ce     3.83060299     2.21954649     4.17353703
Ce    -1.84896693     9.92411189     7.30832584
Ce     9.56800076     1.10834185     0.98097142
Ce     7.65047250     2.21158048     4.16911924
Ce     1.89693457     9.92636715     7.33486940
Ce     0.00261135     4.42188597     0.98097142
Ce    -1.90038265     5.52425299     4.16021584
Ce    -1.88055862     3.32003016     7.36767111
Ce     3.82877400     4.42188597     0.98097142
Ce     1.92701337     5.53600152     4.13761484
Ce     7.65492518     4.42188597     0.98097142
Ce     5.73983600     5.52720865     4.20169933
Ce     5.77278122     3.28021675     7.39713389
Ce    -1.91046998     7.73544003     0.98097142
Ce    -3.82442838     8.84835304     4.16162004
Ce    -3.80452101     6.63277271     7.37237157
Ce     1.91569268     7.73544003     0.98097142
Ce     0.00976046     8.84078367     4.13130837
Ce     0.02165290     6.60841599     7.33297245
Ce     5.74184385     7.73544003     0.98097142
Ce     3.82702593     8.83197357     4.14654316
Ce     3.82056429     6.67239700     7.39505647
Zr     1.79257219     3.36452957     7.08810431
C      3.56868115     4.34006967     9.92482139
C      2.62712889     3.41471804    10.63950344
C      3.02893347     2.38797758    11.39850237
H      3.33774913     5.37917603    10.25406039
H      4.60502496     4.13444771    10.27008687
H      1.56001118     3.62306800    10.49401470
H      2.00326179     1.46277185     9.35912518
H      2.32195375     1.73906295    11.91997988
H      4.09228865     2.16725177    11.53129233
