82
CIF: Os-Cu-CeO2.cif | data_image0
Ce     1.93038582     1.11050507     0.88387043
Ce     0.01722135     2.21943797     4.01495827
Ce     5.83562527    10.00425895     7.21221037
Ce     5.81181033     1.12175166     0.90127712
Ce     3.87169621     2.23327706     4.02386928
Ce    -2.04554687     9.98996133     7.16476405
Ce     9.66901012     1.12377363     0.90450652
Ce     7.72378474     2.25370743     4.04975874
Ce     2.06265358     9.94520537     7.29759837
Ce    -0.00709724     4.47602159     0.89067279
Ce    -1.95710434     5.58369067     4.09512332
Ce    -1.63491886     3.26147687     7.22908343
Ce     3.86254305     4.47635356     0.87798423
Ce     1.93221552     5.59255410     4.04606832
Ce     1.99962552     3.34087428     7.20508749
Ce     7.74213807     4.46545905     0.90125422
Ce     5.80079408     5.59642015     4.03358255
Ce    -1.94645625     7.83004003     0.90010904
Ce    -3.88258529     8.91794570     4.01950147
Ce     7.69623127     6.74640593     7.28332213
Ce     1.92815559     7.82745473     0.89060408
Ce    -0.00832384     8.96845236     4.08122305
Ce    -0.00477680     6.71768035     7.24094132
Ce     5.81127600     7.83258510     0.88371011
Ce     3.86437976     8.95484703     4.03934044
Ce     3.85002932     6.70501346     7.19128443
Cu     5.02174922     3.78948517     6.60946792
Os     6.93796572     2.97679700     8.33502837
O     11.61334069     0.00154917     0.10141687
O      1.93128679     1.11316433     3.21351023
O      0.11909583     2.22472326     6.36000966
O     -0.00785227     2.23805103     1.69392277
O      5.80992403    10.05547478     4.82967851
O      1.97146862     1.06287479     8.01508536
O     -1.93899312    10.05733740     0.10496691
O      5.80335511     1.11209050     3.23923985
O      3.95398776     2.16543187     6.45778691
O      3.86763657     2.23577757     1.68132582
O     -1.96903414    10.04791463     4.83565212
O      6.27568969     1.42042639     8.83381177
O      7.73821774     0.00761509     0.10924988
O      9.67912758     1.12502784     3.22405452
O      7.73853271     2.50846046     6.68489591
O      7.74357843     2.23531483     1.71563532
O      7.75550968     0.10332637     4.89110184
O      9.90452846     1.11743979     8.01495225
O      9.67032270     3.35425987     0.10911246
O     -0.01100039     4.48011975     3.26681257
O     -1.96074981     5.44757878     6.54914694
O     -1.94403436     5.59119430     1.70564938
O      9.68355496     3.27990930     4.89971150
O      0.10873158     4.41369647     8.06636696
O      1.92738314     3.35244915     0.09928684
O      3.85554978     4.47984111     3.20582736
O      1.88151660     5.58631553     6.34147453
O      1.92862022     5.59252216     1.67404250
O      1.98862040     3.33810665     4.84148103
O      3.74826579     4.51785768     7.96773056
O      5.81155478     3.35101064     0.10766953
O      7.75911437     4.45901305     3.25038065
O      5.75745438     5.57027356     6.38153071
O      5.80528807     5.59217007     1.68114259
O      5.79034607     3.34689663     4.79139600
O      7.20742353     4.61016928     8.87231950
O     -3.87155109     6.71022987     0.10512724
O     -1.93136811     7.82129393     3.24210027
O     -3.86968398     8.93955940     6.38680839
O     -3.87509971     8.94378428     1.69355631
O     -3.86107466     6.69559221     4.82647353
O     -1.85058913     7.87727027     8.04056870
O     -0.01209783     6.71325780     0.10434852
O      1.90403082     7.84532322     3.26423047
O     -0.02909193     9.07679843     6.48568857
O     -0.00628994     8.94736548     1.70514550
O     -0.07198027     6.75198937     4.92410548
O      1.92373572     7.69112523     8.03983420
O      3.86815347     6.71410280     0.09951587
O      5.80013816     7.82733013     3.22343402
O      3.89864823     8.89697823     6.35960328
O      3.86556896     8.94715423     1.69389986
O      3.85421896     6.70379586     4.81723010
O      5.69708311     7.88803671     8.04612934
