    36
 Tv_1:   7.865149   0.000000   0.000000 Tv_2:  -3.932574   6.811419   0.000000 Tv_3:   0.000000   0.000000  23.027334
Pd      1.12883819      2.94028759      6.44384792
Pt      5.65232386      3.39086895      7.00615770
Ce      3.93257441      2.27047284      0.80273332
Ce      0.04819986      4.57669476      3.95515166
Ce      7.88974369     -0.21389792      7.24810824
Ce      1.96628723      5.67618214      0.80273332
Ce      1.95243917      1.08910445      3.98504822
Ce     -1.96628714      5.67618214      0.80273332
Ce      5.87749873      1.16494434      4.00443304
Ce      0.00000004      2.27047284      0.80273332
Ce      3.94350197      4.53246275      4.03206796
Ce      3.94488371     -0.11572212      7.14524131
O       3.93257433      4.54094576      1.60546686
O       3.85815268     -0.01046121      4.71769948
O      -0.47249908      2.39987609      7.45278856
O      -1.96628718      3.40570930      0.00000000
O       1.99107278      5.69017564      3.18739429
O       1.90616756      1.06927199      6.59290734
O       5.89886151      1.13523646      1.60546686
O       2.07829740      3.28884097      4.69077165
O      -1.79964537      5.30624150      7.61092415
O       0.00000000      0.00000000      0.00000000
O       4.01162999      2.28878502      3.18102346
O       0.55261433      4.76509039      6.20666505
O       1.96628714      1.13523646      1.60546686
O      -1.81448064      3.58694067      4.98583380
O       2.02438956      6.36234442      8.10902341
O       3.93257436      0.00000000      0.00000000
O      -0.02772946      2.24675109      3.19976846
O       3.98859156      4.38499074      6.42071216
O      -0.00000004      4.54094576      1.60546686
O      -0.10841430     -0.02271028      4.93418957
O       4.91583249      2.98073813      8.64508037
O       1.96628718      3.40570930      0.00000000
O      -2.01709331      5.67858413      3.17676220
O       5.19594102      1.58169260      6.25666965
