82
CIF: O2.cif | data_image0
Ce    11.60382005     0.00935749     8.72492366
Ce     1.92839837     1.13641174     5.62300887
Ce     0.00000000     2.23543938     2.47426506
Ce    -1.95331929    10.03996076     8.74875411
Ce     5.81033358     1.10141258     5.62483952
Ce     3.87189458     2.23543938     2.47426506
Ce     1.92691708     9.98343428     8.74646800
Ce     9.69049086     1.10658037     5.60933214
Ce     7.74390532     2.23543938     2.47426506
Ce     9.68773499     3.32577973     8.77158441
Ce     0.01637325     4.52230010     5.63516909
Ce    -1.93600537     5.58869904     2.47426506
Ce     1.94495145     3.34124664     8.84405263
Ce     3.86890516     4.46382266     5.64568002
Ce     1.93588921     5.58869904     2.47426506
Ce     5.83244034     3.32298365     8.80675185
Ce     7.75735699     4.47298652     5.63478650
Ce     5.80789995     5.58869904     2.47426506
Ce    -3.84163460     6.74160152     8.76190051
Ce    -1.92018761     7.81389930     5.57831721
Ce    -3.87195266     8.94185811     2.47426506
Ce     1.89588543     7.78446180     5.61745428
Ce    -0.00005808     8.94185811     2.47426506
Ce     3.95823499     6.70020285     8.76356005
Ce     5.80617374     7.82802938     5.60346542
Ce     3.87195266     8.94185811     2.47426506
Ir    -0.19818039     6.82730562     8.99642769
O     11.60502698     0.00277622     6.42996157
O     -0.13723846     2.23264176     9.51791206
O      1.93594729     1.11771969     3.26466483
O     -0.00671713     2.22217358     4.80954266
O      0.00000000     0.00000000     1.68386529
O      1.91308585     1.06051060     7.99061312
O      3.85283422     0.00401009     6.43624819
O      4.01358243     2.15183511     9.55983823
O      5.80795803     1.11771969     3.26466483
O      3.88350506     2.24635985     4.83933840
O      3.87189458     0.00000000     1.68386529
O      5.85282004     0.98883541     7.99972927
O      1.96138059     9.97154194     6.46916814
O      7.75482752     2.20581057     9.54591777
O      9.67985261     1.11771969     3.26466483
O      7.75877208     2.22832338     4.85059614
O      7.74390532     0.00000000     1.68386529
O      9.64504469     1.09103478     7.95737447
O     -1.86043293     3.35464985     6.49385168
O     -1.81996504     5.92805145     9.69825423
O      0.00000000     4.47087876     3.26466483
O     -2.01457447     5.53593415     4.80050472
O     -1.93594729     3.35315907     1.68386529
O     -0.00726166     4.93184405     8.09032734
O      1.89452176     3.35947188     6.44526996
O      3.87201074     4.47087876     3.26466483
O      2.02175122     5.54823274     4.80404093
O      1.93594729     3.35315907     1.68386529
O      3.91192198     4.51453893     8.00140778
O      5.84317302     3.32579029     6.49660617
O      5.86491632     5.60328999     9.55650574
O      7.74390532     4.47087876     3.26466483
O      5.80287633     5.57609725     4.84500165
O      5.80795803     3.35315907     1.68386529
O      7.84714319     4.49414887     8.04097264
O      7.73700190     6.71714628     6.44279115
O     -3.82509465     8.90751423     9.52508607
O     -1.93600537     7.82413842     3.26466483
O     -3.89235487     8.95191882     4.80790352
O     -3.87195266     6.70641873     1.68386529
O     -1.75440679     7.72326866     7.88129295
O     -0.00484958     6.71176911     5.96565777
O     -0.17269845     8.69251896     9.66033090
O      1.93600537     7.82413842     3.26466483
O     -0.00131674     9.03016042     4.79102589
O     -0.00005808     6.70641873     1.68386529
O      1.60421069     7.59809224     8.08312996
O      3.85194505     6.75970238     6.47185017
O      3.81100824     8.90483891     9.46766931
O      5.80789995     7.82413842     3.26466483
O      3.88588300     8.94595249     4.80351791
O      3.87195266     6.70641873     1.68386529
O      5.83161083     7.84729080     7.97598531
O      0.97742957     6.15301091    10.37807791
O      2.23808429     5.59401021     9.98372431
