82
CIF: Cu-Ti-CeO2.cif | data_image0
Ce     1.93038582     1.11050507     0.88387043
Ce     0.03105757     2.22916591     4.03371501
Ce     0.04221721     0.00451466     7.21300155
Ce     5.81181033     1.12175166     0.90127712
Ce     3.90411347     2.25414913     4.08804649
Ce    -1.87153746    10.05585139     7.26718278
Ce     9.66901012     1.12377363     0.90450652
Ce     7.75275530     2.21905487     4.09761628
Ce     1.96730338     9.97710037     7.21200545
Ce    -0.00709724     4.47602159     0.89067279
Ce    -1.97005791     5.57241144     4.05837211
Ce     9.73488191     3.19975824     7.16003565
Ce     3.86254305     4.47635356     0.87798423
Ce     1.92230268     5.57499949     4.05576607
Ce     1.95876951     3.33678496     7.27806735
Ce     7.74213807     4.46545905     0.90125422
Ce     5.80524302     5.62061614     3.98661801
Ce    -1.94645625     7.83004003     0.90010904
Ce    -3.86370577     8.97453906     4.02840835
Ce    -3.90394875     6.83562396     7.14819417
Ce     1.92815559     7.82745473     0.89060408
Ce    -0.01631218     8.93807671     4.05540011
Ce    -0.04906703     6.65438214     7.21331257
Ce     5.81127600     7.83258510     0.88371011
Ce     3.86267857     8.94787611     4.02042792
Ce     3.82409593     6.79512991     7.15982905
Ti     5.42894863     3.86163970     6.92104655
Cu     6.40224924     2.24200109     8.64573277
O     11.61334069     0.00154917     0.10141687
O      1.95391932     1.12448522     3.22677952
O     -0.02085712     2.18973499     6.38885647
O     -0.00785227     2.23805103     1.69392277
O     -5.78969334    10.05145130     4.83763133
O      2.00072788     0.98417534     8.00036170
O     -1.93899312    10.05733740     0.10496691
O      5.80618209     1.15512158     3.27528225
O      4.17365383     2.28971537     6.55481184
O      3.86763657     2.23577757     1.68132582
O      3.86823299     0.05368256     4.89750222
O      5.90400907     0.51171446     8.46178379
O      7.73821774     0.00761509     0.10924988
O      9.68401713     1.12209335     3.25131485
O      7.92808065     2.06885939     6.34885405
O      7.74357843     2.23531483     1.71563532
O      1.92185732     9.99693278     4.80526059
O      9.77172710     1.07864605     8.08019977
O      9.67032270     3.35425987     0.10911246
O      0.01515392     4.46824797     3.23804424
O     -2.19203515     5.46876830     6.52034042
O     -1.94403436     5.59119430     1.70564938
O     -1.89395641     3.36610677     4.83697214
O     -0.13058581     4.50444339     7.99060898
O      1.92738314     3.35244915     0.09928684
O      3.87467199     4.47899165     3.22892513
O      1.89435659     5.65803424     6.37265588
O      1.92862022     5.59252216     1.67404250
O      1.99540765     3.31832043     4.86564080
O      3.98646925     4.61936313     7.85617088
O      5.81155478     3.35101064     0.10766953
O      7.73335195     4.46605461     3.24613373
O      5.80210375     5.67632412     6.33679165
O      5.80528807     5.59217007     1.68114259
O      5.80889628     3.47409829     4.94452359
O      6.83593385     3.95298188     8.11920877
O     -3.87155109     6.71022987     0.10512724
O     -1.94247018     7.84272135     3.24196915
O     -3.85385408     8.92329172     6.37286386
O     -3.87509971     8.94378428     1.69355631
O     -3.87443259     6.74248936     4.82397241
O     -1.96178175     7.79390028     7.97560703
O     -0.01209783     6.71325780     0.10434852
O      1.89845181     7.78795438     3.23715260
O      0.00050105     8.90876497     6.37176747
O     -0.00628994     8.94736548     1.70514550
O     -0.10942530     6.65056334     4.90021150
O      1.95451492     7.79582466     8.00120846
O      3.86815347     6.71410280     0.09951587
O      5.80542349     7.83961881     3.20977585
O      3.88594216     8.96243002     6.38117845
O      3.86556896     8.94715423     1.69389986
O      3.85961380     6.72825218     4.82706436
O      5.82928361     7.85733112     7.98765329
