86
CIF: 3-NH2NO+H-NHNO+2H_ts.cif | data_image0
Ce    11.58961236     0.01627846     8.75481190
Ce     1.94248866     1.11729095     5.65101711
Ce     0.00000000     2.23543938     2.47426506
Ce    -1.85159663    10.04016061     8.87117017
Ce     5.80738356     1.09956615     5.63620831
Ce     3.87189458     2.23543938     2.47426506
Ce     7.70621661     0.00912659     8.82805446
Ce     9.67386797     1.11457016     5.61177828
Ce     7.74390532     2.23543938     2.47426506
Ce     9.65270660     3.29000918     8.77805718
Ce     0.00791143     4.43744330     5.59332615
Ce    -1.93600537     5.58869904     2.47426506
Ce     1.94902900     3.25263352     8.86504609
Ce     3.85956273     4.48139600     5.67007521
Ce     1.93588921     5.58869904     2.47426506
Ce     5.81001710     3.35999852     8.78168054
Ce     7.75499823     4.48191220     5.62162167
Ce     5.80789995     5.58869904     2.47426506
Ce     7.72069013     6.73094661     8.79981101
Ce    -1.96115754     7.83784460     5.58925530
Ce    -3.87195266     8.94185811     2.47426506
Ce     1.96363512     7.82920519     5.60120124
Ce    -0.00005808     8.94185811     2.47426506
Ce     3.93097229     6.76904876     8.84688510
Ce     5.80525558     7.82678892     5.62345884
Ce     3.87195266     8.94185811     2.47426506
Fe    -0.01544445     6.70826464     8.06451068
O     11.60747462     0.01152886     6.42291944
O     -0.14296410     2.18905914     9.55796592
O      1.93594729     1.11771969     3.26466483
O      0.00344273     2.21943675     4.80258534
O      0.00000000     0.00000000     1.68386529
O      1.93592334     1.06387691     8.00970780
O     -1.93616277     9.97660395     6.49414139
O      4.00071027     2.14818796     9.62035459
O      5.80795803     1.11771969     3.26466483
O      3.86929223     2.21986127     4.86009918
O      3.87189458     0.00000000     1.68386529
O      5.83348120     1.09853739     7.93712238
O      1.94336474     9.98195349     6.45442087
O      7.74615821     2.26626569     9.56546296
O      9.67985261     1.11771969     3.26466483
O      7.74462553     2.22904939     4.84235353
O      7.74390532     0.00000000     1.68386529
O      9.64277508     1.13761251     7.92142147
O     -1.86743261     3.35909187     6.43748974
O     -2.39664268     5.32920114    10.23447180
O      0.00000000     4.47087876     3.26466483
O     -1.96921636     5.57373422     4.80115177
O      9.67985261     3.35315907     1.68386529
O     -0.06564162     4.79474902     8.11707237
O      1.87501404     3.34792045     6.44611093
O      3.87201074     4.47087876     3.26466483
O      1.96522900     5.56594075     4.81371659
O      1.93594729     3.35315907     1.68386529
O      3.85331160     4.48149350     8.02634852
O      5.81153820     3.36769765     6.45492814
O      5.96058471     5.55085566     9.60496915
O      7.74390532     4.47087876     3.26466483
O      5.81541342     5.59490401     4.83884883
O      5.80795803     3.35315907     1.68386529
O      7.83491946     4.50005181     7.93642137
O     -3.84291870     6.75750541     6.44576132
O     -3.77798318     8.87716206     9.57666405
O     -1.93600537     7.82413842     3.26466483
O     -3.87441431     8.95551848     4.80939034
O      7.74384724     6.70641873     1.68386529
O     -1.70450023     7.59338017     8.12115670
O     -0.00964342     6.70857651     6.15916589
O      0.06444703     9.24259275     9.87275923
O      1.93600537     7.82413842     3.26466483
O     -0.00730958     8.97761695     4.79790600
O     -0.00005808     6.70641873     1.68386529
O      1.66154219     7.63613231     8.07152992
O      3.86065461     6.75781217     6.41189630
O      3.84198505     9.08794373     9.56071789
O      5.80789995     7.82413842     3.26466483
O      3.88080951     8.95531534     4.79861730
O      3.87195266     6.70641873     1.68386529
O      5.85528551     7.87265556     7.98534320
O      2.16450413     5.87300176    10.50978748
N      0.11304123     6.69625239    10.59940177
N      0.91767099     5.68513779    10.75614599
H     -2.89362636     5.04035287    11.02398271
H      0.29933328     7.80150488    10.36886555
H     -0.87002985     6.34955294    10.73475349
