    85
 Tv_1:  11.598200   0.000000   0.000000 Tv_2:  -5.799100  10.044336   0.000000 Tv_3:   0.000000   0.000000  22.891600
Ce      2.14531905      1.20773094      3.19108904
Ce      0.18125667      2.41274991      9.70544322
Ce      0.22288261      0.09865547      6.43070827
Ce      6.01134706      1.20773094      3.19108904
Ce      4.09000665      0.07805453      6.37993470
Ce      9.87749105      1.20773094      3.19108904
Ce      7.90219001      2.30268408      9.69763718
Ce      7.94146731      0.06871330      6.44249745
Ce      0.21230505      4.55580941      3.19108904
Ce     -1.71107665      5.62515953      9.74712882
Ce     -1.73574022      3.43622756      6.43265406
Ce      4.07833306      4.55580941      3.19108904
Ce      2.12406535      3.46311624      6.41688175
Ce      7.94447705      4.55580941      3.19108904
Ce      6.14273727      5.65760274      9.63837083
Ce      6.00292677      3.43253124      6.48118425
Ce     -1.72076694      7.90398831      3.19108904
Ce     -3.64126649      9.01037191      9.68630584
Ce     -3.63325793      6.78656600      6.42001789
Ce      2.14526106      7.90398831      3.19108904
Ce      0.16624860      9.15069128      9.73719387
Ce      0.19066861      6.79500324      6.40168172
Ce      6.01140505      7.90398831      3.19108904
Ce      4.16895559      9.09099779      9.69299019
Ce      4.10720098      6.78446673      6.38723712
Ga      3.39780867      1.97256694      9.11406162
O       0.21230505      2.32375710      2.40201559
O       2.18687540      1.21351648     10.41451053
O       2.14425202      1.20837378      5.60175765
O       0.20611741      2.34956099      7.24482513
O       0.23560583      0.11163275      8.84396364
O       0.21230505      0.09170479      3.98039141
O       4.07833306      2.32375710      2.40201559
O       6.30400444      1.06986239     10.62387710
O       5.99829908      1.20110168      5.60706850
O       4.05104249      2.30095645      7.26668661
O       4.08737965      0.21681703      8.84410099
O       4.07833306      0.09170479      3.98039141
O       7.94436106      2.32375710      2.40201559
O       9.89758493      1.18903843     10.47258652
O       9.87491625      1.18288125      5.62648058
O       7.89811324      2.28150058      7.25972757
O       2.18802363     10.03762622      8.83112145
O       7.94436106      0.09170479      3.98039141
O      -1.72076694      5.67193600      2.40201559
O      -0.19726219      4.34130257     10.71560374
O       0.19473378      4.56378461      5.59086125
O      -1.69661949      5.69280813      7.24585526
O      -1.79326149      3.43471086      8.79220573
O      -1.72070895      3.43978325      3.98039141
O       2.14526106      5.67193600      2.40201559
O       4.39732995      3.89621796     11.53967845
O       4.09972014      4.55010422      5.61286008
O       2.14755751      5.70725189      7.11482374
O       2.21176514      3.38518224      8.83826363
O       2.14531905      3.43978325      3.98039141
O       6.01128907      5.67193600      2.40201559
O       7.93064619      4.58316013     10.55254688
O       7.93721077      4.55190216      5.62783119
O       6.02397750      5.71378071      7.25535527
O       6.02107215      3.53288420      8.89427937
O       6.01134706      3.43978325      3.98039141
O      -3.65378095      9.02001447      2.40201559
O      -1.73529949      7.99569310     10.49296004
O      -1.71967091      7.90178860      5.58017087
O      -3.62506380      9.02001447      7.25821672
O      -3.61508935      6.77661206      8.84671063
O      -3.65378095      6.78796216      3.98039141
O       0.21224706      9.02001447      2.40201559
O       2.19517392      8.38580506     11.15480198
O       2.15217359      7.92755233      5.59717933
O       0.17698273      9.00622360      7.27266132
O       0.18594814      6.77636095      8.96245056
O       0.21224706      6.78796216      3.98039141
O       4.07827507      9.02001447      2.40201559
O       6.06258211      7.91956708     10.49057932
O       6.02520691      7.90895022      5.59383716
O       4.12570590      8.95031682      7.29301195
O       4.13442195      6.63249593      9.05941937
O       4.07827507      6.78796216      3.98039141
O       3.54013598      4.07254628     12.41260383
Au      2.14414184      6.35212838      9.19145812
H       1.20438028      6.59028963     11.57557248
H       3.02431184      6.53803900     11.61952435
C       2.13789041      7.03076389     11.17485502
