82
CIF: Sc-W-CeO2.cif | data_image0
Ce     1.93596140     1.11772783     0.89035214
Ce    -0.01624183     2.20909082     4.04362956
Ce    -5.62138499     9.92884400     7.19953369
Ce     5.80789581     1.11772783     0.89035214
Ce     3.81400373     2.19137734     3.96702818
Ce    -1.96336407     9.97034081     7.28999018
Ce     9.67981860     1.11772783     0.89035214
Ce     7.75023544     2.24713533     3.99599482
Ce     2.02627876     9.96819614     7.24656486
Ce     0.00000000     4.47091133     0.89035214
Ce    -1.94143882     5.60423772     4.05967933
Ce    -1.72309261     3.49330121     7.24357579
Ce     3.87193441     4.47091133     0.89035214
Ce     1.94396745     5.60357242     4.08149653
Ce     1.87530016     3.30396053     7.21547651
Ce     7.74385721     4.47091133     0.89035214
Ce     5.82014861     5.60893432     4.06496624
Ce    -1.93596721     7.82410489     0.89035214
Ce    -3.84336648     8.89684478     4.03420369
Ce    -3.73483327     6.66984727     7.41453375
Ce     1.93596721     7.82410489     0.89035214
Ce     0.00980716     8.96930728     4.06444518
Ce     0.06797824     6.76587727     7.24131308
Ce     5.80789000     7.82410489     0.89035214
Ce     3.90442286     8.94534747     4.05786801
Ce     3.88370230     6.73933399     7.31747251
W      5.40411945     3.37520170     6.93726242
Sc     7.52755983     2.79137299     9.01178515
O      0.00000000     0.00000000     0.09999685
O      1.91226230     1.11777342     3.20635367
O     -0.08324575     2.14621399     6.49728684
O      0.00000000     2.23545567     1.68070743
O     -5.74231153    10.05369791     4.86092440
O      1.89218042     1.18234802     8.05228836
O      3.87192279     0.00000000     0.09999685
O      5.81730576     1.14964475     3.22198028
O      3.98606115     2.20713508     6.39207487
O      3.87192279     2.23545567     1.68070743
O      3.86653741     0.00561073     4.78873510
O      5.58281533     2.39886276     8.60374658
O      7.74385721     0.00000000     0.09999685
O      9.69630889     1.12525707     3.22700193
O      7.28027136     2.66117193     6.86182238
O      7.74385721     2.23545567     1.68070743
O      7.78689529     0.13125333     4.86690969
O      9.04160790     1.63815586     8.58903035
O     -1.93596140     3.35318350     0.09999685
O     -0.00980412     4.45432087     3.28860796
O     -1.81141548     5.54741919     6.40803904
O     -1.93596721     5.58864923     1.68070743
O      9.61579378     3.26785946     4.93366539
O      0.10369082     4.42028728     8.09829293
O      1.93596140     3.35318350     0.09999685
O      3.78570376     4.42091535     3.25055528
O      1.88542538     5.52243413     6.40407052
O      1.93595559     5.58864923     1.68070743
O      1.90171572     3.25404439     4.91874305
O      5.80789581     3.35318350     0.09999685
O      7.79342078     4.40249610     3.23997487
O      5.97879103     5.15933306     6.72015801
O      5.80789000     5.58864923     1.68070743
O      5.70353319     3.27376847     4.96842058
O      8.34791541     4.48887508     8.68870861
O     -3.87192860     6.70637706     0.09999685
O     -1.91320598     7.81022324     3.22937458
O     -3.81237427     8.92813766     6.43023818
O     -3.87192860     8.94183273     1.68070743
O     -3.80563898     6.70474459     4.89316286
O     -1.73069849     7.75673831     8.15417487
O     -0.00000581     6.70637706     0.09999685
O      1.95802825     7.85146747     3.26686881
O      0.04050442     9.02956216     6.42903811
O     -0.00000581     8.94183273     1.68070743
O      0.02024335     6.76594247     4.85621489
O      3.87192860     6.70637706     0.09999685
O      5.80850025     7.89490803     3.22622461
O      3.96865674     9.10829911     6.49401827
O      3.87192860     8.94183273     1.68070743
O      3.87214198     6.76889910     4.94036547
O      5.88348137     7.90915612     8.10150478
O      3.91156073     4.28009026     7.82413180
O      1.89675611     7.78464052     8.11356954
