90
CIF: H+OH→H2O.cif | data_image0
O      0.00261135     0.00382715     0.19995339
O      1.90533378     1.10439740     3.32541014
O      0.06379543     2.40499699     6.52092720
O      0.00261135     2.21285656     1.76196664
O     -0.00561587     0.06120564     4.98672044
O      1.75854610     1.32443922     8.27773412
O      3.82876252     0.00382715     0.19995339
O      5.74239764     1.10415099     3.31670406
O      3.69137506     2.23940846     6.50183465
O      3.82876252     2.21285656     1.76196664
O      3.82390788     0.02407012     4.95037635
O      5.66560067     0.99511583     8.20623436
O      7.65492518     0.00382715     0.19995339
O      9.56120451     1.10274288     3.32924636
O      7.67515679     2.18857727     6.52371069
O      7.65492518     2.21285656     1.76196664
O      7.64313912     0.00044257     4.94878503
O      9.58944632     1.14228418     8.16229329
O     -1.91046424     3.31737126     0.19995339
O     -0.00615394     4.42243764     3.34890929
O     -1.82400347     5.42085308     6.62721532
O     -1.91046998     5.52641062     1.76196664
O      9.53601278     3.29803064     4.95452660
O      0.47132418     3.32258382     8.98737609
O      1.91568694     3.31737126     0.19995339
O      3.83026181     4.43408653     3.34064055
O      1.81470653     5.23660610     6.75822080
O      1.91568120     5.52641062     1.76196664
O      1.93099998     3.30274247     4.91904310
O      3.59514782     4.02893485     8.51620565
O      5.74184959     3.31737126     0.19995339
O      7.65031207     4.44781478     3.35979554
O      5.73837162     5.55122238     6.59116830
O      5.74184385     5.52641062     1.76196664
O      5.73024034     3.30210026     4.94727536
O      7.75984073     4.43755305     8.25541030
O     -3.82354556     6.63092532     0.19995339
O     -1.92263752     7.72595154     3.35057505
O     -3.83213181     8.94328794     6.52983016
O     -3.82354556     8.83995473     1.76196664
O     -3.78313150     6.63806863     5.04746835
O     -2.03337011     7.83267743     8.20654248
O      0.00260561     6.63092532     0.19995339
O      1.91906733     7.73659107     3.32496540
O     -0.04232984     8.89679753     6.48358065
O      0.00260561     8.83995473     1.76196664
O      0.03862361     6.63766690     4.95641912
O      1.89324155     7.94424109     8.24776859
O      3.82876826     6.63092532     0.19995339
O      5.74358166     7.72913507     3.38822868
O      3.84407273     8.89595974     6.51635701
O      3.82876826     8.83995473     1.76196664
O      3.74746345     6.61179795     4.99722455
O      5.84822571     7.85516363     8.23305009
Ce     1.91568694     1.10834185     0.98097142
Ce    -0.02041999     2.21484332     4.12554544
Ce    11.46281141     0.01978574     7.34351847
Ce     5.74184959     1.10834185     0.98097142
Ce     3.84648353     2.20694164     4.11200078
Ce     3.82077355     0.01870763     7.35968084
Ce     9.56800076     1.10834185     0.98097142
Ce     7.63766207     2.21337023     4.13065150
Ce     7.62988934     0.00141322     7.34498539
Ce     0.00261135     4.42188597     0.98097142
Ce    -1.90450117     5.52667727     4.18413333
Ce     9.45775891     3.26266016     7.31672302
Ce     3.82877400     4.42188597     0.98097142
Ce     1.91200770     5.53436202     4.15757520
Ce     7.65492518     4.42188597     0.98097142
Ce     5.72861042     5.52483587     4.21332230
Ce     5.76680565     3.28751349     7.40148946
Ce    -1.91046998     7.73544003     0.98097142
Ce    -3.82257764     8.85463526     4.16284059
Ce    -3.83064540     6.65246462     7.39386336
Ce     1.91569268     7.73544003     0.98097142
Ce    -0.00112156     8.83863215     4.13623448
Ce     0.00513647     6.77997844     7.37501168
Ce     5.74184385     7.73544003     0.98097142
Ce     3.81637776     8.83589733     4.16507215
Ce     3.81093555     6.71559003     7.45129351
Zr     1.96093303     3.19749726     7.02377139
C      3.57495640     6.57254429    10.78022565
C      3.03996657     5.45488945    10.33209202
C      3.49204060     4.10808375     9.92454613
H      3.00574596     7.50409495    10.85847870
H      4.63423946     6.61623802    11.08067725
H      0.74502222     3.75759485     9.81608006
H      0.96681232     2.31856391     8.92741207
H      2.83460666     3.30958047    10.32497917
H      4.48514688     3.93073706    10.40989288
