85
CIF: 1-NH3-NH2+H_ts.cif | data_image0
Ce    -5.80752015    10.05952541     8.74512459
Ce     1.91448456     1.10535707     5.62546874
Ce     0.00000000     2.23543938     2.47426506
Ce    -1.92342564    10.02240744     8.76655049
Ce     5.80294449     1.10835845     5.61887988
Ce     3.87189458     2.23543938     2.47426506
Ce     1.95108060    10.04496972     8.73272900
Ce     9.68445775     1.13511209     5.61316886
Ce     7.74390532     2.23543938     2.47426506
Ce     9.59068218     3.35004705     8.80798492
Ce    -0.01934101     4.51320859     5.64642114
Ce    -1.93600537     5.58869904     2.47426506
Ce     1.90986795     3.38263103     8.76640096
Ce     3.86154277     4.47093663     5.61887308
Ce     1.93588921     5.58869904     2.47426506
Ce     5.76436947     3.32765010     8.76126137
Ce     7.73576972     4.46615628     5.61181070
Ce     5.80789995     5.58869904     2.47426506
Ce     7.69683338     6.63054255     8.80794208
Ce    -1.90885919     7.78623889     5.64634308
Ce    -3.87195266     8.94185811     2.47426506
Ce     1.95365434     7.83411365     5.59514575
Ce    -0.00005808     8.94185811     2.47426506
Ce     3.86733659     6.72603106     8.73272913
Ce     5.82561879     7.81942866     5.61311254
Ce     3.87195266     8.94185811     2.47426506
Rh     0.09009097     6.75863590     8.60839535
O      0.00231562     0.00123818     6.42733974
O      0.00715675     2.30813097     9.49170640
O      1.93594729     1.11771969     3.26466483
O      0.00618978     2.23688386     4.81613956
O      0.00000000     0.00000000     1.68386529
O      1.93861580     1.11959098     7.96261944
O     -1.95026437     9.95838251     6.49101581
O      3.84614054     2.21970453     9.56845341
O      5.80795803     1.11771969     3.26466483
O      3.83670940     2.21472911     4.84943436
O      3.87189458     0.00000000     1.68386529
O      5.77458385     1.11985779     7.96259544
O      7.74017114     0.03397168     6.39955827
O      7.70516337     2.20305532     9.54118606
O      9.67985261     1.11771969     3.26466483
O      7.74095795     2.24645065     4.81135847
O      7.74390532     0.00000000     1.68386529
O      9.68420457     1.10619990     7.96632083
O     -1.91302961     3.35209876     6.44170930
O     -2.52839135     5.24641498    10.01245110
O      0.00000000     4.47087876     3.26466483
O     -1.93493224     5.58901323     4.82484653
O      9.67985261     3.35315907     1.68386529
O     -0.21334755     4.78374238     8.09489358
O      1.84178814     3.39128380     6.49068231
O      1.89151759     5.68090396     9.35961612
O      3.87201074     4.47087876     3.26466483
O      1.94749934     5.57053288     4.80515337
O      1.93594729     3.35315907     1.68386529
O      3.85714511     4.43983951     7.96255182
O      5.78344567     3.33880017     6.40750417
O      5.76038229     5.57043615     9.54115570
O      7.74390532     4.47087876     3.26466483
O      5.81635168     5.58052735     4.81132060
O      5.80795803     3.35315907     1.68386529
O      7.69866796     4.44500095     7.90996802
O     -3.86038447     6.72730909     6.44147334
O     -3.80525961     8.91231107     9.49165547
O     -1.93600537     7.82413842     3.26466483
O     -3.86749040     8.94688925     4.81589645
O      7.74384724     6.70641873     1.68386529
O     -1.77176936     7.48265778     8.09543251
O      0.07408924     6.74951544     6.37227438
O      0.05795194     8.85638955     9.35928258
O      1.93600537     7.82413842     3.26466483
O     -0.00960724     8.96092288     4.80504686
O     -0.00005808     6.70641873     1.68386529
O      2.02643162     7.87591411     7.89522496
O      3.90016708     6.68573034     6.39952494
O      3.90760508     8.96135967     9.56729629
O      5.80789995     7.82413842     3.26466483
O      3.88899022     8.95163119     4.81032989
O      3.87195266     6.70641873     1.68386529
O      5.80127900     7.83322463     7.96616193
N     -0.41556519     6.46652985    10.50663361
H     -0.47597524     7.40015470    10.93220898
H      0.36329869     5.94717837    10.93168565
H     -1.51383219     5.83226188    10.37196322
