81
CIF: Cu-Rh-CeO2-Ov.cif | data_image0
Ce     1.93038582     1.11050507     0.88387043
Ce    -0.00619411     2.23008118     4.01511186
Ce    -5.77059944    10.03764851     7.23677219
Ce     5.81181033     1.12175166     0.90127712
Ce     3.84702396     2.21333411     4.01879025
Ce    -1.90652407    10.04240532     7.23203380
Ce     9.66901012     1.12377363     0.90450652
Ce     7.75564361     2.22834631     4.07804673
Ce     7.77020160     0.01018302     7.21252088
Ce    -0.00709724     4.47602159     0.89067279
Ce    -1.93253259     5.58186981     4.05927877
Ce     9.68382091     3.32470428     7.21255727
Ce     3.86254305     4.47635356     0.87798423
Ce     1.95764392     5.57585542     4.06343211
Ce     1.77876208     3.24681150     7.17568464
Ce     7.74213807     4.46545905     0.90125422
Ce     5.81435155     5.62095968     4.01877463
Ce    -1.94645625     7.83004003     0.90010904
Ce    -3.86479245     8.93748678     4.06336723
Ce    -3.84276203     6.68889970     7.23204657
Ce     1.92815559     7.82745473     0.89060408
Ce     0.00738594     8.94181734     4.05915337
Ce     0.01319094     6.69837583     7.23356035
Ce     5.81127600     7.83258510     0.88371011
Ce     3.87328011     8.94949473     4.01514588
Ce     3.88522877     6.89510097     7.17559770
Rh     4.94229943     3.85255379     6.57095047
Cu     6.68052953     2.84889674     8.03294176
O     11.61334069     0.00154917     0.10141687
O      1.93730646     1.10908900     3.21966271
O     -0.02656408     2.19398494     6.38336351
O     -0.00785227     2.23805103     1.69392277
O     -5.78378024    10.04538206     4.84246456
O      1.92256691     1.02372097     8.03878004
O     -1.93899312    10.05733740     0.10496691
O      5.80035802     1.12847902     3.24766835
O      3.84319996     2.20794510     6.48286249
O      3.86763657     2.23577757     1.68132582
O      3.87180911     0.01809708     4.86564719
O      5.94827166     1.10613404     8.12174327
O      7.73821774     0.00761509     0.10924988
O      9.67785278     1.11863373     3.24353335
O      7.92710392     2.12923878     6.33813795
O      7.74357843     2.23531483     1.71563532
O      1.92682937    10.01526332     4.82214746
O      9.74028999     1.08250060     8.06761893
O      9.67032270     3.35425987     0.10911246
O      0.01428298     4.48709575     3.22619041
O     -1.96065902     5.59369199     6.41800437
O     -1.94403436     5.59119430     1.70564938
O     -1.90249363     3.38275620     4.82221886
O     -0.05386260     4.48107741     8.01500383
O      1.92738314     3.35244915     0.09928684
O      3.85763182     4.47899331     3.22585080
O      2.06317069     5.51485505     6.52575733
O      1.92862022     5.59252216     1.67404250
O      1.90824354     3.32963014     4.82608756
O      5.81155478     3.35101064     0.10766953
O      7.73044094     4.47165899     3.24751134
O      5.81697948     5.62659313     6.48273260
O      5.80528807     5.59217007     1.68114259
O      5.77067641     3.37444289     4.82620958
O      7.82369315     4.35436242     8.12171221
O     -3.87155109     6.71022987     0.10512724
O     -1.92301784     7.81646859     3.26700749
O     -3.81840278     8.91056558     6.40151266
O     -3.87509971     8.94378428     1.69355631
O      7.72787529     6.69699840     4.86556255
O     -1.90692308     7.80694925     8.02885630
O     -0.01209783     6.71325780     0.10434852
O      1.92886241     7.80321492     3.22603417
O     -0.01702338     8.96013161     6.41797823
O     -0.00628994     8.94736548     1.70514550
O      0.05200800     6.67603584     4.91658395
O      1.89990455     7.86511070     8.01499970
O      3.86815347     6.71410280     0.09951587
O      5.81593617     7.82702585     3.21940671
O      3.89423793     8.98508619     6.38332569
O      3.86556896     8.94715423     1.69389986
O      3.87823975     6.74180543     4.82599799
O      5.88228298     7.88218238     8.03876781
