85
CIF: Co-Y-CeO2-O-CO.cif | data_image0
Ce     1.93596140     1.11772783     0.89035214
Ce    -0.01278782     2.24239087     4.05395765
Ce     0.00014885     0.01704832     7.19315906
Ce     5.80789581     1.11772783     0.89035214
Ce     3.88004429     2.23290936     4.03274080
Ce     3.84958800     0.01786530     7.21735159
Ce     9.67981860     1.11772783     0.89035214
Ce     7.74423270     2.22866869     4.06634154
Ce     2.00514387     9.99795806     7.16217035
Ce     0.00000000     4.47091133     0.89035214
Ce    -1.95195105     5.57701225     4.06696072
Ce     9.66995734     3.27698783     7.28711001
Ce     3.87193441     4.47091133     0.89035214
Ce     1.93908491     5.57920454     4.03071992
Ce     1.94738798     3.37911515     7.19654548
Ce     7.74385721     4.47091133     0.89035214
Ce     5.82324924     5.59313080     4.02159934
Ce    -1.93596721     7.82410489     0.89035214
Ce    -3.86618868     8.96880752     3.99880219
Ce    -3.87173166     6.89017296     7.14592816
Ce     1.93596721     7.82410489     0.89035214
Ce    -0.00814274     8.94159165     4.04626592
Ce     0.00771917     6.69388769     7.21515088
Ce     5.80789000     7.82410489     0.89035214
Ce     3.88177545     8.93315341     4.01947827
Ce     3.87950723     6.68615900     7.17669568
Y      5.70586546     3.45141587     7.01648562
O      0.00000000     0.00000000     0.09999685
O      1.93535920     1.12846669     3.22536055
O      0.04150213     2.21477406     6.41953470
O      0.00000000     2.23545567     1.68070743
O      0.00077260     0.00334069     4.83563415
O      1.97234111     1.11555512     8.02309309
O      3.87192279     0.00000000     0.09999685
O      5.80738317     1.10495544     3.24356004
O      3.95366306     2.17715507     6.44186085
O      3.87192279     2.23545567     1.68070743
O     -1.94103614    10.05454918     4.84280611
O      5.93999861     0.98203534     8.43232100
O      7.74385721     0.00000000     0.09999685
O      9.68442251     1.11366756     3.23515420
O      7.63134548     2.16167785     6.35125332
O      7.74385721     2.23545567     1.68070743
O      1.95590430    10.01017839     4.81873844
O      9.70222811     0.93283232     8.02745517
O     -1.93596140     3.35318350     0.09999685
O      0.00669666     4.48033521     3.24932700
O     -2.09859648     5.60066791     6.52465319
O     -1.93596721     5.58864923     1.68070743
O     -1.93216247     3.35841833     4.83691252
O      0.11990965     4.56847410     8.01715168
O      1.93596140     3.35318350     0.09999685
O      3.85211446     4.47781638     3.21284769
O      1.93075494     5.62192383     6.33784153
O      1.93595559     5.58864923     1.68070743
O      1.96614769     3.34015522     4.86938622
O      5.80789581     3.35318350     0.09999685
O      7.75359266     4.48841882     3.24285436
O      5.96333902     5.58124653     6.46073323
O      5.80789000     5.58864923     1.68070743
O      5.76850144     3.39927675     4.76955741
O      7.49079639     3.73158334     8.65813173
O     -3.87192860     6.70637706     0.09999685
O     -1.92868327     7.82574856     3.22371040
O     -3.85888222     8.99300952     6.37811255
O     -3.87192860     8.94183273     1.68070743
O     -3.86724859     6.77063269     4.82405841
O     -1.96008759     7.90378539     8.01884835
O     -0.00000581     6.70637706     0.09999685
O      1.92809431     7.79421605     3.24401968
O     -0.00090533     9.01155297     6.43570324
O     -0.00000581     8.94183273     1.68070743
O     -0.06344059     6.70676249     4.90454026
O      3.87192860     6.70637706     0.09999685
O      5.81007509     7.83114514     3.21320620
O      3.89463526     8.89064083     6.35288060
O      3.87192860     8.94183273     1.68070743
O      3.92482033     6.66654352     4.85379060
O      5.84206995     7.86705966     7.99398834
O      1.95522362     7.79115944     7.97609111
O      3.82611549     4.53035549     7.90905787
O      6.85644683     1.94490299    11.47565667
O      7.54624001     2.25099206    13.70349419
Co     6.82472141     2.24621422     9.31226639
C      7.20594127     2.10205789    12.59256423
