83
CIF: Ru-Mo-CeO2-Ov-O2.cif | data_image0
Ce     1.93596140     1.11772783     0.89035214
Ce     0.02676013     2.23654491     4.05614368
Ce    -5.78794559    10.03804707     7.22399808
Ce     5.80789581     1.11772783     0.89035214
Ce     3.82017479     2.20616386     3.95702962
Ce    -2.06303354     9.91977437     7.21849687
Ce     9.67981860     1.11772783     0.89035214
Ce     7.80980878     2.20665479     3.98850736
Ce     2.01799042    10.02914431     7.30386466
Ce     0.00000000     4.47091133     0.89035214
Ce    -1.94845270     5.58354737     4.09831630
Ce    -1.71314450     3.35842852     7.25272377
Ce     3.87193441     4.47091133     0.89035214
Ce     1.96110427     5.58415336     4.10647557
Ce     1.93227713     3.36465651     7.36589123
Ce     7.74385721     4.47091133     0.89035214
Ce     5.81686735     5.62986128     3.98226922
Ce    -1.93596721     7.82410489     0.89035214
Ce    -3.88319824     8.91576142     4.04371945
Ce    -3.86115962     6.74040214     7.38029439
Ce     1.93596721     7.82410489     0.89035214
Ce     0.00863581     8.96861646     4.08451689
Ce     0.02081188     6.73292633     7.27322933
Ce     5.80789000     7.82410489     0.89035214
Ce     3.87095266     8.94159934     4.07626007
Ce     3.83847371     6.79356559     7.36068208
Mo     5.84689560     3.18404415     6.69986671
O      0.00000000     0.00000000     0.09999685
O      1.92769783     1.10037832     3.20634487
O      0.06153921     2.23659157     6.43501022
O      0.00000000     2.23545567     1.68070743
O     -5.77009171    10.05180712     4.87299342
O      2.02276892     0.98964105     8.03189689
O      3.87192279     0.00000000     0.09999685
O      5.73635764     1.07341929     3.22295658
O      4.19879677     2.33902728     6.55249979
O      3.87192279     2.23545567     1.68070743
O      3.80693292     0.06103834     4.89100612
O      5.95306171     1.94258940     8.40637025
O      7.74385721     0.00000000     0.09999685
O      9.76770815     1.07422671     3.22595306
O      7.54029359     2.50739177     6.48921224
O      7.74385721     2.23545567     1.68070743
O      1.93778834    10.03173953     4.88762809
O      9.75815797     1.27205642     8.02979605
O     -1.93596140     3.35318350     0.09999685
O      0.01881027     4.49042457     3.28740378
O     -1.95728867     5.51928926     6.49290951
O     -1.93596721     5.58864923     1.68070743
O     -1.86498542     3.33908749     4.92248915
O     -0.04382321     4.50499419     8.13371959
O      1.93596140     3.35318350     0.09999685
O      3.87267937     4.47804465     3.21959109
O      1.93557932     5.57644824     6.43808159
O      1.93595559     5.58864923     1.68070743
O      2.02652619     3.29408313     4.86354808
O      5.80789581     3.35318350     0.09999685
O      7.75927279     4.54084565     3.23085724
O      5.79180817     5.05119902     6.67453621
O      5.80789000     5.58864923     1.68070743
O      5.76089142     3.34771994     4.76981285
O      7.80581269     4.53643177     8.90484560
O     -3.87192860     6.70637706     0.09999685
O     -1.95038971     7.81849452     3.28448091
O     -3.85051830     8.91446185     6.39102474
O     -3.87192860     8.94183273     1.68070743
O      7.64834642     6.66229753     4.91344684
O     -1.87925074     7.86915554     8.11014884
O     -0.00000581     6.70637706     0.09999685
O      1.94246423     7.80246792     3.28028935
O     -0.08826625     9.10741614     6.49411063
O     -0.00000581     8.94183273     1.68070743
O     -0.01832361     6.75548143     4.93782323
O      3.87192860     6.70637706     0.09999685
O      5.81387997     7.83037663     3.21897150
O      3.90618760     9.00413397     6.43441530
O      3.87192860     8.94183273     1.68070743
O      3.97983679     6.67946910     4.89193228
O      5.83021045     7.95571731     8.08471612
O      1.79448194     7.81377477     8.10829210
O      3.67461903     4.70012701     8.77025365
O      4.68868109     4.30827337     9.72705950
Ru     6.28652589     3.61063430     9.17600722
