83
CIF: CO+H2O.cif | data_image0
O     -0.00101584     0.09961518     0.10145935
O      1.90094295     1.21353610     3.22707194
O     -0.01726859     2.33919614     6.44396197
O     -0.00101584     2.30864459     1.66347260
O     -0.00056108     0.11770709     4.85749925
O      3.82513533     0.09961518     0.10145935
O      5.73234928     1.20950288     3.22918784
O      3.96330043     2.36613888     6.80672893
O      3.82513533     2.30864459     1.66347260
O      3.78147120     0.17327955     4.85838619
O      5.73888797     0.51957474     9.23397874
O      7.65129798     0.09961518     0.10145935
O      9.57584743     1.20579884     3.22640279
O      7.55399408     2.28899039     6.49862824
O      7.65129798     2.30864459     1.66347260
O      7.67317327     0.10330114     4.80852540
O      9.67452491     1.13061153     8.21859457
O     -1.91409143     3.41315929     0.10145935
O      0.00554145     4.51856619     3.27661587
O     -1.73577304     5.60172209     6.53426172
O     -1.91409717     5.62219864     1.66347260
O      9.50623004     3.39626144     4.84749560
O      1.91205974     3.41315929     0.10145935
O      3.82693030     4.52349463     3.22032086
O      1.76285084     5.50034833     6.92036667
O      1.91205400     5.62219864     1.66347260
O      1.99184137     3.39812450     4.87976459
O      4.22104307     4.32358444     9.60188098
O      5.73822240     3.41315929     0.10145935
O      7.64768367     4.53282786     3.23470809
O      5.66322551     5.65488847     6.46805703
O      5.73821666     5.62219864     1.66347260
O      5.73121675     3.42947625     4.82374785
O      7.62313396     4.65750611     8.19925607
O     -3.82717276     6.72671335     0.10145935
O     -1.90618307     7.82571038     3.28086406
O     -3.87604313     8.87465641     6.41137165
O     -3.82717276     8.93574276     1.66347260
O     -3.79754800     6.66101399     4.92597006
O     -1.92261392     7.74218524     8.21912425
O     -0.00102158     6.72671335     0.10145935
O      1.90601182     7.82734923     3.21763221
O     -0.03303785     9.01721903     6.44005413
O     -0.00102158     8.93574276     1.66347260
O      0.08192932     6.76228962     4.90387989
O      1.74110864     7.88617671     8.29965671
O      3.82514107     6.72671335     0.10145935
O      5.73753549     7.81227767     3.27008246
O      3.86650130     8.91382408     6.41871656
O      3.82514107     8.93574276     1.66347260
O      3.72020270     6.68579129     4.88879930
O      5.83065373     7.85557090     8.21144770
O      1.74378634     1.07996005     8.26571387
Ce     1.91205974     1.20412988     0.88247738
Ce    -0.00826565     2.29362792     4.06838814
Ce    -0.01385152     0.07442650     7.34481362
Ce     5.73822240     1.20412988     0.88247738
Ce     3.82802700     2.30487508     4.02007339
Ce     3.67509833     0.02405139     7.32434858
Ce     9.56437357     1.20412988     0.88247738
Ce     7.65586638     2.30320064     4.02016005
Ce     7.76729562     0.05398250     7.28380719
Ce    -0.00101584     4.51767400     0.88247738
Ce    -1.90563976     5.61575510     4.10587871
Ce     9.45146436     3.32566707     7.26577930
Ce     3.82514681     4.51767400     0.88247738
Ce     1.91648028     5.61928878     4.03898363
Ce     1.89544871     3.21258730     7.23512410
Ce     7.65129798     4.51767400     0.88247738
Ce     5.72940992     5.63521915     4.05766886
Ce     5.86598544     3.55860868     7.15416905
Ce    -1.91409717     7.83122806     0.88247738
Ce    -3.83041071     8.93920027     4.07388836
Ce    -3.82426378     6.74058244     7.33903003
Ce     1.91206548     7.83122806     0.88247738
Ce     0.00152620     8.96252498     4.06026551
Ce    -0.00434984     6.94563536     7.24049420
Ce     5.73821666     7.83122806     0.88247738
Ce     3.81843803     8.93249512     4.04847010
Ce     3.78522142     6.85980501     7.35427038
C      4.80761645     3.35269464     9.88252030
H      0.15905774     9.62864243     9.72618189
H      5.58683498     1.24109989     9.88001529
