86
CIF: 3-NH2NO+H-NHNO+2H_ts.cif | data_image0
Ce    11.56998072     0.00063745     8.75541253
Ce     1.94115851     1.10736706     5.65641832
Ce     0.00000000     2.23543938     2.47426506
Ce     3.96588368     0.00159234     8.86878517
Ce     5.80666526     1.10673451     5.61930643
Ce     3.87189458     2.23543938     2.47426506
Ce     7.70059217     0.04909688     8.81898105
Ce     9.67264305     1.11718669     5.61174389
Ce     7.74390532     2.23543938     2.47426506
Ce     9.62395427     3.27082359     8.79794048
Ce     0.01524230     4.42587148     5.58506607
Ce    -1.93600537     5.58869904     2.47426506
Ce     1.95817964     3.21668000     8.88525946
Ce     3.85797454     4.48227034     5.67417028
Ce     1.93588921     5.58869904     2.47426506
Ce     5.79746962     3.37436712     8.77255419
Ce     7.75389280     4.48920097     5.62568463
Ce     5.80789995     5.58869904     2.47426506
Ce     7.70742297     6.71163083     8.82843752
Ce    -1.96096333     7.83497841     5.58040149
Ce    -3.87195266     8.94185811     2.47426506
Ce     1.97703318     7.83714802     5.58510496
Ce    -0.00005808     8.94185811     2.47426506
Ce     3.93519210     6.75638235     8.87563660
Ce     5.80568455     7.82425973     5.63103089
Ce     3.87195266     8.94185811     2.47426506
Ti     0.02003096     6.70975094     8.13749934
O     11.59486199     0.00617347     6.42786784
O     -0.17115199     2.18000998     9.54258920
O      1.93594729     1.11771969     3.26466483
O     -0.00233250     2.20906554     4.79613351
O      0.00000000     0.00000000     1.68386529
O      1.92935301     1.01163059     8.02406716
O     -1.92796138     9.97283608     6.49859938
O      4.00702797     2.14037290     9.60546485
O      5.80795803     1.11771969     3.26466483
O      3.86935052     2.21679205     4.85407690
O      3.87189458     0.00000000     1.68386529
O      5.84579481     1.15483552     7.89594685
O      1.94306516     9.98340894     6.43721384
O      7.74191184     2.26628049     9.58440844
O      9.67985261     1.11771969     3.26466483
O      7.74880886     2.24026059     4.84243638
O      7.74390532     0.00000000     1.68386529
O      9.61860003     1.13103866     7.91989283
O     -1.85953987     3.36825426     6.46354664
O     -2.37775262     5.27518026    10.19689695
O      0.00000000     4.47087876     3.26466483
O     -1.96224417     5.57439254     4.80196553
O      9.67985261     3.35315907     1.68386529
O     -0.01624541     4.85883046     8.15360384
O      1.87827065     3.32849791     6.44075078
O      3.87201074     4.47087876     3.26466483
O      1.96572367     5.57779380     4.81331666
O      1.93594729     3.35315907     1.68386529
O      3.84628031     4.48782407     8.03275727
O      5.80196444     3.39573909     6.43816964
O      5.94253490     5.55324620     9.62468324
O      7.74390532     4.47087876     3.26466483
O      5.81833141     5.60499180     4.83682320
O      5.80795803     3.35315907     1.68386529
O      7.80988074     4.48915688     7.94119297
O     -3.83791236     6.75761047     6.47264990
O     -3.75217881     8.81864918     9.58396472
O     -1.93600537     7.82413842     3.26466483
O     -3.88135140     8.95320279     4.81054084
O      7.74384724     6.70641873     1.68386529
O     -1.63066811     7.55106519     8.14722181
O      0.00472930     6.70150625     6.24891329
O      0.04841409     9.37347269     9.82666134
O      1.93600537     7.82413842     3.26466483
O      0.00140019     8.96267267     4.79428015
O     -0.00005808     6.70641873     1.68386529
O      1.65186951     7.64626010     8.03876706
O      3.85931540     6.76175831     6.42310402
O      3.83222578     9.08439442     9.55909007
O      5.80789995     7.82413842     3.26466483
O      3.88341646     8.95322171     4.79295262
O      3.87195266     6.70641873     1.68386529
O      5.84564297     7.86018550     8.00101890
O      1.83637651     4.91277053    10.75344448
N      0.47503400     6.65623240    10.42035727
N      1.78754779     6.18871653    10.51414478
H      0.39356324     7.69382774    10.55975549
H     -0.22613902     6.06434508    10.89340333
H     -2.78434249     5.06260747    11.05783556
