85
CIF: Sc-Cr-CeO2-O-CO.cif | data_image0
Ce     1.93038582     1.11050507     0.88387043
Ce    -0.01807958     2.21263509     4.08496873
Ce    -5.53374538     9.91461820     7.21357545
Ce     5.81181033     1.12175166     0.90127712
Ce     3.80044640     2.17296669     3.97974984
Ce    -1.82657756    10.00320460     7.37505296
Ce     9.66901012     1.12377363     0.90450652
Ce     7.71841428     2.24551502     4.05399430
Ce     1.93089672     9.78831911     7.34740671
Ce    -0.00709724     4.47602159     0.89067279
Ce    -1.93630980     5.57630285     4.04387045
Ce    -1.72560519     3.49493616     7.29896240
Ce     3.86254305     4.47635356     0.87798423
Ce     1.94735723     5.58177100     4.08155960
Ce     1.97824132     3.27202650     7.27368530
Ce     7.74213807     4.46545905     0.90125422
Ce     5.82016622     5.67779279     3.97865766
Ce    -1.94645625     7.83004003     0.90010904
Ce    -3.81807634     8.91831817     4.05249363
Ce    -3.73824289     6.65933174     7.29099786
Ce     1.92815559     7.82745473     0.89060408
Ce     0.00737446     8.94895577     4.07142561
Ce     0.06461368     6.66497085     7.23418627
Ce     5.81127600     7.83258510     0.88371011
Ce     3.88540281     8.96815841     4.09074361
Ce     3.98321507     6.67700460     7.28453202
Cr     5.40203779     3.58026698     6.55508750
Sc     7.25596174     2.54262846     8.89444036
O     11.61334069     0.00154917     0.10141687
O      1.90431644     1.08891123     3.21889777
O     -0.07701638     2.09616535     6.57134374
O     -0.00785227     2.23805103     1.69392277
O     -5.73314946    10.01196042     4.90395222
O      1.94469542     0.98407930     8.12835695
O     -1.93899312    10.05733740     0.10496691
O      5.76055110     1.08310907     3.24041326
O      4.09986264     2.26825955     6.35289374
O      3.86763657     2.23577757     1.68132582
O     -1.92776836    10.04847827     4.84873414
O      6.19902273     0.83182796     8.59852557
O      7.73821774     0.00761509     0.10924988
O      9.73230982     1.08282727     3.26835875
O      6.81073949     2.74164203     6.87884219
O      7.74357843     2.23531483     1.71563532
O      7.78984714     0.02183997     5.03240800
O      8.88562238     1.62029512     8.35016641
O      9.67032270     3.35425987     0.10911246
O     -0.01456805     4.44641386     3.26761832
O     -1.89897809     5.58444016     6.41120328
O     -1.94403436     5.59119430     1.70564938
O      9.67135008     3.32607580     4.99484053
O      0.02655834     4.52275022     8.12962461
O      1.92738314     3.35244915     0.09928684
O      3.80918405     4.51276342     3.20522533
O      1.98208774     5.56672933     6.41439422
O      1.92862022     5.59252216     1.67404250
O      1.90478779     3.26771893     4.86933161
O      5.81155478     3.35101064     0.10766953
O      7.74088730     4.53685310     3.23582945
O      5.94065340     5.36479426     6.36028999
O      5.80528807     5.59217007     1.68114259
O      5.60833529     3.46854335     4.73737540
O      8.14708234     4.37625777     8.47679268
O     -3.87155109     6.71022987     0.10512724
O     -1.91710834     7.80815827     3.24873981
O     -3.76128548     8.85320242     6.42577818
O     -3.87509971     8.94378428     1.69355631
O     -3.86133757     6.70575261     4.88187452
O     -1.87246402     7.64894279     8.11672221
O     -0.01209783     6.71325780     0.10434852
O      1.95246564     7.85317381     3.28079307
O      0.06762683     8.86899057     6.45033009
O     -0.00628994     8.94736548     1.70514550
O      0.01353617     6.68850160     4.86196354
O      1.91738036     7.74990214     8.16415601
O      3.86815347     6.71410280     0.09951587
O      5.82063715     7.86080895     3.21979953
O      3.98862607     9.06101127     6.65407145
O      3.86556896     8.94715423     1.69389986
O      3.94282041     6.77795750     4.88584072
O      6.07699893     7.72682126     8.08879082
O      4.32951453     4.20984750     7.87025702
O      6.57455116     2.99303412    11.13367768
O      5.42695581     3.35064381    13.14989008
C      5.99238864     3.17192509    12.14344814
