86
CIF: 5-NHNO+2H-N2O+3H_ts.cif | data_image0
Ce    11.56167269     0.00737839     8.81939789
Ce     1.90547183     1.11994312     5.64434466
Ce     0.00000000     2.23543938     2.47426506
Ce     3.80126050     0.11183110     8.86082772
Ce     5.77850107     1.11337997     5.64097280
Ce     3.87189458     2.23543938     2.47426506
Ce     7.70682933     0.07426304     8.83784220
Ce     9.66114193     1.10449889     5.60305980
Ce     7.74390532     2.23543938     2.47426506
Ce     9.57346937     3.19189422     8.74352238
Ce    -0.01035047     4.45202917     5.54392974
Ce    -1.93600537     5.58869904     2.47426506
Ce     1.89636591     3.27738403     8.88235546
Ce     3.82529424     4.48961454     5.67539549
Ce     1.93588921     5.58869904     2.47426506
Ce     5.73315361     3.37844404     8.80032375
Ce     7.72587790     4.49307524     5.64659407
Ce     5.80789995     5.58869904     2.47426506
Ce     7.62269330     6.72842949     8.88237850
Ce    -1.98452177     7.84152290     5.55643160
Ce    -3.87195266     8.94185811     2.47426506
Ce     1.93678728     7.83894867     5.56085508
Ce    -0.00005808     8.94185811     2.47426506
Ce     3.89700462     6.71691357     8.89374235
Ce     5.78281409     7.82878046     5.66164437
Ce     3.87195266     8.94185811     2.47426506
Ru    -0.04873735     6.70353427     8.27371931
O      5.76944202    10.05939201     6.38502659
O     -0.23939292     2.32727784     9.55881355
O      1.93594729     1.11771969     3.26466483
O     -0.02201620     2.22330002     4.78248320
O      0.00000000     0.00000000     1.68386529
O      1.93353913     1.12680958     7.94346412
O     -1.96390266     9.96338938     6.48789435
O      3.91727979     2.20188890     9.64314410
O      5.80795803     1.11771969     3.26466483
O      3.84747486     2.22247348     4.86132728
O      3.87189458     0.00000000     1.68386529
O      5.78896201     1.13370937     7.95437433
O      1.90017968     9.97349859     6.45358514
O      7.71463474     2.23921691     9.63341336
O      9.67985261     1.11771969     3.26466483
O      7.72876318     2.24233524     4.85573455
O      7.74390532     0.00000000     1.68386529
O      9.54894858     1.13932483     7.89815233
O     -1.86230222     3.38112053     6.44384120
O     -2.12590551     5.25617933    10.41322075
O      0.00000000     4.47087876     3.26466483
O     -1.98345025     5.57333275     4.78441458
O      9.67985261     3.35315907     1.68386529
O     -0.07343545     4.86536475     8.09536130
O      1.81369206     3.39436560     6.41914053
O      3.87201074     4.47087876     3.26466483
O      1.94090072     5.58577154     4.78604414
O      1.93594729     3.35315907     1.68386529
O      3.78564230     4.48824020     8.00416680
O      5.76445081     3.38520453     6.44928721
O      5.78168327     5.42392599     9.70387909
O      7.74390532     4.47087876     3.26466483
O      5.79824175     5.60520111     4.85927854
O      5.80795803     3.35315907     1.68386529
O      7.78479891     4.43348274     7.98728199
O     -3.82507586     6.76132039     6.45785476
O     -3.72858096     9.02698470     9.62160065
O     -1.93600537     7.82413842     3.26466483
O     -3.88874421     8.95004306     4.80133825
O      7.74384724     6.70641873     1.68386529
O     -1.60818724     7.63614775     8.17492180
O     -0.03974315     6.71565504     6.21161328
O     -0.04815954     9.46734828    10.03132975
O      1.93600537     7.82413842     3.26466483
O     -0.02522439     8.97668325     4.78433409
O     -0.00005808     6.70641873     1.68386529
O      1.56754652     7.64540084     8.09044878
O      3.78544534     6.76733443     6.44031788
O      3.62586136     9.04153994     9.58922706
O      5.80789995     7.82413842     3.26466483
O      3.85856552     8.95034659     4.79090253
O      3.87195266     6.70641873     1.68386529
O      5.76287122     7.79249603     8.02105131
O      1.74571784     5.15410800    10.46687799
N      0.14959291     6.70820851    10.23848299
N      1.06715122     6.21231024    10.92086418
H     -2.58354212     4.93131858    11.21248176
H     -1.23735262     5.73679204    10.65483635
H     -0.05243251     8.54150453    10.38291569
