80
CIF: 12-CO.cif | data_VESTA_phase_1
O      0.00261135     0.00382715     0.19995339
O      1.91837290     1.12418724     3.31802645
O      0.28966480     2.37286114     7.53011781
O      0.00261135     2.21285656     1.76196664
O     -0.00025827     0.17931925     5.03145318
O      3.82876252     0.00382715     0.19995339
O      5.75398807     1.10427613     3.30922175
O      3.55488635     2.38228486     7.50605315
O      3.82876252     2.21285656     1.76196664
O      3.83767555     0.17573067     5.03003895
O      5.91188009     1.02042681     8.32781003
O      7.65492518     0.00382715     0.19995339
O      9.55853103     1.10370951     3.30828653
O      7.66058980     2.24042196     6.48240402
O      7.65492518     2.21285656     1.76196664
O      7.65901725     0.00799228     4.92969730
O      9.39990438     1.01542667     8.32432008
O     -1.91046424     3.31737126     0.19995339
O      0.01612724     4.41974873     3.31798083
O     -1.83394305     5.49046525     6.59953392
O     -1.91046998     5.52641061     1.76196664
O     -1.75858693     3.22829317     5.03357452
O      1.91568694     3.31737126     0.19995339
O      3.81641744     4.41656772     3.32247442
O      1.91539424     5.20992044     7.51287337
O      1.91568120     5.52641061     1.76196664
O      1.91108981     3.31813669     5.05925870
O      3.91045476     4.62479436    10.38035461
O      5.74184959     3.31737126     0.19995339
O      7.65954526     4.40716388     3.45819455
O      5.67811541     5.49302994     6.59834779
O      5.74184385     5.52641061     1.76196664
O      5.60250676     3.22968486     5.02896688
O      7.66381525     4.53933466     8.38896392
O     -3.82354556     6.63092532     0.19995339
O     -1.89390655     7.74565900     3.45671189
O     -3.81907470     8.92819781     6.59985326
O     -3.82354556     8.83995473     1.76196664
O     -3.81971749     6.63584594     5.06708257
O     -1.99973800     7.68915639     8.38189279
O      0.00260561     6.63092532     0.19995339
O      1.91737427     7.74948615     3.30942704
O     -0.00719700     8.83796660     6.48571149
O      0.00260561     8.83995473     1.76196664
O      0.15576851     6.55761308     5.03015301
O      1.92237888     7.93324886     8.32847152
O      3.82876826     6.63092532     0.19995339
O      5.72946433     7.74723957     3.45849108
O      3.85074952     8.83786719     6.48477628
O      3.82876826     8.83995473     1.76196664
O      3.68094859     6.55629098     5.03154442
O      5.84528778     7.68911663     8.38383165
Ce     1.91568694     1.10834185     0.98097142
Ce    -0.03034332     2.19607675     4.03706942
Ce     5.62591135     9.87975585     7.50436520
Ce     5.74184959     1.10834185     0.98097142
Ce     3.86599293     2.19547037     4.04071904
Ce    -1.78546949     9.87862262     7.50737614
Ce     9.56800076     1.10834185     0.98097142
Ce     7.65791532     2.20831368     4.18638437
Ce     7.65819080     0.00896646     7.42697051
Ce     0.00261135     4.42188597     0.98097142
Ce    -1.88744991     5.51767279     4.29924878
Ce     9.44887725     3.25335353     7.51198378
Ce     3.82877400     4.42188597     0.98097142
Ce     1.91843029     5.56990092     4.03962415
Ce     7.65492518     4.42188597     0.98097142
Ce     5.72466633     5.51813006     4.29979622
Ce     5.87773166     3.25685263     7.50764986
Ce    -1.91046998     7.73544002     0.98097142
Ce    -3.82030864     8.86615826     4.29833637
Ce    -3.81720945     6.63790365     7.50192452
Ce     1.91569268     7.73544002     0.98097142
Ce     0.01078402     8.84696288     4.18773017
Ce     0.00661160     6.77949816     7.50137708
Ce     5.74184385     7.73544002     0.98097142
Ce     3.82502055     8.84590917     4.18825480
Ce     3.84172745     6.78331536     7.50999930
Zr     1.91546311     3.32093995     7.05715027
C      2.95639345     3.99039251    10.40270851
