    85
 Tv_1:  11.598200   0.000000   0.000000 Tv_2:  -5.799100  10.044336   0.000000 Tv_3:   0.000000   0.000000  22.891600
Ce      2.14531905      1.20773094      3.19108904
Ce      0.25719600      2.37416726      9.65731037
Ce      0.22849125      0.08235111      6.42798300
Ce      6.01134706      1.20773094      3.19108904
Ce      4.14651762      2.34290256      9.71852387
Ce      4.06683746      0.11879649      6.40763320
Ce      9.87749105      1.20773094      3.19108904
Ce      7.98825368      2.28554417      9.67709453
Ce      7.95028143      0.07552037      6.43094570
Ce      0.21230505      4.55580941      3.19108904
Ce     -1.72886444      5.71947868      9.60946772
Ce     -1.71201070      3.42794767      6.42502393
Ce      4.07833306      4.55580941      3.19108904
Ce      2.15503748      3.48902073      6.43068747
Ce      7.94447705      4.55580941      3.19108904
Ce      6.04115393      5.60055081      9.70530260
Ce      6.01096790      3.43200779      6.42503943
Ce     -1.72076694      7.90398832      3.19108904
Ce     -3.68069895      9.03695691      9.65420594
Ce     -3.68284655      6.78149596      6.41621713
Ce      2.14526106      7.90398832      3.19108904
Ce      0.09726783      9.01605644      9.62520496
Ce      0.18015987      6.80383507      6.40461862
Ce      6.01140505      7.90398832      3.19108904
Ce      4.09682718      8.97511687      9.67111498
Ce      4.03555308      6.75810229      6.45072997
O       0.21230505      2.32375710      2.40201559
O       2.12459605      1.27464247     10.44655498
O       2.14020676      1.22061127      5.59935614
O       0.29897424      2.35282681      7.30896745
O       0.20241351      0.10029041      8.84951327
O       0.21230505      0.09170479      3.98039141
O       4.07833306      2.32375710      2.40201559
O       6.03905573      1.16061795     10.46060506
O       6.01668101      1.23430586      5.59387910
O       4.05630505      2.34117331      7.26471253
O       4.03634628      0.10556832      8.83061146
O       4.07833306      0.09170479      3.98039141
O       7.94436106      2.32375710      2.40201559
O       9.90604382      1.17869780     10.49217318
O       9.90617611      1.18626557      5.63426236
O       7.97821714      2.26661334      7.27771210
O       2.17468109     10.00556283      8.92630224
O       7.94436106      0.09170479      3.98039141
O      -1.72076694      5.67193601      2.40201559
O       0.33609002      4.72592832     10.26289619
O       0.19164491      4.53178504      5.59006754
O      -1.78167236      5.61624617      7.19886583
O      -1.67775819      3.41406444      8.86217670
O      -1.72070895      3.43978325      3.98039141
O       2.14526106      5.67193601      2.40201559
O       4.68743851      4.20753044     10.89245657
O       4.07868524      4.56019760      5.60646452
O       2.06935443      5.70908587      7.17221024
O       2.34086167      3.70750972      8.97896141
O       2.14531905      3.43978325      3.98039141
O       6.01128907      5.67193601      2.40201559
O       8.00897821      4.53372679     10.45726386
O       7.91751996      4.53145686      5.60895451
O       5.96726531      5.68884832      7.28497903
O       6.07317891      3.40681038      8.79768144
O       6.01134706      3.43978325      3.98039141
O      -3.65378095      9.02001447      2.40201559
O      -1.81459368      7.95918892     10.53223983
O      -1.74507894      7.91515973      5.60681410
O      -3.67460964      9.02739133      7.24155580
O      -3.66900532      6.80103592      8.83225129
O      -3.65378095      6.78796216      3.98039141
O       0.21224706      9.02001447      2.40201559
O       1.86290719      7.59958036     10.52843651
O       2.15546585      7.93182620      5.60072981
O       0.21412238      9.11191750      7.20361579
O      -0.08756579      6.97589787      8.67967758
O       0.21224706      6.78796216      3.98039141
O       4.07827507      9.02001447      2.40201559
O       5.95404175      7.89535628     10.45382357
O       5.99456325      7.89776119      5.60500982
O       4.10406467      8.93967218      7.32252238
O       3.88926143      6.56001160      9.04340922
O       4.07827507      6.78796216      3.98039141
Pd      2.10205423      5.63084438      9.64292697
C       2.58562639      5.58700553     11.58649399
H       2.02685270      6.66483026     11.60847712
H       2.15109743      4.73003465     12.10897678
H       3.63908809      5.81459886     11.77505346
