81
CIF: Rh-Rh-CeO2-Ov.cif | data_image0
Ce     1.93596140     1.11772783     0.89035214
Ce    -0.00648485     2.22794713     4.02944315
Ce    -5.75853141    10.03398488     7.21334984
Ce     5.80789581     1.11772783     0.89035214
Ce     3.83644008     2.20835210     4.00590650
Ce    -1.92692430    10.01127809     7.21845259
Ce     9.67981860     1.11772783     0.89035214
Ce     7.73520864     2.24126299     4.03190243
Ce     1.95945776    10.01302335     7.23733564
Ce     0.00000000     4.47091133     0.89035214
Ce    -1.93265940     5.57962255     4.04660612
Ce    -1.87897170     3.36199032     7.23567411
Ce     3.87193441     4.47091133     0.89035214
Ce     1.96016771     5.57525340     4.07949931
Ce     1.81508099     3.26111593     7.21810027
Ce     7.74385721     4.47091133     0.89035214
Ce     5.81070200     5.63218538     4.00412254
Ce    -1.93596721     7.82410489     0.89035214
Ce    -3.85736669     8.93306108     4.03135092
Ce    -3.82586360     6.72302436     7.21762182
Ce     1.93596721     7.82410489     0.89035214
Ce     0.00987497     8.94448758     4.04811967
Ce     0.02318026     6.69634023     7.21747237
Ce     5.80789000     7.82410489     0.89035214
Ce     3.87524185     8.95445624     4.02759331
Ce     3.89074840     6.86430174     7.21565680
Rh     5.12681085     3.74756777     6.60455435
Rh     6.74745537     2.81384855     8.10260510
O      0.00000000     0.00000000     0.09999685
O      1.92801642     1.10584153     3.21326601
O     -0.02710858     2.20263847     6.39492441
O      0.00000000     2.23545567     1.68070743
O     -5.78845297    10.05071751     4.83659853
O      1.93852306     0.95329447     8.03223697
O      3.87192279     0.00000000     0.09999685
O      5.81642731     1.11659385     3.23032443
O      3.93907398     2.18294498     6.46547857
O      3.87192279     2.23545567     1.68070743
O      3.87344456     0.00926226     4.83088154
O      5.91401003     1.01099476     8.23307973
O      7.74385721     0.00000000     0.09999685
O      9.67330854     1.12241063     3.22562641
O      7.69542967     2.26851418     6.49480852
O      7.74385721     2.23545567     1.68070743
O      7.75638354     0.04486839     4.86626222
O      9.67979652     1.12134462     8.01498859
O     -1.93596140     3.35318350     0.09999685
O     -0.00943989     4.46779002     3.24797416
O     -1.95356576     5.59324690     6.38208877
O     -1.93596721     5.58864923     1.68070743
O      9.65202755     3.32037087     4.86611608
O     -0.10697765     4.51610317     8.05819795
O      1.93596140     3.35318350     0.09999685
O      3.84442866     4.48590252     3.21630503
O      1.99837963     5.55429224     6.49595675
O      1.93595559     5.58864923     1.68070743
O      1.93194875     3.31811580     4.81712775
O      5.80789581     3.35318350     0.09999685
O      7.74929030     4.46419749     3.23166146
O      5.87997838     5.55915021     6.46631195
O      5.80789000     5.58864923     1.68070743
O      5.74176888     3.38960516     4.72518694
O      7.89027637     4.44170293     8.22623745
O     -3.87192860     6.70637706     0.09999685
O     -1.91432601     7.81034189     3.24247336
O     -3.80921673     8.90698805     6.35410998
O     -3.87192860     8.94183273     1.68070743
O      7.73337493     6.69918729     4.83167160
O     -1.91177541     7.81150116     8.01647364
O     -0.00000581     6.70637706     0.09999685
O      1.93433153     7.83582998     3.24743255
O     -0.00995858     8.95838063     6.38677342
O     -0.00000581     8.94183273     1.68070743
O      0.03641679     6.68748494     4.88415567
O      3.87192860     6.70637706     0.09999685
O      5.81388769     7.83778352     3.21252171
O      3.88667864     8.98552430     6.39240478
O      3.87192860     8.94183273     1.68070743
O      3.89809471     6.73054604     4.81465872
O      5.94964826     7.90570032     8.02688947
O      1.85038885     7.90106731     8.05997600
