82
CIF: Sc-Sc-CeO2.cif | data_image0
Ce     1.93596140     1.11772783     0.89035214
Ce     0.00574425     2.21082383     4.02630725
Ce    -5.67458104     9.91107991     7.14961893
Ce     5.80789581     1.11772783     0.89035214
Ce     3.86079569     2.20855554     4.01822724
Ce    -1.99697147     9.98262203     7.16019837
Ce     9.67981860     1.11772783     0.89035214
Ce     7.74322161     2.24913200     4.05595871
Ce     7.74964025     0.04029509     7.18689795
Ce     0.00000000     4.47091133     0.89035214
Ce    -1.93676332     5.59723703     4.04055193
Ce    -1.87669857     3.40209012     7.12680011
Ce     3.87193441     4.47091133     0.89035214
Ce     1.93400691     5.58891818     4.03810727
Ce     1.95105353     3.32498505     7.20251834
Ce     7.74385721     4.47091133     0.89035214
Ce     5.81918248     5.57349969     4.06833985
Ce    -1.93596721     7.82410489     0.89035214
Ce    -3.86383863     8.88936632     4.00129010
Ce     7.73408028     6.61733350     7.31975779
Ce     1.93596721     7.82410489     0.89035214
Ce     0.01254341     8.95649966     4.03476979
Ce     0.03560607     6.71868904     7.21210158
Ce     5.80789000     7.82410489     0.89035214
Ce     3.87885216     8.95080804     4.04360478
Ce     3.86900565     6.65640126     7.20218620
Sc     5.50960923     3.39095066     6.91490380
Sc     7.48391292     2.64287699     9.30663490
O      0.00000000     0.00000000     0.09999685
O      1.93487478     1.11019197     3.20692074
O     -0.12310134     2.07817654     6.51204050
O      0.00000000     2.23545567     1.68070743
O     -5.74287842    10.02023906     4.82827279
O      1.96993235     1.04846491     8.00064092
O      3.87192279     0.00000000     0.09999685
O      5.79289002     1.10399375     3.22908225
O      3.93050259     2.15128439     6.39155595
O      3.87192279     2.23545567     1.68070743
O     -1.96856717    10.01890888     4.82188706
O      6.01719850     1.82745961     8.36727776
O      7.74385721     0.00000000     0.09999685
O      9.70956986     1.10849958     3.23911266
O      7.78349477     2.39234760     6.29030526
O      7.74385721     2.23545567     1.68070743
O      1.94893157    10.05035275     4.78153255
O      9.02480782     1.66721603     8.67013415
O     -1.93596140     3.35318350     0.09999685
O      0.03313146     4.48738895     3.23587478
O     -1.92275345     5.54244675     6.42550903
O     -1.93596721     5.58864923     1.68070743
O     -1.84975543     3.37233436     4.79257151
O      0.06127378     4.44328864     7.97497936
O      1.93596140     3.35318350     0.09999685
O      3.83190289     4.48002922     3.24805662
O      1.93748274     5.54805624     6.34858640
O      1.93595559     5.58864923     1.68070743
O      1.89639278     3.27918368     4.90395916
O      3.82959385     4.39143215     7.89704045
O      5.80789581     3.35318350     0.09999685
O      7.74628888     4.46395071     3.24408793
O      5.80863305     5.43994913     6.43253872
O      5.80789000     5.58864923     1.68070743
O      5.72838020     3.33610235     4.80197295
O      7.86413689     4.31926681     8.45521385
O     -3.87192860     6.70637706     0.09999685
O     -1.91939234     7.81134124     3.21713674
O     -3.84176124     8.89841808     6.40657257
O     -3.87192860     8.94183273     1.68070743
O      7.74341569     6.68464259     4.81547252
O     -1.79902605     7.88136911     8.05751828
O     -0.00000581     6.70637706     0.09999685
O      1.94366272     7.80277615     3.23839074
O     -0.03589261     9.08058220     6.44791854
O     -0.00000581     8.94183273     1.68070743
O     -0.00749623     6.75237167     4.89047833
O      1.95396175     7.68610320     7.98247296
O      3.87192860     6.70637706     0.09999685
O      5.79662103     7.81234093     3.22483364
O      3.94479871     9.08684738     6.45982158
O      3.87192860     8.94183273     1.68070743
O      3.89726489     6.74551699     4.90410222
O      5.71602235     7.82282811     8.04816720
