84
CIF: 6-OH+2H-H2O+H_ts.cif | data_image0
Ce    -5.80026035    10.05171396     8.75517443
Ce     1.94287327     1.10868837     5.62586129
Ce     0.00000000     2.23543938     2.47426506
Ce    -1.86470680    10.03588479     8.80596396
Ce     5.81004260     1.11690897     5.61136473
Ce     3.87189458     2.23543938     2.47426506
Ce     7.66984617     0.00826471     8.82014456
Ce     9.67734943     1.10983897     5.63022378
Ce     7.74390532     2.23543938     2.47426506
Ce     9.66270371     3.30476998     8.77626302
Ce    -0.00111972     4.45193714     5.61799989
Ce    -1.93600537     5.58869904     2.47426506
Ce     1.96265759     3.28491235     8.78182932
Ce     3.86569956     4.48446719     5.61815428
Ce     1.93588921     5.58869904     2.47426506
Ce     5.81031139     3.37936647     8.74177000
Ce     7.75099114     4.48248126     5.61719412
Ce     5.80789995     5.58869904     2.47426506
Ce    -3.87005433     6.75203184     8.75662481
Ce    -1.93653006     7.82763750     5.64260291
Ce    -3.87195266     8.94185811     2.47426506
Ce     1.94358057     7.83432133     5.61766185
Ce    -0.00005808     8.94185811     2.47426506
Ce     3.91864775     6.73771210     8.77352963
Ce     5.81110871     7.83366091     5.60370792
Ce     3.87195266     8.94185811     2.47426506
Cu     0.14965986     6.62186982     8.12947093
O      0.00014706     0.00926194     6.42672846
O      0.01667484     2.24257998     9.53281039
O      1.93594729     1.11771969     3.26466483
O      0.00251644     2.22584443     4.80979269
O      0.00000000     0.00000000     1.68386529
O      1.94120209     1.09627907     7.97707380
O     -1.93555446    10.02260638     6.44175160
O      3.87974375     2.25834632     9.51376439
O      5.80795803     1.11771969     3.26466483
O      3.86515677     2.23868342     4.83401424
O      3.87189458     0.00000000     1.68386529
O      5.81529394     1.18243224     7.88045063
O      1.94989980    10.01509303     6.45183356
O      7.73649617     2.26764315     9.53014706
O      9.67985261     1.11771969     3.26466483
O      7.75031854     2.23535745     4.83208803
O      7.74390532     0.00000000     1.68386529
O      9.68293482     1.10602902     7.99002388
O     -1.89575473     3.33938791     6.44746377
O     -2.33702533     5.34992983    10.01552885
O      0.00000000     4.47087876     3.26466483
O     -1.95430049     5.56898854     4.81390681
O      9.67985261     3.35315907     1.68386529
O     -0.03199144     4.63556009     8.09005973
O      1.89260577     3.34536047     6.46040431
O      3.87201074     4.47087876     3.26466483
O      1.96577170     5.56809774     4.80987608
O      1.93594729     3.35315907     1.68386529
O      3.82683777     4.50453578     7.94871245
O      5.80800502     3.40462711     6.42137221
O      5.81478017     5.61618594     9.49069014
O      7.74390532     4.47087876     3.26466483
O      5.80428187     5.60381987     4.81400644
O      5.80795803     3.35315907     1.68386529
O      7.79359267     4.49687914     7.94875455
O     -3.86919905     6.73309098     6.42039869
O     -3.86849648     8.91501114     9.54718654
O     -1.93600537     7.82413842     3.26466483
O     -3.87630763     8.95069202     4.81161921
O      7.74384724     6.70641873     1.68386529
O     -1.84307670     7.71725146     8.03030868
O      0.01854093     6.68677825     6.23446601
O      0.00431335     9.46557147     9.78893533
O      1.93600537     7.82413842     3.26466483
O      0.00518571     8.96326493     4.80951098
O     -0.00005808     6.70641873     1.68386529
O      1.78394127     7.71755883     8.06097887
O      3.86230723     6.74954052     6.44177853
O      3.87089382     8.89339313     9.52904332
O      5.80789995     7.82413842     3.26466483
O      3.87964163     8.95003366     4.80643239
O      3.87195266     6.70641873     1.68386529
O      5.82018368     7.85083951     7.95082946
O      2.43393095     5.29896779    10.06171028
H     -1.53193057     5.82871923    10.29582140
H      1.75774973     5.70893896    10.63244772
H      0.22185081     6.64149357     9.57215644
