84
CIF: Fe-Cr-CeO2-CO.cif | data_image0
Ce     1.93038582     1.11050507     0.88387043
Ce    -0.00020123     2.22768944     4.01389719
Ce    -5.77663117    10.04383897     7.19951017
Ce     5.81181033     1.12175166     0.90127712
Ce     3.84557678     2.21668233     4.02282728
Ce    -1.89042745    10.03431678     7.30644483
Ce     9.66901012     1.12377363     0.90450652
Ce     7.74988766     2.23393609     4.07300398
Ce     2.01719721    10.00549374     7.19955076
Ce    -0.00709724     4.47602159     0.89067279
Ce    -1.94578518     5.58850105     4.07275647
Ce    -1.84747048     3.31411514     7.19848281
Ce     3.86254305     4.47635356     0.87798423
Ce     1.93131712     5.59225297     4.05082568
Ce     1.84576527     3.31738762     7.19766295
Ce     7.74213807     4.46545905     0.90125422
Ce     5.81276258     5.62327291     4.02261748
Ce    -1.94645625     7.83004003     0.90010904
Ce    -3.85734586     8.93565431     4.09053703
Ce    -3.82577648     6.68406526     7.30700936
Ce     1.92815559     7.82745473     0.89060408
Ce    -0.00339549     8.95268292     4.07333831
Ce     0.00436741     6.70652551     7.21289624
Ce     5.81127600     7.83258510     0.88371011
Ce     3.88029784     8.94824766     4.01371786
Ce     3.85959422     6.80576731     7.19728626
Cr     5.16946156     3.72424664     6.79784626
Fe     6.64348978     2.87262109     7.89244793
O     11.61334069     0.00154917     0.10141687
O      1.93821325     1.12014712     3.22271487
O      0.00036032     2.23021721     6.33751350
O     -0.00785227     2.23805103     1.69392277
O     -5.79673762    10.05554395     4.82665500
O      1.84889281     1.22621420     8.01567513
O     -1.93899312    10.05733740     0.10496691
O      5.81158373     1.17706457     3.26110570
O      3.96881384     2.35136311     6.45797980
O      3.86763657     2.23577757     1.68132582
O      3.87984463     0.03626098     4.84955533
O      6.10131170     1.10753163     8.15521234
O      7.73821774     0.00761509     0.10924988
O      9.67496654     1.12133554     3.22573499
O      7.75343032     2.23261554     6.48518483
O      7.74357843     2.23531483     1.71563532
O      7.76645866     0.03986152     4.82984745
O      9.75719787     1.07578317     7.98460554
O      9.67032270     3.35425987     0.10911246
O      0.00370228     4.47023254     3.24093443
O     -1.87828357     5.51265390     6.38885345
O     -1.94403436     5.59119430     1.70564938
O      9.65819235     3.31630448     4.83035189
O      0.04312525     4.40888462     8.03304279
O      1.92738314     3.35244915     0.09928684
O      3.87709373     4.46914556     3.22400342
O      1.92830354     5.59563834     6.39762970
O      1.92862022     5.59252216     1.67404250
O      1.94892126     3.33644694     4.85374220
O      3.90416399     4.45576955     7.85844290
O      5.81155478     3.35101064     0.10766953
O      7.69555903     4.44012345     3.26142855
O      5.75888872     5.44914986     6.45801833
O      5.80528807     5.59217007     1.68114259
O      5.70860218     3.41189496     5.01123509
O      7.89988541     4.22486390     8.15549678
O     -3.87155109     6.71022987     0.10512724
O     -1.94130170     7.82919631     3.26021636
O     -3.88420415     8.95081239     6.43548837
O     -3.87509971     8.94378428     1.69355631
O      7.71796350     6.68480754     4.84698920
O     -1.75999444     7.72532836     8.07821827
O     -0.01209783     6.71325780     0.10434852
O      1.93861890     7.82338058     3.24099916
O      0.09816621     8.93190176     6.38948036
O     -0.00628994     8.94736548     1.70514550
O     -0.00626453     6.71096776     4.83803228
O      2.01577419     7.82185174     8.03492019
O      3.86815347     6.71410280     0.09951587
O      5.80846210     7.82392873     3.22181271
O      3.87828207     8.94708986     6.33643790
O      3.86556896     8.94715423     1.69389986
O      3.89457524     6.70552584     4.85265465
O      5.67082411     7.84849765     8.01624046
O      5.26091911     3.66000869    10.39343253
C      5.75802786     3.37992855     9.38964624
