82
CIF: W-Ti-CeO2.cif | data_image0
Ce     1.93038582     1.11050507     0.88387043
Ce    -0.00077415     2.22018421     4.01045314
Ce    -5.78809016    10.05240999     7.23612070
Ce     5.81181033     1.12175166     0.90127712
Ce     3.85215212     2.20407028     4.00551130
Ce    -2.01567876     9.98428766     7.31289087
Ce     9.66901012     1.12377363     0.90450652
Ce     7.72225008     2.23496277     4.05646248
Ce     2.04421280     9.84996385     7.31782634
Ce    -0.00709724     4.47602159     0.89067279
Ce    -1.96596173     5.59343068     4.08848488
Ce    -1.61753199     3.35336540     7.22766915
Ce     3.86254305     4.47635356     0.87798423
Ce     1.93376070     5.58850193     4.05789195
Ce     1.92152546     3.31316072     7.21791006
Ce     7.74213807     4.46545905     0.90125422
Ce     5.82094513     5.62810896     4.01049850
Ce    -1.94645625     7.83004003     0.90010904
Ce    -3.86852023     8.93304615     4.07057481
Ce    -3.86759252     6.78021427     7.35502634
Ce     1.92815559     7.82745473     0.89060408
Ce    -0.00967397     8.96032084     4.10628605
Ce    -0.01029358     6.72622614     7.25974241
Ce     5.81127600     7.83258510     0.88371011
Ce     3.86097609     8.95876251     4.04441608
Ce     3.87238255     6.77696818     7.23439859
Ti     5.13145419     3.75717258     6.80289090
W      7.00745860     2.78066679     8.53105293
O     11.61334069     0.00154917     0.10141687
O      1.92541578     1.11311501     3.22501425
O      0.08968155     2.25003490     6.35792161
O     -0.00785227     2.23805103     1.69392277
O      0.01466662     0.00175462     4.87505789
O      1.83173813     1.20986534     8.07784810
O     -1.93899312    10.05733740     0.10496691
O      5.73160452     1.09499885     3.25009184
O      3.98405456     2.27978435     6.52431222
O      3.86763657     2.23577757     1.68132582
O      3.83295711     0.00699082     4.87727840
O      6.44270100     1.26050167     9.27365737
O      7.73821774     0.00761509     0.10924988
O      9.73525613     1.09120358     3.22899989
O      7.50727539     2.43034217     6.85083410
O      7.74357843     2.23531483     1.71563532
O      1.95150832    10.04133917     4.91714249
O      9.81456240     1.21593653     7.97353657
O      9.67032270     3.35425987     0.10911246
O     -0.00505261     4.47297772     3.26850077
O     -1.95774911     5.47042011     6.54235220
O     -1.94403436     5.59119430     1.70564938
O     -1.91239518     3.32031459     4.95858715
O      0.10489232     4.41432525     8.09603491
O      1.92738314     3.35244915     0.09928684
O      3.85650228     4.48790763     3.20877746
O      1.90447916     5.57593681     6.38204511
O      1.92862022     5.59252216     1.67404250
O      1.99522439     3.32408862     4.87094340
O      3.84148688     4.49415988     7.91322252
O      5.81155478     3.35101064     0.10766953
O      7.73248833     4.54332466     3.25106734
O      5.80802622     5.48970516     6.51350207
O      5.80528807     5.59217007     1.68114259
O      5.66843851     3.43897626     4.93231580
O      8.03176517     4.11644514     9.14505065
O     -3.87155109     6.71022987     0.10512724
O     -1.94430917     7.82121651     3.26558180
O     -3.90943246     8.94493762     6.48295309
O     -3.87509971     8.94378428     1.69355631
O      7.73488289     6.71671055     4.89002878
O     -1.81035128     7.72817522     8.14460371
O     -0.01209783     6.71325780     0.10434852
O      1.92488132     7.81093023     3.26930474
O      0.01599402     8.96776079     6.51391553
O     -0.00628994     8.94736548     1.70514550
O     -0.05970623     6.72021254     4.91641751
O      1.99329143     7.66198478     8.11544538
O      3.86815347     6.71410280     0.09951587
O      5.80483064     7.83289812     3.23750342
O      3.93018232     8.90512629     6.40584566
O      3.86556896     8.94715423     1.69389986
O      3.90420755     6.68702582     4.88531437
O      5.67955181     7.87568992     8.11155987
