83
CIF: Os-W-CeO2-Ov-O2.cif | data_image0
Ce     1.93596140     1.11772783     0.89035214
Ce    -0.00021139     2.22857209     4.04212504
Ce    -5.78627757    10.05739689     7.19403804
Ce     5.80789581     1.11772783     0.89035214
Ce     3.82148814     2.19780946     3.97575087
Ce    -1.99639689     9.93368285     7.33763584
Ce     9.67981860     1.11772783     0.89035214
Ce     7.73706201     2.22489987     3.99888592
Ce     1.98130212     9.99173072     7.32854251
Ce     0.00000000     4.47091133     0.89035214
Ce    -1.95386748     5.58707297     4.07590273
Ce    -1.77427603     3.35199387     7.25298726
Ce     3.87193441     4.47091133     0.89035214
Ce     1.94250034     5.57932769     4.07666778
Ce     1.90427082     3.31819567     7.30455646
Ce     7.74385721     4.47091133     0.89035214
Ce     5.82457207     5.64476839     3.96598328
Ce    -1.93596721     7.82410489     0.89035214
Ce    -3.85651254     8.92541115     4.06309403
Ce    -3.81309864     6.72454595     7.34981084
Ce     1.93596721     7.82410489     0.89035214
Ce    -0.00868027     8.95432853     4.10217335
Ce     0.01385770     6.69756058     7.23974998
Ce     5.80789000     7.82410489     0.89035214
Ce     3.86661819     8.96448767     4.04695602
Ce     3.84498650     6.80062896     7.21447091
W      5.46983336     3.56782578     6.80345173
Os     6.71957121     2.94909942     9.00509512
O      0.00000000     0.00000000     0.09999685
O      1.91949982     1.11252760     3.20870524
O      0.01085144     2.25383758     6.32904227
O      0.00000000     2.23545567     1.68070743
O     -5.79836826    10.05950488     4.82776385
O      1.80455309     1.03038957     8.04886257
O      3.87192279     0.00000000     0.09999685
O      5.80130464     1.13671790     3.22588194
O      4.17962713     2.23960319     6.49839353
O      3.87192279     2.23545567     1.68070743
O      3.84827999     0.03396007     4.83241372
O      6.18651115     1.18606028     8.80614423
O      7.74385721     0.00000000     0.09999685
O      9.67716373     1.12371233     3.21057685
O      7.19001343     2.58365510     6.75816263
O      7.74385721     2.23545567     1.68070743
O      7.75016599     0.13764105     4.87282687
O      9.76062433     1.22466066     7.94733815
O     -1.93596140     3.35318350     0.09999685
O     -0.01711540     4.45004951     3.27894818
O     -1.94241065     5.50211638     6.40719326
O     -1.93596721     5.58864923     1.68070743
O      9.56487913     3.26031674     4.90789875
O     -0.04138049     4.48963676     8.07304515
O      1.93596140     3.35318350     0.09999685
O      3.87263635     4.48486757     3.20203989
O      1.95712375     5.62859748     6.39023722
O      1.93595559     5.58864923     1.68070743
O      2.01943428     3.31435324     4.84256103
O      5.80789581     3.35318350     0.09999685
O      7.72750100     4.44804458     3.22334027
O      5.94934655     5.35116620     6.40390121
O      5.80789000     5.58864923     1.68070743
O      5.71643965     3.39405156     4.82037224
O      8.04871889     4.22868231     8.63900016
O     -3.87192860     6.70637706     0.09999685
O     -1.92411717     7.82172299     3.25293695
O     -3.88327715     8.89026993     6.40723174
O     -3.87192860     8.94183273     1.68070743
O      7.72435072     6.68929218     4.79980731
O     -1.79942995     7.70765930     8.12675386
O     -0.00000581     6.70637706     0.09999685
O      1.94446221     7.83976612     3.28721882
O      0.02174717     8.93835366     6.42414782
O     -0.00000581     8.94183273     1.68070743
O     -0.01923004     6.69941724     4.86139701
O      3.87192860     6.70637706     0.09999685
O      5.79656410     7.83791464     3.21204475
O      3.88371809     8.92988398     6.35193566
O      3.87192860     8.94183273     1.68070743
O      3.94669366     6.67853010     4.87447723
O      5.67049116     7.80756501     8.00275304
O      2.00271236     7.71422645     8.08840835
O      4.11195134     4.42560240     7.83369858
O      6.01135647     3.47926884    10.49619722
