83
CIF: Mo-CeO2+CO.cif | data_image0
O      0.55978923     0.45000431     0.59999690
O      2.55553538     1.56639502     3.80721836
O      0.38481171     2.56247428     7.02487725
O      0.55978923     2.65902057     2.16203261
O      0.55705146     0.33405406     5.42950219
O      2.50650264     2.05786603     8.52358680
O      4.38603242     0.45000431     0.59999690
O      6.29296494     1.55930560     3.75651983
O      4.61511841     2.51371416     6.87307826
O      4.38603242     2.65902057     2.16203261
O      4.40595693     0.36795881     5.39647895
O      6.31759997     1.54670346     8.69415138
O      8.21216082     0.45000431     0.59999690
O     10.07083109     1.52983972     3.74953470
O      8.19806166     2.62222097     6.99216036
O      8.21216082     2.65902057     2.16203261
O      8.19848557     0.45778189     5.41577693
O     10.06511813     1.52499942     8.69312764
O     -1.35327498     3.76352871     0.59999690
O      0.50312030     4.90133646     3.77782907
O     -1.24415996     5.90906660     7.15526958
O     -1.35333237     5.97264438     2.16203261
O     -1.47186943     3.81448796     5.45883610
O      1.04968737     4.57630336     8.58190553
O      2.47296821     3.76352871     0.59999690
O      4.41606670     4.78801073     3.80596297
O      2.47330798     6.21067583     7.03112294
O      2.47291082     5.97264438     2.16203261
O      2.49867363     3.75057574     5.94344570
O      3.91789946     4.50880679     8.51805181
O      6.29909662     3.76352871     0.59999690
O      8.20720680     4.90070742     3.74234660
O      6.18084811     5.90323075     7.12375633
O      6.29903923     5.97264438     2.16203261
O      6.37331045     3.79028897     5.40551517
O      8.19262793     4.84111409     8.60174148
O     -3.26639657     7.07715251     0.59999690
O     -1.38691880     8.16435916     3.74145981
O     -3.25070890     9.40772192     7.08921573
O     -3.26639657     9.28616878     2.16203261
O     -3.27051945     7.07046829     5.53508266
O     -1.34036016     8.20948798     8.60094730
O      0.55984662     7.07715251     0.59999690
O      2.46686173     8.24048509     3.74962641
O      0.58673245     9.31679528     6.99186934
O      0.55984662     9.28616878     2.16203261
O      0.45235198     7.15372355     5.45851652
O      2.46248962     8.27282520     8.71004788
O      4.38597502     7.07715251     0.59999690
O      6.34116713     8.16118677     3.73615641
O      4.34607972     9.31047544     6.98977621
O      4.38597502     9.28616878     2.16203261
O      4.49151901     7.13770147     5.42081184
O      6.30513389     8.21641987     8.58751931
O      5.05062349     6.28412280    11.64805491
Ce     2.47285343     1.55451244     1.38101475
Ce     0.52971699     2.65337600     4.59371785
Ce     0.47341106     0.44883508     7.73292888
Ce     6.29909662     1.55451244     1.38101475
Ce     4.44388094     2.62340997     4.56180317
Ce     4.47203059     0.44621446     7.73522673
Ce    10.12522502     1.55451244     1.38101475
Ce     8.22390522     2.65244015     4.54261870
Ce     8.20561320     0.45774478     7.83848816
Ce     0.55978923     4.86803684     1.38101475
Ce    -1.34224680     5.96444868     4.56870494
Ce    -1.41234686     3.68583554     7.75793772
Ce     4.38603242     4.86803684     1.38101475
Ce     2.46520334     6.00211539     4.60261808
Ce     8.21216082     4.86803684     1.38101475
Ce     6.29117653     5.96876685     4.57042524
Ce     6.33807897     3.68411604     7.73440703
Ce    -1.35333237     8.18166064     1.38101475
Ce    -3.26281042     9.29045168     4.56978785
Ce    -3.25885693     7.07449857     7.81119601
Ce     2.47291082     8.18166064     1.38101475
Ce     0.57146251     9.27778133     4.54225888
Ce     0.60126580     7.17040854     7.75826807
Ce     6.29903923     8.18166064     1.38101475
Ce     4.37638853     9.28855006     4.53895528
Ce     4.34025890     7.17045001     7.75750019
Mo     2.44739619     3.72969124     7.81053865
C      4.75744249     6.53559064    10.57357106
