82
CIF: O2.cif | data_image0
Ce    11.60498390     0.00730063     8.72496863
Ce     1.93259104     1.11429473     5.60567927
Ce     0.00000000     2.23543938     2.47426506
Ce    -1.91200516     9.98999346     8.75315738
Ce     5.80828297     1.10680916     5.62863345
Ce     3.87189458     2.23543938     2.47426506
Ce     1.89557754     9.99647750     8.77715791
Ce     9.68694165     1.11426344     5.63451992
Ce     7.74390532     2.23543938     2.47426506
Ce    -1.89909541     3.43118873     8.77547637
Ce     0.00775989     4.52093685     5.63091299
Ce    -1.93600537     5.58869904     2.47426506
Ce     1.95812105     3.28062261     8.74784987
Ce     3.87315163     4.46953771     5.62758223
Ce     1.93588921     5.58869904     2.47426506
Ce     5.83157842     3.33819836     8.79445147
Ce     7.75146986     4.47618236     5.62734260
Ce     5.80789995     5.58869904     2.47426506
Ce    -3.80566137     6.71703772     8.75455633
Ce    -1.91194688     7.80939680     5.58809115
Ce    -3.87195266     8.94185811     2.47426506
Ce     1.89723693     7.79265812     5.63090581
Ce    -0.00005808     8.94185811     2.47426506
Ce     3.94018316     6.72494302     8.75010459
Ce     5.80776660     7.82883946     5.60667157
Ce     3.87195266     8.94185811     2.47426506
Rh    -0.13494185     6.78620816     8.93564571
O     11.61014763     0.00305267     6.43307115
O      0.01368290     2.29695451     9.48522295
O      1.93594729     1.11771969     3.26466483
O     -0.00306626     2.22296849     4.81630761
O      0.00000000     0.00000000     1.68386529
O      1.92104135     1.09225933     7.96957049
O     -1.94713295    10.05610491     6.43217858
O      3.87831821     2.21814226     9.52187735
O      5.80795803     1.11771969     3.26466483
O      3.87373404     2.24402767     4.83319444
O      3.87189458     0.00000000     1.68386529
O      5.82744019     1.05797087     7.99888404
O      1.95464201     9.99328354     6.49070046
O      7.72883962     2.24476921     9.54818251
O      9.67985261     1.11771969     3.26466483
O      7.75466525     2.22843216     4.85533717
O      7.74390532     0.00000000     1.68386529
O      9.68167043     1.11820280     7.99467885
O     -1.87115612     3.37124526     6.48759930
O     -1.90514753     5.74598436     9.59353804
O      0.00000000     4.47087876     3.26466483
O     -2.00459246     5.54043257     4.79615943
O     -1.93594729     3.35315907     1.68386529
O      0.04209134     4.79375503     8.07124355
O      1.89975297     3.34077200     6.46511918
O      3.87201074     4.47087876     3.26466483
O      2.01717224     5.54182570     4.80688126
O      1.93594729     3.35315907     1.68386529
O      3.82711909     4.49616330     8.00290678
O      5.81035684     3.34920094     6.47742666
O      5.82185923     5.58965220     9.52367090
O      7.74390532     4.47087876     3.26466483
O      5.79962073     5.58190075     4.83381045
O      5.80795803     3.35315907     1.68386529
O      7.79959533     4.48313617     7.99471008
O     -3.87834995     6.71898399     6.43252552
O     -3.82077701     8.91088277     9.49350101
O     -1.93600537     7.82413842     3.26466483
O     -3.89083533     8.95280714     4.80695576
O     -3.87195266     6.70641873     1.68386529
O     -1.75739190     7.71742883     7.87438682
O      0.00753635     6.70366982     6.00503394
O     -0.12404594     8.82036673     9.59388018
O      1.93600537     7.82413842     3.26466483
O      0.00897529     9.02506290     4.79625043
O     -0.00005808     6.70641873     1.68386529
O      1.68156457     7.62291691     8.08140994
O      3.86178664     6.74358502     6.46616859
O      3.82476688     8.90531310     9.49034278
O      5.80789995     7.82413842     3.26466483
O      3.88066884     8.95053634     4.81627504
O      3.87195266     6.70641873     1.68386529
O      5.81631177     7.85008076     7.97179825
O      0.97816506     6.11703041    10.30125232
O      2.16910640     5.45207559     9.93540444
