    36
 Tv_1:   7.865149   0.000000   0.000000 Tv_2:  -3.932574   6.811419   0.000000 Tv_3:   0.000000   0.000000  23.027334
Ir      1.96520972      3.40437438      7.04189690
Ce      3.93257843      2.27047068      0.80273286
Ce     -0.01403929      4.54900607      3.98861058
Ce      0.00000000      0.00000000      7.15562890
Ce      1.96629118      5.67618009      0.80273286
Ce      1.96625972      1.11928640      3.98890993
Ce     -2.01493320      3.48996667      7.15539863
Ce     -1.96628332      5.67618009      0.80273286
Ce      5.89883815      1.13532729      3.96857680
Ce      0.00000393      2.27047068      0.80273286
Ce      3.94658233      4.54916955      3.98884085
Ce      3.83653317      0.00000000      7.15542166
O       3.93257057      4.54094816      1.60546573
O       4.00524454      0.04201964      4.81586755
O       0.44951293      2.53012196      7.84612654
O      -1.96628725      3.40570942      0.00000000
O       1.96605916      5.62835712      3.20128300
O       1.96635804      1.01208148      6.31906889
O       5.89885782      1.13523874      1.60546573
O       1.96649568      3.40605680      5.07669816
O      -1.96434456      5.67577822      8.06041891
O       0.00000000      0.00000000      0.00000000
O       3.89108977      2.29432426      3.20121392
O      -0.10679693      4.60244165      6.31812477
O       1.96628332      1.13523874      1.60546573
O       5.89881063      3.32166332      4.81540700
O       1.96698332      5.15635985      7.84509031
O       3.93257450      0.00000000      0.00000000
O       0.04155945      2.29404500      3.20139814
O       4.04172311      4.60361322      6.31805568
O      -0.00000393      4.54094816      1.60546573
O       7.79235705      0.04206732      4.81602874
O       3.48216101      2.53051021      7.84575810
O       1.96628725      3.40570942      0.00000000
O      -1.96639343      5.67667052      3.22332016
O       5.89925501      1.13587221      6.82615381
