    85
 Tv_1:  11.598200   0.000000   0.000000 Tv_2:  -5.799100  10.044336   0.000000 Tv_3:   0.000000   0.000000  22.891600
Ce      2.14531905      1.20773094      3.19108904
Ce      0.19458420      2.23401369      9.49458629
Ce      0.22898361      0.07568472      6.33597633
Ce      6.01134706      1.20773094      3.19108904
Ce      4.10564901      2.25878656      9.46638985
Ce      4.07344876      0.09915378      6.31811678
Ce      9.87749105      1.20773094      3.19108904
Ce      7.95961237      2.30926806      9.51700677
Ce      7.94522616      0.08342767      6.34965222
Ce      0.21230505      4.55580941      3.19108904
Ce     -1.71733806      5.74602611      9.51134736
Ce     -1.70979923      3.44915787      6.35717824
Ce      4.07833306      4.55580941      3.19108904
Ce      2.15812322      3.49917713      6.36652588
Ce      7.94447705      4.55580941      3.19108904
Ce      6.10768553      5.68452065      9.47178775
Ce      6.01455483      3.44183343      6.33975006
Ce     -1.72076694      7.90398832      3.19108904
Ce     -3.65336058      9.01832799      9.48542340
Ce     -3.65252409      6.78343642      6.31693863
Ce      2.14526106      7.90398832      3.19108904
Ce      0.18307863      8.96779508      9.46429161
Ce      0.20651847      6.78729641      6.33538379
Ce      6.01140505      7.90398832      3.19108904
Ce      4.03947343      8.93226821      9.49308628
Ce      4.04012865      6.75572749      6.33816377
O       0.21230505      2.32375710      2.40201559
O       2.12046895      1.24038711     10.23391222
O       2.13421503      1.20591127      5.53038355
O       0.29495594      2.33253889      7.23374436
O       0.18720665      0.07031870      8.70468595
O       0.21230505      0.09170479      3.98039141
O       4.07833306      2.32375710      2.40201559
O       6.01362982      1.20962970     10.26055521
O       6.02549419      1.23283325      5.53559249
O       4.05792661      2.30482475      7.15217358
O       4.07105581      0.08694241      8.67815103
O       4.07833306      0.09170479      3.98039141
O       7.94436106      2.32375710      2.40201559
O       9.89121315      1.17742677     10.29995320
O       9.89821105      1.19997026      5.57972940
O       7.95420026      2.33623740      7.21294211
O       7.95761263      0.05678533      8.73555227
O       7.94436106      0.09170479      3.98039141
O      -1.72076694      5.67193601      2.40201559
O       0.53607975      4.70890000     10.25616894
O       0.17396024      4.51058938      5.52866007
O      -1.76887123      5.62504654      7.10112186
O      -1.63793030      3.43956222      8.77886902
O      -1.72070895      3.43978325      3.98039141
O       2.14526106      5.67193601      2.40201559
O       4.41220271      4.40455370     10.86948838
O       4.11718340      4.53444706      5.53735235
O       2.11106256      5.70103439      6.90272298
O       2.36164406      3.69613528      8.81788457
O       2.14531905      3.43978325      3.98039141
O       6.01128907      5.67193601      2.40201559
O       7.91671505      4.53765791     10.24899017
O       7.93076497      4.53030651      5.52713741
O       6.03408910      5.69287378      7.14995198
O       5.94033746      3.46793666      8.71592677
O       6.01134706      3.43978325      3.98039141
O      -3.65378095      9.02001447      2.40201559
O      -1.80249811      8.00647855     10.33056786
O      -1.73362776      7.91368177      5.53106141
O      -3.66180576      9.02528918      7.14653956
O      -3.63995414      6.81558620      8.69333772
O      -3.65378095      6.78796216      3.98039141
O       0.21224706      9.02001447      2.40201559
O       2.13051613      7.73955489     10.18031672
O       2.15302242      7.96180375      5.51617756
O       0.22520167      9.07579596      7.11698500
O      -0.00398403      6.90840748      8.59867990
O       0.21224706      6.78796216      3.98039141
O       4.07827507      9.02001447      2.40201559
O       5.97543661      7.86640115     10.25733209
O       6.00979370      7.91210287      5.52724503
O       4.08190070      8.93715222      7.20574267
O       4.01243767      6.54251352      8.77831844
O       4.07827507      6.78796216      3.98039141
O      -0.30929955      5.26098441     11.26202400
Pd      2.26114678      5.71074257      9.57468906
C       3.33856123      5.08227903     11.26662070
H       2.53872122      4.49849170     11.75380680
H       3.51926825      6.07064367     11.72599191
