83
CIF: Pd-Ti-CeO2-Ov-O2.cif | data_image0
Ce     1.93038582     1.11050507     0.88387043
Ce     0.00029223     2.24315841     4.07283993
Ce    -5.75288483    10.02954964     7.17719735
Ce     5.81181033     1.12175166     0.90127712
Ce     3.81391202     2.22790047     3.99373968
Ce    -1.89560978    10.03775417     7.26831520
Ce     9.66901012     1.12377363     0.90450652
Ce     7.78581279     2.21203361     4.00866280
Ce     7.70907553     0.00870696     7.27091668
Ce    -0.00709724     4.47602159     0.89067279
Ce    -1.95025436     5.58168242     4.06046601
Ce     9.65689729     3.38227516     7.26921050
Ce     3.86254305     4.47635356     0.87798423
Ce     1.93680806     5.58975677     4.09366895
Ce     1.85968403     3.33203482     7.29779618
Ce     7.74213807     4.46545905     0.90125422
Ce     5.78592058     5.64489266     3.99390776
Ce    -1.94645625     7.83004003     0.90010904
Ce    -3.86765781     8.94069790     4.06598651
Ce    -3.83117568     6.68584783     7.26827352
Ce     1.92815559     7.82745473     0.89060408
Ce     0.00064783     8.95876262     4.06098838
Ce     0.00081863     6.70812211     7.22681533
Ce     5.81127600     7.83258510     0.88371011
Ce     3.86709489     8.93881978     4.07284158
Ce     3.85460795     6.78767946     7.30234669
Ti     5.80436712     3.35881985     6.46460117
Pd     6.34225459     3.04747135     8.87985217
O     11.61334069     0.00154917     0.10141687
O      1.92294485     1.10351883     3.21465332
O     -0.04169998     2.17630266     6.44979827
O     -0.00785227     2.23805103     1.69392277
O     -5.78506952    10.04837022     4.85788928
O      2.02747158     0.98618348     7.97789309
O     -1.93899312    10.05733740     0.10496691
O      5.80320073     1.08828365     3.22742769
O      4.16973466     2.48422602     6.46456476
O      3.86763657     2.23577757     1.68132582
O      3.85266598     0.10151416     4.90248800
O      5.87700389     0.96706738     8.26626258
O      7.73821774     0.00761509     0.10924988
O      9.69575798     1.10910271     3.24066637
O      7.46404541     2.39847103     6.32945174
O      7.74357843     2.23531483     1.71563532
O      7.76200226     0.02819176     4.88074250
O      9.52661639     1.20600665     7.99260635
O      9.67032270     3.35425987     0.10911246
O     -0.00570919     4.47508796     3.26130591
O     -1.99260834     5.60377203     6.37943732
O     -1.94403436     5.59119430     1.70564938
O      9.66460891     3.32601522     4.87964561
O     -0.13803876     4.53765860     8.03236033
O      1.92738314     3.35244915     0.09928684
O      3.83222072     4.49416459     3.21900708
O      1.94852346     5.58311188     6.44173769
O      1.92862022     5.59252216     1.67404250
O      1.94209258     3.30082987     4.84655353
O      5.81155478     3.35101064     0.10766953
O      7.76691130     4.49137515     3.22693152
O      5.74662825     5.21137375     6.46382431
O      5.80528807     5.59217007     1.68114259
O      5.79970987     3.35935080     4.58763295
O      7.91236180     4.49019127     8.26488558
O     -3.87155109     6.71022987     0.10512724
O     -1.95209144     7.83468228     3.28189900
O     -3.82079164     8.91365992     6.36975444
O     -3.87509971     8.94378428     1.69355631
O      7.64796135     6.67550655     4.90078175
O     -1.93106216     7.82410819     8.01346017
O     -0.01209783     6.71325780     0.10434852
O      1.93062999     7.82782708     3.26121800
O     -0.03877122     8.98601921     6.38095601
O     -0.00628994     8.94736548     1.70514550
O     -0.00131302     6.70991399     4.87969091
O      1.81261877     7.91198325     8.03592391
O      3.86815347     6.71410280     0.09951587
O      5.81378600     7.84429977     3.21467604
O      3.90522758     9.00698706     6.44849576
O      3.86556896     8.94715423     1.69389986
O      3.92085820     6.72722872     4.84728070
O      5.97012049     7.81587437     7.98233459
O      3.72756391     4.55247002     8.76283509
O      4.68779595     4.01663021     9.56338064
