87
CIF: 2-NH2+H+NO-NH2NO+H_is.cif | data_image0
Ce     0.10150161     0.02494710     8.76199697
Ce     1.92456409     1.11395478     5.53937606
Ce     0.00000000     2.23543938     2.47426506
Ce     3.74174926     0.01409465     8.70497796
Ce     5.80108001     1.12557486     5.59176662
Ce     3.87189458     2.23543938     2.47426506
Ce     7.74840342     0.06630081     8.70271708
Ce     9.68976514     1.09420642     5.56929102
Ce     7.74390532     2.23543938     2.47426506
Ce     9.73808044     3.22064972     8.68181353
Ce     0.00274038     4.52402036     5.63853455
Ce    -1.93600537     5.58869904     2.47426506
Ce     1.86933700     3.26951218     8.68329200
Ce     3.86475707     4.48280069     5.60592444
Ce     1.93588921     5.58869904     2.47426506
Ce     5.78919655     3.32672807     8.82521210
Ce     7.75742233     4.48152715     5.64239372
Ce     5.80789995     5.58869904     2.47426506
Ce    -3.89394141     6.77580366     8.80509740
Ce    -1.89738746     7.81958467     5.67265452
Ce    -3.87195266     8.94185811     2.47426506
Ce     1.91764044     7.81752114     5.67058471
Ce    -0.00005808     8.94185811     2.47426506
Ce     3.90766617     6.60646551     8.79967951
Ce     5.80454832     7.81501725     5.62239617
Ce     3.87195266     8.94185811     2.47426506
Mn     0.16205311     6.66534990    10.20828211
O     -5.79259189    10.05586897     6.40073374
O      0.03628962     2.16852471     9.60989925
O      1.93594729     1.11771969     3.26466483
O     -0.00491892     2.23201480     4.78808929
O      0.00000000     0.00000000     1.68386529
O      1.91516021     1.12970101     7.90462836
O      3.85767460     0.07930899     6.37953944
O      3.79846124     2.20533115     9.55386689
O      5.80795803     1.11771969     3.26466483
O      3.89272821     2.26501005     4.79565694
O      3.87189458     0.00000000     1.68386529
O      5.77141579     0.94754616     8.10882520
O      7.71954123     0.10330227     6.38896557
O      7.75952125     2.18159525     9.53598483
O      9.67985261     1.11771969     3.26466483
O      7.72414542     2.25936222     4.79437315
O      7.74390532     0.00000000     1.68386529
O      9.71228367     1.01168083     8.01521620
O      9.66929075     3.26300169     6.40130036
O     -1.47865702     5.76361345    10.15391805
O      0.00000000     4.47087876     3.26466483
O     -1.96565339     5.56895517     4.84683706
O     -1.93594729     3.35315907     1.68386529
O     -0.03182997     4.28389049     7.96409961
O      1.93334624     3.33491839     6.38257776
O      1.57309291     5.84529127     9.81683239
O      3.87201074     4.47087876     3.26466483
O      1.96775616     5.57861915     4.81650472
O      1.93594729     3.35315907     1.68386529
O      3.71577850     4.43581420     8.03627033
O      5.82588662     3.35051600     6.54540612
O      5.82182806     5.34703622     9.59824265
O      7.74390532     4.47087876     3.26466483
O      5.81406524     5.55654971     4.81065630
O      5.80795803     3.35315907     1.68386529
O      7.97995554     4.47726774     8.07089795
O      7.68742612     6.70396875     6.42141277
O     -3.91692167     9.13957557     9.68982391
O     -1.93600537     7.82413842     3.26466483
O     -3.87016043     8.93774885     4.81015365
O     -3.87195266     6.70641873     1.68386529
O     -2.02961358     8.00987514     7.96607218
O      0.03500025     6.72493730     6.26692388
O      0.18134907     8.29729232     9.95432507
O      1.93600537     7.82413842     3.26466483
O      0.00412153     8.98769937     4.82463543
O     -0.00005808     6.70641873     1.68386529
O      2.26487014     8.13390455     8.01564706
O      3.90764451     6.65947332     6.39306837
O      3.93139137     9.30094296    10.24977509
O      5.80789995     7.82413842     3.26466483
O      3.86418808     8.93580549     4.82691711
O      3.87195266     6.70641873     1.68386529
O      5.73647810     7.91494136     8.09211596
O      3.00939294     8.43152707    12.01589004
N      0.20881637     6.58021063    12.05827745
N      3.82111256     8.26866806    11.11517284
H      0.35237820     7.52499436    12.43703628
H      1.02045263     6.02299451    12.35800937
H     -1.64399185     5.65080049    11.11751655
