83
CIF: Pt-Cu-CeO2-O.cif | data_image0
Ce     1.93038582     1.11050507     0.88387043
Ce    -0.00947616     2.23277852     4.03360487
Ce    -5.77766341    10.03982892     7.20573267
Ce     5.81181033     1.12175166     0.90127712
Ce     3.85657775     2.23713018     4.02517861
Ce     3.87084359     0.01250424     7.21202239
Ce     9.66901012     1.12377363     0.90450652
Ce     7.71159487     2.25284939     4.08960374
Ce     1.99456515     9.96961821     7.22913180
Ce    -0.00709724     4.47602159     0.89067279
Ce    -1.95226290     5.59078950     4.05480730
Ce    -1.83101855     3.34240101     7.22941647
Ce     3.86254305     4.47635356     0.87798423
Ce     1.92112621     5.59590189     4.03381338
Ce     1.91507243     3.35749428     7.18687440
Ce     7.74213807     4.46545905     0.90125422
Ce     5.79855833     5.59996840     4.02579087
Ce    -1.94645625     7.83004003     0.90010904
Ce    -3.87664650     8.94392641     4.04971514
Ce     7.73287530     6.69931338     7.21345002
Ce     1.92815559     7.82745473     0.89060408
Ce    -0.01153988     8.95342805     4.05429696
Ce    -0.02397113     6.71778400     7.18758009
Ce     5.81127600     7.83258510     0.88371011
Ce     3.86816472     8.94806711     4.03417981
Ce     3.85606856     6.71869611     7.18829040
Cu     4.97581227     3.83324398     6.57372721
Pt     6.78749055     2.78479391     8.26097279
O     11.61334069     0.00154917     0.10141687
O      1.92580552     1.11490288     3.22696066
O      0.02865496     2.23600641     6.37984232
O     -0.00785227     2.23805103     1.69392277
O      5.80777453    10.05648139     4.85071886
O      1.95625553     1.10170760     7.97524134
O     -1.93899312    10.05733740     0.10496691
O      5.80575792     1.12123964     3.24709688
O      3.86674604     2.24265301     6.39986119
O      3.86763657     2.23577757     1.68132582
O      3.86367404     0.01127022     4.86683998
O      5.92465532     0.95344958     8.13014781
O      7.73821774     0.00761509     0.10924988
O      9.66689800     1.12374774     3.24585910
O      7.72473659     2.24292757     6.57478772
O      7.74357843     2.23531483     1.71563532
O      7.74775744     0.03600696     4.88808357
O      9.77583415     1.05975621     7.97915318
O      9.67032270     3.35425987     0.10911246
O     -0.02067194     4.46863961     3.24080716
O     -1.93206549     5.58664171     6.40943706
O     -1.94403436     5.59119430     1.70564938
O      9.64803587     3.32932833     4.88798804
O      0.01764066     4.46199708     8.00264275
O      1.92738314     3.35244915     0.09928684
O      3.85354211     4.48138081     3.21070728
O      1.86771046     5.62567677     6.34787516
O      1.92862022     5.59252216     1.67404250
O      1.93100627     3.35819862     4.83426330
O      5.81155478     3.35101064     0.10766953
O      7.73949788     4.47029262     3.24706084
O      5.79988150     5.58927345     6.40174863
O      5.80528807     5.59217007     1.68114259
O      5.78205896     3.36791445     4.81023224
O      7.94506718     4.44514531     8.13155944
O     -3.87155109     6.71022987     0.10512724
O     -1.95430813     7.83428496     3.24313214
O     -3.85524502     8.93230685     6.40162569
O     -3.87509971     8.94378428     1.69355631
O      7.73067019     6.70700271     4.86758279
O     -1.94685548     7.82864363     7.98600131
O     -0.01209783     6.71325780     0.10434852
O      1.92697559     7.84108486     3.24057040
O      0.00074692     8.93756937     6.40858064
O     -0.00628994     8.94736548     1.70514550
O     -0.03673466     6.72645020     4.83381864
O      1.94693881     7.80900971     8.00347638
O      3.86815347     6.71410280     0.09951587
O      5.80497319     7.83226806     3.22718421
O      3.88290720     8.91162778     6.38280470
O      3.86556896     8.94715423     1.69389986
O      3.86430776     6.70515933     4.83586972
O      5.83373574     7.81406896     7.97738089
O      3.72862477     4.55270638     7.91306480
O      6.01338149     3.23163694     9.81827866
