83
CIF: O2—Olatt+Osur.cif | data_image0
Ce     1.93038582     1.11050507     0.88387043
Ce    -0.00106006     2.24370677     4.05658905
Ce    -5.78834244    10.04953860     7.20856086
Ce     5.81181033     1.12175166     0.90127712
Ce     3.83407964     2.22782127     4.00927886
Ce    -1.91291224    10.02805643     7.24314943
Ce     9.66901012     1.12377363     0.90450652
Ce     7.73039917     2.24342424     4.10256822
Ce     1.97004760    10.03702587     7.25300495
Ce    -0.00709724     4.47602159     0.89067279
Ce    -1.94266893     5.58642017     4.05404259
Ce    -1.88908943     3.35781915     7.23388569
Ce     3.86254305     4.47635356     0.87798423
Ce     1.93463396     5.58218097     4.06607406
Ce     1.87692498     3.30443404     7.30922417
Ce     7.74213807     4.46545905     0.90125422
Ce     5.80185062     5.62338958     3.98576619
Ce    -1.94645625     7.83004003     0.90010904
Ce    -3.87197978     8.93969098     4.06454030
Ce    -3.84428018     6.68122166     7.21655847
Ce     1.92815559     7.82745473     0.89060408
Ce     0.00110424     8.95022124     4.06848563
Ce    -0.00290420     6.70036184     7.21977079
Ce     5.81127600     7.83258510     0.88371011
Ce     3.86301625     8.96070915     4.03014297
Ce     3.86461218     6.81263965     7.19004057
Fe     4.99855749     3.82813858     6.54893130
Pd     6.59439001     2.91036978     8.07581145
O     11.61334069     0.00154917     0.10141687
O      1.92768823     1.10783762     3.22758938
O     -0.03437522     2.21032281     6.41278214
O     -0.00785227     2.23805103     1.69392277
O     -5.79881623    10.05352657     4.85451510
O      1.97874046     0.96672681     7.99031116
O     -1.93899312    10.05733740     0.10496691
O      5.80541436     1.13765535     3.25776398
O      3.95713256     2.33213695     6.37539509
O      3.86763657     2.23577757     1.68132582
O      3.86464066     0.02877737     4.88660836
O      5.84068735     0.98346341     8.09869646
O      7.73821774     0.00761509     0.10924988
O      9.66616335     1.12854868     3.25448112
O      7.79896430     2.20956454     6.53041191
O      7.74357843     2.23531483     1.71563532
O      7.73780147     0.02798270     4.87516991
O      9.74559134     1.05276214     8.04723315
O      9.67032270     3.35425987     0.10911246
O     -0.01473224     4.47749336     3.24024862
O     -1.93944713     5.61165637     6.37019907
O     -1.94403436     5.59119430     1.70564938
O      9.65649517     3.34847991     4.87000411
O     -0.10525272     4.55076672     8.03917917
O      1.92738314     3.35244915     0.09928684
O      3.85803562     4.48498288     3.21211366
O      2.01188984     5.61776858     6.47101728
O      1.92862022     5.59252216     1.67404250
O      1.91908204     3.35262009     4.82184892
O      5.81155478     3.35101064     0.10766953
O      7.72654109     4.45967249     3.24483236
O      5.72015295     5.51910832     6.35444922
O      5.80528807     5.59217007     1.68114259
O      5.75342616     3.40054965     4.85754002
O      7.86700088     4.53641199     8.07170075
O     -3.87155109     6.71022987     0.10512724
O     -1.93862446     7.82797814     3.26721573
O     -3.84914982     8.88682166     6.38795408
O     -3.87509971     8.94378428     1.69355631
O      7.70165693     6.68550115     4.86293602
O     -1.93042250     7.81124014     8.00702303
O     -0.01209783     6.71325780     0.10434852
O      1.92398689     7.83692309     3.24024514
O      0.00989801     8.91943808     6.41264405
O     -0.00628994     8.94736548     1.70514550
O      0.02427854     6.69339297     4.87116117
O      1.97643325     7.84633272     8.03939688
O      3.86815347     6.71410280     0.09951587
O      5.80871542     7.83977988     3.21522130
O      3.87205929     8.94431553     6.38556838
O      3.86556896     8.94715423     1.69389986
O      3.86977226     6.74130495     4.83453131
O      5.80427351     7.78714020     7.94466740
O      4.16599074     4.35688715     8.03632887
O      5.34698549     3.66263803     9.30626006
