83
CIF: Cu-Y-CeO2-O.cif | data_image0
Ce     1.93596140     1.11772783     0.89035214
Ce    -0.00170960     2.24232926     4.03830076
Ce    11.59438765     0.01595790     7.19406164
Ce     5.80789581     1.11772783     0.89035214
Ce     3.87685113     2.23641551     4.04161373
Ce     3.79381055     0.00327935     7.18537572
Ce     9.67981860     1.11772783     0.89035214
Ce     7.74577572     2.23392898     4.02368508
Ce     7.76444407     0.01756795     7.17717973
Ce     0.00000000     4.47091133     0.89035214
Ce    -1.95196565     5.59381193     4.05067690
Ce     9.66430625     3.31805547     7.18602530
Ce     3.87193441     4.47091133     0.89035214
Ce     1.93336725     5.58889307     4.03604931
Ce     1.94469893     3.37811948     7.19110591
Ce     7.74385721     4.47091133     0.89035214
Ce     5.81120053     5.58460458     4.04343733
Ce    -1.93596721     7.82410489     0.89035214
Ce    -3.88293371     8.95198277     4.00946299
Ce    -3.91077195     6.80037749     7.17816760
Ce     1.93596721     7.82410489     0.89035214
Ce    -0.01337381     8.95098250     4.04840187
Ce    -0.01169917     6.71100795     7.21776484
Ce     5.80789000     7.82410489     0.89035214
Ce     3.86733272     8.93851046     4.03721244
Ce     3.85684067     6.68472617     7.19107527
Y      5.77828307     3.36725110     7.06182904
O      0.00000000     0.00000000     0.09999685
O      1.92982736     1.12448557     3.22548403
O     -0.00299478     2.23145941     6.39804140
O      0.00000000     2.23545567     1.68070743
O     11.61037324     0.00441527     4.84556661
O      1.91992973     1.10797552     7.98742512
O      3.87192279     0.00000000     0.09999685
O      5.79775054     1.10514007     3.23676340
O      3.91657240     2.15431802     6.42984588
O      3.87192279     2.23545567     1.68070743
O     -1.96551878    10.04268170     4.83704063
O      6.16736656     1.36127088     8.23709307
O      7.74385721     0.00000000     0.09999685
O      9.68442038     1.11530587     3.23226995
O      7.78571015     2.20661645     6.25037098
O      7.74385721     2.23545567     1.68070743
O      1.92878269    10.01001579     4.81854529
O      9.66832410     1.11880784     7.98623692
O     -1.93596140     3.35318350     0.09999685
O      0.01249144     4.49280201     3.24060631
O     -2.08064255     5.55461239     6.47848159
O     -1.93596721     5.58864923     1.68070743
O     -1.89891947     3.38445734     4.82276361
O      0.00767200     4.50963426     7.94956667
O      1.93596140     3.35318350     0.09999685
O      3.85166332     4.48290431     3.22599984
O      1.90340206     5.60798092     6.35377895
O      1.93595559     5.58864923     1.68070743
O      1.95492159     3.34214543     4.86545616
O      5.80789581     3.35318350     0.09999685
O      7.75000579     4.48723613     3.23814391
O      5.91390747     5.59000344     6.43891781
O      5.80789000     5.58864923     1.68070743
O      5.77382077     3.37439733     4.78937930
O      7.70208439     3.96505393     8.27407344
O     -3.87192860     6.70637706     0.09999685
O     -1.93634292     7.82512402     3.22098735
O     -3.88804814     8.96050631     6.39054488
O     -3.87192860     8.94183273     1.68070743
O     -3.87111388     6.74897487     4.83573938
O     -1.97887009     7.85661232     7.97311535
O     -0.00000581     6.70637706     0.09999685
O      1.92372788     7.79949778     3.24155459
O     -0.03792592     9.06729630     6.46582325
O     -0.00000581     8.94183273     1.68070743
O     -0.06295060     6.73628629     4.90984548
O      3.87192860     6.70637706     0.09999685
O      5.79961293     7.82708762     3.22563144
O      3.87549691     8.94292294     6.39295254
O      3.87192860     8.94183273     1.68070743
O      3.89539613     6.69111424     4.86759615
O      5.81185356     7.85450246     7.98641437
O      1.90876441     7.79632479     7.94868460
O      3.81040717     4.50857267     7.89328076
O      7.59494311     2.19017287    11.14681455
Cu     7.29078802     2.45297063     9.46568071
