83
CIF: Y-Sc-CeO2-Ov-O2.cif | data_image0
Ce     1.93038582     1.11050507     0.88387043
Ce    -0.00649049     2.23472491     4.03749930
Ce    -5.63279072     9.94260215     7.15844162
Ce     5.81181033     1.12175166     0.90127712
Ce     3.83996395     2.23615165     4.04436868
Ce    -1.93413360    10.04148066     7.20356270
Ce     9.66901012     1.12377363     0.90450652
Ce     7.74134517     2.24962695     4.02721868
Ce     7.71533207     0.08043544     7.22824352
Ce    -0.00709724     4.47602159     0.89067279
Ce    -1.95011281     5.58953384     4.06236850
Ce    -1.96699293     3.42850504     7.20428825
Ce     3.86254305     4.47635356     0.87798423
Ce     1.92862858     5.58928000     4.07796877
Ce     1.82580553     3.26629765     7.26427871
Ce     7.74213807     4.46545905     0.90125422
Ce     5.78875760     5.60633038     4.04815922
Ce    -1.94645625     7.83004003     0.90010904
Ce    -3.86553641     8.91855859     4.02400995
Ce     7.69097840     6.64184516     7.29273334
Ce     1.92815559     7.82745473     0.89060408
Ce     0.01007627     8.96470947     4.05523279
Ce    -0.00828797     6.73025961     7.25675194
Ce     5.81127600     7.83258510     0.88371011
Ce     3.86539827     8.97974473     4.02572993
Ce     3.84423235     6.88449282     7.16589418
Sc     5.78662748     3.31899372     6.77227742
Y      7.16471425     2.68145983     9.49952844
O     11.61334069     0.00154917     0.10141687
O      1.93083787     1.11443898     3.21278780
O     -0.17121704     2.08724872     6.58659275
O     -0.00785227     2.23805103     1.69392277
O     -5.74971798    10.04985595     4.83850514
O      1.99753404     0.94774450     8.05745535
O     -1.93899312    10.05733740     0.10496691
O      5.78137308     1.10577046     3.23369422
O      3.99247585     2.30305015     6.43617747
O      3.86763657     2.23577757     1.68132582
O      3.84110522     0.02854245     4.86133627
O      5.96174732     1.48978800     8.28396773
O      7.73821774     0.00761509     0.10924988
O      9.70341064     1.12353341     3.23424099
O      7.66420334     2.39862631     6.27572855
O      7.74357843     2.23531483     1.71563532
O      7.75393477     0.00457533     4.78996549
O      8.93174574     1.76821044     8.70834594
O      9.67032270     3.35425987     0.10911246
O      0.01203908     4.49926884     3.23902446
O     -1.98110927     5.57248749     6.40873042
O     -1.94403436     5.59119430     1.70564938
O     -1.88343941     3.36178653     4.83383635
O     -0.11245690     4.55584442     8.03676322
O      1.92738314     3.35244915     0.09928684
O      3.81179042     4.50491448     3.25424404
O      2.11538092     5.54063807     6.49968036
O      1.92862022     5.59252216     1.67404250
O      1.85167473     3.29869424     4.88074554
O      5.81155478     3.35101064     0.10766953
O      7.75362484     4.48435053     3.23577247
O      5.62851074     5.42089073     6.45172978
O      5.80528807     5.59217007     1.68114259
O      5.76790143     3.36578701     4.70868494
O      7.67104386     4.29855683     8.27675001
O     -3.87155109     6.71022987     0.10512724
O     -1.92530954     7.81898090     3.26555933
O     -3.82369877     8.91490634     6.39132392
O     -3.87509971     8.94378428     1.69355631
O      7.67588092     6.68378844     4.83640419
O     -1.80403456     7.89374981     8.07618449
O     -0.01209783     6.71325780     0.10434852
O      1.92273184     7.80762040     3.23605533
O     -0.04595556     9.04694729     6.42507690
O     -0.00628994     8.94736548     1.70514550
O      0.03848057     6.70659296     4.93667420
O      1.94080599     7.77303359     8.02012355
O      3.86815347     6.71410280     0.09951587
O      5.79516334     7.83836966     3.21398303
O      3.94436007     9.09488450     6.46739797
O      3.86556896     8.94715423     1.69389986
O      3.86980946     6.81639011     4.87174331
O      5.71800566     7.87142065     8.06085583
O      4.53561768     4.15748813     8.57872917
O      5.03187879     3.96704848     9.82452397
