84
CIF: Fe-CeO2+O+CO.cif | data_image0
O      0.55978923     0.45000431     0.59999690
O      2.48411332     1.59244972     3.75538771
O      0.39878710     2.57901886     6.90538632
O      0.55978923     2.65902057     2.16203261
O      0.58414482     0.42843348     5.33441908
O      2.57014795     1.15224748     8.72274378
O      4.38603242     0.45000431     0.59999690
O      6.30149949     1.55162555     3.73308321
O      4.29303977     2.75835588     6.97053343
O      4.38603242     2.65902057     2.16203261
O      4.39381958     0.49234215     5.39486193
O      6.30331897     1.57969680     8.51132919
O      8.21216082     0.45000431     0.59999690
O     10.12347384     1.55006469     3.75707053
O      8.28464108     2.63737845     6.95344310
O      8.21216082     2.65902057     2.16203261
O      8.18544969     0.43621061     5.37489588
O      9.92017288     1.50854722     8.84620005
O     -1.35327498     3.76352871     0.59999690
O      0.60040506     4.85867458     3.75494094
O     -1.39517790     5.96570187     6.89446795
O     -1.35333237     5.97264438     2.16203261
O     -1.36240540     3.78981967     5.32867324
O      2.47296821     3.76352871     0.59999690
O      4.37887612     4.86514041     3.75216485
O      2.51276493     5.84518751     6.96995519
O      2.47291082     5.97264438     2.16203261
O      2.52759321     3.79642017     5.49402996
O      4.31595327     4.82909774     8.44697185
O      6.29909662     3.76352871     0.59999690
O      8.18939401     4.86012805     3.73607248
O      6.27326591     5.96183749     6.92519442
O      6.29903923     5.97264438     2.16203261
O      6.30683616     3.72471151     5.40704521
O      8.15623115     4.88240934     8.56922277
O     -3.26639657     7.07715251     0.59999690
O     -1.34361626     8.18471904     3.75648350
O     -3.27028039     9.22420892     6.87016258
O     -3.26639657     9.28616878     2.16203261
O     -3.28713201     7.05219698     5.34353994
O     -1.39301331     8.14569334     8.58301046
O      0.55984662     7.07715251     0.59999690
O      2.47007336     8.18544049     3.73261269
O      0.52951030     9.26507127     6.94974581
O      0.55984662     9.28616878     2.16203261
O      0.59730356     7.05955437     5.39771485
O      2.50020897     8.17276337     8.51287675
O      4.38597502     7.07715251     0.59999690
O      6.28475213     8.16423109     3.73657287
O      4.39594329     9.35569843     6.94395362
O      4.38597502     9.28616878     2.16203261
O      4.35618302     7.10422201     5.40507595
O      6.28259886     8.14932024     8.56995385
O     -0.31961210     1.87890190     9.47510630
O      0.28785188     5.13830839     8.74896797
O     -1.26344868     3.91263141    11.88264356
Ce     2.47285343     1.55451244     1.38101475
Ce     0.53501847     2.64982696     4.63083072
Ce     0.66547664     0.48894093     7.82482723
Ce     6.29909662     1.55451244     1.38101475
Ce     4.40387891     2.63085506     4.51854018
Ce     4.32959508     0.39910084     7.81231711
Ce    10.12522502     1.55451244     1.38101475
Ce     8.23646529     2.66521980     4.56404928
Ce     8.14606471     0.41047364     7.70915224
Ce     0.55978923     4.86803684     1.38101475
Ce    -1.35340679     5.95556592     4.56281179
Ce    -1.23988527     3.80316961     7.91291110
Ce     4.38603242     4.86803684     1.38101475
Ce     2.45816434     6.00252012     4.51924842
Ce     8.21216082     4.86803684     1.38101475
Ce     6.29877855     5.97058766     4.55476116
Ce     6.41714996     3.73050700     7.74186961
Ce    -1.35333237     8.18166064     1.38101475
Ce    -3.27158197     9.28673380     4.55204403
Ce    -3.27796879     7.05903280     7.73086970
Ce     2.47291082     8.18166064     1.38101475
Ce     0.54721801     9.28029652     4.56529127
Ce     0.49008724     7.04463250     7.80810584
Ce     6.29903923     8.18166064     1.38101475
Ce     4.39981861     9.30118507     4.55792002
Ce     4.41889691     7.19448976     7.74305274
Fe     3.18557725     4.17509233     7.22030207
C     -1.42016518     3.89449167    10.75035042
