80
CIF: Ti-CeO2-Ov.cif | data_image0
O     -5.73504596     9.93827880     0.19994221
O      1.90174175     1.11342703     3.33818245
O      0.02278408     2.53911921     6.68683380
O      0.00418654     2.20666592     1.76195546
O      0.00424032     0.08240277     5.01283698
O      2.08980931     1.47822812     7.99648667
O     -1.90889479     9.93827880     0.19994221
O      5.74914200     1.09832237     3.29920772
O      3.89103944     2.17214344     6.37464702
O      3.83033771     2.20666592     1.76195546
O     -1.90472319     9.92763513     4.91496814
O      5.71201460     1.11899257     8.13813546
O      1.91726787     9.93827880     0.19994221
O      9.58096316     1.10579584     3.35042653
O      7.60940321     2.19366575     6.46776377
O      7.65650037     2.20666592     1.76195546
O      7.64433105     0.00434762     4.93839308
O      9.42490160     1.18274062     8.21470813
O     -1.90888905     3.31118063     0.19994221
O      0.02332815     4.40503326     3.39407374
O     -1.76203396     5.43526515     6.71089661
O     -1.90889479     5.52021998     1.76195546
O      9.52304724     3.31088630     4.95573416
O      1.91726213     3.31118063     0.19994221
O      3.81263055     4.42523641     3.33780060
O      1.63829623     5.32549754     6.69952252
O      1.91725639     5.52021998     1.76195546
O      2.00853051     3.26008158     5.05985696
O      3.59534556     4.07358783     8.00123847
O      5.74342478     3.31118063     0.19994221
O      7.66008300     4.44439069     3.33341599
O      5.73715103     5.45071115     6.54523069
O      5.74341904     5.52021998     1.76195546
O      5.75512896     3.31332744     4.91479237
O      7.61401190     4.35545200     8.17400374
O     -3.82197037     6.62473469     0.19994221
O     -1.93058020     7.71140989     3.33477847
O     -3.76537837     8.87153103     6.54283285
O     -3.82197037     8.83376410     1.76195546
O     -3.77587451     6.59648558     5.04679113
O     -1.87748140     7.79609423     8.17343070
O      0.00418080     6.62473469     0.19994221
O      1.92010452     7.71637094     3.34987095
O     -0.00780193     8.87949927     6.46752619
O      0.00418080     8.83376410     1.76195546
O     -0.01467332     6.66243879     4.95827532
O      1.77679332     7.81494070     8.21255252
O      3.83034345     6.62473469     0.19994221
O      5.74195280     7.72940466     3.40551475
O      3.78313955     8.86368464     6.54960172
O      3.83034345     8.83376410     1.76195546
O      3.75548350     6.58405288     5.01660644
O      5.89493379     7.64227264     8.25115281
Ce     1.91726213     1.10215122     0.98096024
Ce     0.00873778     2.22277562     4.22366487
Ce     0.00627510     0.06791009     7.43343971
Ce     5.74342478     1.10215122     0.98096024
Ce     3.84527132     2.19805682     4.06608664
Ce     3.84429543     0.00680064     7.30443386
Ce     9.56957595     1.10215122     0.98096024
Ce     7.65227058     2.20283972     4.10282667
Ce     7.65143968     0.00081114     7.34212272
Ce     0.00418654     4.41569533     0.98096024
Ce    -1.91323295     5.52235291     4.16568597
Ce     9.44090762     3.22339270     7.28096527
Ce     3.83034919     4.41569533     0.98096024
Ce     1.90585946     5.50709460     4.22197357
Ce     7.65650037     4.41569533     0.98096024
Ce     5.73027900     5.51803932     4.18531559
Ce     5.74279228     3.29349771     7.30564640
Ce    -1.90889479     7.72924939     0.98096024
Ce    -3.82691487     8.84648176     4.18470190
Ce     7.62748776     6.64162321     7.40843195
Ce     1.91726787     7.72924939     0.98096024
Ce     0.00613283     8.83887717     4.10313684
Ce     0.01704953     6.77821926     7.28173247
Ce     5.74341904     7.72924939     0.98096024
Ce     3.81877707     8.84088931     4.20558944
Ce     3.77191322     6.58796097     7.43428262
Ti     2.32435006     3.07926225     7.04850667
