84
CIF: Nb-Ti-CeO2-Ov-CO2.cif | data_image0
Ce     1.93038582     1.11050507     0.88387043
Ce    -0.02427533     2.24483890     4.04865934
Ce    11.58738923     0.02193458     7.23422865
Ce     5.81181033     1.12175166     0.90127712
Ce     3.82020614     2.18721235     3.97111936
Ce    -2.02852583     9.99794091     7.32979766
Ce     9.66901012     1.12377363     0.90450652
Ce     7.78137399     2.21583077     4.01234415
Ce     2.01356384     9.91216356     7.38795130
Ce    -0.00709724     4.47602159     0.89067279
Ce    -1.95418474     5.57614822     4.13134827
Ce    -1.76231804     3.37073992     7.38170095
Ce     3.86254305     4.47635356     0.87798423
Ce     1.95590669     5.58031582     4.07244116
Ce     1.83295219     3.31316050     7.23165970
Ce     7.74213807     4.46545905     0.90125422
Ce     5.82615138     5.66095641     3.97239130
Ce    -1.94645625     7.83004003     0.90010904
Ce    -3.87743985     8.94603063     4.08018626
Ce    -3.85983407     6.82183566     7.33899001
Ce     1.92815559     7.82745473     0.89060408
Ce     0.00549507     8.96742781     4.13110999
Ce    -0.03532301     6.73354412     7.29015621
Ce     5.81127600     7.83258510     0.88371011
Ce     3.85379125     8.96218198     4.04994463
Ce     3.85865716     6.82389435     7.23366980
Ti     5.52035942     3.51933432     6.60931092
Nb     6.83284762     2.77436709     9.19043702
O     11.61334069     0.00154917     0.10141687
O      1.92087790     1.10674024     3.21814166
O      0.06551417     2.25385171     6.38256620
O     -0.00785227     2.23805103     1.69392277
O     -5.80194724    10.05892128     4.87585590
O      1.84686513     1.24419988     8.08343145
O     -1.93899312    10.05733740     0.10496691
O      5.71613276     1.08166645     3.23714388
O      4.02813078     2.46007086     6.62375196
O      3.86763657     2.23577757     1.68132582
O      3.81852451     0.07649213     4.90770568
O      6.81425919     0.98829552     9.42638893
O      7.73821774     0.00761509     0.10924988
O      9.75130915     1.07906589     3.21734710
O      7.07661116     2.61488837     7.20639241
O      7.74357843     2.23531483     1.71563532
O      7.74694866     0.01338638     4.92256156
O      9.80763339     1.05241981     7.99191853
O      9.67032270     3.35425987     0.10911246
O      0.00883393     4.48543236     3.27665821
O     -1.97738263     5.59826717     6.50105997
O     -1.94403436     5.59119430     1.70564938
O      9.67018704     3.34847188     4.92261743
O      0.15137406     4.53119835     8.08627511
O      1.92738314     3.35244915     0.09928684
O      3.87216684     4.47247969     3.22710647
O      2.12802370     5.48446749     6.44886602
O      1.92862022     5.59252216     1.67404250
O      1.98040309     3.30256655     4.86321467
O      3.82409260     4.48539899     8.73236097
O      5.81155478     3.35101064     0.10766953
O      7.73100714     4.57189786     3.23686442
O      5.68830665     5.34058266     6.63077376
O      5.80528807     5.59217007     1.68114259
O      5.78319479     3.37029856     4.82260032
O      8.34829861     3.73200880     9.39562393
O     -3.87155109     6.71022987     0.10512724
O     -1.94028783     7.82690549     3.32037434
O     -3.90423307     8.96510228     6.48323258
O     -3.87509971     8.94378428     1.69355631
O      7.64893331     6.71604106     4.91271829
O     -1.84546117     7.77586330     8.17866714
O     -0.01209783     6.71325780     0.10434852
O      1.92984598     7.81223463     3.27586377
O     -0.02355711     8.98357628     6.50468068
O     -0.00628994     8.94736548     1.70514550
O      0.03945056     6.68949248     4.95747365
O      1.96396886     7.67253954     8.09133984
O      3.86815347     6.71410280     0.09951587
O      5.81182888     7.84549695     3.21779313
O      3.89148907     8.88397684     6.38651889
O      3.86556896     8.94715423     1.69389986
O      3.94135198     6.69991093     4.86407969
O      5.65889275     7.84334379     8.08553253
O      5.27776391     3.66847706    10.28452451
C      4.88204238     3.88251921     9.07416155
