83
CIF: O2.cif | data_image0
Ce     0.00191766     0.00209066     8.80520357
Ce     1.93618762     1.11863192     5.60647587
Ce     0.00000000     2.23543938     2.47426506
Ce    -1.97690823    10.03585593     8.73680910
Ce     5.80742298     1.12279740     5.62790466
Ce     3.87189458     2.23543938     2.47426506
Ce     1.97922433    10.03702270     8.73634026
Ce     9.67914642     1.11840433     5.60624347
Ce     7.74390532     2.23543938     2.47426506
Ce    -1.89522711     3.32825036     8.73744069
Ce    -0.00069218     4.46367384     5.63234131
Ce    -1.93600537     5.58869904     2.47426506
Ce     1.89097437     3.32977325     8.73713675
Ce     3.87555431     4.47018693     5.62893324
Ce     1.93588921     5.58869904     2.47426506
Ce     5.80813170     3.35442009     8.81411939
Ce     7.73930448     4.46892331     5.62778417
Ce     5.80789995     5.58869904     2.47426506
Ce    -3.86926347     6.75465994     8.73641920
Ce    -1.94200802     7.82827228     5.63267363
Ce    -3.87195266     8.94185811     2.47426506
Ce     1.94318572     7.82758137     5.63506481
Ce    -0.00005808     8.94185811     2.47426506
Ce     3.87541323     6.75832903     8.74269827
Ce     5.80731647     7.82405666     5.60687844
Ce     3.87195266     8.94185811     2.47426506
Ti    -0.01105462     6.71171509     8.70292305
O      5.80686197    10.05934485     6.41514854
O      0.00073470     2.19303464     9.63227399
O      1.93594729     1.11771969     3.26466483
O     -0.00000731     2.24614103     4.81841614
O      0.00000000     0.00000000     1.68386529
O      1.92415853     1.11299300     7.96930869
O      3.88532269     0.06732446     6.39840570
O      3.86429860     2.23026068     9.55028056
O      5.80795803     1.11771969     3.26466483
O      3.89647383     2.24976993     4.79607034
O      3.87189458     0.00000000     1.68386529
O      5.81022591     1.04338244     8.05450185
O      7.72936464     0.06577739     6.39532865
O      7.75251272     2.23107978     9.55607103
O      9.67985261     1.11771969     3.26466483
O      7.71778363     2.24973409     4.79674307
O      7.74390532     0.00000000     1.68386529
O      9.68972679     1.11437010     7.96731183
O      9.61152167     3.33284217     6.39379885
O     -1.56488462     5.80365805     9.31012062
O      0.00000000     4.47087876     3.26466483
O     -1.90041894     5.60992020     4.84132965
O     -1.93594729     3.35315907     1.68386529
O     -0.00366012     4.15085557     7.84423396
O      2.00370772     3.33336687     6.39799383
O      1.53648049     5.80835548     9.29943143
O      3.87201074     4.47087876     3.26466483
O      1.90009753     5.60863705     4.84211486
O      1.93594729     3.35315907     1.68386529
O      3.80437421     4.51575238     8.06380392
O      5.80461534     3.35504058     6.50640202
O      5.81641833     5.59926817     9.55524556
O      7.74390532     4.47087876     3.26466483
O      5.80771995     5.55981099     4.79617825
O      5.80795803     3.35315907     1.68386529
O      7.80744926     4.50747376     8.05379493
O      7.69467002     6.66164974     6.39559828
O     -3.90492860     8.96321239     9.62688542
O     -1.93600537     7.82413842     3.26466483
O     -3.86262053     8.93778396     4.81763758
O     -3.87195266     6.70641873     1.68386529
O     -2.19706965     7.97597021     7.84994489
O      0.00055247     6.70668938     6.71024837
O      0.00222092     8.51138295     9.31083234
O      1.93600537     7.82413842     3.26466483
O     -0.00115095     8.90128171     4.84216695
O     -0.00005808     6.70641873     1.68386529
O      2.21268413     7.98257841     7.85011645
O      3.92267364     6.66033851     6.39477370
O      3.91487825     8.97173308     9.63010586
O      5.80789995     7.82413842     3.26466483
O      3.86250130     8.93692715     4.81695667
O      3.87195266     6.70641873     1.68386529
O      5.80805059     7.83482551     7.97014866
O      4.06366971     6.82241407    12.78671731
O      3.45590855     6.39844274    11.80033688
