86
CIF: 3-NH2NO+H-NHNO+2H_fs.cif | data_image0
Ce    11.60185237     0.01411948     8.79156031
Ce     1.92965718     1.12493860     5.60393087
Ce     0.00000000     2.23543938     2.47426506
Ce     3.79726182     0.04490058     8.76676542
Ce     5.81405030     1.10533829     5.62365116
Ce     3.87189458     2.23543938     2.47426506
Ce     7.83432820     0.03450617     8.74343039
Ce     9.69275762     1.11249196     5.57593641
Ce     7.74390532     2.23543938     2.47426506
Ce     9.69705939     3.25913372     8.74194179
Ce     0.00991781     4.47886092     5.63688669
Ce    -1.93600537     5.58869904     2.47426506
Ce     1.93889480     3.26066186     8.82974838
Ce     3.86503034     4.47716119     5.65841621
Ce     1.93588921     5.58869904     2.47426506
Ce     5.82767295     3.34530657     8.77659621
Ce     7.75940981     4.47393855     5.62324349
Ce     5.80789995     5.58869904     2.47426506
Ce     7.67438850     6.75485543     8.76486671
Ce    -1.93121868     7.82236554     5.61998649
Ce    -3.87195266     8.94185811     2.47426506
Ce    -0.03866885     6.73137216     8.81413848
Ce     1.93517034     7.81548379     5.63611728
Ce    -0.00005808     8.94185811     2.47426506
Ce     3.96777034     6.76059159     8.81634170
Ce     5.80300064     7.83052074     5.60104486
Ce     3.87195266     8.94185811     2.47426506
O     -0.00299523     0.00596216     6.40076583
O     -0.13675944     2.14327553     9.63151683
O      1.93594729     1.11771969     3.26466483
O      0.00593506     2.23683938     4.79440604
O      0.00000000     0.00000000     1.68386529
O      1.92077956     1.07179972     7.97621756
O     -1.95182117    10.05495369     6.43194498
O      3.99366576     2.12670847     9.60580611
O      5.80795803     1.11771969     3.26466483
O      3.88785773     2.23832300     4.82881762
O      3.87189458     0.00000000     1.68386529
O      5.83405246     1.00473932     7.97780335
O      1.96496453    10.04997103     6.40440595
O      7.76406744     2.22551150     9.54449644
O      9.67985261     1.11771969     3.26466483
O      7.73861021     2.23938210     4.81093064
O      7.74390532     0.00000000     1.68386529
O      9.67979408     1.12146169     7.91343659
O     -1.91168821     3.33389358     6.40360674
O     -2.05365173     5.55233055     9.99054996
O      0.00000000     4.47087876     3.26466483
O     -1.94576833     5.58810125     4.81807331
O     -1.93594729     3.35315907     1.68386529
O     -0.07069131     4.49526300     8.06439315
O      1.91688065     3.35117037     6.40623306
O      3.87201074     4.47087876     3.26466483
O      1.94384161     5.58624668     4.82233867
O      1.93594729     3.35315907     1.68386529
O      3.89290250     4.46446380     8.02090986
O      5.84000530     3.33801971     6.48210849
O      5.97091127     5.54803561     9.60967918
O      7.74390532     4.47087876     3.26466483
O      5.81346629     5.57599121     4.82956573
O      5.80795803     3.35315907     1.68386529
O      7.85916888     4.50847378     7.97804032
O     -3.87252249     6.72123692     6.42851892
O     -3.88429141     8.95453754     9.62691398
O     -1.93600537     7.82413842     3.26466483
O     -3.86748584     8.94125658     4.80679416
O     -3.87195266     6.70641873     1.68386529
O     -1.94793011     7.83359432     8.04415135
O     -0.00494188     6.71083130     6.37504707
O     -0.02592211     9.07653926     9.98466194
O      1.93600537     7.82413842     3.26466483
O     -0.00398958     8.95311626     4.81794472
O     -0.00005808     6.70641873     1.68386529
O      1.88042460     7.87846073     8.06473165
O      3.86874119     6.72992788     6.40130589
O      3.89026719     9.10910476     9.62624971
O      5.80789995     7.82413842     3.26466483
O      3.87485253     8.94035647     4.79491811
O      3.87195266     6.70641873     1.68386529
O      5.85346660     7.86977493     7.97003638
O      2.09857137     5.52899238    10.20645605
H     -2.06096011     5.53323319    10.96277098
H      0.00001096     9.05931884    10.95726103
H      2.62184970     5.80021006    12.39378385
N      1.68729946     6.26505448    12.29567684
N      1.29779233     6.16903015    11.12258155
