83
CIF: Pt-Rh-CeO2-O.cif | data_image0
Ce     1.93038582     1.11050507     0.88387043
Ce    -0.00157397     2.23240349     4.03736417
Ce    -5.78015180    10.04405831     7.21904966
Ce     5.81181033     1.12175166     0.90127712
Ce     3.84844959     2.21798004     4.02078409
Ce    -1.93908797    10.04943261     7.22099485
Ce     9.66901012     1.12377363     0.90450652
Ce     7.73039344     2.24337019     4.07936157
Ce     1.98605633     9.99564138     7.21584382
Ce    -0.00709724     4.47602159     0.89067279
Ce    -1.94021106     5.58900212     4.05352990
Ce    -1.85508805     3.34252282     7.21556250
Ce     3.86254305     4.47635356     0.87798423
Ce     1.94198358     5.58538176     4.04955237
Ce     1.89642288     3.33947066     7.21788703
Ce     7.74213807     4.46545905     0.90125422
Ce     5.81148925     5.61822905     4.02075870
Ce    -1.94645625     7.83004003     0.90010904
Ce    -3.86839669     8.94014986     4.05176586
Ce    -3.86441931     6.71510941     7.22088101
Ce     1.92815559     7.82745473     0.89060408
Ce    -0.00224057     8.94567707     4.05348724
Ce    -0.00131717     6.70766523     7.18784867
Ce     5.81127600     7.83258510     0.88371011
Ce     3.87390991     8.94509686     4.03748659
Ce     3.86432763     6.74797106     7.21793101
Rh     4.88755173     3.88475418     6.54477063
Pt     6.67988094     2.85059576     8.17085030
O     11.61334069     0.00154917     0.10141687
O      1.93209667     1.11247195     3.22729173
O      0.02135871     2.23512105     6.39112984
O     -0.00785227     2.23805103     1.69392277
O     -5.80218281    10.05642529     4.85232330
O      1.91934227     1.08305559     8.00635969
O     -1.93899312    10.05733740     0.10496691
O      5.80745434     1.12393539     3.24623439
O      3.82436245     2.18473564     6.42431571
O      3.86763657     2.23577757     1.68132582
O     -1.93610914    10.05741405     4.85929544
O      5.88388566     0.98510205     8.08735592
O      7.73821774     0.00761509     0.10924988
O      9.67317949     1.12173238     3.24397950
O      7.72223644     2.24826812     6.52031867
O      7.74357843     2.23531483     1.71563532
O      7.75533372     0.02573099     4.87824025
O      9.73144084     1.08846543     7.98025119
O      9.67032270     3.35425987     0.10911246
O     -0.00974807     4.46758375     3.23959162
O     -1.92026291     5.58769370     6.40640760
O     -1.94403436     5.59119430     1.70564938
O      9.66348448     3.33084796     4.87809885
O      0.00911819     4.45979087     8.00665387
O      1.92738314     3.35244915     0.09928684
O      3.86617102     4.47441298     3.21772370
O      1.89713455     5.61147150     6.37522331
O      1.92862022     5.59252216     1.67404250
O      1.93090953     3.34978764     4.84363943
O      5.81155478     3.35101064     0.10766953
O      7.73805010     4.46822447     3.24607463
O      5.82780451     5.65555974     6.42413118
O      5.80528807     5.59217007     1.68114259
O      5.79474266     3.36125948     4.83502212
O      7.89707810     4.47275475     8.08672630
O     -3.87155109     6.71022987     0.10512724
O     -1.94293259     7.82816168     3.24155128
O     -3.85110079     8.93032528     6.39929009
O     -3.87509971     8.94378428     1.69355631
O     -3.86999632     6.70827693     4.85948129
O     -1.93622501     7.82464751     7.98875888
O     -0.01209783     6.71325780     0.10434852
O      1.93423856     7.83446801     3.23952066
O      0.00921919     8.92944641     6.40647643
O     -0.00628994     8.94736548     1.70514550
O     -0.01307496     6.71436123     4.83962081
O      1.95065620     7.82230587     8.00696002
O      3.86815347     6.71410280     0.09951587
O      5.81054383     7.83034748     3.22707173
O      3.88326550     8.92407812     6.39142540
O      3.86556896     8.94715423     1.69389986
O      3.87244305     6.71292193     4.84353771
O      5.83022501     7.85632741     8.00621741
O      3.73116633     4.55234113     8.03198926
O      5.91710866     3.29159610     9.74999574
