    86
 Tv_1:  11.598200   0.000000   0.000000 Tv_2:  -5.799100  10.044336   0.000000 Tv_3:   0.000000   0.000000  22.891600
Ce      2.14531905      1.20773094      3.19108904
Ce      0.24354586      2.38055486      9.49746111
Ce      0.23414532      0.07855616      6.33972904
Ce      6.01134706      1.20773094      3.19108904
Ce      4.13233766      2.22348076      9.50328885
Ce      4.07132771      0.09689730      6.32935897
Ce      9.87749105      1.20773094      3.19108904
Ce      7.98368974      2.30806485      9.50514203
Ce      7.95827423      0.08879505      6.32154044
Ce      0.21230505      4.55580941      3.19108904
Ce     -1.69668664      5.69089876      9.50368111
Ce     -1.71197038      3.44943962      6.34546844
Ce      4.07833306      4.55580941      3.19108904
Ce      2.16116509      3.49049475      6.36111655
Ce      7.94447705      4.55580941      3.19108904
Ce      6.11998483      5.65923556      9.48424427
Ce      6.01827915      3.43144241      6.34331878
Ce     -1.72076694      7.90398832      3.19108904
Ce     -3.73960942      9.04013217      9.49580578
Ce     -3.65693430      6.78473556      6.32570241
Ce      2.14526106      7.90398832      3.19108904
Ce      0.27647452      9.01152884      9.41078436
Ce      0.19629566      6.78910894      6.33026748
Ce      6.01140505      7.90398832      3.19108904
Ce      4.06453318      8.98469540      9.48798478
Ce      4.03983562      6.74341227      6.35822535
O       0.21230505      2.32375710      2.40201559
O       2.11423116      1.23267478     10.21417857
O       2.13513021      1.20923032      5.52957819
O       0.30992219      2.36673477      7.22679348
O       0.17805671      0.10123739      8.69516472
O       0.21230505      0.09170479      3.98039141
O       4.07833306      2.32375710      2.40201559
O       6.06159963      1.16703062     10.24016829
O       6.02157337      1.23694178      5.52145207
O       4.05946534      2.27354781      7.16472378
O       4.07710735      0.01429459      8.71968505
O       4.07833306      0.09170479      3.98039141
O       7.94436106      2.32375710      2.40201559
O       9.89297253      1.19553212     10.30458572
O       9.90998459      1.19203876      5.57475085
O       7.95565712      2.32493406      7.17381558
O       7.99862700      0.07039439      8.70384504
O       7.94436106      0.09170479      3.98039141
O      -1.72076694      5.67193601      2.40201559
O       0.36442390      4.71704727     10.07075470
O       0.19265703      4.52479864      5.52063983
O      -1.77516187      5.60509755      7.08820666
O      -1.67412658      3.42425220      8.73941268
O      -1.72070895      3.43978325      3.98039141
O       2.14526106      5.67193601      2.40201559
O       3.43857377      4.16410364     11.60902848
O       4.09769489      4.54005783      5.55224954
O       2.08365837      5.70537411      7.01523951
O       2.40725403      3.67370726      8.82186267
O       2.14531905      3.43978325      3.98039141
O       6.01128907      5.67193601      2.40201559
O       7.93048763      4.49733874     10.22415100
O       7.92309745      4.53355318      5.52253229
O       6.03478471      5.69608545      7.15960180
O       5.96522487      3.44848577      8.69155816
O       6.01134706      3.43978325      3.98039141
O      -3.65378095      9.02001447      2.40201559
O      -1.76872396      8.11522479     10.52196884
O      -1.73544721      7.91635899      5.54003402
O      -3.67694774      9.03943334      7.15405699
O      -3.62506397      6.83228547      8.68809632
O      -3.65378095      6.78796216      3.98039141
O       0.21224706      9.02001447      2.40201559
O       2.07443063      7.70808697     10.05440233
O       2.16262519      7.93562179      5.51761693
O       0.25646845      9.10861234      7.08298258
O      -0.14002927      7.00662234      8.55464261
O       0.21224706      6.78796216      3.98039141
O       4.07827507      9.02001447      2.40201559
O       5.92688432      7.89161599     10.22480504
O       6.00652845      7.90876969      5.53042783
O       4.09354475      8.90748300      7.21557097
O       4.00793605      6.42543611      8.83527419
O       4.07827507      6.78796216      3.98039141
O       4.72913633      4.10447651     10.93370717
O      -2.39900519      7.04721642     11.26618740
Pd      2.19351789      5.64087503      9.48339589
C       2.83199755      5.36869546     11.40985498
H       1.90652220      5.37201392     12.00071275
H       3.49620625      6.23246428     11.55446605
