82
CIF: Ru-W-CeO2.cif | data_image0
Ce     1.93596140     1.11772783     0.89035214
Ce    -0.00272651     2.22744173     4.01009354
Ce    -5.77993873    10.05918892     7.23696027
Ce     5.80789581     1.11772783     0.89035214
Ce     3.82918044     2.18055011     3.98032849
Ce    -1.94313529     9.99235450     7.36676307
Ce     9.67981860     1.11772783     0.89035214
Ce     7.76177791     2.21737094     4.03622738
Ce     2.00926076     9.92710442     7.27710701
Ce     0.00000000     4.47091133     0.89035214
Ce    -1.95148255     5.58339815     4.08322023
Ce    -1.72932486     3.33076673     7.23473459
Ce     3.87193441     4.47091133     0.89035214
Ce     1.93956073     5.58648821     4.05417215
Ce     1.83469143     3.31585975     7.22678049
Ce     7.74385721     4.47091133     0.89035214
Ce     5.83346091     5.66494583     3.98222204
Ce    -1.93596721     7.82410489     0.89035214
Ce    -3.85459825     8.93340651     4.09783741
Ce    -3.82700293     6.74299011     7.38629752
Ce     1.93596721     7.82410489     0.89035214
Ce    -0.00310171     8.95126278     4.09011187
Ce    -0.00866320     6.71441792     7.24332883
Ce     5.80789000     7.82410489     0.89035214
Ce     3.86434684     8.95659637     4.03283355
Ce     3.84350990     6.85258090     7.24332173
W      5.15236232     3.75435428     6.83889734
Ru     6.84068555     2.79983933     8.06121276
O      0.00000000     0.00000000     0.09999685
O      1.93469092     1.10861902     3.22068180
O      0.04747736     2.24814598     6.35734932
O      0.00000000     2.23545567     1.68070743
O     -5.77944809    10.05457212     4.86839198
O      1.83695431     1.24536257     8.07329166
O      3.87192279     0.00000000     0.09999685
O      5.73126922     1.11617761     3.24474245
O      3.93817201     2.31144895     6.51516399
O      3.87192279     2.23545567     1.68070743
O      3.84619857     0.03204324     4.88298778
O      6.06352376     1.19296083     8.57818478
O      7.74385721     0.00000000     0.09999685
O      9.74596411     1.08391777     3.21679228
O      7.75776210     2.28251623     6.54169493
O      7.74385721     2.23545567     1.68070743
O      1.94748469    10.00505043     4.86447460
O      9.84671471     1.19179569     8.02719420
O     -1.93596140     3.35318350     0.09999685
O      0.01153165     4.47558025     3.24782516
O     -1.93274897     5.49666415     6.49387764
O     -1.93596721     5.58864923     1.68070743
O     -1.87733397     3.35067149     4.89949248
O      0.05937479     4.41456273     8.08478690
O      1.93596140     3.35318350     0.09999685
O      3.88659410     4.47146966     3.22849578
O      1.94548224     5.55972024     6.41699290
O      1.93595559     5.58864923     1.68070743
O      1.97877359     3.32178168     4.86404548
O      5.80789581     3.35318350     0.09999685
O      7.71319535     4.53771450     3.24825793
O      5.76831407     5.53152059     6.50079438
O      5.80789000     5.58864923     1.68070743
O      5.67840640     3.44060342     5.00890949
O      7.87013290     4.26320871     8.57398228
O     -3.87192860     6.70637706     0.09999685
O     -1.93835731     7.82186038     3.27051133
O     -3.88325366     8.94966808     6.50037787
O     -3.87192860     8.94183273     1.68070743
O      7.72271389     6.70980055     4.88976517
O     -1.78574174     7.72403178     8.16079719
O     -0.00000581     6.70637706     0.09999685
O      1.93100309     7.79962846     3.25020400
O      0.01557477     8.93085111     6.46282426
O     -0.00000581     8.94183273     1.68070743
O     -0.02091172     6.69493551     4.89479347
O      3.87192860     6.70637706     0.09999685
O      5.81472991     7.83230443     3.23033630
O      3.91850513     8.93814375     6.39413759
O      3.87192860     8.94183273     1.68070743
O      3.90198387     6.70466419     4.87681310
O      5.66092343     7.87242618     8.10203251
O      3.88860348     4.47648034     8.02647786
O      1.98202994     7.70938253     8.10033670
