82
CIF: Pd-Y-CeO2.cif | data_image0
Ce     1.93596140     1.11772783     0.89035214
Ce     0.00518033     2.23328561     4.03739398
Ce    -5.79259973    10.04981525     7.18798932
Ce     5.80789581     1.11772783     0.89035214
Ce     3.87586472     2.22783605     4.03247295
Ce    -1.96529142    10.05144280     7.20264153
Ce     9.67981860     1.11772783     0.89035214
Ce     7.74598637     2.23353830     4.04732255
Ce     1.97947870    10.05930925     7.18848947
Ce     0.00000000     4.47091133     0.89035214
Ce    -1.94296214     5.58838284     4.04858263
Ce     9.70034099     3.31389721     7.18903875
Ce     3.87193441     4.47091133     0.89035214
Ce     1.93858886     5.58648381     4.03419281
Ce     1.95212074     3.36322934     7.18641301
Ce     7.74385721     4.47091133     0.89035214
Ce     5.81592102     5.58819294     4.03243157
Ce    -1.93596721     7.82410489     0.89035214
Ce    -3.86834919     8.93915091     4.02702127
Ce    -3.88043838     6.73485084     7.20218896
Ce     1.93596721     7.82410489     0.89035214
Ce    -0.00374936     8.94693599     4.04848820
Ce     0.00202827     6.70400612     7.20338314
Ce     5.80789000     7.82410489     0.89035214
Ce     3.87589809     8.93726848     4.03737769
Ce     3.87044171     6.68583447     7.18640696
Y      5.71152874     3.40765032     7.01618562
O      0.00000000     0.00000000     0.09999685
O      1.93492725     1.11612441     3.22982397
O      0.02579060     2.22191459     6.38605656
O      0.00000000     2.23545567     1.68070743
O     -5.79405400    10.05057171     4.84831748
O      1.95476135     1.09778946     7.99049894
O      3.87192279     0.00000000     0.09999685
O      5.80332311     1.09975903     3.24011170
O      3.92367126     2.16966233     6.41508104
O      3.87192279     2.23545567     1.68070743
O     -1.95060724    10.04036072     4.84901108
O      6.02394717     1.14097112     8.24709131
O      7.74385721     0.00000000     0.09999685
O      9.68948966     1.11184209     3.23846796
O      7.74207340     2.23495968     6.31777819
O      7.74385721     2.23545567     1.68070743
O      1.94303895    10.02894730     4.84028418
O      9.72736879     1.08939508     7.97336387
O     -1.93596140     3.35318350     0.09999685
O      0.00812574     4.47808715     3.24203133
O     -2.00986947     5.56329112     6.44684650
O     -1.93596721     5.58864923     1.68070743
O     -1.90647338     3.36138531     4.84052398
O      0.02072524     4.47940389     7.96615245
O      1.93596140     3.35318350     0.09999685
O      3.85524359     4.48028202     3.22160566
O      1.91024520     5.60257862     6.35877183
O      1.93595559     5.58864923     1.68070743
O      1.96325985     3.34338340     4.85813848
O      5.80789581     3.35318350     0.09999685
O      7.75650146     4.48303550     3.24016810
O      5.89072072     5.57500099     6.41496376
O      5.80789000     5.58864923     1.68070743
O      5.77573838     3.37094536     4.76876248
O      7.83052796     4.26720641     8.24821645
O     -3.87192860     6.70637706     0.09999685
O     -1.93356014     7.82228047     3.22927731
O     -3.85737847     8.93267983     6.40764532
O     -3.87192860     8.94183273     1.68070743
O     -3.86302018     6.72784514     4.84899030
O     -1.94517496     7.82826624     7.99309787
O     -0.00000581     6.70637706     0.09999685
O      1.93338952     7.81244645     3.24203169
O     -0.01550613     9.01586393     6.44629300
O     -0.00000581     8.94183273     1.68070743
O     -0.03602131     6.72611354     4.88430547
O      3.87192860     6.70637706     0.09999685
O      5.80813415     7.82512552     3.22990902
O      3.89560158     8.92523283     6.38595002
O      3.87192860     8.94183273     1.68070743
O      3.89360463     6.68659446     4.85846478
O      5.83339888     7.81610075     7.99039749
O      3.81482253     4.50278941     7.90568861
O      1.93832755     7.80047536     7.96602764
Pd     7.14020655     2.57926431     9.24203745
