81
CIF: Cu-Y-CeO2-Ov.cif | data_image0
Ce     1.93596140     1.11772783     0.89035214
Ce     0.00231183     2.23567509     4.01794200
Ce    -5.78620431    10.04614749     7.20054871
Ce     5.80789581     1.11772783     0.89035214
Ce     3.86602955     2.24005299     4.03695202
Ce    -1.97992259    10.04747906     7.20839053
Ce     9.67981860     1.11772783     0.89035214
Ce     7.77257135     2.21832581     3.98833470
Ce     1.95575550    10.05779689     7.21683788
Ce     0.00000000     4.47091133     0.89035214
Ce    -1.94569436     5.58049801     4.05302987
Ce     9.68970096     3.33454660     7.21822420
Ce     3.87193441     4.47091133     0.89035214
Ce     1.94353998     5.58380778     4.07827823
Ce     1.80148001     3.26886433     7.18947856
Ce     7.74385721     4.47091133     0.89035214
Ce     5.80069153     5.59079131     4.03675125
Ce    -1.93596721     7.82410489     0.89035214
Ce    -3.87851318     8.94521937     4.02258409
Ce    -3.88488277     6.75047259     7.20834789
Ce     1.93596721     7.82410489     0.89035214
Ce     0.00145786     8.95320734     4.05268234
Ce    -0.01005915     6.71051795     7.23807338
Ce     5.80789000     7.82410489     0.89035214
Ce     3.87266753     8.93874904     4.01809515
Ce     3.87625489     6.86369404     7.19010008
Y      5.95936536     3.26475738     6.89055968
O      0.00000000     0.00000000     0.09999685
O      1.93740315     1.11078092     3.21127843
O     -0.04341740     2.18115598     6.39285440
O      0.00000000     2.23545567     1.68070743
O     -5.78944813    10.04837725     4.82781476
O      1.93974166     0.95405850     8.03061266
O      3.87192279     0.00000000     0.09999685
O      5.80222010     1.09215414     3.22314210
O      3.98357581     2.30874045     6.55338802
O      3.87192279     2.23545567     1.68070743
O      3.84642499     0.06021730     4.86778909
O      6.12802504     1.17966194     8.32046985
O      7.74385721     0.00000000     0.09999685
O      9.69196924     1.11029303     3.21721692
O      7.77795824     2.21419661     6.26767335
O      7.74385721     2.23545567     1.68070743
O      1.93745725    10.01940114     4.81365865
O      9.66431969     1.12504228     8.05098809
O     -1.93596140     3.35318350     0.09999685
O      0.00774411     4.49749544     3.23786770
O     -2.06329846     5.58019745     6.42356916
O     -1.93596721     5.58864923     1.68070743
O     -1.90106144     3.37071347     4.81437464
O     -0.12659685     4.54129147     8.01923312
O      1.93596140     3.35318350     0.09999685
O      3.85626789     4.47947242     3.24041198
O      2.00783087     5.54653850     6.48169498
O      1.93595559     5.58864923     1.68070743
O      1.92995217     3.31569818     4.80864631
O      5.80789581     3.35318350     0.09999685
O      7.76313093     4.48793750     3.22308306
O      5.80027989     5.45419430     6.55572054
O      5.80789000     5.58864923     1.68070743
O      5.82196889     3.34510736     4.70840385
O      7.84903635     4.15542699     8.32332596
O     -3.87192860     6.70637706     0.09999685
O     -1.93422792     7.82260098     3.26364086
O     -3.83316827     8.91837776     6.35490538
O     -3.87192860     8.94183273     1.68070743
O      7.67812997     6.69738153     4.86790248
O     -1.95632811     7.83487638     8.00607593
O     -0.00000581     6.70637706     0.09999685
O      1.91657296     7.80316585     3.23812619
O     -0.05708578     9.05336227     6.42219883
O     -0.00000581     8.94183273     1.68070743
O      0.00112494     6.70431027     4.93018675
O      3.87192860     6.70637706     0.09999685
O      5.81451733     7.82601073     3.21115544
O      3.89624226     9.00513822     6.39255449
O      3.87192860     8.94183273     1.68070743
O      3.90239708     6.72912968     4.80876016
O      5.95002411     7.90238853     8.03155833
O      1.81042894     7.89694001     8.01886251
Cu     7.25026108     2.51562747     9.08699778
