86
CIF: 2-NH2+H+NO-NH2NO+H_fs.cif | data_image0
Ce    -5.77004751    10.05267978     8.78686727
Ce     1.92561263     1.10393984     5.59284991
Ce     0.00000000     2.23543938     2.47426506
Ce    -1.91665466     9.95417302     8.71726521
Ce     5.80292981     1.10312479     5.61991452
Ce     3.87189458     2.23543938     2.47426506
Ce     1.96574205    10.01204035     8.72587631
Ce     9.69479094     1.12995945     5.62375310
Ce     7.74390532     2.23543938     2.47426506
Ce     9.64626064     3.27866702     8.84583777
Ce    -0.00745221     4.49598133     5.65878768
Ce    -1.93600537     5.58869904     2.47426506
Ce     1.95177556     3.20113729     8.76111912
Ce     3.86105039     4.48071178     5.63864883
Ce     1.93588921     5.58869904     2.47426506
Ce     5.79714029     3.30829018     8.80119759
Ce     7.74729660     4.46727139     5.63796177
Ce     5.80789995     5.58869904     2.47426506
Ce     7.71025387     6.71723788     8.75784222
Ce    -1.93188628     7.80679986     5.61543218
Ce    -3.87195266     8.94185811     2.47426506
Ce     1.97456466     7.82892997     5.63336839
Ce    -0.00005808     8.94185811     2.47426506
Ce     4.03073098     6.82845010     8.77834693
Ce     5.82477586     7.81504815     5.57641343
Ce     3.87195266     8.94185811     2.47426506
Pd     0.00999469     6.66536436     8.56188570
O      0.01561789     0.00625875     6.40755513
O      0.15324606     2.17550753     9.58190522
O      1.93594729     1.11771969     3.26466483
O      0.01273921     2.24361569     4.80744027
O      0.00000000     0.00000000     1.68386529
O      1.98662732     1.06458260     7.93641661
O     -1.92844575    10.00873218     6.41656225
O      3.87377552     2.18270584     9.55668522
O      5.80795803     1.11771969     3.26466483
O      3.86391014     2.23671498     4.82891286
O      3.87189458     0.00000000     1.68386529
O      5.78578785     1.08180713     7.95965635
O      7.73164967     0.01443089     6.40347735
O      7.58706700     2.15402008     9.59630935
O      9.67985261     1.11771969     3.26466483
O      7.72339605     2.24786922     4.83111956
O      7.74390532     0.00000000     1.68386529
O      9.68283044     1.04370649     7.97584446
O     -1.90215089     3.34346748     6.41117514
O     -2.35623555     5.35191385    10.37062565
O      0.00000000     4.47087876     3.26466483
O     -1.91167599     5.59245909     4.83248934
O     -1.93594729     3.35315907     1.68386529
O     -0.01359100     4.66648697     8.07927619
O      1.90060321     3.33365275     6.46983606
O      3.87201074     4.47087876     3.26466483
O      1.93517314     5.58179997     4.83886623
O      1.93594729     3.35315907     1.68386529
O      3.69902534     4.55964479     8.14769742
O      5.74634803     3.37545819     6.50014982
O      5.84040019     5.62623616     9.57977633
O      7.74390532     4.47087876     3.26466483
O      5.81257149     5.54876598     4.78886622
O      5.80795803     3.35315907     1.68386529
O      7.74313719     4.51223360     7.97851739
O      7.71029780     6.68885822     6.36551088
O     -3.84355376     8.93360283     9.59814158
O     -1.93600537     7.82413842     3.26466483
O     -3.86498207     8.94419410     4.79545713
O     -3.87195266     6.70641873     1.68386529
O     -2.07805648     7.71331292     7.96281244
O      0.04493511     6.78336690     6.45465857
O      0.04751241     8.72201213     9.22290969
O      1.93600537     7.82413842     3.26466483
O      0.00833194     8.94043732     4.80076593
O     -0.00005808     6.70641873     1.68386529
O      2.28796587     7.89125914     7.92960494
O      3.96871954     6.65468136     6.38092214
O      4.03821756     8.98057037     9.66589179
O      5.80789995     7.82413842     3.26466483
O      3.88079982     8.94485458     4.81344611
O      3.87195266     6.70641873     1.68386529
O      5.86469700     7.84989677     7.94812014
O      2.33344100     6.36344071    10.67301372
N      0.11264066     6.28171101    10.55237580
N      1.32964480     5.67579066    10.26625662
H     -2.83403436     5.14374195    11.19488086
H      0.21784455     7.17099586    11.06783154
H     -0.82893721     5.73003936    10.65243451
