84
CIF: Nb-Fe-CeO2-Ov-CO2.cif | data_image0
Ce     1.93038582     1.11050507     0.88387043
Ce     0.00158428     2.23333420     4.05275114
Ce     5.79757364    10.05248028     7.19542049
Ce     5.81181033     1.12175166     0.90127712
Ce     3.85905686     2.23118029     4.00081089
Ce    -2.07295214     9.92820955     7.20161302
Ce     9.66901012     1.12377363     0.90450652
Ce     7.73971056     2.24138814     4.01779453
Ce     2.03737948     9.97352389     7.36807123
Ce    -0.00709724     4.47602159     0.89067279
Ce    -1.95664408     5.58353377     4.11507269
Ce    -1.72972403     3.36558500     7.33798420
Ce     3.86254305     4.47635356     0.87798423
Ce     1.94996964     5.58811926     4.06420725
Ce     1.90408754     3.31820901     7.25126399
Ce     7.74213807     4.46545905     0.90125422
Ce     5.81184456     5.59213843     4.00824609
Ce    -1.94645625     7.83004003     0.90010904
Ce    -3.89255863     8.92559278     4.02032880
Ce    -3.87493321     6.75586514     7.29157383
Ce     1.92815559     7.82745473     0.89060408
Ce    -0.00018190     8.97217865     4.10421052
Ce     0.01325884     6.70948664     7.25639999
Ce     5.81127600     7.83258510     0.88371011
Ce     3.86665954     8.96850068     4.02116351
Ce     3.83947902     6.83873919     7.15762417
Fe     5.41737096     3.55756586     6.71848180
Nb     6.88595407     2.81393703     8.83751414
O     11.61334069     0.00154917     0.10141687
O      1.93061783     1.11071355     3.20781324
O      0.07751811     2.21139599     6.34291297
O     -0.00785227     2.23805103     1.69392277
O      5.80853142    10.04990765     4.80937483
O      1.97068278     0.96084804     8.01858088
O     -1.93899312    10.05733740     0.10496691
O      5.78771768     1.11582085     3.22871559
O      4.18034806     2.21723701     6.67585230
O      3.86763657     2.23577757     1.68132582
O      3.82391410     0.05089458     4.87204085
O      6.96940251     1.09188639     9.36171182
O      7.73821774     0.00761509     0.10924988
O      9.67895676     1.12445801     3.21589868
O      7.26542905     2.51655081     6.98474288
O      7.74357843     2.23531483     1.71563532
O      7.73560809     0.13200062     4.87632534
O      9.87490569     1.03392556     8.01066068
O      9.67032270     3.35425987     0.10911246
O     -0.00795587     4.47533381     3.29352064
O     -1.95728010     5.60112109     6.43928399
O     -1.94403436     5.59119430     1.70564938
O      9.57798008     3.28494350     4.88787159
O      0.10137073     4.63966446     8.07518429
O      1.92738314     3.35244915     0.09928684
O      3.87048342     4.48216641     3.20157118
O      2.04513894     5.60698807     6.34623336
O      1.92862022     5.59252216     1.67404250
O      2.03294695     3.31156012     4.82984058
O      3.65843616     4.75882464     8.59262810
O      5.81155478     3.35101064     0.10766953
O      7.73688238     4.46651176     3.22866555
O      5.77318681     5.34850585     6.56861285
O      5.80528807     5.59217007     1.68114259
O      5.78121366     3.34808413     4.79874301
O      8.28545176     3.91805838     9.18164462
O     -3.87155109     6.71022987     0.10512724
O     -1.93816521     7.83005635     3.28136082
O     -3.87641567     8.89875211     6.36518364
O     -3.87509971     8.94378428     1.69355631
O      7.66898805     6.67148875     4.83954482
O     -1.89310991     7.88740996     8.09608298
O     -0.01209783     6.71325780     0.10434852
O      1.92944301     7.84423992     3.27293621
O     -0.05979833     9.06657703     6.49175089
O     -0.00628994     8.94736548     1.70514550
O      0.00475272     6.74752989     4.90981298
O      1.95923465     7.70776432     8.03987347
O      3.86815347     6.71410280     0.09951587
O      5.80423962     7.83058074     3.19793858
O      3.87360839     8.91914680     6.32001609
O      3.86556896     8.94715423     1.69389986
O      3.95263473     6.70365766     4.82688262
O      5.67181107     7.84323764     7.99341175
O      5.18057397     3.58714358     9.70404780
C      4.69581901     4.02431847     8.58675809
