84
CIF: Ag-CeO2-O2+CO.cif | data_image0
O      0.55978923     0.45000431     0.59999690
O      2.45641384     1.49898768     3.72739013
O      0.64282463     2.96537827     7.11132794
O      0.55978923     2.65902057     2.16203261
O      0.54351945     0.55917161     5.46357756
O      2.51691090     1.70773887     8.47607043
O      4.38603242     0.45000431     0.59999690
O      6.30996822     1.54852301     3.74011238
O      4.56661091     2.55579069     6.78541195
O      4.38603242     2.65902057     2.16203261
O      4.36225840     0.38826969     5.34058694
O      6.32190788     1.54156754     8.59747315
O      8.21216082     0.45000431     0.59999690
O     10.13180440     1.54881661     3.74006365
O      8.17573425     2.63279043     6.91048055
O      8.21216082     2.65902057     2.16203261
O      8.22158840     0.44576809     5.36985757
O     10.11983850     1.55208434     8.51908951
O     -1.35327498     3.76352871     0.59999690
O      0.50722922     4.89850209     3.74131034
O     -1.27815064     5.93068671     7.05219818
O     -1.35333237     5.97264438     2.16203261
O     -1.36417933     3.74124166     5.39622407
O      2.47296821     3.76352871     0.59999690
O      4.42616659     4.91000818     3.72734343
O      2.24929547     5.74835687     7.11154683
O      2.47291082     5.97264438     2.16203261
O      2.48586865     3.75622887     5.12580514
O      4.27529107     4.75407506     8.47619836
O      6.29909662     3.76352871     0.59999690
O      8.22815085     4.88954734     3.74236157
O      6.25128905     5.99651848     6.97849283
O      6.29903923     5.97264438     2.16203261
O      6.34124080     3.81581117     5.34088634
O      8.14547450     4.84380098     8.53787896
O     -3.26639657     7.07715251     0.59999690
O     -1.36359460     8.15757991     3.74259489
O     -3.31059235     9.31597358     6.97781710
O     -3.26639657     9.28616878     2.16203261
O     -3.24651435     7.06569454     5.43635470
O     -1.36528380     8.25354048     8.53924175
O      0.55984662     7.07715251     0.59999690
O      2.48107804     8.17939943     3.74025186
O      0.56465233     9.33168537     6.91005121
O      0.55984662     9.28616878     2.16203261
O      0.57440764     7.09841782     5.39580035
O      2.47204158     8.18782330     8.51906495
O      4.38597502     7.07715251     0.59999690
O      6.27575809     8.19499866     3.80061172
O      4.40106234     9.27710836     6.93740524
O      4.38597502     9.28616878     2.16203261
O      4.28336803     7.03616832     5.46344042
O      6.26436978     8.20285308     8.58979324
O     -0.24735595     4.57446270     9.75207816
O      0.40956016     5.72108761     9.75740762
O     -3.32005792     7.19584928    11.78737197
Ce     2.47285343     1.55451244     1.38101475
Ce     0.59027694     2.69728116     4.55715958
Ce     0.57523850     0.50496632     7.76663573
Ce     6.29909662     1.55451244     1.38101475
Ce     4.38198161     2.66167186     4.53546672
Ce     4.39283110     0.51908723     7.71350616
Ce    10.12522502     1.55451244     1.38101475
Ce     8.21623513     2.66320537     4.52947354
Ce     8.21048517     0.45148042     7.73260487
Ce     0.55978923     4.86803684     1.38101475
Ce    -1.35602149     5.97479021     4.57995555
Ce    -1.48447530     3.72870591     7.75442579
Ce     4.38603242     4.86803684     1.38101475
Ce     2.45518640     5.92735947     4.55716453
Ce     8.21216082     4.86803684     1.38101475
Ce     6.29280444     5.97356808     4.57275804
Ce     6.24368446     3.72400085     7.71388099
Ce    -1.35333237     8.18166064     1.38101475
Ce    -3.27011289     9.29139927     4.57276319
Ce    -3.30222356     7.09798056     7.80912843
Ce     2.47291082     8.18166064     1.38101475
Ce     0.55882341     9.28139412     4.52932171
Ce     0.52484547     7.20939835     7.75440789
Ce     6.29903923     8.18166064     1.38101475
Ce     4.36789991     9.29686293     4.57777227
Ce     4.34609352     7.03655281     7.76668089
Ag     2.44988037     3.77729031     7.84492884
C     -3.27595253     7.12304781    10.64917488
