84
CIF: NH3.cif | data_image0
Ce     5.80663652    10.04714984     8.78595668
Ce     1.93108029     1.09259318     5.57251951
Ce     0.00000000     2.23543938     2.47426506
Ce    -1.97806448    10.05872945     8.79311989
Ce     5.79562508     1.11650344     5.62775115
Ce     3.87189458     2.23543938     2.47426506
Ce     7.80153242     0.09412835     8.78483073
Ce     9.69016712     1.13155423     5.61973658
Ce     7.74390532     2.23543938     2.47426506
Ce    -1.92362414     3.40878523     8.79932077
Ce     0.00500890     4.47478435     5.68310468
Ce    -1.93600537     5.58869904     2.47426506
Ce     1.88066684     3.16425949     8.69219347
Ce     3.85474206     4.48413940     5.64255270
Ce     1.93588921     5.58869904     2.47426506
Ce     5.79783290     3.34810596     8.78156346
Ce     7.74351437     4.47741966     5.61466652
Ce     5.80789995     5.58869904     2.47426506
Ce     7.79092427     6.60670670     8.82553510
Ce    -1.94889316     7.81709991     5.59885091
Ce    -3.87195266     8.94185811     2.47426506
Ce     1.97108752     7.82507682     5.61049937
Ce    -0.00005808     8.94185811     2.47426506
Ce     3.98368474     6.77298414     8.83495686
Ce     5.81321360     7.81625330     5.63146588
Ce     3.87195266     8.94185811     2.47426506
Mn     0.00702619     7.54714537     8.24941694
O      5.79656696    10.04620573     6.41172022
O      0.04883011     2.14674386     9.62668852
O      1.93594729     1.11771969     3.26466483
O     -0.00098131     2.23411501     4.81280357
O      0.00000000     0.00000000     1.68386529
O      1.91909198     1.07763563     7.92059269
O     -1.94179546    10.03093382     6.43653203
O      3.82692146     2.15006174     9.59141752
O      5.80795803     1.11771969     3.26466483
O      3.87587674     2.21840193     4.80468478
O      3.87189458     0.00000000     1.68386529
O      5.80786940     1.14772684     7.95970077
O      1.95105788    10.02911689     6.46173450
O      7.71800787     2.22120058     9.59136595
O      9.67985261     1.11771969     3.26466483
O      7.72994899     2.23436622     4.84058697
O      7.74390532     0.00000000     1.68386529
O      9.69225173     1.17725456     7.94375500
O     -1.90124262     3.39215029     6.41693128
O     -2.29280940     5.34140614     9.73861454
O      0.00000000     4.47087876     3.26466483
O     -1.91283420     5.60492180     4.82066853
O     -1.93594729     3.35315907     1.68386529
O      0.11003557     4.38394393     8.04203338
O      1.94969186     3.30208703     6.38136144
O      3.87201074     4.47087876     3.26466483
O      1.91791872     5.59395960     4.83890018
O      1.93594729     3.35315907     1.68386529
O      3.69312364     4.48109254     8.11790333
O      5.72192117     3.38127196     6.44833451
O      5.93652276     5.46941697     9.62132995
O      7.74390532     4.47087876     3.26466483
O      5.81524291     5.58587985     4.81582055
O      5.80795803     3.35315907     1.68386529
O      7.71588648     4.40452686     7.88193443
O     -3.84148742     6.71291112     6.43739696
O     -3.82080212     8.96235349     9.58730549
O     -1.93600537     7.82413842     3.26466483
O     -3.87093686     8.93327772     4.80043882
O     -3.87195266     6.70641873     1.68386529
O     -1.84844819     7.77679490     8.01676311
O      0.01113049     6.76821967     6.48143768
O      0.00612609     8.96153638     9.48198609
O      1.93600537     7.82413842     3.26466483
O      0.00818648     8.94581452     4.81478639
O     -0.00005808     6.70641873     1.68386529
O      1.86164093     7.75069577     8.08435867
O      3.88473194     6.71941403     6.38035099
O      3.89045984     9.13304889     9.62845985
O      5.80789995     7.82413842     3.26466483
O      3.86990340     8.95299370     4.80606124
O      3.87195266     6.70641873     1.68386529
O      5.86528849     7.83259154     8.00120107
N      3.69968267     6.60250596    11.57039988
H      2.99373572     6.22199697    12.20484206
H      3.78516574     7.60657408    11.76974165
H      4.59830500     6.15988220    11.79598191
