89
CIF: CH2COCH2.cif | data_image0
O      0.00261135     0.00382715     0.19995339
O      1.92051432     1.12395128     3.34921070
O      0.13691620     2.27505569     6.64008895
O      0.00261135     2.21285656     1.76196664
O     -0.01318825     0.04575886     4.99929844
O      1.94688932     1.03033830     8.04135737
O      3.82876252     0.00382715     0.19995339
O      5.74213478     1.11095347     3.33698835
O      3.75488690     2.27395245     6.64501224
O      3.82876252     2.21285656     1.76196664
O      3.84739832     0.03716914     5.00497082
O      5.75821327     1.09606212     8.13978317
O      7.65492518     0.00382715     0.19995339
O      9.57124967     1.11518920     3.33449173
O      7.67208498     2.23918501     6.55153686
O      7.65492518     2.21285656     1.76196664
O      7.65131051     0.02292916     4.97709785
O      9.59955435     1.08273839     8.13952422
O     -1.91046424     3.31737126     0.19995339
O      0.03916748     4.40139541     3.36065826
O     -1.98586535     5.57984477     6.42528057
O     -1.91046998     5.52641062     1.76196664
O     -1.86282108     3.28875566     5.00107299
O      1.91568694     3.31737126     0.19995339
O      3.80363738     4.40051119     3.36529222
O      1.93320611     5.75079639     6.49270774
O      1.91568120     5.52641062     1.76196664
O      1.93639372     3.26490003     5.12126541
O      4.45819747     4.72344468     8.68554038
O      5.74184959     3.31737126     0.19995339
O      7.65288770     4.40159900     3.35402427
O      5.70140716     5.51153137     6.51325254
O      5.74184385     5.52641062     1.76196664
O      5.72631802     3.28209750     5.00241831
O      7.63784204     4.45103834     8.15378964
O     -3.82354556     6.63092532     0.19995339
O     -1.92411989     7.75831228     3.34460400
O     -3.82915997     8.80751595     6.49307843
O     -3.82354556     8.83995473     1.76196664
O      7.60443418     6.63845020     4.93558399
O     -1.94188434     7.77045287     8.15440074
O      0.00260561     6.63092532     0.19995339
O      1.91432390     7.74042918     3.35271371
O      0.02583644     8.81169903     6.53222569
O      0.00260561     8.83995473     1.76196664
O     -0.02895628     6.63204127     4.94266819
O      1.95846452     7.80969158     8.23806378
O      3.82876826     6.63092532     0.19995339
O      5.74058411     7.76414379     3.32949562
O      3.80899140     8.83581857     6.50521187
O      3.82876826     8.83995473     1.76196664
O      3.86533400     6.65475756     4.93967616
O      5.72066836     7.77682994     8.13550034
O     -0.61545879     4.76689835     8.43190996
O      1.91646266     3.76675999     8.34814439
Ce     1.91568694     1.10834185     0.98097142
Ce     0.00066201     2.22692230     4.15290135
Ce     5.69238598     9.90882659     7.34286910
Ce     5.74184959     1.10834185     0.98097142
Ce     3.84392496     2.21622778     4.14478247
Ce    -1.85011312     9.86780372     7.33793425
Ce     9.56800076     1.10834185     0.98097142
Ce     7.66695395     2.21148872     4.16785732
Ce     7.66986297     0.00732383     7.36300068
Ce     0.00261135     4.42188597     0.98097142
Ce    -1.91369596     5.52846725     4.14719074
Ce    -1.90420005     3.40811298     7.41429358
Ce     3.82877400     4.42188597     0.98097142
Ce     1.91445581     5.54998358     4.22624663
Ce     7.65492518     4.42188597     0.98097142
Ce     5.72929694     5.52721374     4.15598983
Ce     5.82525631     3.32722012     7.36507309
Ce    -1.91046998     7.73544003     0.98097142
Ce    -3.83154736     8.84346511     4.15044055
Ce     7.62810792     6.64075488     7.31374145
Ce     1.91569268     7.73544003     0.98097142
Ce     0.00693483     8.83396003     4.15368370
Ce    -0.00888230     6.59727450     7.38922074
Ce     5.74184385     7.73544003     0.98097142
Ce     3.82485594     8.84803204     4.13564679
Ce     3.77347415     6.68815981     7.34883920
Fe     1.94820472     2.53339311     6.93981165
C      1.52920912     4.15237385    10.64208642
C      2.35232911     3.93441144     9.58511216
C      3.86279072     3.95513350     9.71702464
H      0.44990206     4.14755821    10.50566765
H      1.95111959     4.36363256    11.62346836
H      4.22366073     2.89748942     9.66700597
H      4.15367592     4.33966198    10.70993332
