82
CIF: Fe-Fe-CeO2.cif | data_image0
Ce     1.93353370     1.11563544     0.87109026
Ce     0.00052801     2.22965244     4.01215116
Ce    -5.77535330    10.03953756     7.19996935
Ce     5.81235627     1.12048415     0.89218442
Ce     3.84397014     2.20899281     4.00468213
Ce    -1.90296331    10.03844438     7.32382576
Ce     9.66774981     1.12478964     0.89850580
Ce     7.75140555     2.23073230     4.06139334
Ce     2.02276010     9.97482081     7.21006291
Ce    -0.00465793     4.47576004     0.88352688
Ce    -1.94897624     5.58768137     4.06952519
Ce    -1.81978127     3.32007756     7.20798158
Ce     3.86676539     4.47340610     0.87963328
Ce     1.93036098     5.59131604     4.04792794
Ce     1.85232555     3.32115356     7.20603984
Ce     7.74387463     4.46530816     0.89232184
Ce     5.81652060     5.62547082     4.00413591
Ce    -1.93819163     7.82528186     0.87970199
Ce    -3.85679988     8.93287767     4.08172613
Ce    -3.83793192     6.68694117     7.32300629
Ce     1.92909066     7.82521144     0.88325204
Ce    -0.00569146     8.95279506     4.07014926
Ce    -0.00645883     6.70958123     7.22133440
Ce     5.80867407     7.82747485     0.87102155
Ce     3.87688830     8.94276842     4.01213015
Ce     3.85676403     6.79259247     7.20590508
Fe     4.93614543     3.85506123     6.56553914
Fe     6.74875704     2.81081007     7.94821076
O     11.61181902     0.00223322     0.09674454
O      1.93421248     1.11495591     3.21255321
O      0.00661985     2.23343890     6.34405261
O     -0.00737602     2.24265831     1.68670815
O     -5.79361107    10.05169135     4.83385338
O      1.84432714     1.21993915     8.02138455
O     -1.93499729    10.05852443     0.09479774
O      5.80892416     1.14994635     3.24646133
O      3.94642728     2.34296437     6.44479454
O      3.87217834     2.23390649     1.67871482
O      3.87447755     0.02922443     4.85179176
O      6.18957743     1.11640103     8.35613385
O      7.74048282     0.01097498     0.10059234
O      9.67696207     1.11642836     3.22375713
O      7.78226989     2.21491603     6.44488984
O      7.73910054     2.23794038     1.71361981
O      7.76400552     0.02154810     4.83079815
O      9.75654585     1.07203473     7.97612498
O      9.66841191     3.35052778     0.10059234
O      0.00584201     4.47931106     3.24110115
O     -1.91037415     5.49791401     6.41570179
O     -1.93497986     5.58591303     1.69119725
O      9.67233729     3.32387025     4.82678917
O      0.04118589     4.41364455     8.03881853
O      1.93135574     3.35110117     0.09452290
O      3.86386755     4.47585615     3.21015918
O      1.91760059     5.59883315     6.39860657
O      1.92632611     5.59379972     1.66462914
O      1.94333962     3.33508019     4.84765379
O      3.89138707     4.45942770     7.89817336
O      5.81266989     3.35046742     0.10466917
O      7.71423111     4.45391069     3.24782492
O      5.75236588     5.46731999     6.44422644
O      5.80918516     5.58916226     1.67805062
O      5.72593099     3.39837518     4.92706891
O      7.93666471     4.14252511     8.35636615
O     -3.87069152     6.70604509     0.09498097
O     -1.94037004     7.82643873     3.24690554
O     -3.87199709     8.94095671     6.45097108
O     -3.87555853     8.94391506     1.67486702
O      7.71946122     6.68894607     4.85025619
O     -1.76660802     7.72505729     8.08514909
O     -0.00903127     6.71144708     0.08950703
O      1.93196712     7.81533333     3.24116377
O      0.09093770     8.96292388     6.41831266
O      0.00269486     8.94208422     1.69078498
O     -0.02265457     6.71900778     4.86048921
O      2.00672780     7.81446454     8.03968875
O      3.87118519     6.71122577     0.09477484
O      5.80960094     7.82684557     3.21372357
O      3.87732119     8.93536569     6.34436945
O      3.86179383     8.94423696     1.68659363
O      3.89118772     6.70784417     4.84765988
O      5.67354912     7.85015192     8.02048806
