83
CIF: O2—Olatt+Osur.cif | data_image0
Ce     1.93038582     1.11050507     0.88387043
Ce    -0.01298523     2.23547091     4.07697893
Ce    -5.75335511    10.03195160     7.16709557
Ce     5.81181033     1.12175166     0.90127712
Ce     3.82017462     2.22240891     4.00223187
Ce    -1.89261971    10.00596858     7.26598158
Ce     9.66901012     1.12377363     0.90450652
Ce     7.71160199     2.25008827     4.06779266
Ce     1.95442300     9.94330127     7.30302524
Ce    -0.00709724     4.47602159     0.89067279
Ce    -1.95187948     5.58667703     4.05794847
Ce    -1.84404898     3.38440660     7.29852148
Ce     3.86254305     4.47635356     0.87798423
Ce     1.92783101     5.57795967     4.05210743
Ce     1.98205398     3.34570762     7.26886955
Ce     7.74213807     4.46545905     0.90125422
Ce     5.81480148     5.63167605     3.98921396
Ce    -1.94645625     7.83004003     0.90010904
Ce    -3.85870505     8.93834074     4.04918527
Ce    -3.82697947     6.68189181     7.22883584
Ce     1.92815559     7.82745473     0.89060408
Ce    -0.00912736     8.95463860     4.06590165
Ce     0.01488852     6.68047076     7.20673556
Ce     5.81127600     7.83258510     0.88371011
Ce     3.86533598     8.96303899     4.05032515
Ce     3.88897864     6.70044359     7.15725641
Cr     5.51061595     3.52600192     6.60939527
Cu     6.89623058     2.75598386     8.55312338
O     11.61334069     0.00154917     0.10141687
O      1.91357203     1.10449997     3.22269139
O      0.01183501     2.18019318     6.42024728
O     -0.00785227     2.23805103     1.69392277
O     -5.79557867    10.04531516     4.86143758
O      2.03211433     0.95400182     7.97465998
O     -1.93899312    10.05733740     0.10496691
O      5.80339689     1.11567419     3.24535339
O      4.18688829     2.24653152     6.44093214
O      3.86763657     2.23577757     1.68132582
O      3.85718477     0.02536347     4.88583974
O      6.13047866     0.80105312     8.35051516
O      7.73821774     0.00761509     0.10924988
O      9.67123737     1.11961751     3.25285363
O      7.14680251     2.59410731     6.48974415
O      7.74357843     2.23531483     1.71563532
O      7.75306140     0.08953211     4.92992380
O      9.60154000     1.14745760     7.90550222
O      9.67032270     3.35425987     0.10911246
O     -0.02291779     4.45429991     3.26432761
O     -1.97487494     5.59842843     6.40407135
O     -1.94403436     5.59119430     1.70564938
O      9.60805225     3.30149427     4.92474921
O     -0.03436991     4.54504525     8.03467551
O      1.92738314     3.35244915     0.09928684
O      3.83060518     4.50081376     3.18213887
O      1.88296326     5.66305903     6.33244142
O      1.92862022     5.59252216     1.67404250
O      1.96718350     3.31716836     4.83841680
O      5.81155478     3.35101064     0.10766953
O      7.74144337     4.46615573     3.23924893
O      6.04242339     5.33846063     6.36790532
O      5.80528807     5.59217007     1.68114259
O      5.67937534     3.42015340     4.70734865
O      8.12101844     4.29984053     8.40166233
O     -3.87155109     6.71022987     0.10512724
O     -1.93952461     7.84017636     3.24191449
O     -3.83745045     8.88723061     6.39047246
O     -3.87509971     8.94378428     1.69355631
O      7.73453098     6.72034240     4.83469821
O     -1.94071371     7.81911588     8.01941346
O     -0.01209783     6.71325780     0.10434852
O      1.94004729     7.84835685     3.27250905
O     -0.01232912     8.92210334     6.40858404
O     -0.00628994     8.94736548     1.70514550
O     -0.04330899     6.71344044     4.83068435
O      1.97183594     7.76399415     8.02025029
O      3.86815347     6.71410280     0.09951587
O      5.80188000     7.85166135     3.21503908
O      3.91105683     8.91490771     6.40231715
O      3.86556896     8.94715423     1.69389986
O      3.93373134     6.69605279     4.85470374
O      5.86790227     7.74198365     7.91900602
O      4.02386739     4.56121881     7.54230329
O      5.32712545     3.20164197     9.25445805
