84
CIF: Ru-Cr-CeO2-CO.cif | data_image0
Ce     1.93038582     1.11050507     0.88387043
Ce     0.00048069     2.22473996     4.01443926
Ce    -5.78241947    10.03683574     7.21221340
Ce     5.81181033     1.12175166     0.90127712
Ce     3.84382379     2.22583242     4.01396017
Ce    -1.91095010    10.00137057     7.23736453
Ce     9.66901012     1.12377363     0.90450652
Ce     7.75549240     2.22405766     4.10044912
Ce     1.98707030     9.99412811     7.25272507
Ce    -0.00709724     4.47602159     0.89067279
Ce    -1.94847778     5.58712453     4.08141694
Ce    -1.82451834     3.30941456     7.22339579
Ce     3.86254305     4.47635356     0.87798423
Ce     1.92818049     5.59077181     4.03628223
Ce     1.85479491     3.31354904     7.17234678
Ce     7.74213807     4.46545905     0.90125422
Ce     5.81264471     5.62709596     4.02545393
Ce    -1.94645625     7.83004003     0.90010904
Ce    -3.86903914     8.93063705     4.07549688
Ce    -3.83864157     6.68965133     7.32907729
Ce     1.92815559     7.82745473     0.89060408
Ce     0.00141890     8.95068789     4.06231480
Ce     0.01555045     6.69931886     7.19611134
Ce     5.81127600     7.83258510     0.88371011
Ce     3.87138819     8.95023080     4.02640799
Ce     3.85164324     6.81439865     7.18069257
Cr     5.10577584     3.75955830     6.78340183
Ru     6.56207982     2.89260553     8.01440601
O     11.61334069     0.00154917     0.10141687
O      1.94251108     1.11165677     3.21618507
O      0.03881709     2.22564231     6.34420681
O     -0.00785227     2.23805103     1.69392277
O     -5.78673876    10.05404316     4.83040823
O      1.97904139     1.14195405     7.97043618
O     -1.93899312    10.05733740     0.10496691
O      5.80079954     1.18143246     3.26854648
O      3.94569695     2.32967303     6.45555653
O      3.86763657     2.23577757     1.68132582
O      3.86580130     0.04822718     4.88519561
O      5.83622090     1.03699499     8.14193122
O      7.73821774     0.00761509     0.10924988
O      9.67654899     1.12771295     3.23760754
O      7.76664832     2.25057187     6.49998625
O      7.74357843     2.23531483     1.71563532
O      7.74785233     0.02222678     4.80611437
O      9.86453766     1.12831197     8.03018666
O      9.67032270     3.35425987     0.10911246
O     -0.00276852     4.46644232     3.23791888
O     -1.86720399     5.55079407     6.41931521
O     -1.94403436     5.59119430     1.70564938
O      9.67316324     3.32643201     4.85003925
O      0.06957406     4.41290794     8.03194639
O      1.92738314     3.35244915     0.09928684
O      3.88167025     4.46668269     3.21801993
O      1.89928036     5.57367884     6.34400295
O      1.92862022     5.59252216     1.67404250
O      1.95374976     3.32639191     4.83409646
O      3.83359319     4.48958048     7.81412330
O      5.81155478     3.35101064     0.10766953
O      7.69585148     4.43395367     3.27438168
O      5.74563170     5.48583198     6.46324094
O      5.80528807     5.59217007     1.68114259
O      5.68954870     3.42666173     5.03210620
O      7.97568277     4.27775881     8.22806409
O     -3.87155109     6.71022987     0.10512724
O     -1.94804038     7.83741586     3.26032515
O     -3.83767790     8.95290280     6.42990888
O     -3.87509971     8.94378428     1.69355631
O      7.71590397     6.68580835     4.85417916
O     -1.81018403     7.88665745     8.07310186
O     -0.01209783     6.71325780     0.10434852
O      1.93471949     7.81944647     3.23160119
O     -0.01377810     8.91238948     6.37392566
O     -0.00628994     8.94736548     1.70514550
O     -0.00954245     6.71113892     4.82347076
O      1.96626986     7.69160811     8.02707450
O      3.86815347     6.71410280     0.09951587
O      5.80979581     7.82463941     3.22257944
O      3.91107456     8.93032222     6.33842866
O      3.86556896     8.94715423     1.69389986
O      3.88525593     6.70287984     4.83794103
O      5.69086474     7.86587204     8.02800847
O      5.01497262     3.78556577    10.50056610
C      5.58729151     3.45946279     9.54589026
