84
CIF: Pt-Ti-CeO2-Ov-CO2.cif | data_image0
Ce     1.93038582     1.11050507     0.88387043
Ce    -0.00843293     2.23283806     4.07156463
Ce    -5.71377178     9.99616841     7.19782367
Ce     5.81181033     1.12175166     0.90127712
Ce     3.80524270     2.21263625     3.98480188
Ce    -1.90106208     9.99661953     7.27719930
Ce     9.66901012     1.12377363     0.90450652
Ce     7.76173444     2.22841807     4.01402187
Ce     1.91049140     9.98344897     7.26481550
Ce    -0.00709724     4.47602159     0.89067279
Ce    -1.94991557     5.58231691     4.08355244
Ce    -1.85233880     3.40548665     7.30127843
Ce     3.86254305     4.47635356     0.87798423
Ce     1.94142843     5.58561399     4.09661439
Ce     1.87644635     3.29759073     7.28735679
Ce     7.74213807     4.46545905     0.90125422
Ce     5.80309217     5.66015349     3.99297334
Ce    -1.94645625     7.83004003     0.90010904
Ce    -3.85861056     8.92487617     4.07201595
Ce    -3.82694245     6.68224967     7.36394526
Ce     1.92815559     7.82745473     0.89060408
Ce    -0.00132621     8.95452135     4.05677859
Ce     0.01696913     6.69637253     7.23826580
Ce     5.81127600     7.83258510     0.88371011
Ce     3.86799214     8.95232575     4.06180237
Ce     3.87350186     6.83129259     7.27812244
Ti     5.62359389     3.44672658     6.50851997
Pt     6.84490359     2.70247407     8.62576031
O     11.61334069     0.00154917     0.10141687
O      1.91813367     1.10229931     3.21643670
O     -0.02226108     2.17432514     6.47839366
O     -0.00785227     2.23805103     1.69392277
O     -5.78819513    10.04778704     4.85613695
O      2.04815217     0.97952978     8.01180783
O     -1.93899312    10.05733740     0.10496691
O      5.80292738     1.10889340     3.22649742
O      4.09304418     2.41400569     6.40743746
O      3.86763657     2.23577757     1.68132582
O      3.86556598     0.06523344     4.88052532
O      5.89028328     0.87754293     8.36977123
O      7.73821774     0.00761509     0.10924988
O      9.68234613     1.11844306     3.23710038
O      7.31342424     2.47155038     6.49118132
O      7.74357843     2.23531483     1.71563532
O      7.75167495     0.08137563     4.89116415
O      9.39143445     1.26513051     8.00620733
O      9.67032270     3.35425987     0.10911246
O     -0.01964511     4.46351828     3.27187334
O     -1.90735288     5.56231794     6.39856883
O     -1.94403436     5.59119430     1.70564938
O      9.62415245     3.28708611     4.91167223
O     -0.05660610     4.52390432     8.09551146
O      1.92738314     3.35244915     0.09928684
O      3.83433608     4.49057581     3.22077854
O      1.99001126     5.55805809     6.45800034
O      1.92862022     5.59252216     1.67404250
O      1.92466272     3.29933883     4.83963183
O      4.35816395     4.11736108     8.54457518
O      5.81155478     3.35101064     0.10766953
O      7.75868470     4.46884656     3.23108237
O      5.72556970     5.28520864     6.44887333
O      5.80528807     5.59217007     1.68114259
O      5.77518122     3.37627427     4.64636515
O      8.04154173     4.35357037     8.47254979
O     -3.87155109     6.71022987     0.10512724
O     -1.93510501     7.82615181     3.27460369
O     -3.81816436     8.93794988     6.37883646
O     -3.87509971     8.94378428     1.69355631
O      7.68183371     6.67251992     4.85479169
O     -1.81417982     7.87221272     8.05369655
O     -0.01209783     6.71325780     0.10434852
O      1.93310037     7.84217947     3.26182166
O     -0.00555922     8.97268659     6.37167979
O     -0.00628994     8.94736548     1.70514550
O      0.02355293     6.70564038     4.87728272
O      1.84413010     7.87875016     8.06171608
O      3.86815347     6.71410280     0.09951587
O      5.81054055     7.85011271     3.21327007
O      3.87484266     9.01840176     6.42591926
O      3.86556896     8.94715423     1.69389986
O      3.91681440     6.74347137     4.83546032
O      5.84508115     7.96296974     8.05534747
O      5.21562162     3.59886539    10.61925897
C      5.17803870     3.63184210     9.40016805
