83
CIF: O2—Olatt+Osur.cif | data_image0
Ce     1.93038582     1.11050507     0.88387043
Ce    -0.02635486     2.22972194     4.02884253
Ce     0.02673806     0.01327438     7.18998106
Ce     5.81181033     1.12175166     0.90127712
Ce     3.84187730     2.21092442     3.99829547
Ce     3.90778520     0.02303407     7.29834781
Ce     9.66901012     1.12377363     0.90450652
Ce     7.71719116     2.24648976     4.05137308
Ce     1.99537870     9.92436722     7.24144944
Ce    -0.00709724     4.47602159     0.89067279
Ce    -1.95297900     5.57303387     4.07385131
Ce    -1.87546760     3.30301210     7.28565213
Ce     3.86254305     4.47635356     0.87798423
Ce     1.94942428     5.57560013     4.07579151
Ce     1.89738934     3.28542552     7.18019501
Ce     7.74213807     4.46545905     0.90125422
Ce     5.80792829     5.64094454     4.00659138
Ce    -1.94645625     7.83004003     0.90010904
Ce    -3.84426329     8.96591820     4.02960106
Ce    -3.83903115     6.87319778     7.16855367
Ce     1.92815559     7.82745473     0.89060408
Ce    -0.00771284     8.95026551     4.07460161
Ce     0.01256463     6.67531685     7.24969243
Ce     5.81127600     7.83258510     0.88371011
Ce     3.87522312     8.93975127     4.05560798
Ce     3.94753680     6.72099310     7.29973275
Sc     5.53308516     3.53328429     6.67503907
Co     6.85696792     2.58483401     8.72601421
O     11.61334069     0.00154917     0.10141687
O      1.91436825     1.11897210     3.20816504
O     -0.00276011     2.23838505     6.37289295
O     -0.00785227     2.23805103     1.69392277
O      0.00791797     0.00420012     4.83970226
O      1.84612931     1.20322484     8.02044320
O     -1.93899312    10.05733740     0.10496691
O      5.82442385     1.10252778     3.23522864
O      3.94062464     2.27293083     6.34203882
O      3.86763657     2.23577757     1.68132582
O     -1.92664356    10.05930079     4.79360443
O      6.25570758     0.89461806     8.62050117
O      7.73821774     0.00761509     0.10924988
O      9.67069299     1.11754571     3.22708141
O      7.36837305     2.44112886     6.67362307
O      7.74357843     2.23531483     1.71563532
O      7.77920870     0.08480124     4.90481724
O      9.68690641     1.09217244     7.93499940
O      9.67032270     3.35425987     0.10911246
O     -0.02826803     4.46906234     3.25915545
O     -2.09160330     5.48406012     6.49146262
O     -1.94403436     5.59119430     1.70564938
O      9.60161883     3.28364266     4.90447450
O      0.00025025     4.43601641     8.00506277
O      1.92738314     3.35244915     0.09928684
O      3.82707531     4.49312546     3.20397950
O      1.97902884     5.48346399     6.45519430
O      1.92862022     5.59252216     1.67404250
O      1.92179337     3.32106502     4.82939316
O      5.81155478     3.35101064     0.10766953
O      7.76352171     4.49205849     3.24149539
O      5.97554632     5.50981771     6.42241805
O      5.80528807     5.59217007     1.68114259
O      5.75908959     3.39850273     4.65528472
O      8.17007410     3.74573994     8.89533302
O     -3.87155109     6.71022987     0.10512724
O     -1.91317846     7.80358382     3.24605423
O     -3.83933707     8.98110496     6.38161783
O     -3.87509971     8.94378428     1.69355631
O     -3.85670855     6.76372004     4.83412659
O     -1.90392113     7.71948683     8.00619466
O     -0.01209783     6.71325780     0.10434852
O      1.91974189     7.82860750     3.27830312
O      0.05464833     8.97122232     6.41117239
O     -0.00628994     8.94736548     1.70514550
O     -0.02828653     6.66305306     4.93825788
O      1.85967947     7.80831024     8.04481615
O      3.86815347     6.71410280     0.09951587
O      5.80905002     7.84531322     3.21731196
O      3.91070992     8.93445570     6.40307365
O      3.86556896     8.94715423     1.69389986
O      3.90365745     6.68803150     4.83482891
O      5.97627689     7.91773145     8.03981961
O      4.02844933     4.30405358     8.09208269
O      5.30520675     3.54941729     8.90640419
