86
CIF: 2-NH2+H+NO-NH2NO+H_ts.cif | data_image0
Ce     0.02296014     0.03317446     8.81428928
Ce     1.92809701     1.12111070     5.61469149
Ce     0.00000000     2.23543938     2.47426506
Ce     3.95913412     0.02106857     8.82416847
Ce     5.82055392     1.12688516     5.64220326
Ce     3.87189458     2.23543938     2.47426506
Ce     7.72875252     0.00981256     8.78462453
Ce     9.72115212     1.14562836     5.64478452
Ce     7.74390532     2.23543938     2.47426506
Ce     9.54864874     3.28071953     8.88907537
Ce     0.02002760     4.53229901     5.56666339
Ce    -1.93600537     5.58869904     2.47426506
Ce     2.03515859     3.23970454     8.76392485
Ce     3.89335317     4.50098568     5.63578704
Ce     1.93588921     5.58869904     2.47426506
Ce     5.80555882     3.39196668     8.82945208
Ce     7.75723928     4.50296886     5.65453876
Ce     5.80789995     5.58869904     2.47426506
Ce     7.76100213     6.67512506     8.91256313
Ce    -1.91149100     7.80146190     5.58636014
Ce    -3.87195266     8.94185811     2.47426506
Ce     1.97051360     7.82828081     5.56255502
Ce    -0.00005808     8.94185811     2.47426506
Ce     3.99662458     6.77027805     8.82480945
Ce     5.84618425     7.84513891     5.65515532
Ce     3.87195266     8.94185811     2.47426506
V      0.14846588     6.86544765     8.47842183
O      0.02092085     0.05668066     6.40572036
O      0.02723858     2.54525515     9.44455369
O      1.93594729     1.11771969     3.26466483
O      0.00376187     2.25867954     4.79488892
O      0.00000000     0.00000000     1.68386529
O      2.03726700     1.18898211     7.94623697
O     -1.90065041     9.92036407     6.50079268
O      3.88876018     2.23289852     9.66255752
O      5.80795803     1.11771969     3.26466483
O      3.85309251     2.22324579     4.87744262
O      3.87189458     0.00000000     1.68386529
O      5.81785903     1.21751908     7.94669480
O      1.94116785     9.98172194     6.45664895
O      7.72243579     2.19677566     9.66835839
O      9.67985261     1.11771969     3.26466483
O      7.79406104     2.25646070     4.89484310
O      7.74390532     0.00000000     1.68386529
O      9.61724936     1.18720735     7.96103266
O     -1.73428064     3.48619612     6.57893026
O     -2.30026638     5.19046174    10.21838965
O      0.00000000     4.47087876     3.26466483
O     -1.95785611     5.56589887     4.78030903
O      9.67985261     3.35315907     1.68386529
O      0.32074996     5.19411551     8.34019129
O      1.82227992     3.41872909     6.49076483
O      3.87201074     4.47087876     3.26466483
O      1.99695026     5.56830459     4.77605793
O      1.93594729     3.35315907     1.68386529
O      3.76996701     4.45132256     8.02489624
O      5.78943911     3.41072736     6.43135132
O      5.80369750     5.42972399     9.66217878
O      7.74390532     4.47087876     3.26466483
O      5.83710602     5.58778619     4.81815074
O      5.80795803     3.35315907     1.68386529
O      7.77493122     4.39255350     7.97407162
O     -3.80927556     6.74007450     6.41206545
O     -3.55781582     8.99126184     9.56841030
O     -1.93600537     7.82413842     3.26466483
O     -3.84939130     8.97135713     4.81120748
O      7.74384724     6.70641873     1.68386529
O     -1.53033408     7.25402207     8.06044060
O      0.04283134     6.72392259     6.12816050
O      0.04986594     8.93217017     9.30008403
O      1.93600537     7.82413842     3.26466483
O      0.00965757     9.01199008     4.77007779
O     -0.00005808     6.70641873     1.68386529
O      1.74729694     7.48872816     7.95101308
O      3.90837438     6.73515756     6.37423536
O      3.67725066     9.00915895     9.58243633
O      5.80789995     7.82413842     3.26466483
O      3.89173806     8.98606208     4.80954339
O      3.87195266     6.70641873     1.68386529
O      5.85098595     7.86968062     8.00057602
O      2.48829293     5.07738808    11.95090385
N      0.46353216     6.67947869    10.47360781
N      2.51354465     5.39802968    10.81715714
H     -1.52251037     5.74746812    10.47832975
H      0.43439802     7.58527827    10.93379212
H      0.28951131     5.91277923    11.16550036
