85
CIF: Re-Y-CeO2-O-CO.cif | data_image0
Ce     1.93596140     1.11772783     0.89035214
Ce    -0.00832838     2.23442207     4.03854662
Ce    11.60895302     0.00477177     7.21133901
Ce     5.80789581     1.11772783     0.89035214
Ce     3.87077686     2.22252942     4.00798067
Ce    -2.08089614     9.98993841     7.14130784
Ce     9.67981860     1.11772783     0.89035214
Ce     7.74196428     2.23718905     4.10171985
Ce     2.06499951     9.99796531     7.27413713
Ce     0.00000000     4.47091133     0.89035214
Ce    -1.95020238     5.58241092     4.07117058
Ce    -1.81562579     3.27350175     7.27378119
Ce     3.87193441     4.47091133     0.89035214
Ce     1.94458003     5.58448165     4.03046363
Ce     1.95706865     3.37559458     7.18830695
Ce     7.74385721     4.47091133     0.89035214
Ce     5.81908218     5.59710827     4.00793240
Ce    -1.93596721     7.82410489     0.89035214
Ce    -3.88819853     8.95196727     3.96701259
Ce    -3.88313251     6.86870477     7.14043646
Ce     1.93596721     7.82410489     0.89035214
Ce    -0.00120084     8.95849150     4.07127546
Ce     0.02221344     6.69474349     7.23556986
Ce     5.80789000     7.82410489     0.89035214
Ce     3.86913415     8.95050307     4.03882657
Ce     3.86352964     6.67896911     7.18859358
Y      5.64037596     3.45088295     6.94872021
O      0.00000000     0.00000000     0.09999685
O      1.92989607     1.12462100     3.20625227
O      0.09253553     2.22693222     6.36806983
O      0.00000000     2.23545567     1.68070743
O     11.60839148     0.00466066     4.81227739
O      1.95990756     1.07698672     7.99999090
O      3.87192279     0.00000000     0.09999685
O      5.80520601     1.10429809     3.24786564
O      3.99527150     2.10855815     6.47204623
O      3.87192279     2.23545567     1.68070743
O     -1.97670872    10.03894431     4.80621262
O      6.55603376     1.09682774     9.31462048
O      7.74385721     0.00000000     0.09999685
O      9.67593307     1.12027199     3.23221670
O      7.56919951     2.33650340     6.56453510
O      7.74385721     2.23545567     1.68070743
O      7.75816514     0.01574030     4.83509851
O      9.87887656     1.00386133     8.07923465
O     -1.93596140     3.35318350     0.09999685
O      0.00635144     4.48762774     3.26133624
O     -2.09292019     5.58633320     6.52035269
O     -1.93596721     5.58864923     1.68070743
O      9.67395882     3.33404969     4.83481613
O      0.15506392     4.55434871     8.00520384
O      1.93596140     3.35318350     0.09999685
O      3.85447743     4.48160821     3.19989226
O      1.91918213     5.59958407     6.30303076
O      1.93595559     5.58864923     1.68070743
O      2.00815521     3.32724701     4.85450018
O      5.80789581     3.35318350     0.09999685
O      7.75452710     4.48085726     3.24786252
O      5.98062955     5.54668271     6.47229563
O      5.80789000     5.58864923     1.68070743
O      5.75296748     3.38564980     4.73889607
O      8.14557249     3.82077586     9.31462817
O     -3.87192860     6.70637706     0.09999685
O     -1.92588629     7.81883735     3.22037206
O     -3.89501946     8.95650179     6.33344247
O     -3.87192860     8.94183273     1.68070743
O     -3.87383770     6.75329100     4.80611052
O     -2.02580136     7.87700118     8.02423278
O     -0.00000581     6.70637706     0.09999685
O      1.92524110     7.81120278     3.26128922
O     -0.07564043     9.08092828     6.52074526
O     -0.00000581     8.94183273     1.68070743
O     -0.06700858     6.74620934     4.92319331
O      3.87192860     6.70637706     0.09999685
O      5.79933834     7.82661887     3.20625032
O      3.92516862     8.86797048     6.36925893
O      3.87192860     8.94183273     1.68070743
O      3.93138157     6.65849485     4.85480056
O      5.85617588     7.82569215     7.99959308
O      1.94172967     7.64981803     8.00552845
O      3.80195916     4.51219987     7.87113384
O      5.26679903     3.68709553    10.69059097
O      6.07867009     3.22530195    12.85414628
Re     6.84900495     2.75206852     9.81430344
C      6.04483379     3.23394984    11.65561651
