82
CIF: 2.2-CO+Olat — CO2.cif | data_VESTA_phase_1
O      0.55880208     0.45469631     0.59668943
O      2.47099391     1.59739650     3.75775885
O      0.64719800     2.72091120     6.94439839
O      0.55857251     2.66393126     2.16034467
O      0.56379522     0.47159545     5.36222135
O      2.48082525     1.88059632     8.62808037
O      4.38540684     0.45297657     0.59566298
O      6.30047404     1.54206672     3.72936027
O      4.22470210     2.83093456     6.96880520
O      4.38543554     2.66345411     2.15573703
O      4.39351066     0.52862509     5.39344838
O      6.24197960     1.39389105     8.56199951
O      8.21223543     0.45371218     0.59634728
O     10.11694903     1.54131123     3.74477990
O      8.17744984     2.62633564     6.90566684
O      8.21136881     2.66393126     2.15794961
O      8.21348085     0.42706124     5.36630436
O      9.95299013     1.46735262     8.66916137
O     -1.35379725     3.76852886     0.59928978
O      0.55985810     4.86394128     3.72192418
O     -1.22845203     6.01547873     7.01161976
O     -1.35465240     5.97672005     2.16431362
O     -1.34682980     3.76441342     5.35327979
O      1.75231355     5.10283552     8.05011803
O      2.47112018     3.76837975     0.59737374
O      4.36772421     4.86954782     3.71524082
O      4.53093126     5.21270978     8.95960238
O      2.47178019     5.97659082     2.16077806
O      2.44527059     3.84134429     5.47091148
O      6.29905071     3.76820082     0.59561736
O      8.22011542     4.89360425     3.76722504
O      6.32409105     6.04239808     6.89211764
O      6.29860878     5.97710774     2.15804085
O      6.26849494     3.75575510     5.31906464
O      8.24959795     5.04067650     8.67144238
O     -3.26600056     7.08062180     0.59753341
O     -1.31272717     8.18131272     3.79113003
O     -3.18802137     9.33491783     6.98470384
O     -3.26669501     9.29058243     2.15806366
O     -3.21002566     7.09391248     5.40487624
O     -1.29732877     8.24400854     8.66453092
O      0.55904312     7.07985637     0.59849143
O      2.47733004     8.18750576     3.70757663
O      0.50131775     9.27569130     6.87334492
O      0.55942192     9.28994623     2.15804085
O      0.71998317     7.01856218     5.46381754
O      2.39703794     8.12396498     8.47817239
O      4.38525762     7.08119836     0.59691753
O      6.26778327     8.15535762     3.81042737
O      4.39590967     9.24212165     6.93648328
O      4.38543554     9.29084089     2.15829176
O      4.19260821     6.95794396     5.50300530
O      6.37742016     8.10977964     8.70860003
O      4.34961688     4.32138931    11.22735981
Ce     2.47175723     1.55889628     1.37645273
Ce     0.51506899     2.63723062     4.52050582
Ce     0.52475685     0.42731969     7.92094443
Ce     6.29879244     1.55841912     1.37508413
Ce     4.41704732     2.67778856     4.54210698
Ce     4.41379317     0.48029354     7.78878271
Ce    10.12428379     1.55942313     1.37909871
Ce     8.19733634     2.67366318     4.57137234
Ce     8.20627809     0.45021306     7.74688055
Ce     0.55855529     4.87244055     1.38153939
Ce    -1.34185387     5.96795238     4.60332929
Ce    -1.48937555     3.70314906     7.81008734
Ce     4.38512562     4.87249026     1.37706861
Ce     2.47316909     5.98321131     4.43843507
Ce     8.21205752     4.87253002     1.37887061
Ce     6.29993455     5.95964198     4.61377632
Ce     6.30181129     3.81322213     7.93677464
Ce    -1.35356194     8.18480189     1.37916714
Ce    -3.26668353     9.30434032     4.61687849
Ce    -3.24826628     7.08537344     7.82208546
Ce     2.47241151     8.18511005     1.37818630
Ce     0.57158913     9.29785900     4.54730768
Ce     0.51111465     7.21082473     7.78752815
Ce     6.29871783     8.18593513     1.37729671
Ce     4.38699661     9.27199337     4.60574716
Ce     4.50240145     7.13252205     7.90602663
Ta     2.36880657     3.42046615     7.46045411
C      4.91862334     4.15898854    10.20822731
