82
CIF: Rh-Ti-CeO2.cif | data_image0
Ce     1.93038582     1.11050507     0.88387043
Ce    -0.00748443     2.23041493     4.03594977
Ce    -5.79359640    10.03845124     7.21712748
Ce     5.81181033     1.12175166     0.90127712
Ce     3.84907956     2.22783969     4.01703077
Ce    -1.89708554    10.02954820     7.24065702
Ce     9.66901012     1.12377363     0.90450652
Ce     7.72926264     2.24675841     4.07656947
Ce     1.97391060     9.97946916     7.21951062
Ce    -0.00709724     4.47602159     0.89067279
Ce    -1.94637029     5.58879585     4.07762764
Ce    -1.82632822     3.34517334     7.25328956
Ce     3.86254305     4.47635356     0.87798423
Ce     1.92886475     5.59254982     4.04511568
Ce     1.88968192     3.32361800     7.20871988
Ce     7.74213807     4.46545905     0.90125422
Ce     5.81395217     5.61554674     4.02739341
Ce    -1.94645625     7.83004003     0.90010904
Ce    -3.86796703     8.93070016     4.08438795
Ce    -3.83854058     6.67326914     7.32559646
Ce     1.92815559     7.82745473     0.89060408
Ce    -0.00117651     8.94965839     4.05000953
Ce     0.00933454     6.71170232     7.20076018
Ce     5.81127600     7.83258510     0.88371011
Ce     3.87245561     8.95166879     4.02708476
Ce     3.85994447     6.77435579     7.19809910
Ti     5.19581445     3.69618391     6.81435568
Rh     6.80254933     2.73771941     8.14107048
O     11.61334069     0.00154917     0.10141687
O      1.93317840     1.11325368     3.23254751
O      0.02481676     2.22669891     6.39160075
O     -0.00785227     2.23805103     1.69392277
O      5.81032510    10.05366253     4.85613156
O      1.96661342     1.14756092     8.00065933
O     -1.93899312    10.05733740     0.10496691
O      5.80325509     1.14801125     3.24855503
O      3.91358229     2.30242276     6.41311399
O      3.86763657     2.23577757     1.68132582
O      3.88000396     0.02596871     4.88021960
O      5.87764539     0.91257927     8.16947686
O      7.73821774     0.00761509     0.10924988
O      9.67570627     1.12390211     3.23574505
O      7.74062631     2.22343528     6.50628878
O      7.74357843     2.23531483     1.71563532
O      7.75198228     0.04252437     4.85305033
O      9.74391995     1.06195302     8.00480263
O      9.67032270     3.35425987     0.10911246
O     -0.00779665     4.46554911     3.24667774
O     -1.85782774     5.55963956     6.41197755
O     -1.94403436     5.59119430     1.70564938
O      9.65497113     3.31937289     4.87103443
O      0.07090696     4.44071503     8.04640743
O      1.92738314     3.35244915     0.09928684
O      3.86264124     4.47531892     3.21997302
O      1.92593976     5.60049798     6.38777722
O      1.92862022     5.59252216     1.67404250
O      1.93679702     3.34620878     4.85394876
O      3.85800327     4.46028790     7.91528511
O      5.81155478     3.35101064     0.10766953
O      7.71979155     4.45155909     3.25413481
O      5.74356972     5.49853064     6.43180599
O      5.80528807     5.59217007     1.68114259
O      5.73694860     3.39018657     4.90772120
O      8.03127709     4.33004071     8.27854275
O     -3.87155109     6.71022987     0.10512724
O     -1.94339539     7.83533821     3.25724624
O     -3.84473320     8.97018411     6.43947004
O     -3.87509971     8.94378428     1.69355631
O      7.72629382     6.68937393     4.85057519
O     -1.79051976     7.88571092     8.04879321
O     -0.01209783     6.71325780     0.10434852
O      1.93620952     7.83199787     3.23815166
O      0.03804018     8.92856632     6.36817102
O     -0.00628994     8.94736548     1.70514550
O      0.00091255     6.71330908     4.83376505
O      1.96504655     7.81084807     8.02139371
O      3.86815347     6.71410280     0.09951587
O      5.80812588     7.83144519     3.22835748
O      3.85503237     8.93744866     6.35725576
O      3.86556896     8.94715423     1.69389986
O      3.88193725     6.71072107     4.84742582
O      5.67305434     7.87058021     8.02036699
