84
CIF: Cu-CeO2+CO2(O).cif | data_image0
O      0.37318325     0.57320900     0.59999690
O      2.28281872     1.70497326     3.76157364
O      0.22668107     2.71736480     6.95375113
O      0.37318325     2.78222527     2.16203261
O      0.38090176     0.56183430     5.36256846
O      2.26269093     1.17940892     8.77880405
O      4.19942644     0.57320900     0.59999690
O      6.10773265     1.67329390     3.73439962
O      4.09740385     2.84542670     6.96833113
O      4.19942644     2.78222527     2.16203261
O      4.19345955     0.60744632     5.39913808
O      6.08968294     1.70797298     8.54562828
O      8.02555485     0.57320900     0.59999690
O      9.93764293     1.67934560     3.75971405
O      8.01423272     2.74403687     6.90442755
O      8.02555485     2.78222527     2.16203261
O      8.01326543     0.55669296     5.37327731
O      9.84061411     1.64475985     8.64916956
O     -1.53988095     3.88673340     0.59999690
O      0.39158466     4.98193511     3.76230754
O     -1.51408549     6.06706321     6.99304448
O     -1.53993834     6.09584907     2.16203261
O     -1.57414638     3.90535597     5.36260941
O      2.28636224     3.88673340     0.59999690
O      4.19182115     4.99216423     3.74516847
O      2.26056481     6.02134817     7.00303434
O      2.28630485     6.09584907     2.16203261
O      2.30739117     3.92198792     5.45001339
O      4.17988970     4.99520199     8.45990165
O      6.11249065     3.88673340     0.59999690
O      8.01392824     4.98429311     3.73059756
O      6.11400704     6.11549949     6.90560813
O      6.11243325     6.09584907     2.16203261
O      6.09906159     3.86462893     5.38404010
O      7.94364314     4.95081300     8.55071114
O     -3.45300254     7.20035721     0.59999690
O     -1.53369702     8.30391200     3.75148903
O     -3.48714135     9.33043443     6.86689889
O     -3.45300254     9.40937347     2.16203261
O     -3.40416912     7.14064885     5.38760749
O     -1.57289852     8.32083387     8.57107256
O      0.37324065     7.20035721     0.59999690
O      2.27814496     8.30680472     3.73890351
O      0.34587327     9.42079498     6.94865555
O      0.37324065     9.40937347     2.16203261
O      0.38427383     7.20506209     5.40294211
O      2.28297673     8.31978895     8.56624190
O      4.19936905     7.20035721     0.59999690
O      6.11730817     8.28375523     3.75996879
O      4.20338567     9.42263128     6.93670530
O      4.19936905     9.40937347     2.16203261
O      4.16451984     7.20257830     5.39455948
O      6.09145150     8.24588326     8.59733047
O      1.90697264     5.83274714    10.75545955
O     -0.33499995     5.38147931     8.82233007
O      2.44817098     6.89675808    12.78367725
Ce     2.28624746     1.67771714     1.38101475
Ce     0.35563619     2.76864928     4.64465372
Ce     0.40104573     0.58925935     7.80514858
Ce     6.11249065     1.67771714     1.38101475
Ce     4.19996109     2.76495008     4.53381331
Ce     4.09346964     0.56404109     7.82686728
Ce     9.93861905     1.67771714     1.38101475
Ce     8.02068341     2.77343506     4.53914731
Ce     7.99920019     0.57417017     7.76659159
Ce     0.37318325     4.99124153     1.38101475
Ce    -1.53031166     6.08161312     4.55010964
Ce    -1.58420960     3.76233501     7.75978042
Ce     4.19942644     4.99124153     1.38101475
Ce     2.27419728     6.12248563     4.53678234
Ce     8.02555485     4.99124153     1.38101475
Ce     6.11726353     6.08772667     4.56068182
Ce     6.13580342     3.86400744     7.74824585
Ce    -1.53993834     8.30486534     1.38101475
Ce    -3.45226196     9.40485224     4.56639497
Ce    -3.47140812     7.18078661     7.77870323
Ce     2.28630485     8.30486534     1.38101475
Ce     0.36208379     9.41635850     4.57224535
Ce     0.35871241     7.28907177     7.78342126
Ce     6.11243325     8.30486534     1.38101475
Ce     4.20244276     9.41520740     4.56576306
Ce     4.22198713     7.25948357     7.74759902
Cu     3.06702320     4.36425960     7.11065708
C      2.17569112     6.36481965    11.77046033
