    41
 Tv_1:   7.865150   0.000000   0.000000 Tv_2:  -3.932575   6.811420   0.000000 Tv_3:   0.000000   0.000000  23.027330
Ir      1.96812401      3.40348252      8.24148141
Ce      3.93257893      2.27047096      0.80273272
Ce      0.02658421      4.52505770      4.03703636
Ce     -3.89820429      6.79015445      7.18130313
Ce      1.96629143      5.67618082      0.80273272
Ce      1.96648020      1.16463698      4.03682911
Ce     -1.96570155      3.44249833      7.18178671
Ce     -1.96628357      5.67618082      0.80273272
Ce      5.89921643      1.13475528      3.93997616
Ce      0.00000393      2.27047096      0.80273272
Ce      3.90712337      4.52541189      4.03659884
Ce     -0.03271116      6.79086284      7.18086561
O       3.93257107      4.54094874      1.60546545
O       4.05533819      0.07053225      4.87693519
O       0.35286602      2.47113539      8.18916331
O      -1.96628750      3.40570985      0.00000000
O       1.96617739      5.68442945      3.17917621
O       1.96601222      0.78673260      6.41232848
O       5.89885857      1.13523889      1.60546545
O       1.96643301      3.40538972      4.71254308
O      -1.96540267      5.67457332      8.56526869
O       0.00000000      0.00000000      0.00000000
O       3.93997611      2.26613209      3.17917621
O      -0.29984311      4.71263057      6.41423974
O       1.96628357      1.13523889      1.60546545
O       5.89891362      3.26379392      4.87730363
O       1.96778581      5.26780896      8.17479426
O       3.93257500      0.00000000      0.00000000
O      -0.00738931      2.26619339      3.17926832
O       4.23645294      4.71508268      6.41073959
O      -0.00000393      4.54094874      1.60546545
O       7.74344467      0.06977618      4.87384953
O       3.58311459      2.47106727      8.17143227
O       1.96628750      3.40570985      0.00000000
O      -1.96482851      5.67488665      3.27107828
O       5.90101362      1.13310010      6.92411089
H       2.88897184      2.86226754     10.60316437
H      -1.96499762      5.67463462      9.53792009
H       1.08084858      2.91056732     10.62932342
H       2.02701039      4.45238666     10.61226017
C       1.99375260      3.40767154     10.27249191
