84
CIF: CO+Olatt—CO2.cif | data_image0
Ce     1.92495998     1.08882004     0.97126002
Ce    -0.00950954     2.22891682     4.11215194
Ce    -5.79529851    10.03855344     7.30676967
Ce     5.81620994     1.08451001     1.00320010
Ce     3.83606125     2.18323213     4.07482554
Ce     3.85518012     0.01588571     7.36456835
Ce     9.67754998     1.10742996     0.98237990
Ce     7.77944984     2.20382614     4.16429334
Ce     7.86701064     0.02243099     7.24583463
Ce     0.00133001     4.46529996     0.99179003
Ce    -1.93119612     5.56969794     4.14781366
Ce    -1.91938172     3.33865877     7.30569496
Ce     3.87336999     4.45636997     0.99498003
Ce     1.94420239     5.56302673     4.15967981
Ce     1.78827826     3.31746005     7.31306654
Ce     7.72969996     4.44461002     1.00541006
Ce     5.81843358     5.52981697     4.20959520
Ce    -1.94060002     7.80672999     1.02136005
Ce    -3.87139501     8.91392544     4.17323297
Ce    -3.80554020     6.67398756     7.32638871
Ce     1.93916999     7.79623000     1.01525009
Ce     0.00720705     8.94017916     4.18469587
Ce     0.02629487     6.72630540     7.31970282
Ce     5.81913997     7.78379003     1.00101991
Ce     3.90661427     8.91156633     4.11781310
Ce     3.91514613     6.70716884     7.29584870
Ti     5.27793071     3.20871731     6.97350128
Cu     6.55554288     4.32533584     9.24460418
O     -5.79475997    10.04763999     0.22246994
O      1.92746665     1.09049489     3.30283255
O     -0.05518958     2.21253012     6.47665138
O     -0.00800997     2.23857004     1.77880995
O     -5.78787241    10.04353548     4.93864324
O      1.79137716     1.18164096     8.13124851
O     -1.93101994    10.01803998     0.23248999
O      5.81228700     1.10871945     3.32481743
O      3.72282636     2.34468269     6.41003411
O      3.86438006     2.20944998     1.77132989
O     -1.92945251    10.05284414     4.93560029
O      5.79763874     1.70501142     7.82907275
O      1.92796998    10.03434998     0.23282003
O      9.69006829     1.08117934     3.31746249
O      8.00533737     2.16779049     6.42526262
O      7.75109005     2.21322996     1.80048009
O      1.96171774    10.01900637     4.92281742
O      9.72176490     1.03346879     8.15854215
O      9.66761998     3.33780999     0.22193995
O      0.01181853     4.50805225     3.30468034
O     -1.91850856     5.55336901     6.45103970
O     -1.96717000     5.56773996     1.80172009
O     -1.88658278     3.36996616     4.87046288
O      0.00121762     4.46523322     8.09409903
O      1.93155003     3.34275005     0.21968007
O      3.88844356     4.42684411     3.36744805
O      2.00094563     5.53650124     6.54663163
O      1.96211004     5.56756996     1.79920002
O      1.85838284     3.34583510     4.91315822
O      3.94914527     4.23460134     8.18689388
O      5.81311003     3.33241001     0.23043005
O      7.70013239     4.42722243     3.38311523
O      5.80018277     5.32719273     6.58391603
O      5.79987000     5.55519004     1.82206000
O      5.75902702     3.20689611     5.07828314
O      8.15134236     4.64477793     8.44379862
O      7.72290001     6.68263000     0.22943009
O     -1.93442855     7.79507277     3.36968963
O     -3.89106053     8.90913836     6.52714560
O     -3.86847004     8.90836000     1.81020011
O      7.71044526     6.67058423     4.99279718
O     -1.88156870     7.70272634     8.10402742
O     -0.00035997     6.68638997     0.24417994
O      1.96574847     7.78615609     3.34785966
O      0.09763945     9.00268066     6.58129111
O      0.00356001     8.91492005     1.83681993
O      0.03794401     6.72052920     4.99950350
O      2.02886367     7.80320902     8.08510910
O      3.88425998     6.67600004     0.22426993
O      5.81369261     7.77902885     3.34934764
O      3.90169007     8.93350449     6.47460509
O      3.88347005     8.91370998     1.78063994
O      3.91761798     6.67377435     4.99255760
O      5.79553689     7.73242508     8.06038977
O      3.99206763     4.25933808    10.64749854
C      4.78157904     4.24111900     9.76886336
