84
CIF: Nb-Sc-CeO2-Ov-CO2.cif | data_image0
Ce     1.93038582     1.11050507     0.88387043
Ce    -0.01704667     2.24256202     4.07239829
Ce    11.60016074     0.00790644     7.21399325
Ce     5.81181033     1.12175166     0.90127712
Ce     3.84361982     2.22418717     4.00567947
Ce    -2.08433886     9.99468018     7.16494487
Ce     9.66901012     1.12377363     0.90450652
Ce     7.76688070     2.22144170     3.96944499
Ce     2.02825684     9.93553317     7.44269262
Ce    -0.00709724     4.47602159     0.89067279
Ce    -1.96401119     5.57637998     4.11201409
Ce    -1.78273854     3.33464115     7.44733701
Ce     3.86254305     4.47635356     0.87798423
Ce     1.94507002     5.58241765     4.10244497
Ce     1.88339805     3.31212319     7.26292206
Ce     7.74213807     4.46545905     0.90125422
Ce     5.80287362     5.61754692     4.00571100
Ce    -1.94645625     7.83004003     0.90010904
Ce    -3.89475870     8.95440593     3.98146926
Ce    -3.89112282     6.86596084     7.16520430
Ce     1.92815559     7.82745473     0.89060408
Ce    -0.00430865     8.97067271     4.11140514
Ce     0.00413481     6.70302886     7.29675622
Ce     5.81127600     7.83258510     0.88371011
Ce     3.85676427     8.95139633     4.07235249
Ce     3.88016894     6.77007787     7.26341216
Sc     5.56591845     3.49083892     6.72578293
Nb     6.96787178     2.67637723     9.31983436
O     11.61334069     0.00154917     0.10141687
O      1.92175581     1.11502905     3.20200929
O      0.03839376     2.22272670     6.38931279
O     -0.00785227     2.23805103     1.69392277
O     11.60186128     0.00708152     4.81289003
O      1.96964359     0.95588147     8.04240805
O     -1.93899312    10.05733740     0.10496691
O      5.79398946     1.10031200     3.22219515
O      4.02509551     2.23020799     6.52297333
O      3.86763657     2.23577757     1.68132582
O      3.82869987     0.03292735     4.82809434
O      6.92608973     0.89129383     9.56611526
O      7.73821774     0.00761509     0.10924988
O      9.67881785     1.11772594     3.21500250
O      7.23268528     2.52259972     7.36181592
O      7.74357843     2.23531483     1.71563532
O      7.74053817     0.14694133     4.92254458
O      9.86888913     1.00702741     8.08411236
O      9.67032270     3.35425987     0.10911246
O     -0.03808520     4.48209043     3.30013880
O     -2.12895986     5.58242293     6.51861408
O     -1.94403436     5.59119430     1.70564938
O      9.54830026     3.28089164     4.92393749
O      0.04367372     4.64303792     8.10989691
O      1.92738314     3.35244915     0.09928684
O      3.87754008     4.46723061     3.22331585
O      2.00863873     5.54510087     6.37446989
O      1.92862022     5.59252216     1.67404250
O      1.97819930     3.30646139     4.80231594
O      4.03222920     4.37421396     8.61341393
O      5.81155478     3.35101064     0.10766953
O      7.75132340     4.49082362     3.22211875
O      5.88868554     5.45582471     6.52477809
O      5.80528807     5.59217007     1.68114259
O      5.85297620     3.32635026     4.76277640
O      8.49144508     3.60814487     9.56512219
O     -3.87155109     6.71022987     0.10512724
O     -1.93142077     7.82095248     3.26614307
O     -3.87785803     8.94437622     6.30631470
O     -3.87509971     8.94378428     1.69355631
O      7.69282504     6.72607365     4.82839743
O     -2.03506306     7.88035547     8.03118070
O     -0.01209783     6.71325780     0.10434852
O      1.90690213     7.85003683     3.29966178
O     -0.09226766     9.11004961     6.51776681
O     -0.00628994     8.94736548     1.70514550
O     -0.04505604     6.73133666     4.95895020
O      1.80745392     7.69721656     8.10768065
O      3.86815347     6.71410280     0.09951587
O      5.80253860     7.83658123     3.20173727
O      3.90188321     8.91297731     6.39023002
O      3.86556896     8.94715423     1.69389986
O      3.93305023     6.69158382     4.80291837
O      5.96404319     7.87412987     8.04264993
O      5.33223404     3.61782112    10.35032740
C      5.04846586     3.78506930     9.11236538
