80
CIF: 1-CO2.cif | data_VESTA_phase_1
O     -0.00101584     0.09961518     0.10145935
O      1.88867237     1.20678403     3.22017109
O      0.06516899     2.35130982     6.92790820
O     -0.00101584     2.30864459     1.66347260
O     -0.02859860     0.17313617     4.87394940
O      3.82513533     0.09961518     0.10145935
O      5.76007739     1.19943790     3.20564106
O      3.91632599     2.25467684     7.92886128
O      3.82513533     2.30864459     1.66347260
O      3.82095143     0.24290953     4.90978408
O      7.65129798     0.09961518     0.10145935
O      9.56493601     1.22498535     3.22528056
O      7.50538373     2.19170287     6.53520942
O      7.65129798     2.30864459     1.66347260
O      7.68095834     0.10752793     4.83626710
O      9.34639178     1.05920526     8.31405554
O     -1.91409143     3.41315929     0.10145935
O     -0.07392705     4.46160877     3.30929018
O     -1.67249270     5.56260449     6.62861680
O     -1.91409717     5.62219864     1.66347260
O      9.53624559     3.32919069     4.95606578
O      1.91205974     3.41315929     0.10145935
O      3.89193426     4.49330948     3.20527610
O      1.76386702     5.50263260     7.20432107
O      1.91205400     5.62219864     1.66347260
O      2.06334591     3.28977604     5.01265765
O      1.61771173     1.49752794    12.06752691
O      5.73822240     3.41315929     0.10145935
O      7.64266618     4.50892623     3.32099176
O      5.62647954     5.58419557     6.51614017
O      5.73821666     5.62219864     1.66347260
O      5.62630162     3.33042333     4.93305038
O      7.62007656     4.48986008     8.35039203
O     -3.82717276     6.72671335     0.10145935
O     -1.91449892     7.84932002     3.31022539
O     -3.85538682     9.04976192     6.51931078
O     -3.82717276     8.93574276     1.66347260
O     -3.78642421     6.70726945     4.96779018
O     -1.76442947     7.84818679     8.30698440
O     -0.00102158     6.72671335     0.10145935
O      1.89832576     7.90156804     3.21111548
O      0.02536741     9.11197046     6.48769597
O     -0.00102158     8.93574276     1.66347260
O      0.02285936     6.83106027     4.98350634
O      1.79784328     8.03489193     8.22696655
O      3.82514107     6.72671335     0.10145935
O      5.76853128     7.82713251     3.28732405
O      3.79862008     8.94189602     6.40872738
O      3.82514107     8.93574276     1.66347260
O      3.81613047     6.74770798     4.90757150
O      5.68375708     7.81708252     8.35073419
O      1.37879896     1.12499243     9.75782120
Ce     1.91205974     1.20412988     0.88247738
Ce    -0.02518375     2.29072161     4.05766695
Ce    11.34253702     0.00383709     7.39458016
Ce     5.73822240     1.20412988     0.88247738
Ce     3.84554404     2.31132856     3.90670966
Ce    -1.94432571     9.93094022     7.28650588
Ce     9.56437357     1.20412988     0.88247738
Ce     7.64287279     2.30598049     4.06669975
Ce     7.77857120     0.03826153     7.22423429
Ce    -0.00101584     4.51767400     0.88247738
Ce    -1.91054459     5.61668159     4.17869737
Ce     9.39404463     3.30707276     7.37802003
Ce     3.82514681     4.51767400     0.88247738
Ce     1.91954370     5.62578721     4.04418617
Ce     1.98099940     3.32303743     7.25443487
Ce     7.65129798     4.51767400     0.88247738
Ce     5.72102765     5.62459434     4.13549503
Ce     5.83804487     3.50905667     7.33208047
Ce    -1.91409717     7.83122805     0.88247738
Ce    -3.83601691     8.94811886     4.12650785
Ce    -3.84574491     6.71438695     7.47635439
Ce     1.91206548     7.83122805     0.88247738
Ce     0.01333224     8.95905356     4.03688694
Ce    -0.01985774     6.95465228     7.29159253
Ce     5.73821666     7.83122805     0.88247738
Ce     3.83010551     8.92410227     4.01914068
Ce     3.82173196     6.86363575     7.36114055
C      1.49546033     1.30242295    10.92022420
