80
CIF: 1-CO+Olat→CO2.cif | data_VESTA_phase_1
O     -0.00101584     0.09961518     0.10145935
O      1.89538153     1.19466639     3.22163094
O      0.01423904     2.29987694     6.55585257
O     -0.00101584     2.30864459     1.66347260
O     -0.01705126     0.11096739     4.85524511
O      3.82513533     0.09961518     0.10145935
O      5.75461938     1.21250984     3.21538097
O      4.06438098     2.41147059     7.40222155
O      3.82513533     2.30864459     1.66347260
O      3.81498263     0.22420125     4.90720653
O      7.65129798     0.09961518     0.10145935
O      9.57122621     1.21997527     3.23143929
O      7.52974104     2.20027170     6.55528231
O      7.65129798     2.30864459     1.66347260
O      7.68073451     0.11753815     4.85015846
O      9.49155993     1.04310142     8.19546579
O     -1.91409143     3.41315929     0.10145935
O     -0.07866766     4.47331885     3.31814050
O     -1.65854636     5.54091401     6.65345701
O     -1.91409717     5.62219864     1.66347260
O      9.48069556     3.36606053     4.92737067
O      1.91205974     3.41315929     0.10145935
O      3.90461796     4.48829940     3.21690925
O      1.75475886     5.52234489     7.00021624
O      1.91205400     5.62219864     1.66347260
O      2.05202241     3.28620735     4.95624826
O      1.91045850     1.69769271    10.82909782
O      5.73822240     3.41315929     0.10145935
O      7.64210947     4.51784299     3.26759330
O      5.61294069     5.54983077     6.54900953
O      5.73821666     5.62219864     1.66347260
O      5.71556391     3.37343649     4.91826944
O      7.55595785     4.43971948     8.25367719
O     -3.82717276     6.72671335     0.10145935
O     -1.92016928     7.84536365     3.29138425
O     -3.85659206     9.00644061     6.46153278
O     -3.82717276     8.93574276     1.66347260
O     -3.79749519     6.66855065     4.96398089
O     -1.79087585     7.83912092     8.25335784
O     -0.00102158     6.72671335     0.10145935
O      1.89395246     7.90468940     3.22502965
O      0.02117203     9.15558006     6.53418296
O     -0.00102158     8.93574276     1.66347260
O     -0.01197778     6.86219436     4.97997077
O      1.83444236     8.02430515     8.20205792
O      3.82514107     6.72671335     0.10145935
O      5.77195760     7.81620774     3.25767091
O      3.81336990     8.94712479     6.38885978
O      3.82514107     8.93574276     1.66347260
O      3.84695015     6.74713143     4.89945110
O      5.69432874     7.90249252     8.21104510
O      1.69210366     1.02387621     8.64443711
Ce     1.91205974     1.20412988     0.88247738
Ce    -0.00087236     2.29364416     4.09991126
Ce    11.41038048     0.01392684     7.32735878
Ce     5.73822240     1.20412988     0.88247738
Ce     3.82594456     2.30937025     3.94345675
Ce     3.71384013     0.03154166     7.35135501
Ce     9.56437357     1.20412988     0.88247738
Ce     7.66309784     2.30250127     4.01955126
Ce     7.79662683     0.02388736     7.21212213
Ce    -0.00101584     4.51767400     0.88247738
Ce    -1.90994771     5.61588633     4.14797216
Ce     9.46620974     3.29057129     7.32703944
Ce     3.82514681     4.51767400     0.88247738
Ce     1.91348881     5.61446482     4.08875712
Ce     1.90683704     3.28599860     7.32072104
Ce     7.65129798     4.51767400     0.88247738
Ce     5.72906258     5.63580738     4.07169516
Ce     5.92164827     3.54189061     7.18881020
Ce    -1.91409717     7.83122805     0.88247738
Ce    -3.82423427     8.94407302     4.09594230
Ce    -3.81309442     6.74920902     7.44086187
Ce     1.91206548     7.83122805     0.88247738
Ce     0.00172751     8.97392476     4.05059581
Ce    -0.01899112     6.97285359     7.27459901
Ce     5.73821666     7.83122805     0.88247738
Ce     3.82918723     8.92024530     4.00559147
Ce     3.79227822     6.86735355     7.32806589
C      1.77832989     2.00426212     9.66334174
