77
CIF: 2-CO2(g).cif | data_VESTA_phase_1
O     -0.00101584     0.09961518     0.10145935
O      1.90550554     1.18247916     3.19409914
O      0.16047468     2.43888688     7.61125336
O     -0.00101584     2.30864459     1.66347260
O     -0.02575194     0.26592212     4.92392634
O      3.82513533     0.09961518     0.10145935
O      5.75407416     1.20208211     3.21757074
O      3.96689437     2.21118653     7.98301247
O      3.82513533     2.30864459     1.66347260
O      3.81528681     0.23665687     4.93339254
O      7.65129798     0.09961518     0.10145935
O      9.54859068     1.21210228     3.19617486
O      7.52963773     2.20080850     6.51171501
O      7.65129798     2.30864459     1.66347260
O      7.67155747     0.10223951     4.83542313
O      9.30288266     1.03340929     8.30338041
O     -1.91409143     3.41315929     0.10145935
O     -0.06850922     4.48522774     3.29079118
O     -1.79231066     5.52913435     6.55167832
O     -1.91409717     5.62219864     1.66347260
O     -1.86024021     3.25644507     4.98325543
O      1.91205974     3.41315929     0.10145935
O      3.87731643     4.48944257     3.23100589
O      2.02833659     5.54327988     6.93913078
O      1.91205400     5.62219864     1.66347260
O      1.97624732     3.20450521     5.01979722
O      5.73822240     3.41315929     0.10145935
O      7.65016735     4.49283233     3.34790769
O      5.51785882     5.57093475     6.58634968
O      5.73821666     5.62219864     1.66347260
O      5.61464524     3.34029438     4.94933680
O      7.62017986     4.48129125     8.36745399
O     -3.82717276     6.72671335     0.10145935
O     -1.94309177     7.85230221     3.32788041
O     -3.89400612     9.05102439     6.53564281
O     -3.82717276     8.93574276     1.66347260
O     -3.85923211     6.70689171     4.97586495
O     -1.90060997     7.84438946     8.34685647
O     -0.00102158     6.72671335     0.10145935
O      1.90343942     7.89593169     3.22354699
O      0.03517576     9.11693084     6.56274122
O     -0.00102158     8.93574276     1.66347260
O     -0.00579089     6.82696472     4.95859770
O      2.04812547     7.98615296     8.20673399
O      3.82514107     6.72671335     0.10145935
O      5.76086941     7.85720295     3.28830488
O      3.83120744     8.97147937     6.36712175
O      3.82514107     8.93574276     1.66347260
O      3.84496438     6.78130735     4.90841547
O      5.55187526     7.81057140     8.29380016
Ce     1.91205974     1.20412988     0.88247738
Ce    -0.01862381     2.30252115     3.96279972
Ce    11.33943209     0.07100601     7.41843953
Ce     5.73822240     1.20412988     0.88247738
Ce     3.83977611     2.29768006     3.91444229
Ce    -1.95848439     9.88257899     7.34086236
Ce     9.56437357     1.20412988     0.88247738
Ce     7.64579980     2.30057278     4.08394419
Ce     7.77353216     0.03446421     7.21748250
Ce    -0.00101584     4.51767400     0.88247738
Ce    -1.91127921     5.61864983     4.21731488
Ce     9.41262252     3.31664560     7.42302437
Ce     3.82514681     4.51767400     0.88247738
Ce     1.90874821     5.62637371     4.09067317
Ce     2.09482560     3.34990698     7.28447578
Ce     7.65129798     4.51767400     0.88247738
Ce     5.72019547     5.61816274     4.12835546
Ce     5.85452220     3.47512926     7.35682944
Ce    -1.91409717     7.83122805     0.88247738
Ce    -3.84262851     8.95382479     4.14856522
Ce    -3.82368330     6.70245818     7.47546480
Ce     1.91206548     7.83122805     0.88247738
Ce    -0.00219813     8.94366545     4.05910398
Ce    -0.00307623     6.90101257     7.34779664
Ce     5.73821666     7.83122805     0.88247738
Ce     3.82544525     8.94827791     3.99826943
Ce     3.84082065     6.93123212     7.26540653
