84
CIF: CO+Olatt—CO2.cif | data_image0
Ce     1.93038582     1.11050507     0.88387043
Ce    -0.01236138     2.22321466     4.04074101
Ce    -5.76610238    10.03336715     7.19916504
Ce     5.81181033     1.12175166     0.90127712
Ce     3.83418365     2.20046139     3.98215504
Ce    -1.90511328    10.03549843     7.29635494
Ce     9.66901012     1.12377363     0.90450652
Ce     7.72668993     2.24691554     4.02836496
Ce     2.00081623     9.90752490     7.24752880
Ce    -0.00709724     4.47602159     0.89067279
Ce    -1.94677374     5.58710760     4.08563570
Ce    -1.77217040     3.36322709     7.27055843
Ce     3.86254305     4.47635356     0.87798423
Ce     1.95071147     5.58451806     4.07592393
Ce     1.95722953     3.30853350     7.20394006
Ce     7.74213807     4.46545905     0.90125422
Ce     5.81140987     5.64535667     4.00122731
Ce    -1.94645625     7.83004003     0.90010904
Ce    -3.84757215     8.93444279     4.06758540
Ce    -3.81812536     6.77189185     7.30808580
Ce     1.92815559     7.82745473     0.89060408
Ce    -0.00372891     8.95079677     4.07128945
Ce     0.02624254     6.69845058     7.25203105
Ce     5.81127600     7.83258510     0.88371011
Ce     3.87756694     8.94438778     4.05675256
Ce     3.93036794     6.70046209     7.30219570
Ti     5.48123511     3.53883596     6.63033540
Fe     6.90305036     2.68864021     8.57543371
O     11.61334069     0.00154917     0.10141687
O      1.91154088     1.11188278     3.21404380
O      0.03084195     2.24485747     6.37984262
O     -0.00785227     2.23805103     1.69392277
O     -5.80291347    10.05858627     4.85043140
O      1.90190123     1.23465879     8.01709764
O     -1.93899312    10.05733740     0.10496691
O      5.82389030     1.11831839     3.23026714
O      4.05705501     2.28511149     6.33391272
O      3.86763657     2.23577757     1.68132582
O      3.88074774     0.00082675     4.80221143
O      6.24466823     1.04051132     8.61474294
O      7.73821774     0.00761509     0.10924988
O      9.67297504     1.12350459     3.22698712
O      7.18003634     2.54497138     6.68172505
O      7.74357843     2.23531483     1.71563532
O      7.77751943     0.12300705     4.91436570
O      9.59344306     1.17945662     7.89737520
O      9.67032270     3.35425987     0.10911246
O     -0.02197387     4.45812123     3.27714900
O     -1.91613706     5.48385428     6.45089473
O     -1.94403436     5.59119430     1.70564938
O      9.58823977     3.26085917     4.92988474
O      0.06279853     4.40602187     8.06962662
O      1.92738314     3.35244915     0.09928684
O      3.83385272     4.48756356     3.19618018
O      1.95481931     5.50626677     6.43742007
O      1.92862022     5.59252216     1.67404250
O      1.95952452     3.31351934     4.85026099
O      4.12897450     4.21967263     7.98560473
O      5.81155478     3.35101064     0.10766953
O      7.75376225     4.46747408     3.24038905
O      5.89090856     5.36445487     6.40162778
O      5.80528807     5.59217007     1.68114259
O      5.73100205     3.40052376     4.70762677
O      8.04091223     4.03944028     8.66771954
O     -3.87155109     6.71022987     0.10512724
O     -1.91815702     7.80666717     3.25212748
O     -3.84735867     8.97879308     6.41307382
O     -3.87509971     8.94378428     1.69355631
O     -3.86905599     6.71331504     4.83543096
O     -1.75399510     7.74140995     8.07219695
O     -0.01209783     6.71325780     0.10434852
O      1.93390535     7.84413691     3.27378786
O      0.08653874     8.98621912     6.40480366
O     -0.00628994     8.94736548     1.70514550
O     -0.00050345     6.70433849     4.89593347
O      1.89425462     7.83636942     8.07382179
O      3.86815347     6.71410280     0.09951587
O      5.80812148     7.84552585     3.22203238
O      3.88262883     8.94933624     6.38866615
O      3.86556896     8.94715423     1.69389986
O      3.90979639     6.69132059     4.83591653
O      5.83952856     7.98598990     8.08016155
O      4.90702332     3.88960061    10.49126258
C      5.40813114     3.55809891     9.49824040
