84
CIF: Fe-Ti-CeO2-Ov-CO2.cif | data_image0
Ce     1.93038582     1.11050507     0.88387043
Ce    -0.01750453     2.22170291     4.02135094
Ce    -5.77818033    10.02620829     7.19700226
Ce     5.81181033     1.12175166     0.90127712
Ce     3.83252899     2.20687775     3.99128467
Ce     3.92194875     0.00176034     7.33106720
Ce     9.66901012     1.12377363     0.90450652
Ce     7.74287287     2.23665284     4.03286113
Ce     1.96053705     9.97653072     7.22368884
Ce    -0.00709724     4.47602159     0.89067279
Ce    -1.94779890     5.58710818     4.08401897
Ce    -1.88052712     3.36012322     7.23516620
Ce     3.86254305     4.47635356     0.87798423
Ce     1.95336215     5.58260197     4.07711964
Ce     1.81063431     3.28245275     7.18353200
Ce     7.74213807     4.46545905     0.90125422
Ce     5.81303782     5.64659350     4.00107255
Ce    -1.94645625     7.83004003     0.90010904
Ce    -3.85016889     8.93817459     4.09232219
Ce    -3.81818573     6.74463196     7.34175973
Ce     1.92815559     7.82745473     0.89060408
Ce    -0.00056529     8.95602383     4.07183905
Ce     0.01341493     6.70917433     7.25799976
Ce     5.81127600     7.83258510     0.88371011
Ce     3.87495297     8.93926994     4.04664907
Ce     3.91045577     6.79342001     7.29094408
Ti     5.65738234     3.45576135     6.57188961
Fe     6.90098802     2.70406790     8.63826349
O     11.61334069     0.00154917     0.10141687
O      1.91939699     1.11110319     3.21172994
O     -0.01593035     2.22659736     6.37112359
O     -0.00785227     2.23805103     1.69392277
O     -5.79744795    10.05208592     4.84632742
O      1.87410915     1.24245111     8.00757686
O     -1.93899312    10.05733740     0.10496691
O      5.81041225     1.10698649     3.22772499
O      4.07396773     2.44858756     6.42124812
O      3.86763657     2.23577757     1.68132582
O      3.87236470     0.05953870     4.84540192
O      6.16310617     1.06079219     8.47967319
O      7.73821774     0.00761509     0.10924988
O      9.68281357     1.11362121     3.22327461
O      7.35374816     2.46563794     6.48668057
O      7.74357843     2.23531483     1.71563532
O      7.77477491     0.07377546     4.87465412
O      9.56770604     1.18524333     7.92165924
O      9.67032270     3.35425987     0.10911246
O     -0.00720738     4.46983451     3.26335896
O     -1.92825292     5.50954437     6.42400105
O     -1.94403436     5.59119430     1.70564938
O      9.62458237     3.29189452     4.87756950
O      0.01129609     4.40255667     8.03889213
O      1.92738314     3.35244915     0.09928684
O      3.83137453     4.48562847     3.21360110
O      2.02763919     5.44375004     6.50291375
O      1.92862022     5.59252216     1.67404250
O      1.92997103     3.29576285     4.85185919
O      4.45750897     4.16086455     8.41144583
O      5.81155478     3.35101064     0.10766953
O      7.75505198     4.48449993     3.23570659
O      5.81774530     5.30113079     6.42299738
O      5.80528807     5.59217007     1.68114259
O      5.76848270     3.37382807     4.66324181
O      7.98652872     4.14208934     8.52669650
O     -3.87155109     6.71022987     0.10512724
O     -1.91975938     7.81837139     3.27893110
O     -3.84805378     8.97904886     6.43095658
O     -3.87509971     8.94378428     1.69355631
O      7.71432425     6.70580818     4.85790762
O     -1.75452568     7.74835003     8.08144911
O     -0.01209783     6.71325780     0.10434852
O      1.93109274     7.82694145     3.26131606
O      0.05596502     8.99100036     6.38572948
O     -0.00628994     8.94736548     1.70514550
O      0.03790826     6.68664688     4.91529371
O      1.87249812     7.85466216     8.03656974
O      3.86815347     6.71410280     0.09951587
O      5.81074012     7.83985703     3.22082446
O      3.88330939     8.97158685     6.39182386
O      3.86556896     8.94715423     1.69389986
O      3.90347381     6.70795611     4.84095922
O      5.82755377     7.97775332     8.07573552
O      5.23355714     3.66682394    10.51655289
C      5.26574433     3.66544237     9.29917028
