83
CIF: Fe-Ti-CeO2-O.cif | data_image0
Ce     1.93038582     1.11050507     0.88387043
Ce    -0.01199914     2.21366104     4.08079946
Ce    -5.57867242     9.92358648     7.18763031
Ce     5.81181033     1.12175166     0.90127712
Ce     3.81007057     2.19934295     4.01186433
Ce    -1.85895428    10.00082759     7.35005890
Ce     9.66901012     1.12377363     0.90450652
Ce     7.71004017     2.25477404     4.02852466
Ce     1.92504152     9.84088744     7.26823322
Ce    -0.00709724     4.47602159     0.89067279
Ce    -1.94390102     5.58733504     4.05059772
Ce    -1.77626556     3.47578951     7.26301706
Ce     3.86254305     4.47635356     0.87798423
Ce     1.92785134     5.58316089     4.07369054
Ce     1.98138358     3.30419621     7.31000466
Ce     7.74213807     4.46545905     0.90125422
Ce     5.82083713     5.65858947     3.98805124
Ce    -1.94645625     7.83004003     0.90010904
Ce    -3.82671395     8.91439972     4.04981118
Ce    -3.80033279     6.63430843     7.34301629
Ce     1.92815559     7.82745473     0.89060408
Ce    -0.00355942     8.94828699     4.05780745
Ce     0.02819059     6.67751154     7.23368949
Ce     5.81127600     7.83258510     0.88371011
Ce     3.88428843     8.97395964     4.06391102
Ce     3.93534059     6.68226686     7.20879100
Ti     5.42370307     3.59165192     6.63190971
Fe     7.33226886     2.46565557     8.72131076
O     11.61334069     0.00154917     0.10141687
O      1.91250002     1.10756212     3.21930171
O     -0.13012476     2.09268540     6.52632953
O     -0.00785227     2.23805103     1.69392277
O     -5.75320430    10.02785193     4.85470210
O      1.89827264     0.98211833     8.08611355
O     -1.93899312    10.05733740     0.10496691
O      5.82040078     1.12723814     3.23815189
O      4.07600019     2.26973520     6.37140968
O      3.86763657     2.23577757     1.68132582
O     -1.92419166    10.05695236     4.81381647
O      6.23791580     0.92229077     8.45199811
O      7.73821774     0.00761509     0.10924988
O      9.67476398     1.11952521     3.24623374
O      7.05348067     2.65027605     6.77849430
O      7.74357843     2.23531483     1.71563532
O      7.77174232     0.13317643     4.93509426
O      8.88282022     1.56883652     8.37064413
O      9.67032270     3.35425987     0.10911246
O     -0.02301653     4.44060469     3.26743977
O     -1.89532533     5.53763336     6.36942876
O     -1.94403436     5.59119430     1.70564938
O      9.58074610     3.26630490     4.92379663
O     -0.00169100     4.52228154     8.06914876
O      1.92738314     3.35244915     0.09928684
O      3.81567642     4.50644422     3.21990582
O      1.99069553     5.61609041     6.37821778
O      1.92862022     5.59252216     1.67404250
O      1.89655545     3.28418340     4.87304302
O      5.81155478     3.35101064     0.10766953
O      7.74169970     4.44738910     3.22870477
O      5.87770666     5.44829000     6.31186274
O      5.80528807     5.59217007     1.68114259
O      5.70000941     3.42091688     4.71758730
O      8.10015825     4.19303220     8.47433840
O     -3.87155109     6.71022987     0.10512724
O     -1.91018951     7.81902898     3.23249349
O     -3.81129218     8.86871026     6.41094781
O     -3.87509971     8.94378428     1.69355631
O     -3.85752212     6.69536098     4.77631901
O     -1.73695331     7.69883950     8.09489591
O     -0.01209783     6.71325780     0.10434852
O      1.95265776     7.85954030     3.27347957
O      0.08739357     8.90720666     6.39096916
O     -0.00628994     8.94736548     1.70514550
O      0.00058488     6.69851859     4.83318807
O      2.01979053     7.74921823     8.05592992
O      3.86815347     6.71410280     0.09951587
O      5.79606501     7.85440695     3.21116292
O      3.92146063     9.05810581     6.49543712
O      3.86556896     8.94715423     1.69389986
O      3.92182892     6.77378747     4.88630409
O      5.75708424     7.77490799     8.01512106
O      4.12966796     4.44577451     7.82433099
O      6.78885374     2.76099365    10.22041412
