84
CIF: Fe-Ti-CeO2-CO.cif | data_image0
Ce     1.93038582     1.11050507     0.88387043
Ce     0.00229917     2.22301548     4.01376032
Ce    -5.76671737    10.03563720     7.20625043
Ce     5.81181033     1.12175166     0.90127712
Ce     3.85492154     2.22074278     4.01663095
Ce    -1.90591037    10.03630272     7.30464738
Ce     9.66901012     1.12377363     0.90450652
Ce     7.72921951     2.24377800     4.08422505
Ce     2.04096876     9.97277344     7.19211449
Ce    -0.00709724     4.47602159     0.89067279
Ce    -1.94921892     5.58726930     4.07276705
Ce    -1.80855927     3.30545777     7.19222767
Ce     3.86254305     4.47635356     0.87798423
Ce     1.93026569     5.59180258     4.05033990
Ce     1.87459803     3.32244725     7.20626186
Ce     7.74213807     4.46545905     0.90125422
Ce     5.81196427     5.61052259     4.01666750
Ce    -1.94645625     7.83004003     0.90010904
Ce    -3.85647492     8.93277867     4.08482009
Ce    -3.83701709     6.69158295     7.30467714
Ce     1.92815559     7.82745473     0.89060408
Ce    -0.00556453     8.95375513     4.07267250
Ce     0.00149493     6.70542419     7.21779104
Ce     5.81127600     7.83258510     0.88371011
Ce     3.88378163     8.94589255     4.01380654
Ce     3.86782657     6.77456030     7.20629013
Ti     5.21299995     3.69637695     6.83332049
Fe     6.92140190     2.71040548     8.26119390
O     11.61334069     0.00154917     0.10141687
O      1.93548046     1.11680158     3.22293403
O      0.01472029     2.22802760     6.34261085
O     -0.00785227     2.23805103     1.69392277
O     -5.79430681    10.05155608     4.83424812
O      1.85277253     1.21833692     8.02726470
O     -1.93899312    10.05733740     0.10496691
O      5.81374237     1.14915671     3.25292367
O      3.94548572     2.34450899     6.43054349
O      3.86763657     2.23577757     1.68132582
O      3.88048062     0.02443852     4.84703207
O      6.11260042     1.10764398     8.28840420
O      7.73821774     0.00761509     0.10924988
O      9.67734896     1.11907282     3.22706907
O      7.73591904     2.23994381     6.57555058
O      7.74357843     2.23531483     1.71563532
O      7.77321787     0.05159162     4.84879105
O      9.77080163     1.06503794     7.98781907
O      9.67032270     3.35425987     0.10911246
O     -0.00380347     4.47073830     3.24655628
O     -1.89747201     5.49050443     6.40916428
O     -1.94403436     5.59119430     1.70564938
O      9.64959068     3.30175360     4.84868862
O      0.04496536     4.40491124     8.03346666
O      1.92738314     3.35244915     0.09928684
O      3.86322784     4.47592250     3.21576464
O      1.92571312     5.59448288     6.40013770
O      1.92862022     5.59252216     1.67404250
O      1.94826102     3.34297575     4.85005136
O      3.88970188     4.46044988     7.90976908
O      5.81155478     3.35101064     0.10766953
O      7.71924610     4.44977782     3.25279155
O      5.74985950     5.46989833     6.43049485
O      5.80528807     5.59217007     1.68114259
O      5.74074477     3.39181433     4.91074048
O      7.90475847     4.21146488     8.28855709
O     -3.87155109     6.71022987     0.10512724
O     -1.93798703     7.82515558     3.25731543
O     -3.87795463     8.94507051     6.44286810
O     -3.87509971     8.94378428     1.69355631
O      7.72689140     6.68649573     4.84695539
O     -1.76100572     7.72301175     8.07143946
O     -0.01209783     6.71325780     0.10434852
O      1.93412066     7.82717464     3.24641469
O      0.10427866     8.95749161     6.40919275
O     -0.00628994     8.94736548     1.70514550
O     -0.01637068     6.71575076     4.85930404
O      2.01546146     7.81807746     8.03341917
O      3.86815347     6.71410280     0.09951587
O      5.80838940     7.82480587     3.22272617
O      3.88571398     8.93257546     6.34258225
O      3.86556896     8.94715423     1.69389986
O      3.88681717     6.70076274     4.85000000
O      5.67895926     7.84549724     8.02729795
O      5.60623147     3.46948942    10.82510619
C      6.11940423     3.17316463     9.83308609
