     160
 i =     1300, time =     1300.000, E =     -5324.9392732341
  O         0.0000000000        0.0000000000        0.0000000000
  O         3.8260000000        0.0000000000        0.0000000000
  O         7.6520000000        0.0000000000        0.0000000000
  O        11.4780000000        0.0000000000        0.0000000000
  O        -1.9130000000        3.3140000000        0.0000000000
  O         1.9130000000        3.3140000000        0.0000000000
  O         5.7390000000        3.3140000000        0.0000000000
  O         9.5650000000        3.3140000000        0.0000000000
  O        -3.8260000000        6.6270000000        0.0000000000
  O         0.0000000000        6.6270000000        0.0000000000
  O         3.8260000000        6.6270000000        0.0000000000
  O         7.6520000000        6.6270000000        0.0000000000
  O        -5.7390000000        9.9410000000        0.0000000000
  O        -1.9130000000        9.9410000000        0.0000000000
  O         1.9130000000        9.9410000000        0.0000000000
  O         5.7390000000        9.9410000000        0.0000000000
  O         1.9130000000        1.1050000000        1.5620000000
  O         5.7390000000        1.1050000000        1.5620000000
  O         9.5650000000        1.1050000000        1.5620000000
  O        13.3920000000        1.1050000000        1.5620000000
  O         0.0000000000        4.4180000000        1.5620000000
  O         3.8260000000        4.4180000000        1.5620000000
  O         7.6520000000        4.4180000000        1.5620000000
  O        11.4780000000        4.4180000000        1.5620000000
  O        -1.9130000000        7.7320000000        1.5620000000
  O         1.9130000000        7.7320000000        1.5620000000
  O         5.7390000000        7.7320000000        1.5620000000
  O         9.5650000000        7.7320000000        1.5620000000
  O        -3.8260000000       11.0450000000        1.5620000000
  O         0.0000000000       11.0450000000        1.5620000000
  O         3.8260000000       11.0450000000        1.5620000000
  O         7.6520000000       11.0450000000        1.5620000000
  O         0.0000000000        2.2090000000        3.1240000000
  O         3.8260000000        2.2090000000        3.1240000000
  O         7.6520000000        2.2090000000        3.1240000000
  O        11.4780000000        2.2090000000        3.1240000000
  O        -1.9130000000        5.5230000000        3.1240000000
  O         1.9130000000        5.5230000000        3.1240000000
  O         5.7390000000        5.5230000000        3.1240000000
  O         9.5650000000        5.5230000000        3.1240000000
  O        -3.8260000000        8.8360000000        3.1240000000
  O         0.0000000000        8.8360000000        3.1240000000
  O         3.8260000000        8.8360000000        3.1240000000
  O         7.6520000000        8.8360000000        3.1240000000
  O        -5.7390000000       12.1500000000        3.1240000000
  O        -1.9130000000       12.1500000000        3.1240000000
  O         1.9130000000       12.1500000000        3.1240000000
  O         5.7390000000       12.1500000000        3.1240000000
  O        -0.0753872000       -0.0654868357        4.7674763718
  O         3.8123159925        0.0123648422        4.7769528121
  O         7.6975681735       -0.1775949101        4.8601551437
  O        11.4280375666       -0.0282422207        4.9376146613
  O        -1.8651302118        3.2928783994        4.7378159089
  O         2.0469495200        3.3784853016        4.7705970072
  O         5.6792275764        3.2302186326        4.7636269699
  O         9.6409379905        3.1876537923        4.7952694181
  O        -3.9160175591        6.7430603571        4.8198731677
  O        -0.0620549878        6.5241315673        4.8435607366
  O         3.8356408475        6.8136936377        5.0283888915
  O         7.7556246083        6.6486731815        4.6616178262
  O        -5.7194042191        9.9682603043        4.6561741712
  O        -1.8858955664        9.9387599942        4.6878302201
  O         1.8832508604        9.8031711783        4.7744165669
  O         5.7990949500        9.9400420429        4.7636345273
  O         1.9366701542        1.0815100912        6.3754851425
  O         5.5464006201        1.0122867090        6.2457013860
  O         9.5048223403        1.0060956482        6.4531891728
  O        13.3999685502        1.2536641867        6.4683620827
  O        -0.1433592044        4.3121146240        6.3556635030
  O         3.7834785917        4.5440869253        6.4804611255
  O         7.5484725528        4.3714271386        6.3599142403
  O        11.4050657975        4.3220483654        6.4140176630
  O        -2.0212826802        7.6445672138        6.3720228690
  O         1.8700048551        7.7503366611        6.2396076710
  O         5.7320203107        7.6225940412        6.1450446972
  O         9.3681873467        7.9263413734        6.5693196734
  O        -3.8003762145       10.9456236998        6.3279082565
  O         0.0243129124       10.8514205941        6.2398657519
  O         3.8058826045       11.0042579293        6.3687418853
  O         7.6012269199       11.0280725943        6.2691903430
  O         0.0654242804        2.2319306676        8.0893190036
  O         3.7655486478        2.1453585329        7.7935907046
  O         7.4800857561        2.0135579097        7.7947785115
  O        11.5936287092        2.0767398976        8.3437175938
  O        -1.8633777011        5.4929249712        8.2357756267
  O         1.8479609341        5.7077418929        7.8687563896
  O         5.7675286801        5.3982868353        8.0117130606
  O         9.3750111847        5.5361116318        7.9368367685
  O        -3.8290774457        8.5387661803        7.9117207073
  O         0.0823513516        8.5633395473        8.0161070059
  O         3.7932261013        8.8562008069        7.9404911453
  O         7.1713509662        8.3448141361        8.1536522159
  O        -5.7723099996       12.3478392178        7.9450273701
  O        -1.8693086007       11.9731332994        8.0332477287
  O         1.8447757706       11.8561279728        7.9214339641
  O         5.6699281791       12.2055926401        7.9543853484
 Ce         0.0000000000        2.2090000000        0.7810000000
 Ce         3.8260000000        2.2090000000        0.7810000000
 Ce         7.6520000000        2.2090000000        0.7810000000
 Ce        11.4780000000        2.2090000000        0.7810000000
 Ce        -1.9130000000        5.5230000000        0.7810000000
 Ce         1.9130000000        5.5230000000        0.7810000000
 Ce         5.7390000000        5.5230000000        0.7810000000
 Ce         9.5650000000        5.5230000000        0.7810000000
 Ce        -3.8260000000        8.8360000000        0.7810000000
 Ce         0.0000000000        8.8360000000        0.7810000000
 Ce         3.8260000000        8.8360000000        0.7810000000
 Ce         7.6520000000        8.8360000000        0.7810000000
 Ce        -5.7390000000       12.1500000000        0.7810000000
 Ce        -1.9130000000       12.1500000000        0.7810000000
 Ce         1.9130000000       12.1500000000        0.7810000000
 Ce         5.7390000000       12.1500000000        0.7810000000
 Ce         2.1188360616        0.9547531922        3.9754050925
 Ce         5.7135011698        1.2075725146        3.9530222577
 Ce         9.4917879728        1.0172563792        3.9773165597
 Ce        13.4500705349        1.1081028307        3.8955304754
 Ce         0.0231483404        4.3390561068        3.9714454572
 Ce         3.7569637951        4.3736612967        4.0301440999
 Ce         7.6484438502        4.4521134053        3.9671568804
 Ce        11.4514298239        4.3340541985        3.9922957586
 Ce        -1.8492023448        7.7457464052        3.8798373405
 Ce         1.8674777546        7.7358757405        4.0002956254
 Ce         5.7135265595        7.6686132815        3.8826500817
 Ce         9.6387088439        7.7263093723        3.7556060987
 Ce        -3.7704220956       11.0848881529        3.9394584258
 Ce         0.0088579190       11.0459045566        3.9392549144
 Ce         3.8260012277       11.0410138173        3.9304086591
 Ce         7.5389812364       10.9671987442        3.9724974621
 Ce        -0.1187575623       -0.1262623565        7.1422192486
 Ce         3.9077339631       -0.1223644634        7.3247798468
 Ce         7.7692235153       -0.0933483124        7.3627026611
 Ce        11.4923373235        0.0380466926        7.2067114878
 Ce        -1.9639906477        3.4111799896        7.2447949880
 Ce         1.8198909042        3.3902840057        7.0993192807
 Ce         5.6521600054        3.2091166673        7.0746495817
 Ce         9.3025695001        3.2825887873        7.2345395533
 Ce        -4.0618539538        6.6210784938        7.2106490121
 Ce         0.0567598932        6.6729678558        7.0613846037
 Ce         3.9296020367        6.7835649538        7.1434328138
 Ce         7.5174074761        6.5749529251        7.0160892947
 Ce        -5.6771054225       10.0354926345        7.1833803157
 Ce        -1.9450188942        9.8460067185        7.0933946562
 Ce         1.8240930504        9.9088879870        7.1978042743
 Ce         5.6396325323        9.9914108430        7.0027729531
 Pt        -0.8413845293        4.6765439282        9.9642207045
 Pt         7.1842094172        2.0199307114        9.9500891331
 Pt         0.6908663297        2.4496594805        9.9448513659
 Pt        -6.9436492981       11.5228524501       10.9322387122
 Pt         7.7951342808        9.8139984048        9.2069559011
 Pt         1.9249639786        0.1298784529        9.9262323705
 Pt         9.6518957459        1.8869506961        9.5312486936
 Pt         1.7247672030        5.2139560627        9.8287341271
 Pt         5.7623289696        4.4579696265        9.8613294933
 Pt         4.5016318538        0.8298800505       10.7155835551
 Pt         3.4518817024        3.0447849285        9.6295506752
 Pt         1.1323895744        3.9316438416       12.1478733410
 Pt         2.4063831445        1.6934343003       11.8887674988
 Pt         5.7268769100        2.8793925511       11.9170730757
 Pt         3.6543240783        4.7892708438       11.4776013127
 Pt         3.3571777851        3.3081482969       13.5627493045
     160
 i =     1301, time =     1301.000, E =     -5324.9358850867
  O         0.0000000000        0.0000000000        0.0000000000
  O         3.8260000000        0.0000000000        0.0000000000
  O         7.6520000000        0.0000000000        0.0000000000
  O        11.4780000000        0.0000000000        0.0000000000
  O        -1.9130000000        3.3140000000        0.0000000000
  O         1.9130000000        3.3140000000        0.0000000000
  O         5.7390000000        3.3140000000        0.0000000000
  O         9.5650000000        3.3140000000        0.0000000000
  O        -3.8260000000        6.6270000000        0.0000000000
  O         0.0000000000        6.6270000000        0.0000000000
  O         3.8260000000        6.6270000000        0.0000000000
  O         7.6520000000        6.6270000000        0.0000000000
  O        -5.7390000000        9.9410000000        0.0000000000
  O        -1.9130000000        9.9410000000        0.0000000000
  O         1.9130000000        9.9410000000        0.0000000000
  O         5.7390000000        9.9410000000        0.0000000000
  O         1.9130000000        1.1050000000        1.5620000000
  O         5.7390000000        1.1050000000        1.5620000000
  O         9.5650000000        1.1050000000        1.5620000000
  O        13.3920000000        1.1050000000        1.5620000000
  O         0.0000000000        4.4180000000        1.5620000000
  O         3.8260000000        4.4180000000        1.5620000000
  O         7.6520000000        4.4180000000        1.5620000000
  O        11.4780000000        4.4180000000        1.5620000000
  O        -1.9130000000        7.7320000000        1.5620000000
  O         1.9130000000        7.7320000000        1.5620000000
  O         5.7390000000        7.7320000000        1.5620000000
  O         9.5650000000        7.7320000000        1.5620000000
  O        -3.8260000000       11.0450000000        1.5620000000
  O         0.0000000000       11.0450000000        1.5620000000
  O         3.8260000000       11.0450000000        1.5620000000
  O         7.6520000000       11.0450000000        1.5620000000
  O         0.0000000000        2.2090000000        3.1240000000
  O         3.8260000000        2.2090000000        3.1240000000
  O         7.6520000000        2.2090000000        3.1240000000
  O        11.4780000000        2.2090000000        3.1240000000
  O        -1.9130000000        5.5230000000        3.1240000000
  O         1.9130000000        5.5230000000        3.1240000000
  O         5.7390000000        5.5230000000        3.1240000000
  O         9.5650000000        5.5230000000        3.1240000000
  O        -3.8260000000        8.8360000000        3.1240000000
  O         0.0000000000        8.8360000000        3.1240000000
  O         3.8260000000        8.8360000000        3.1240000000
  O         7.6520000000        8.8360000000        3.1240000000
  O        -5.7390000000       12.1500000000        3.1240000000
  O        -1.9130000000       12.1500000000        3.1240000000
  O         1.9130000000       12.1500000000        3.1240000000
  O         5.7390000000       12.1500000000        3.1240000000
  O        -0.0785736955       -0.0728987562        4.7598887593
  O         3.8141895176        0.0232341261        4.7745691674
  O         7.7122188084       -0.1829081353        4.8522484953
  O        11.4270526856       -0.0212383386        4.9287048020
  O        -1.8637205952        3.2828547053        4.7413646365
  O         2.0469718607        3.3939383713        4.7754291625
  O         5.6936323201        3.2322867032        4.7536161885
  O         9.6422300127        3.1909422474        4.7871135468
  O        -3.9207414284        6.7496842469        4.8172248041
  O        -0.0694544804        6.5219133752        4.8502484442
  O         3.8263728748        6.8125357184        5.0280893858
  O         7.7600277376        6.6447979085        4.6581491493
  O        -5.7075257378        9.9788963642        4.6621450802
  O        -1.8777638043        9.9419606080        4.6892154881
  O         1.8851499951        9.7899766877        4.7818033856
  O         5.8036695020        9.9417135596        4.7740168490
  O         1.9381919550        1.0795902303        6.3889253413
  O         5.5461680902        1.0219280838        6.2391697206
  O         9.4983614686        0.9995410065        6.4550946521
  O        13.3973229697        1.2532298330        6.4646144979
  O        -0.1388399699        4.3225873160        6.3593156192
  O         3.7825252755        4.5537376513        6.4668360566
  O         7.5495661384        4.3717229261        6.3598697367
  O        11.4044013203        4.3282529153        6.4196854117
  O        -2.0247999635        7.6423614289        6.3741894963
  O         1.8564027946        7.7552097929        6.2421845041
  O         5.7305197061        7.6220661107        6.1431198084
  O         9.3588741144        7.9182790414        6.5602817049
  O        -3.7986166755       10.9365788460        6.3332352599
  O         0.0215989187       10.8479308459        6.2510136964
  O         3.8110650878       11.0025577747        6.3710806348
  O         7.6061768667       11.0244320941        6.2694832209
  O         0.0739112235        2.2307361641        8.0895612729
  O         3.7591888124        2.1387258202        7.7942495420
  O         7.4866953002        2.0068172254        7.7834799586
  O        11.5886963171        2.0648508337        8.3433990699
  O        -1.8603902436        5.4901493279        8.2349858448
  O         1.8478517148        5.7127718433        7.8661190810
  O         5.7762491424        5.4006928194        8.0103684695
  O         9.3679212296        5.5317698432        7.9367855656
  O        -3.8321845171        8.5396158884        7.9074593873
  O         0.0763243206        8.5654313780        8.0286736922
  O         3.7884391661        8.8562275586        7.9360797235
  O         7.1730386023        8.3451149263        8.1596201315
  O        -5.7800893069       12.3532739096        7.9428328616
  O        -1.8685076132       11.9746993304        8.0406892490
  O         1.8534560860       11.8550773710        7.9245340057
  O         5.6678425793       12.2088980535        7.9480320687
 Ce         0.0000000000        2.2090000000        0.7810000000
 Ce         3.8260000000        2.2090000000        0.7810000000
 Ce         7.6520000000        2.2090000000        0.7810000000
 Ce        11.4780000000        2.2090000000        0.7810000000
 Ce        -1.9130000000        5.5230000000        0.7810000000
 Ce         1.9130000000        5.5230000000        0.7810000000
 Ce         5.7390000000        5.5230000000        0.7810000000
 Ce         9.5650000000        5.5230000000        0.7810000000
 Ce        -3.8260000000        8.8360000000        0.7810000000
 Ce         0.0000000000        8.8360000000        0.7810000000
 Ce         3.8260000000        8.8360000000        0.7810000000
 Ce         7.6520000000        8.8360000000        0.7810000000
 Ce        -5.7390000000       12.1500000000        0.7810000000
 Ce        -1.9130000000       12.1500000000        0.7810000000
 Ce         1.9130000000       12.1500000000        0.7810000000
 Ce         5.7390000000       12.1500000000        0.7810000000
 Ce         2.1222363032        0.9537186996        3.9757212795
 Ce         5.7114522339        1.2113726555        3.9522506016
 Ce         9.4914789201        1.0132842252        3.9753958317
 Ce        13.4467637985        1.1099703608        3.8938733572
 Ce         0.0210355267        4.3366807034        3.9682795066
 Ce         3.7575312756        4.3747726430        4.0336678585
 Ce         7.6431646341        4.4529566547        3.9705361084
 Ce        11.4471186370        4.3339471161        3.9958383505
 Ce        -1.8498158821        7.7453509432        3.8795371108
 Ce         1.8689163643        7.7378050761        3.9988766698
 Ce         5.7133940564        7.6664177497        3.8819547014
 Ce         9.6365523506        7.7288276385        3.7545050278
 Ce        -3.7744917847       11.0850607020        3.9394367127
 Ce         0.0083370877       11.0452718416        3.9375112888
 Ce         3.8232392867       11.0430846889        3.9300638165
 Ce         7.5381838271       10.9676056795        3.9766905069
 Ce        -0.1216797108       -0.1239578636        7.1422192706
 Ce         3.9051920952       -0.1201607806        7.3239630279
 Ce         7.7686753951       -0.0966436594        7.3628775868
 Ce        11.4908513624        0.0380513749        7.2108370183
 Ce        -1.9630503075        3.4085849632        7.2457054272
 Ce         1.8195938488        3.3893389119        7.0993345821
 Ce         5.6538935195        3.2084253524        7.0791325204
 Ce         9.3010231539        3.2849490648        7.2327839695
 Ce        -4.0602286525        6.6199997165        7.2110830675
 Ce         0.0543410887        6.6740331287        7.0635993450
 Ce         3.9322621879        6.7868750800        7.1482939403
 Ce         7.5192949347        6.5740181919        7.0155603509
 Ce        -5.6740696721       10.0335527775        7.1830496277
 Ce        -1.9455602377        9.8464253348        7.0924853912
 Ce         1.8233334170        9.9059357486        7.2006365613
 Ce         5.6389611254        9.9921557402        7.0062270478
 Pt        -0.8434376739        4.6780156865        9.9655608802
 Pt         7.1846303729        2.0197047231        9.9485874099
 Pt         0.6913921068        2.4505317398        9.9463464377
 Pt        -6.9465084176       11.5235607411       10.9328592967
 Pt         7.7979948126        9.8160288066        9.2088965688
 Pt         1.9237259935        0.1305153286        9.9268846038
 Pt         9.6500453781        1.8866452271        9.5307542574
 Pt         1.7235300881        5.2130711057        9.8256687089
 Pt         5.7629250671        4.4573918634        9.8623890096
 Pt         4.4998180026        0.8293355697       10.7144019060
 Pt         3.4515265894        3.0453750317        9.6299942001
 Pt         1.1349176449        3.9323772579       12.1500465790
 Pt         2.4079807896        1.6920490422       11.8902726530
 Pt         5.7256818311        2.8799738721       11.9167091393
 Pt         3.6543115542        4.7902445240       11.4775894021
 Pt         3.3567026024        3.3098771174       13.5649311776
     160
 i =     1302, time =     1302.000, E =     -5324.9326149359
  O         0.0000000000        0.0000000000        0.0000000000
  O         3.8260000000        0.0000000000        0.0000000000
  O         7.6520000000        0.0000000000        0.0000000000
  O        11.4780000000        0.0000000000        0.0000000000
  O        -1.9130000000        3.3140000000        0.0000000000
  O         1.9130000000        3.3140000000        0.0000000000
  O         5.7390000000        3.3140000000        0.0000000000
  O         9.5650000000        3.3140000000        0.0000000000
  O        -3.8260000000        6.6270000000        0.0000000000
  O         0.0000000000        6.6270000000        0.0000000000
  O         3.8260000000        6.6270000000        0.0000000000
  O         7.6520000000        6.6270000000        0.0000000000
  O        -5.7390000000        9.9410000000        0.0000000000
  O        -1.9130000000        9.9410000000        0.0000000000
  O         1.9130000000        9.9410000000        0.0000000000
  O         5.7390000000        9.9410000000        0.0000000000
  O         1.9130000000        1.1050000000        1.5620000000
  O         5.7390000000        1.1050000000        1.5620000000
  O         9.5650000000        1.1050000000        1.5620000000
  O        13.3920000000        1.1050000000        1.5620000000
  O         0.0000000000        4.4180000000        1.5620000000
  O         3.8260000000        4.4180000000        1.5620000000
  O         7.6520000000        4.4180000000        1.5620000000
  O        11.4780000000        4.4180000000        1.5620000000
  O        -1.9130000000        7.7320000000        1.5620000000
  O         1.9130000000        7.7320000000        1.5620000000
  O         5.7390000000        7.7320000000        1.5620000000
  O         9.5650000000        7.7320000000        1.5620000000
  O        -3.8260000000       11.0450000000        1.5620000000
  O         0.0000000000       11.0450000000        1.5620000000
  O         3.8260000000       11.0450000000        1.5620000000
  O         7.6520000000       11.0450000000        1.5620000000
  O         0.0000000000        2.2090000000        3.1240000000
  O         3.8260000000        2.2090000000        3.1240000000
  O         7.6520000000        2.2090000000        3.1240000000
  O        11.4780000000        2.2090000000        3.1240000000
  O        -1.9130000000        5.5230000000        3.1240000000
  O         1.9130000000        5.5230000000        3.1240000000
  O         5.7390000000        5.5230000000        3.1240000000
  O         9.5650000000        5.5230000000        3.1240000000
  O        -3.8260000000        8.8360000000        3.1240000000
  O         0.0000000000        8.8360000000        3.1240000000
  O         3.8260000000        8.8360000000        3.1240000000
  O         7.6520000000        8.8360000000        3.1240000000
  O        -5.7390000000       12.1500000000        3.1240000000
  O        -1.9130000000       12.1500000000        3.1240000000
  O         1.9130000000       12.1500000000        3.1240000000
  O         5.7390000000       12.1500000000        3.1240000000
  O        -0.0817184834       -0.0800454725        4.7524134141
  O         3.8164456191        0.0334365662        4.7720740305
  O         7.7266922182       -0.1874089175        4.8442181050
  O        11.4262702881       -0.0142054727        4.9191113882
  O        -1.8627243764        3.2729604097        4.7448470793
  O         2.0462727823        3.4089617087        4.7803961000
  O         5.7080563384        3.2351345622        4.7436589577
  O         9.6427979841        3.1945460926        4.7790110530
  O        -3.9254925956        6.7557277324        4.8145118348
  O        -0.0765957325        6.5199538970        4.8561525771
  O         3.8167947306        6.8106238451        5.0260801200
  O         7.7640072592        6.6404030817        4.6548705820
  O        -5.6956229473        9.9895579962        4.6684552967
  O        -1.8699037593        9.9449762992        4.6908073744
  O         1.8873999595        9.7777100693        4.7888210801
  O         5.8073599561        9.9431408487        4.7840629056
  O         1.9393609674        1.0779072839        6.4016317436
  O         5.5464976425        1.0317017970        6.2329447861
  O         9.4920191298        0.9931940375        6.4567528473
  O        13.3946516180        1.2524068610        6.4605647188
  O        -0.1336493987        4.3331635608        6.3628951962
  O         3.7817109594        4.5628582110        6.4524787468
  O         7.5505261413        4.3716144485        6.3591680958
  O        11.4039231114        4.3346336107        6.4253878816
  O        -2.0277344574        7.6405749078        6.3760658732
  O         1.8428709345        7.7599032625        6.2450042037
  O         5.7293615394        7.6220131172        6.1415139185
  O         9.3496684467        7.9100684229        6.5508828598
  O        -3.7968377003       10.9279015690        6.3388602844
  O         0.0183657077       10.8445819991        6.2627064277
  O         3.8162271640       11.0010067876        6.3728923572
  O         7.6113870452       11.0206347680        6.2701676395
  O         0.0819380524        2.2292217534        8.0892131307
  O         3.7529268264        2.1323169865        7.7951434854
  O         7.4928760095        2.0006361349        7.7722913560
  O        11.5833295524        2.0528886660        8.3429242689
  O        -1.8575698015        5.4871132671        8.2343941133
  O         1.8482400189        5.7176023636        7.8636607204
  O         5.7848427785        5.4034188174        8.0092081615
  O         9.3609808906        5.5271697232        7.9365414512
  O        -3.8352527869        8.5418907382        7.9037814352
  O         0.0699413890        8.5684609331        8.0411395006
  O         3.7838730938        8.8560428237        7.9315255213
  O         7.1738985990        8.3452054286        8.1653093366
  O        -5.7874603419       12.3578349885        7.9406280368
  O        -1.8677572180       11.9761860367        8.0477966279
  O         1.8621306608       11.8550677763        7.9282183202
  O         5.6657783705       12.2120665977        7.9413005771
 Ce         0.0000000000        2.2090000000        0.7810000000
 Ce         3.8260000000        2.2090000000        0.7810000000
 Ce         7.6520000000        2.2090000000        0.7810000000
 Ce        11.4780000000        2.2090000000        0.7810000000
 Ce        -1.9130000000        5.5230000000        0.7810000000
 Ce         1.9130000000        5.5230000000        0.7810000000
 Ce         5.7390000000        5.5230000000        0.7810000000
 Ce         9.5650000000        5.5230000000        0.7810000000
 Ce        -3.8260000000        8.8360000000        0.7810000000
 Ce         0.0000000000        8.8360000000        0.7810000000
 Ce         3.8260000000        8.8360000000        0.7810000000
 Ce         7.6520000000        8.8360000000        0.7810000000
 Ce        -5.7390000000       12.1500000000        0.7810000000
 Ce        -1.9130000000       12.1500000000        0.7810000000
 Ce         1.9130000000       12.1500000000        0.7810000000
 Ce         5.7390000000       12.1500000000        0.7810000000
 Ce         2.1254117181        0.9527453216        3.9760549290
 Ce         5.7094525787        1.2150125472        3.9514568101
 Ce         9.4912270556        1.0093473245        3.9735075753
 Ce        13.4434401774        1.1118515084        3.8922763503
 Ce         0.0188546456        4.3343419299        3.9650621545
 Ce         3.7581433433        4.3759810476        4.0371302328
 Ce         7.6379364560        4.4537845169        3.9738522592
 Ce        11.4428480296        4.3338764864        3.9993774973
 Ce        -1.8505222419        7.7449009537        3.8793089450
 Ce         1.8703954407        7.7397248558        3.9974345076
 Ce         5.7132820756        7.6642713876        3.8812686645
 Ce         9.6343622264        7.7313979160        3.7535772251
 Ce        -3.7786211302       11.0851602183        3.9393813840
 Ce         0.0078087036       11.0446159782        3.9357885222
 Ce         3.8204451905       11.0451484345        3.9297520531
 Ce         7.5375579532       10.9680779105        3.9808298032
 Ce        -0.1245662141       -0.1215525993        7.1422131529
 Ce         3.9026218251       -0.1178812077        7.3231048211
 Ce         7.7680923602       -0.1000436862        7.3629832045
 Ce        11.4893609062        0.0380677212        7.2149939444
 Ce        -1.9621543989        3.4059149363        7.2466425578
 Ce         1.8193422181        3.3883095469        7.0993781728
 Ce         5.6555646163        3.2077576413        7.0836534605
 Ce         9.2996551979        3.2873320563        7.2310372996
 Ce        -4.0585818944        6.6189023647        7.2114587603
 Ce         0.0517817163        6.6751023821        7.0658786435
 Ce         3.9348207610        6.7901375984        7.1532362001
 Ce         7.5213131078        6.5731142276        7.0150981227
 Ce        -5.6710746190       10.0315139304        7.1826748200
 Ce        -1.9460437862        9.8467735670        7.0915720927
 Ce         1.8226202061        9.9028715535        7.2034158579
 Ce         5.6383053651        9.9928515138        7.0098126255
 Pt        -0.8454486635        4.6794931419        9.9668983805
 Pt         7.1849776134        2.0195177334        9.9471021173
 Pt         0.6919100985        2.4514147197        9.9478625840
 Pt        -6.9493706790       11.5242642277       10.9334720725
 Pt         7.8008960646        9.8181245233        9.2109073439
 Pt         1.9225222952        0.1311695383        9.9275517337
 Pt         9.6482582962        1.8863307385        9.5302357397
 Pt         1.7222838892        5.2121387095        9.8226249105
 Pt         5.7635153681        4.4567848553        9.8634728846
 Pt         4.4980301912        0.8288055797       10.7131983307
 Pt         3.4511909962        3.0459600208        9.6304302094
 Pt         1.1374133666        3.9331726972       12.1521804745
 Pt         2.4095739636        1.6906284903       11.8917771026
 Pt         5.7244640168        2.8805446979       11.9163256511
 Pt         3.6543058248        4.7912107189       11.4775759021
 Pt         3.3562534282        3.3116155284       13.5671218736
     160
 i =     1303, time =     1303.000, E =     -5324.9294768086
  O         0.0000000000        0.0000000000        0.0000000000
  O         3.8260000000        0.0000000000        0.0000000000
  O         7.6520000000        0.0000000000        0.0000000000
  O        11.4780000000        0.0000000000        0.0000000000
  O        -1.9130000000        3.3140000000        0.0000000000
  O         1.9130000000        3.3140000000        0.0000000000
  O         5.7390000000        3.3140000000        0.0000000000
  O         9.5650000000        3.3140000000        0.0000000000
  O        -3.8260000000        6.6270000000        0.0000000000
  O         0.0000000000        6.6270000000        0.0000000000
  O         3.8260000000        6.6270000000        0.0000000000
  O         7.6520000000        6.6270000000        0.0000000000
  O        -5.7390000000        9.9410000000        0.0000000000
  O        -1.9130000000        9.9410000000        0.0000000000
  O         1.9130000000        9.9410000000        0.0000000000
  O         5.7390000000        9.9410000000        0.0000000000
  O         1.9130000000        1.1050000000        1.5620000000
  O         5.7390000000        1.1050000000        1.5620000000
  O         9.5650000000        1.1050000000        1.5620000000
  O        13.3920000000        1.1050000000        1.5620000000
  O         0.0000000000        4.4180000000        1.5620000000
  O         3.8260000000        4.4180000000        1.5620000000
  O         7.6520000000        4.4180000000        1.5620000000
  O        11.4780000000        4.4180000000        1.5620000000
  O        -1.9130000000        7.7320000000        1.5620000000
  O         1.9130000000        7.7320000000        1.5620000000
  O         5.7390000000        7.7320000000        1.5620000000
  O         9.5650000000        7.7320000000        1.5620000000
  O        -3.8260000000       11.0450000000        1.5620000000
  O         0.0000000000       11.0450000000        1.5620000000
  O         3.8260000000       11.0450000000        1.5620000000
  O         7.6520000000       11.0450000000        1.5620000000
  O         0.0000000000        2.2090000000        3.1240000000
  O         3.8260000000        2.2090000000        3.1240000000
  O         7.6520000000        2.2090000000        3.1240000000
  O        11.4780000000        2.2090000000        3.1240000000
  O        -1.9130000000        5.5230000000        3.1240000000
  O         1.9130000000        5.5230000000        3.1240000000
  O         5.7390000000        5.5230000000        3.1240000000
  O         9.5650000000        5.5230000000        3.1240000000
  O        -3.8260000000        8.8360000000        3.1240000000
  O         0.0000000000        8.8360000000        3.1240000000
  O         3.8260000000        8.8360000000        3.1240000000
  O         7.6520000000        8.8360000000        3.1240000000
  O        -5.7390000000       12.1500000000        3.1240000000
  O        -1.9130000000       12.1500000000        3.1240000000
  O         1.9130000000       12.1500000000        3.1240000000
  O         5.7390000000       12.1500000000        3.1240000000
  O        -0.0847926322       -0.0868903297        4.7451287580
  O         3.8190628278        0.0429241262        4.7694910685
  O         7.7409600602       -0.1911102389        4.8360732316
  O        11.4256780299       -0.0071797804        4.9088486440
  O        -1.8621561683        3.2632418408        4.7482555131
  O         2.0448407848        3.4234874162        4.7855169963
  O         5.7224136544        3.2387799409        4.7338780310
  O         9.6426476238        3.1984419268        4.7709757323
  O        -3.9302580959        6.7611631759        4.8117734990
  O        -0.0834567697        6.5182638820        4.8612530222
  O         3.8069259500        6.8080008376        5.0224223318
  O         7.7675280981        6.6355098937        4.6517985968
  O        -5.6837611656       10.0002100654        4.6750597657
  O        -1.8623415312        9.9477922164        4.6925953133
  O         1.8899738714        9.7664601763        4.7954841011
  O         5.8101379688        9.9443070809        4.7937778988
  O         1.9401714790        1.0764673264        6.4135156592
  O         5.5473855528        1.0415802507        6.2270878530
  O         9.4858608678        0.9870822702        6.4581396248
  O        13.3919729363        1.2512061471        6.4562622481
  O        -0.1278383778        4.3437845896        6.3664075120
  O         3.7810947532        4.5713976687        6.4375312776
  O         7.5513332018        4.3710909170        6.3578226223
  O        11.4036352635        4.3411785919        6.4311395528
  O        -2.0301031158        7.6392033704        6.3776426658
  O         1.8294723569        7.7643880666        6.2480655153
  O         5.7285425327        7.6224232142        6.1402371283
  O         9.3405971549        7.9017662386        6.5411095176
  O        -3.7950389029       10.9196667085        6.3447837614
  O         0.0146313593       10.8414037815        6.2749329446
  O         3.8213409036       10.9996323417        6.3741461948
  O         7.6168513639       11.0166875901        6.2712705223
  O         0.0894443589        2.2273986405        8.0882667962
  O         3.7467945083        2.1261906472        7.7962773204
  O         7.4985875088        1.9950506351        7.7612826738
  O        11.5775464045        2.0408601794        8.3422969872
  O        -1.8549480576        5.4838144878        8.2340101194
  O         1.8491566974        5.7222060316        7.8614278452
  O         5.7932836199        5.4064293314        8.0082628653
  O         9.3542284507        5.5223260240        7.9361157898
  O        -3.8383183894        8.5455553093        7.9006728077
  O         0.0632186701        8.5724120200        8.0535100811
  O         3.7795487419        8.8556366295        7.9268869564
  O         7.1739301439        8.3450832220        8.1706813529
  O        -5.7943884321       12.3615129758        7.9384436853
  O        -1.8670836844       11.9776188041        8.0545794092
  O         1.8707865530       11.8560790970        7.9324525549
  O         5.6637478050       12.2150798190        7.9342557891
 Ce         0.0000000000        2.2090000000        0.7810000000
 Ce         3.8260000000        2.2090000000        0.7810000000
 Ce         7.6520000000        2.2090000000        0.7810000000
 Ce        11.4780000000        2.2090000000        0.7810000000
 Ce        -1.9130000000        5.5230000000        0.7810000000
 Ce         1.9130000000        5.5230000000        0.7810000000
 Ce         5.7390000000        5.5230000000        0.7810000000
 Ce         9.5650000000        5.5230000000        0.7810000000
 Ce        -3.8260000000        8.8360000000        0.7810000000
 Ce         0.0000000000        8.8360000000        0.7810000000
 Ce         3.8260000000        8.8360000000        0.7810000000
 Ce         7.6520000000        8.8360000000        0.7810000000
 Ce        -5.7390000000       12.1500000000        0.7810000000
 Ce        -1.9130000000       12.1500000000        0.7810000000
 Ce         1.9130000000       12.1500000000        0.7810000000
 Ce         5.7390000000       12.1500000000        0.7810000000
 Ce         2.1283557850        0.9518352632        3.9764017612
 Ce         5.7075084750        1.2184922367        3.9506362071
 Ce         9.4910329367        1.0054509980        3.9716512227
 Ce        13.4400991012        1.1137421646        3.8907389012
 Ce         0.0166078741        4.3320457614        3.9617977517
 Ce         3.7588005964        4.3772920518        4.0405288075
 Ce         7.6327655121        4.4545945571        3.9770992913
 Ce        11.4386178883        4.3338426600        4.0029073345
 Ce        -1.8513196024        7.7443960239        3.8791542685
 Ce         1.8719117376        7.7416276594        3.9959722876
 Ce         5.7131887503        7.6621756709        3.8805929494
 Ce         9.6321402517        7.7340148492        3.7528234587
 Ce        -3.7828033616       11.0851855854        3.9392915592
 Ce         0.0072724217       11.0439354417        3.9340886596
 Ce         3.8176240915       11.0472044036        3.9294743661
 Ce         7.5371015437       10.9686167007        3.9849129033
 Ce        -0.1274142586       -0.1190499186        7.1421977820
 Ce         3.9000232093       -0.1155284931        7.3222077266
 Ce         7.7674786074       -0.1035526645        7.3630214560
 Ce        11.4878610169        0.0380937804        7.2191756120
 Ce        -1.9612973808        3.4031733719        7.2476037220
 Ce         1.8191359075        3.3872024423        7.0994492309
 Ce         5.6571737767        3.2071139797        7.0882071446
 Ce         9.2984646309        3.2897341486        7.2292998202
 Ce        -4.0569157566        6.6177887867        7.2117739402
 Ce         0.0490815868        6.6761787578        7.0682228496
 Ce         3.9372740090        6.7933481649        7.1582495310
 Ce         7.5234611005        6.5722435416        7.0147011957
 Ce        -5.6681238489       10.0293755487        7.1822558990
 Ce        -1.9464645392        9.8470497544        7.0906592901
 Ce         1.8219482001        9.8996981378        7.2061449982
 Ce         5.6376682214        9.9934987581        7.0135264920
 Pt        -0.8474161821        4.6809749386        9.9682328394
 Pt         7.1852497226        2.0193706559        9.9456326705
 Pt         0.6924207369        2.4523081388        9.9494008149
 Pt        -6.9522349559       11.5249649792       10.9340770400
 Pt         7.8038371802        9.8202834561        9.2129870495
 Pt         1.9213523160        0.1318404017        9.9282347597
 Pt         9.6465350706        1.8860071572        9.5296932656
 Pt         1.7210288057        5.2111586548        9.8196029831
 Pt         5.7641009283        4.4561491147        9.8645791175
 Pt         4.4962687251        0.8282898760       10.7119723061
 Pt         3.4508753105        3.0465403590        9.6308580421
 Pt         1.1398761801        3.9340301439       12.1542742294
 Pt         2.4111618333        1.6891732600       11.8932813563
 Pt         5.7232241277        2.8811044118       11.9159222321
 Pt         3.6543062345        4.7921695344       11.4775598133
 Pt         3.3558302483        3.3133630972       13.5693211736
     160
 i =     1304, time =     1304.000, E =     -5324.9263453745
  O         0.0000000000        0.0000000000        0.0000000000
  O         3.8260000000        0.0000000000        0.0000000000
  O         7.6520000000        0.0000000000        0.0000000000
  O        11.4780000000        0.0000000000        0.0000000000
  O        -1.9130000000        3.3140000000        0.0000000000
  O         1.9130000000        3.3140000000        0.0000000000
  O         5.7390000000        3.3140000000        0.0000000000
  O         9.5650000000        3.3140000000        0.0000000000
  O        -3.8260000000        6.6270000000        0.0000000000
  O         0.0000000000        6.6270000000        0.0000000000
  O         3.8260000000        6.6270000000        0.0000000000
  O         7.6520000000        6.6270000000        0.0000000000
  O        -5.7390000000        9.9410000000        0.0000000000
  O        -1.9130000000        9.9410000000        0.0000000000
  O         1.9130000000        9.9410000000        0.0000000000
  O         5.7390000000        9.9410000000        0.0000000000
  O         1.9130000000        1.1050000000        1.5620000000
  O         5.7390000000        1.1050000000        1.5620000000
  O         9.5650000000        1.1050000000        1.5620000000
  O        13.3920000000        1.1050000000        1.5620000000
  O         0.0000000000        4.4180000000        1.5620000000
  O         3.8260000000        4.4180000000        1.5620000000
  O         7.6520000000        4.4180000000        1.5620000000
  O        11.4780000000        4.4180000000        1.5620000000
  O        -1.9130000000        7.7320000000        1.5620000000
  O         1.9130000000        7.7320000000        1.5620000000
  O         5.7390000000        7.7320000000        1.5620000000
  O         9.5650000000        7.7320000000        1.5620000000
  O        -3.8260000000       11.0450000000        1.5620000000
  O         0.0000000000       11.0450000000        1.5620000000
  O         3.8260000000       11.0450000000        1.5620000000
  O         7.6520000000       11.0450000000        1.5620000000
  O         0.0000000000        2.2090000000        3.1240000000
  O         3.8260000000        2.2090000000        3.1240000000
  O         7.6520000000        2.2090000000        3.1240000000
  O        11.4780000000        2.2090000000        3.1240000000
  O        -1.9130000000        5.5230000000        3.1240000000
  O         1.9130000000        5.5230000000        3.1240000000
  O         5.7390000000        5.5230000000        3.1240000000
  O         9.5650000000        5.5230000000        3.1240000000
  O        -3.8260000000        8.8360000000        3.1240000000
  O         0.0000000000        8.8360000000        3.1240000000
  O         3.8260000000        8.8360000000        3.1240000000
  O         7.6520000000        8.8360000000        3.1240000000
  O        -5.7390000000       12.1500000000        3.1240000000
  O        -1.9130000000       12.1500000000        3.1240000000
  O         1.9130000000       12.1500000000        3.1240000000
  O         5.7390000000       12.1500000000        3.1240000000
  O        -0.0877617387       -0.0934044418        4.7381245470
  O         3.8220240630        0.0516514781        4.7668482014
  O         7.7549763526       -0.1940271048        4.8278511678
  O        11.4252661712       -0.0002064428        4.8979686997
  O        -1.8620260715        3.2537611081        4.7515846945
  O         2.0426683202        3.4374326332        4.7908128510
  O         5.7366181291        3.2432055043        4.7243803813
  O         9.6417916262        3.2026067052        4.7630302804
  O        -3.9350258724        6.7659706203        4.8090516464
  O        -0.0900201365        6.5168584386        4.8655366338
  O         3.7968058609        6.8047154862        5.0171886207
  O         7.7705595793        6.6301482534        4.6489442790
  O        -5.6719985127       10.0107888406        4.6819047897
  O        -1.8551112968        9.9503905580        4.6945702173
  O         1.8928433697        9.7563344181        4.8018020980
  O         5.8119868633        9.9452007500        4.8031642400
  O         1.9406210040        1.0752734550        6.4245527837
  O         5.5488180342        1.0515167104        6.2216628901
  O         9.4799559664        0.9812449965        6.4592341854
  O        13.3893053799        1.2496410432        6.4517642395
  O        -0.1214531531        4.3543848056        6.3698533359
  O         3.7807353915        4.5793195103        6.4221486759
  O         7.5519699235        4.3701454581        6.3558530603
  O        11.4035413645        4.3478727594        6.4369438838
  O        -2.0319280953        7.6382369710        6.3789146416
  O         1.8162539670        7.7686622227        6.2513714881
  O         5.7280491488        7.6232794893        6.1392956171
  O         9.3317047623        7.8934279959        6.5309854078
  O        -3.7932159333       10.9119516450        6.3510111498
  O         0.0104175144       10.8384220540        6.2877006518
  O         3.8263794072       10.9984578114        6.3748187432
  O         7.6225587867       11.0125986850        6.2728161109
  O         0.0963773835        2.2252831762        8.0867213480
  O         3.7408326148        2.1203999441        7.7976509369
  O         7.5037962993        1.9900896165        7.7504779693
  O        11.5713820281        2.0287927082        8.3415221494
  O        -1.8525565267        5.4802543672        8.2338408298
  O         1.8506284465        5.7265635470        7.8594613258
  O         5.8015301082        5.4096855247        8.0075600542
  O         9.3477206253        5.5172686818        7.9355224331
  O        -3.8414131311        8.5505563016        7.8981123959
  O         0.0561803469        8.5772548518        8.0658122663
  O         3.7754847965        8.8549981843        7.9222208146
  O         7.1731392765        8.3447582446        8.1757168642
  O        -5.8008492952       12.3643062421        7.9363094766
  O        -1.8665114879       11.9790246197        8.0610447972
  O         1.8793947505       11.8580788326        7.9371909725
  O         5.6617648352       12.2179188030        7.9269768084
 Ce         0.0000000000        2.2090000000        0.7810000000
 Ce         3.8260000000        2.2090000000        0.7810000000
 Ce         7.6520000000        2.2090000000        0.7810000000
 Ce        11.4780000000        2.2090000000        0.7810000000
 Ce        -1.9130000000        5.5230000000        0.7810000000
 Ce         1.9130000000        5.5230000000        0.7810000000
 Ce         5.7390000000        5.5230000000        0.7810000000
 Ce         9.5650000000        5.5230000000        0.7810000000
 Ce        -3.8260000000        8.8360000000        0.7810000000
 Ce         0.0000000000        8.8360000000        0.7810000000
 Ce         3.8260000000        8.8360000000        0.7810000000
 Ce         7.6520000000        8.8360000000        0.7810000000
 Ce        -5.7390000000       12.1500000000        0.7810000000
 Ce        -1.9130000000       12.1500000000        0.7810000000
 Ce         1.9130000000       12.1500000000        0.7810000000
 Ce         5.7390000000       12.1500000000        0.7810000000
 Ce         2.1310624422        0.9509908094        3.9767571527
 Ce         5.7056263010        1.2218124539        3.9497840974
 Ce         9.4908972245        1.0016009681        3.9698258475
 Ce        13.4367398305        1.1156379981        3.8892601653
 Ce         0.0142978007        4.3297979269        3.9584903575
 Ce         3.7595034351        4.3787110953        4.0438608947
 Ce         7.6276581191        4.4553843262        3.9802711415
 Ce        11.4344277826        4.3338459015        4.0064217622
 Ce        -1.8522059247        7.7438358292        3.8790740124
 Ce         1.8734623793        7.7435058841        3.9944921976
 Ce         5.7131119152        7.6601318074        3.8799284755
 Ce         9.6298879209        7.7366726454        3.7522438976
 Ce        -3.7870312514       11.0851361564        3.9391662886
 Ce         0.0067278936       11.0432290140        3.9324131095
 Ce         3.8147812138       11.0492519367        3.9292314471
 Ce         7.5368115986       10.9692229925        3.9889374530
 Ce        -0.1302215372       -0.1164535661        7.1421700530
 Ce         3.8973970708       -0.1131060076        7.3212739011
 Ce         7.7668381809       -0.1071741774        7.3629945416
 Ce        11.4863464970        0.0381272800        7.2233751700
 Ce        -1.9604737717        3.4003636396        7.2485860341
 Ce         1.8189747630        3.3860244569        7.0995464731
 Ce         5.6587222196        3.2064949413        7.0927881854
 Ce         9.2974498593        3.2921514855        7.2275714059
 Ce        -4.0552322232        6.6166624955        7.2120267072
 Ce         0.0462411061        6.6772653096        7.0706321049
 Ce         3.9396191029        6.7965021516        7.1633227374
 Ce         7.5257370653        6.5714082221        7.0143678532
 Ce        -5.6652206026       10.0271377443        7.1817932947
 Ce        -1.9468179230        9.8472527085        7.0897518584
 Ce         1.8213122287        9.8964196336        7.2088269824
 Ce         5.6370529376        9.9940979427        7.0173651763
 Pt        -0.8493392327        4.6824597005        9.9695639330
 Pt         7.1854454806        2.0192644096        9.9441789257
 Pt         0.6929239409        2.4532123156        9.9509619392
 Pt        -6.9551005564       11.5256644402       10.9346746830
 Pt         7.8068168781        9.8225024253        9.2151337800
 Pt         1.9202156197        0.1325270700        9.9289336943
 Pt         9.6448759994        1.8856744282        9.5291270224
 Pt         1.7197652905        5.2101309780        9.8166033652
 Pt         5.7646827983        4.4554851723        9.8657062951
 Pt         4.4945345480        0.8277883718       10.7107237355
 Pt         3.4505795719        3.0471165470        9.6312772191
 Pt         1.1423060762        3.9349496599       12.1563274281
 Pt         2.4127441404        1.6876843460       11.8947868316
 Pt         5.7219622878        2.8816523647       11.9154982046
 Pt         3.6543119806        4.7931207456       11.4775402880
 Pt         3.3554330372        3.3151192980       13.5715279430
     160
 i =     1305, time =     1305.000, E =     -5324.9230901565
  O         0.0000000000        0.0000000000        0.0000000000
  O         3.8260000000        0.0000000000        0.0000000000
  O         7.6520000000        0.0000000000        0.0000000000
  O        11.4780000000        0.0000000000        0.0000000000
  O        -1.9130000000        3.3140000000        0.0000000000
  O         1.9130000000        3.3140000000        0.0000000000
  O         5.7390000000        3.3140000000        0.0000000000
  O         9.5650000000        3.3140000000        0.0000000000
  O        -3.8260000000        6.6270000000        0.0000000000
  O         0.0000000000        6.6270000000        0.0000000000
  O         3.8260000000        6.6270000000        0.0000000000
  O         7.6520000000        6.6270000000        0.0000000000
  O        -5.7390000000        9.9410000000        0.0000000000
  O        -1.9130000000        9.9410000000        0.0000000000
  O         1.9130000000        9.9410000000        0.0000000000
  O         5.7390000000        9.9410000000        0.0000000000
  O         1.9130000000        1.1050000000        1.5620000000
  O         5.7390000000        1.1050000000        1.5620000000
  O         9.5650000000        1.1050000000        1.5620000000
  O        13.3920000000        1.1050000000        1.5620000000
  O         0.0000000000        4.4180000000        1.5620000000
  O         3.8260000000        4.4180000000        1.5620000000
  O         7.6520000000        4.4180000000        1.5620000000
  O        11.4780000000        4.4180000000        1.5620000000
  O        -1.9130000000        7.7320000000        1.5620000000
  O         1.9130000000        7.7320000000        1.5620000000
  O         5.7390000000        7.7320000000        1.5620000000
  O         9.5650000000        7.7320000000        1.5620000000
  O        -3.8260000000       11.0450000000        1.5620000000
  O         0.0000000000       11.0450000000        1.5620000000
  O         3.8260000000       11.0450000000        1.5620000000
  O         7.6520000000       11.0450000000        1.5620000000
  O         0.0000000000        2.2090000000        3.1240000000
  O         3.8260000000        2.2090000000        3.1240000000
  O         7.6520000000        2.2090000000        3.1240000000
  O        11.4780000000        2.2090000000        3.1240000000
  O        -1.9130000000        5.5230000000        3.1240000000
  O         1.9130000000        5.5230000000        3.1240000000
  O         5.7390000000        5.5230000000        3.1240000000
  O         9.5650000000        5.5230000000        3.1240000000
  O        -3.8260000000        8.8360000000        3.1240000000
  O         0.0000000000        8.8360000000        3.1240000000
  O         3.8260000000        8.8360000000        3.1240000000
  O         7.6520000000        8.8360000000        3.1240000000
  O        -5.7390000000       12.1500000000        3.1240000000
  O        -1.9130000000       12.1500000000        3.1240000000
  O         1.9130000000       12.1500000000        3.1240000000
  O         5.7390000000       12.1500000000        3.1240000000
  O        -0.0905895334       -0.0995638730        4.7314844970
  O         3.8253176331        0.0595684697        4.7641756744
  O         7.7686506789       -0.1961751398        4.8196174647
  O        11.4250273460        0.0066632494        4.8865727277
  O        -1.8623347891        3.2445980814        4.7548325872
  O         2.0397453533        3.4506857918        4.7962995621
  O         5.7506143242        3.2483879529        4.7152306122
  O         9.6402492776        3.2070184043        4.7552208337
  O        -3.9397804998        6.7701347414        4.8063876263
  O        -0.0962779775        6.5157529502        4.8689925012
  O         3.7865041018        6.8008241110        5.0104533915
  O         7.7730725657        6.6243586025        4.6463139549
  O        -5.6603559399       10.0212461477        4.6889417797
  O        -1.8482582804        9.9527518421        4.6967239060
  O         1.8959855522        9.7474468748        4.8077718561
  O         5.8129023559        9.9458148726        4.8121945548
  O         1.9407088467        1.0743275396        6.4347262389
  O         5.5507659996        1.0614590530        6.2167254088
  O         9.4743615357        0.9757204764        6.4600208739
  O        13.3866670883        1.2477285258        6.4471335467
  O        -0.1145512042        4.3648767215        6.3732312233
  O         3.7806897163        4.5865929776        6.4064006035
  O         7.5524215568        4.3687761583        6.3532839875
  O        11.4036454084        4.3546938846        6.4427896507
  O        -2.0332348436        7.6376614668        6.3798806771
  O         1.8032570684        7.7727341449        6.2549292598
  O         5.7278585904        7.6245597117        6.1386907018
  O         9.3230596927        7.8851080900        6.5205793883
  O        -3.7913647107       10.9048262726        6.3575411324
  O         0.0057503316       10.8356606019        6.3009711824
  O         3.8313160866       10.9975022941        6.3748945997
  O         7.6284908796       11.0083793949        6.2748249519
  O         0.1026975355        2.2228896683        8.0845889735
  O         3.7350912524        2.1149940427        7.7992629419
  O         7.5084691157        1.9857808413        7.7398652428
  O        11.5648778327        2.0167479318        8.3406048059
  O        -1.8504254236        5.4764358222        8.2338886605
  O         1.8526766377        5.7306629583        7.8577936314
  O         5.8095205023        5.4131441571        8.0071217230
  O         9.3415182121        5.5120304206        7.9347779134
  O        -3.8445636898        8.5568293749        7.8960753021
  O         0.0488535270        8.5829471283        8.0780370195
  O         3.7716976205        8.8541169688        7.9175772414
  O         7.1715354630        8.3442451044        8.1804112295
  O        -5.8068203984       12.3662144617        7.9342550621
  O        -1.8660636339       11.9804323218        8.0671874185
  O         1.8879159886       11.8610309763        7.9423775121
  O         5.6598457551       12.2205662121        7.9195432805
 Ce         0.0000000000        2.2090000000        0.7810000000
 Ce         3.8260000000        2.2090000000        0.7810000000
 Ce         7.6520000000        2.2090000000        0.7810000000
 Ce        11.4780000000        2.2090000000        0.7810000000
 Ce        -1.9130000000        5.5230000000        0.7810000000
 Ce         1.9130000000        5.5230000000        0.7810000000
 Ce         5.7390000000        5.5230000000        0.7810000000
 Ce         9.5650000000        5.5230000000        0.7810000000
 Ce        -3.8260000000        8.8360000000        0.7810000000
 Ce         0.0000000000        8.8360000000        0.7810000000
 Ce         3.8260000000        8.8360000000        0.7810000000
 Ce         7.6520000000        8.8360000000        0.7810000000
 Ce        -5.7390000000       12.1500000000        0.7810000000
 Ce        -1.9130000000       12.1500000000        0.7810000000
 Ce         1.9130000000       12.1500000000        0.7810000000
 Ce         5.7390000000       12.1500000000        0.7810000000
 Ce         2.1335262292        0.9502140616        3.9771167027
 Ce         5.7038124585        1.2249745919        3.9488961032
 Ce         9.4908206962        0.9978031995        3.9680303147
 Ce        13.4333615290        1.1175344322        3.8878391141
 Ce         0.0119272658        4.3276039675        3.9551439091
 Ce         3.7602519106        4.3802432466        4.0471237492
 Ce         7.6226206621        4.4561513422        3.9833616842
 Ce        11.4302770741        4.3338864572        4.0099144813
 Ce        -1.8531790003        7.7432201653        3.8790688635
 Ce         1.8750445900        7.7453521317        3.9929959368
 Ce         5.7130493075        7.6581408701        3.8792759826
 Ce         9.6276066159        7.7393653367        3.7518383821
 Ce        -3.7912973560       11.0850116201        3.9390046414
 Ce         0.0061747635       11.0424958068        3.9307630687
 Ce         3.8119217874       11.0512904554        3.9290239612
 Ce         7.5366844539       10.9698974002        3.9929014082
 Ce        -0.1329853842       -0.1137673305        7.1421271658
 Ce         3.8947441019       -0.1106170053        7.3203057336
 Ce         7.7661748452       -0.1109113343        7.3629048038
 Ce        11.4848120927        0.0381654435        7.2275856699
 Ce        -1.9596780356        3.3974888082        7.2495863800
 Ce         1.8188587731        3.3847820771        7.0996685478
 Ce         5.6602113361        3.2059010457        7.0973912786
 Ce         9.2966087768        3.2945801595        7.2258516837
 Ce        -4.0535330946        6.6155280861        7.2122155261
 Ce         0.0432613099        6.6783653069        7.0731063345
 Ce         3.9418538898        6.7995947579        7.1684441888
 Ce         7.5281386951        6.5706097897        7.0140961362
 Ce        -5.6623679112       10.0248010777        7.1812875861
 Ce        -1.9470996253        9.8473817082        7.0888550867
 Ce         1.8207070736        9.8930413489        7.2114649427
 Ce         5.6364628670        9.9946496501        7.0213250470
 Pt        -0.8512170966        4.6839459608        9.9708917207
 Pt         7.1855637369        2.0191996169        9.9427407105
 Pt         0.6934196757        2.4541272327        9.9525464033
 Pt        -6.9579662806       11.5263647838       10.9352649599
 Pt         7.8098337281        9.8247782413        9.2173457922
 Pt         1.9191116191        0.1332288696        9.9296492905
 Pt         9.6432813527        1.8853324550        9.5285373008
 Pt         1.7184938510        5.2090561015        9.8136268694
 Pt         5.7652622761        4.4547938488        9.8668530662
 Pt         4.4928279077        0.8273008122       10.7094526327
 Pt         3.4503037710        3.0476886934        9.6316870590
 Pt         1.1447034754        3.9359307993       12.1583393629
 Pt         2.4143207141        1.6861628410       11.8962942799
 Pt         5.7206784364        2.8821877188       11.9150533526
 Pt         3.6543219595        4.7940642153       11.4775168954
 Pt         3.3550616432        3.3168834227       13.5737407972
     160
 i =     1306, time =     1306.000, E =     -5324.9196900806
  O         0.0000000000        0.0000000000        0.0000000000
  O         3.8260000000        0.0000000000        0.0000000000
  O         7.6520000000        0.0000000000        0.0000000000
  O        11.4780000000        0.0000000000        0.0000000000
  O        -1.9130000000        3.3140000000        0.0000000000
  O         1.9130000000        3.3140000000        0.0000000000
  O         5.7390000000        3.3140000000        0.0000000000
  O         9.5650000000        3.3140000000        0.0000000000
  O        -3.8260000000        6.6270000000        0.0000000000
  O         0.0000000000        6.6270000000        0.0000000000
  O         3.8260000000        6.6270000000        0.0000000000
  O         7.6520000000        6.6270000000        0.0000000000
  O        -5.7390000000        9.9410000000        0.0000000000
  O        -1.9130000000        9.9410000000        0.0000000000
  O         1.9130000000        9.9410000000        0.0000000000
  O         5.7390000000        9.9410000000        0.0000000000
  O         1.9130000000        1.1050000000        1.5620000000
  O         5.7390000000        1.1050000000        1.5620000000
  O         9.5650000000        1.1050000000        1.5620000000
  O        13.3920000000        1.1050000000        1.5620000000
  O         0.0000000000        4.4180000000        1.5620000000
  O         3.8260000000        4.4180000000        1.5620000000
  O         7.6520000000        4.4180000000        1.5620000000
  O        11.4780000000        4.4180000000        1.5620000000
  O        -1.9130000000        7.7320000000        1.5620000000
  O         1.9130000000        7.7320000000        1.5620000000
  O         5.7390000000        7.7320000000        1.5620000000
  O         9.5650000000        7.7320000000        1.5620000000
  O        -3.8260000000       11.0450000000        1.5620000000
  O         0.0000000000       11.0450000000        1.5620000000
  O         3.8260000000       11.0450000000        1.5620000000
  O         7.6520000000       11.0450000000        1.5620000000
  O         0.0000000000        2.2090000000        3.1240000000
  O         3.8260000000        2.2090000000        3.1240000000
  O         7.6520000000        2.2090000000        3.1240000000
  O        11.4780000000        2.2090000000        3.1240000000
  O        -1.9130000000        5.5230000000        3.1240000000
  O         1.9130000000        5.5230000000        3.1240000000
  O         5.7390000000        5.5230000000        3.1240000000
  O         9.5650000000        5.5230000000        3.1240000000
  O        -3.8260000000        8.8360000000        3.1240000000
  O         0.0000000000        8.8360000000        3.1240000000
  O         3.8260000000        8.8360000000        3.1240000000
  O         7.6520000000        8.8360000000        3.1240000000
  O        -5.7390000000       12.1500000000        3.1240000000
  O        -1.9130000000       12.1500000000        3.1240000000
  O         1.9130000000       12.1500000000        3.1240000000
  O         5.7390000000       12.1500000000        3.1240000000
  O        -0.0932411585       -0.1053457757        4.7252744937
  O         3.8289346019        0.0666248832        4.7615055053
  O         7.7818766352       -0.1975941392        4.8114611702
  O        11.4249616973        0.0133783598        4.8747811415
  O        -1.8630704954        3.2358351311        4.7580018239
  O         2.0360536218        3.4631525759        4.8019831012
  O         5.7643579293        3.2543017124        4.7064504871
  O         9.6380454199        3.2116578128        4.7476211502
  O        -3.9445021272        6.7736418286        4.8038196489
  O        -0.1022320067        6.5149604843        4.8716097402
  O         3.7761040360        6.7963818308        5.0022828369
  O         7.7750369669        6.6181902057        4.6439105508
  O        -5.6488604678       10.0315437364        4.6961377835
  O        -1.8418339378        9.9548587331        4.6990492572
  O         1.8993865246        9.7398947995        4.8133745875
  O         5.8128921937        9.9461465047        4.8208026202
  O         1.9404359045        1.0736296435        6.4439855488
  O         5.5531897320        1.0713704710        6.2123157414
  O         9.4691200404        0.9705361076        6.4604876761
  O        13.3840764241        1.2454886201        6.4424349162
  O        -0.1072140240        4.3751547469        6.3765376020
  O         3.7810104780        4.5931837826        6.3903035083
  O         7.5526761349        4.3669855255        6.3501431638
  O        11.4039528156        4.3616129961        6.4486516066
  O        -2.0340505327        7.6374604911        6.3805445430
  O         1.7905381392        7.7765969882        6.2587504338
  O         5.7279403816        7.6262368021        6.1384202114
  O         9.3147341022        7.8768515349        6.5099828479
  O        -3.7894846709       10.8983495014        6.3643567943
  O         0.0006632334       10.8331436925        6.3146331588
  O         3.8361234823       10.9967806800        6.3743667767
  O         7.6346225659       11.0040457111        6.2773134204
  O         0.1083779548        2.2202302383        8.0818961701
  O         3.7296225946        2.1100189829        7.8011106729
  O         7.5125702356        1.9821559977        7.7294330621
  O        11.5580608977        2.0047935769        8.3395508180
  O        -1.8485795807        5.4723595962        8.2341573064
  O         1.8553171006        5.7344972150        7.8564564491
  O         5.8171808485        5.4167659130        8.0069721290
  O         9.3356643708        5.5066326912        7.9338995145
  O        -3.8477918603        8.5643055440        7.8945355392
  O         0.0412603231        8.5894377934        8.0901098092
  O         3.7682017158        8.8529827064        7.9129970724
  O         7.1691338802        8.3435660007        8.1847774727
  O        -5.8122795658       12.3672363554        7.9323100976
  O        -1.8657600792       11.9818717862        8.0729865639
  O         1.8963196364       11.8649011601        7.9479537671
  O         5.6580085330       12.2230058999        7.9120204288
 Ce         0.0000000000        2.2090000000        0.7810000000
 Ce         3.8260000000        2.2090000000        0.7810000000
 Ce         7.6520000000        2.2090000000        0.7810000000
 Ce        11.4780000000        2.2090000000        0.7810000000
 Ce        -1.9130000000        5.5230000000        0.7810000000
 Ce         1.9130000000        5.5230000000        0.7810000000
 Ce         5.7390000000        5.5230000000        0.7810000000
 Ce         9.5650000000        5.5230000000        0.7810000000
 Ce        -3.8260000000        8.8360000000        0.7810000000
 Ce         0.0000000000        8.8360000000        0.7810000000
 Ce         3.8260000000        8.8360000000        0.7810000000
 Ce         7.6520000000        8.8360000000        0.7810000000
 Ce        -5.7390000000       12.1500000000        0.7810000000
 Ce        -1.9130000000       12.1500000000        0.7810000000
 Ce         1.9130000000       12.1500000000        0.7810000000
 Ce         5.7390000000       12.1500000000        0.7810000000
 Ce         2.1357423631        0.9495068428        3.9774762945
 Ce         5.7020733747        1.2279806824        3.9479683194
 Ce         9.4908043201        0.9940640626        3.9662633839
 Ce        13.4299632732        1.1194268483        3.8864746280
 Ce         0.0094991449        4.3254693237        3.9517623215
 Ce         3.7610454628        4.3818931502        4.0503146092
 Ce         7.6176598264        4.4568932391        3.9863647430
 Ce        11.4261648908        4.3339646333        4.0133792350
 Ce        -1.8542366055        7.7425487672        3.8791395036
 Ce         1.8766556416        7.7471593694        3.9914848909
 Ce         5.7129986608        7.6562037980        3.8786362347
 Ce         9.6252977059        7.7420866234        3.7516066798
 Ce        -3.7955940166       11.0848119190        3.9388057803
 Ce         0.0056125859       11.0417352853        3.9291395727
 Ce         3.8090510042       11.0533194448        3.9288525782
 Ce         7.5367158085       10.9706401287        3.9968031212
 Ce        -0.1357030739       -0.1109951299        7.1420663977
 Ce         3.8920652727       -0.1080648118        7.3193053323
 Ce         7.7654921850       -0.1147663463        7.3627546351
 Ce        11.4832524141        0.0382050909        7.2317999591
 Ce        -1.9589046689        3.3945520111        7.2506015428
 Ce         1.8187879899        3.3834815571        7.0998137708
 Ce         5.6616427758        3.2053328938        7.1020112283
 Ce         9.2959389659        3.2970162541        7.2241398810
 Ce        -4.0518194867        6.6143907104        7.2123389147
 Ce         0.0401435007        6.6794819376        7.0756452954
 Ce         3.9439767602        6.8026208263        7.1736016180
 Ce         7.5306633476        6.5698494746        7.0138837534
 Ce        -5.6595683248       10.0223662360        7.1807392932
 Ce        -1.9473057632        9.8474361229        7.0879745412
 Ce         1.8201274873        9.8895696061        7.2140619688
 Ce         5.6359013908        9.9951544562        7.0254022059
 Pt        -0.8530488648        4.6854325127        9.9722157761
 Pt         7.1856036091        2.0191770993        9.9413176468
 Pt         0.6939070772        2.4550534446        9.9541537229
 Pt        -6.9608312531       11.5270676969       10.9358483860
 Pt         7.8128857798        9.8271068633        9.2196208076
 Pt         1.9180397439        0.1339452045        9.9303811642
 Pt         9.6417511224        1.8849811583        9.5279244494
 Pt         1.7172150433        5.2079343932        9.8106743814
 Pt         5.7658401783        4.4540758369        9.8680181253
 Pt         4.4911500109        0.8268264199       10.7081590328
 Pt         3.4500477658        3.0482571742        9.6320871365
 Pt         1.1470683566        3.9369732906       12.1603091208
 Pt         2.4158911916        1.6846098747       11.8978051105
 Pt         5.7193726952        2.8827099410       11.9145875547
 Pt         3.6543349832        4.7949996681       11.4774885562
 Pt         3.3547163650        3.3186549790       13.5759589138
     160
 i =     1307, time =     1307.000, E =     -5324.9162771933
  O         0.0000000000        0.0000000000        0.0000000000
  O         3.8260000000        0.0000000000        0.0000000000
  O         7.6520000000        0.0000000000        0.0000000000
  O        11.4780000000        0.0000000000        0.0000000000
  O        -1.9130000000        3.3140000000        0.0000000000
  O         1.9130000000        3.3140000000        0.0000000000
  O         5.7390000000        3.3140000000        0.0000000000
  O         9.5650000000        3.3140000000        0.0000000000
  O        -3.8260000000        6.6270000000        0.0000000000
  O         0.0000000000        6.6270000000        0.0000000000
  O         3.8260000000        6.6270000000        0.0000000000
  O         7.6520000000        6.6270000000        0.0000000000
  O        -5.7390000000        9.9410000000        0.0000000000
  O        -1.9130000000        9.9410000000        0.0000000000
  O         1.9130000000        9.9410000000        0.0000000000
  O         5.7390000000        9.9410000000        0.0000000000
  O         1.9130000000        1.1050000000        1.5620000000
  O         5.7390000000        1.1050000000        1.5620000000
  O         9.5650000000        1.1050000000        1.5620000000
  O        13.3920000000        1.1050000000        1.5620000000
  O         0.0000000000        4.4180000000        1.5620000000
  O         3.8260000000        4.4180000000        1.5620000000
  O         7.6520000000        4.4180000000        1.5620000000
  O        11.4780000000        4.4180000000        1.5620000000
  O        -1.9130000000        7.7320000000        1.5620000000
  O         1.9130000000        7.7320000000        1.5620000000
  O         5.7390000000        7.7320000000        1.5620000000
  O         9.5650000000        7.7320000000        1.5620000000
  O        -3.8260000000       11.0450000000        1.5620000000
  O         0.0000000000       11.0450000000        1.5620000000
  O         3.8260000000       11.0450000000        1.5620000000
  O         7.6520000000       11.0450000000        1.5620000000
  O         0.0000000000        2.2090000000        3.1240000000
  O         3.8260000000        2.2090000000        3.1240000000
  O         7.6520000000        2.2090000000        3.1240000000
  O        11.4780000000        2.2090000000        3.1240000000
  O        -1.9130000000        5.5230000000        3.1240000000
  O         1.9130000000        5.5230000000        3.1240000000
  O         5.7390000000        5.5230000000        3.1240000000
  O         9.5650000000        5.5230000000        3.1240000000
  O        -3.8260000000        8.8360000000        3.1240000000
  O         0.0000000000        8.8360000000        3.1240000000
  O         3.8260000000        8.8360000000        3.1240000000
  O         7.6520000000        8.8360000000        3.1240000000
  O        -5.7390000000       12.1500000000        3.1240000000
  O        -1.9130000000       12.1500000000        3.1240000000
  O         1.9130000000       12.1500000000        3.1240000000
  O         5.7390000000       12.1500000000        3.1240000000
  O        -0.0956852625       -0.1107263866        4.7195390802
  O         3.8328662485        0.0727760667        4.7588728748
  O         7.7945803543       -0.1983432907        4.8034679239
  O        11.4250737741        0.0198963630        4.8626760188
  O        -1.8642131502        3.2275418926        4.7611015897
  O         2.0315680673        3.4747809525        4.8078552184
  O         5.7777637830        3.2609005732        4.6980436379
  O         9.6352098932        3.2165113617        4.7403228583
  O        -3.9491642683        6.7764796392        4.8013833056
  O        -0.1078912539        6.5144911943        4.8733803087
  O         3.7656756230        6.7914321371        4.9927363229
  O         7.7764224436        6.6116995513        4.6417354316
  O        -5.6375721734       10.0416405913        4.7034835447
  O        -1.8358878263        9.9566982155        4.7015408961
  O         1.9030369500        9.7337490915        4.8185833403
  O         5.8119761028        9.9461973948        4.8288932512
  O         1.9398048975        1.0731781992        6.4522450067
  O         5.5560471229        1.0812322008        6.2084611251
  O         9.4642652833        0.9657089849        6.4606244311
  O        13.3815511154        1.2429453793        6.4377293790
  O        -0.0995365659        4.3851352441        6.3797661242
  O         3.7817444103        4.5990562998        6.3739399861
  O         7.5527244496        4.3647818697        6.3464603209
  O        11.4044696945        4.3685988027        6.4544941282
  O        -2.0344047951        7.6376138659        6.3809144903
  O         1.7781551845        7.7802272153        6.2628513782
  O         5.7282572600        7.6282803923        6.1384795815
  O         9.3067844354        7.8686921714        6.4992642230
  O        -3.7875806652       10.8925715971        6.3714188749
  O        -0.0048011527       10.8308979982        6.3285565290
  O         3.8407701860       10.9963042738        6.3732370729
  O         7.6409267050       10.9996170979        6.2802918281
  O         0.1133978896        2.2173143102        8.0786792679
  O         3.7244705677        2.1055161452        7.8031903179
  O         7.5160640926        1.9792482039        7.7192013244
  O        11.5509428133        1.9929692397        8.3383703279
  O        -1.8470413521        5.4680293334        8.2346487481
  O         1.8585596584        5.7380634931        7.8554712851
  O         5.8244463589        5.4205253178        8.0071289239
  O         9.3301902236        5.5010889024        7.9329055697
  O        -3.8511157711        8.5729116007        7.8934652528
  O         0.0334090113        8.5966724109        8.1019278700
  O         3.7650090239        8.8515886362        7.9085113660
  O         7.1659573099        8.3427498241        8.1888413201
  O        -5.8172040550       12.3673672525        7.9305013775
  O        -1.8656174209       11.9833736245        8.0784077679
  O         1.9045895553       11.8696550465        7.9538653765
  O         5.6562712948       12.2252234314        7.9044491144
 Ce         0.0000000000        2.2090000000        0.7810000000
 Ce         3.8260000000        2.2090000000        0.7810000000
 Ce         7.6520000000        2.2090000000        0.7810000000
 Ce        11.4780000000        2.2090000000        0.7810000000
 Ce        -1.9130000000        5.5230000000        0.7810000000
 Ce         1.9130000000        5.5230000000        0.7810000000
 Ce         5.7390000000        5.5230000000        0.7810000000
 Ce         9.5650000000        5.5230000000        0.7810000000
 Ce        -3.8260000000        8.8360000000        0.7810000000
 Ce         0.0000000000        8.8360000000        0.7810000000
 Ce         3.8260000000        8.8360000000        0.7810000000
 Ce         7.6520000000        8.8360000000        0.7810000000
 Ce        -5.7390000000       12.1500000000        0.7810000000
 Ce        -1.9130000000       12.1500000000        0.7810000000
 Ce         1.9130000000       12.1500000000        0.7810000000
 Ce         5.7390000000       12.1500000000        0.7810000000
 Ce         2.1377066997        0.9488710277        3.9778318767
 Ce         5.7004154374        1.2308332734        3.9469968258
 Ce         9.4908491154        0.9903902556        3.9645232812
 Ce        13.4265441716        1.1213103258        3.8851651820
 Ce         0.0070167844        4.3233990982        3.9483490652
 Ce         3.7618832511        4.3836650165        4.0534301284
 Ce         7.6127824182        4.4576076402        3.9892739688
 Ce        11.4220901299        4.3340806820        4.0168094905
 Ce        -1.8553762443        7.7418215868        3.8792858693
 Ce         1.8782930057        7.7489207228        3.9899594041
 Ce         5.7129575226        7.6543214046        3.8780097207
 Ce         9.6229622640        7.7448299230        3.7515477306
 Ce        -3.7999129509       11.0845377239        3.9385687935
 Ce         0.0050409594       11.0409472182        3.9275429418
 Ce         3.8061741155       11.0553382731        3.9287177082
 Ce         7.5369004475       10.9714511460        4.0006410643
 Ce        -0.1383716765       -0.1081410799        7.1419852953
 Ce         3.8893617303       -0.1054533658        7.3182749682
 Ce         7.7647933235       -0.1187407553        7.3625467025
 Ce        11.4816621500        0.0382424929        7.2360109197
 Ce        -1.9581482751        3.3915559900        7.2516282218
 Ce         1.8187624883        3.3821288379        7.0999803021
 Ce         5.6630187975        3.2047910432        7.1066428717
 Ce         9.2954373104        3.2994557242        7.2224351609
 Ce        -4.0500923448        6.6132556300        7.2123959748
 Ce         0.0368894125        6.6806178429        7.0782487648
 Ce         3.9459869917        6.8055751485        7.1787828183
 Ce         7.5333074168        6.5691279487        7.0137283489
 Ce        -5.6568240576       10.0198349604        7.1801496460
 Ce        -1.9474332808        9.8474161230        7.0871162021
 Ce         1.8195684653        9.8860119108        7.2166212044
 Ce         5.6353722557        9.9956129736        7.0295926405
 Pt        -0.8548334773        4.6869181669        9.9735359566
 Pt         7.1855644851        2.0191974941        9.9399094733
 Pt         0.6943852597        2.4559915160        9.9557834140
 Pt        -6.9636945980       11.5277748255       10.9364253885
 Pt         7.8159708191        9.8294838663        9.2219562711
 Pt         1.9169996085        0.1346756266        9.9311291308
 Pt         9.6402848255        1.8846205560        9.5272886373
 Pt         1.7159289702        5.2067662536        9.8077470693
 Pt         5.7664175190        4.4533319510        9.8692000547
 Pt         4.4895020119        0.8263644721       10.7068431294
 Pt         3.4498114712        3.0488220992        9.6324770828
 Pt         1.1494007463        3.9380763750       12.1622351050
 Pt         2.4174550554        1.6830271747       11.8993199562
 Pt         5.7180452334        2.8832181774       11.9141007032
 Pt         3.6543498992        4.7959272820       11.4774547425
 Pt         3.3543973691        3.3204332021       13.5781817170
     160
 i =     1308, time =     1308.000, E =     -5324.9131002493
  O         0.0000000000        0.0000000000        0.0000000000
  O         3.8260000000        0.0000000000        0.0000000000
  O         7.6520000000        0.0000000000        0.0000000000
  O        11.4780000000        0.0000000000        0.0000000000
  O        -1.9130000000        3.3140000000        0.0000000000
  O         1.9130000000        3.3140000000        0.0000000000
  O         5.7390000000        3.3140000000        0.0000000000
  O         9.5650000000        3.3140000000        0.0000000000
  O        -3.8260000000        6.6270000000        0.0000000000
  O         0.0000000000        6.6270000000        0.0000000000
  O         3.8260000000        6.6270000000        0.0000000000
  O         7.6520000000        6.6270000000        0.0000000000
  O        -5.7390000000        9.9410000000        0.0000000000
  O        -1.9130000000        9.9410000000        0.0000000000
  O         1.9130000000        9.9410000000        0.0000000000
  O         5.7390000000        9.9410000000        0.0000000000
  O         1.9130000000        1.1050000000        1.5620000000
  O         5.7390000000        1.1050000000        1.5620000000
  O         9.5650000000        1.1050000000        1.5620000000
  O        13.3920000000        1.1050000000        1.5620000000
  O         0.0000000000        4.4180000000        1.5620000000
  O         3.8260000000        4.4180000000        1.5620000000
  O         7.6520000000        4.4180000000        1.5620000000
  O        11.4780000000        4.4180000000        1.5620000000
  O        -1.9130000000        7.7320000000        1.5620000000
  O         1.9130000000        7.7320000000        1.5620000000
  O         5.7390000000        7.7320000000        1.5620000000
  O         9.5650000000        7.7320000000        1.5620000000
  O        -3.8260000000       11.0450000000        1.5620000000
  O         0.0000000000       11.0450000000        1.5620000000
  O         3.8260000000       11.0450000000        1.5620000000
  O         7.6520000000       11.0450000000        1.5620000000
  O         0.0000000000        2.2090000000        3.1240000000
  O         3.8260000000        2.2090000000        3.1240000000
  O         7.6520000000        2.2090000000        3.1240000000
  O        11.4780000000        2.2090000000        3.1240000000
  O        -1.9130000000        5.5230000000        3.1240000000
  O         1.9130000000        5.5230000000        3.1240000000
  O         5.7390000000        5.5230000000        3.1240000000
  O         9.5650000000        5.5230000000        3.1240000000
  O        -3.8260000000        8.8360000000        3.1240000000
  O         0.0000000000        8.8360000000        3.1240000000
  O         3.8260000000        8.8360000000        3.1240000000
  O         7.6520000000        8.8360000000        3.1240000000
  O        -5.7390000000       12.1500000000        3.1240000000
  O        -1.9130000000       12.1500000000        3.1240000000
  O         1.9130000000       12.1500000000        3.1240000000
  O         5.7390000000       12.1500000000        3.1240000000
  O        -0.0978957661       -0.1156811428        4.7143045630
  O         3.8370965846        0.0779868406        4.7563134814
  O         7.8067094759       -0.1984783591        4.7957016994
  O        11.4253693417        0.0261834908        4.8502781970
  O        -1.8657390411        3.2197726799        4.7641447436
  O         2.0262720281        3.4855373988        4.8138876890
  O         5.7907063172        3.2681188026        4.6900192495
  O         9.6317739011        3.2215712344        4.7334163278
  O        -3.9537384285        6.7786367467        4.7991104860
  O        -0.1132664587        6.5143521646        4.8742998296
  O         3.7552674414        6.7860068053        4.9818824252
  O         7.7771975227        6.6049430107        4.6397889297
  O        -5.6265514636       10.0515004593        4.7109917111
  O        -1.8304615093        9.9582637112        4.7041951581
  O         1.9069269604        9.7290596235        4.8233674776
  O         5.8101875734        9.9459781870        4.8363784629
  O         1.9388199996        1.0729708573        6.4594045527
  O         5.5592990475        1.0910337553        6.2051766117
  O         9.4598273239        0.9612489764        6.4604252390
  O        13.3791078598        1.2401251303        6.4330692711
  O        -0.0915943824        4.3947687958        6.3829118723
  O         3.7829344732        4.6041743599        6.3574975738
  O         7.5525600591        4.3621788493        6.3422664845
  O        11.4052022701        4.3756228760        6.4602770795
  O        -2.0343282461        7.6381010762        6.3810028151
  O         1.7661403121        7.7836038976        6.2672522002
  O         5.7287663787        7.6306580642        6.1388630121
  O         9.2992510950        7.8606629834        6.4884421687
  O        -3.7856619871       10.8875382586        6.3786669993
  O        -0.0105911239       10.8289532245        6.3426778205
  O         3.8452222882       10.9960804160        6.3715160277
  O         7.6473792638       10.9951130454        6.2837641691
  O         0.1177417961        2.2141516480        8.0749827830
  O         3.7196680313        2.1015219835        7.8054986332
  O         7.5189191722        1.9770874352        7.7092305017
  O        11.5435409615        1.9812955698        8.3370738210
  O        -1.8458315533        5.4634542711        8.2353582482
  O         1.8624099609        5.7413605810        7.8548558212
  O         5.8312686645        5.4244069964        8.0076112964
  O         9.3251179003        5.4954062348        7.9318160208
  O        -3.8545541745        8.5825659820        7.8928358749
  O         0.0253015861        8.6045968738        8.1134226398
  O         3.7621308760        8.8499308807        7.9041414258
  O         7.1620368073        8.3418326056        8.1926378732
  O        -5.8215734449       12.3666011862        7.9288543891
  O        -1.8656491211       11.9849694285        8.0834086191
  O         1.9127172948       11.8752545604        7.9600684596
  O         5.6546525233       12.2272043436        7.8968454855
 Ce         0.0000000000        2.2090000000        0.7810000000
 Ce         3.8260000000        2.2090000000        0.7810000000
 Ce         7.6520000000        2.2090000000        0.7810000000
 Ce        11.4780000000        2.2090000000        0.7810000000
 Ce        -1.9130000000        5.5230000000        0.7810000000
 Ce         1.9130000000        5.5230000000        0.7810000000
 Ce         5.7390000000        5.5230000000        0.7810000000
 Ce         9.5650000000        5.5230000000        0.7810000000
 Ce        -3.8260000000        8.8360000000        0.7810000000
 Ce         0.0000000000        8.8360000000        0.7810000000
 Ce         3.8260000000        8.8360000000        0.7810000000
 Ce         7.6520000000        8.8360000000        0.7810000000
 Ce        -5.7390000000       12.1500000000        0.7810000000
 Ce        -1.9130000000       12.1500000000        0.7810000000
 Ce         1.9130000000       12.1500000000        0.7810000000
 Ce         5.7390000000       12.1500000000        0.7810000000
 Ce         2.1394157773        0.9483081873        3.9781798464
 Ce         5.6988449947        1.2335354107        3.9459782510
 Ce         9.4909562498        0.9867888348        3.9628082196
 Ce        13.4231033232        1.1231800332        3.8839092476
 Ce         0.0044834544        4.3213982311        3.9449076201
 Ce         3.7627637550        4.3855624916        4.0564668574
 Ce         7.6079956131        4.4582922912        3.9920829408
 Ce        11.4180515335        4.3342348712        4.0201989283
 Ce        -1.8565954232        7.7410385049        3.8795078250
 Ce         1.8799541577        7.7506299039        3.9884196425
 Ce         5.7129234450        7.6524943925        3.8773968407
 Ce         9.6206013856        7.7475884235        3.7516603582
 Ce        -3.8042457396       11.0841899282        3.9382928606
 Ce         0.0044593768       11.0401317482        3.9259733770
 Ce         3.8032962861       11.0573463701        3.9286197634
 Ce         7.5372327585       10.9723301289        4.0044140634
 Ce        -0.1409878081       -0.1052091042        7.1418816525
 Ce         3.8866343698       -0.1027866495        7.3172167949
 Ce         7.7640810839       -0.1228351925        7.3622835191
 Ce        11.4800361328        0.0382735687        7.2402112218
 Ce        -1.9574036332        3.3885033388        7.2526631398
 Ce         1.8187821243        3.3807293380        7.1001660955
 Ce         5.6643418644        3.2042760974        7.1112810144
 Ce         9.2951005013        3.3018946019        7.2207361004
 Ce        -4.0483522384        6.6121285001        7.2123859194
 Ce         0.0335008853        6.6817753006        7.0809163050
 Ce         3.9478842644        6.8084521951        7.1839753034
 Ce         7.5360671247        6.5684455179        7.0136272663
 Ce        -5.6541368254       10.0172093689        7.1795197687
 Ce        -1.9474797143        9.8473220659        7.0862861639
 Ce         1.8190249608        9.8823764893        7.2191455467
 Ce         5.6348790414        9.9960259634        7.0338919103
 Pt        -0.8565704755        4.6884021640        9.9748521574
 Pt         7.1854455911        2.0192615095        9.9385160021
 Pt         0.6948534735        2.4569413074        9.9574342894
 Pt        -6.9665553208       11.5284879301       10.9369963790
 Pt         7.8190862310        9.8319042636        9.2243495062
 Pt         1.9159909093        0.1354196510        9.9318929463
 Pt         9.6388819416        1.8842506496        9.5266302635
 Pt         1.7146362931        5.2055520623        9.8048461197
 Pt         5.7669948213        4.4525629357        9.8703975593
 Pt         4.4878849852        0.8259142126       10.7055050449
 Pt         3.4495949069        3.0493838542        9.6328569195
 Pt         1.1517004710        3.9392393352       12.1641162503
 Pt         2.4190115220        1.6814162601       11.9008393063
 Pt         5.7166961274        2.8837118615       11.9135926802
 Pt         3.6543659671        4.7968469135       11.4774145231
 Pt         3.3541052194        3.3222175814       13.5804086198
     160
 i =     1309, time =     1309.000, E =     -5324.9103307708
  O         0.0000000000        0.0000000000        0.0000000000
  O         3.8260000000        0.0000000000        0.0000000000
  O         7.6520000000        0.0000000000        0.0000000000
  O        11.4780000000        0.0000000000        0.0000000000
  O        -1.9130000000        3.3140000000        0.0000000000
  O         1.9130000000        3.3140000000        0.0000000000
  O         5.7390000000        3.3140000000        0.0000000000
  O         9.5650000000        3.3140000000        0.0000000000
  O        -3.8260000000        6.6270000000        0.0000000000
  O         0.0000000000        6.6270000000        0.0000000000
  O         3.8260000000        6.6270000000        0.0000000000
  O         7.6520000000        6.6270000000        0.0000000000
  O        -5.7390000000        9.9410000000        0.0000000000
  O        -1.9130000000        9.9410000000        0.0000000000
  O         1.9130000000        9.9410000000        0.0000000000
  O         5.7390000000        9.9410000000        0.0000000000
  O         1.9130000000        1.1050000000        1.5620000000
  O         5.7390000000        1.1050000000        1.5620000000
  O         9.5650000000        1.1050000000        1.5620000000
  O        13.3920000000        1.1050000000        1.5620000000
  O         0.0000000000        4.4180000000        1.5620000000
  O         3.8260000000        4.4180000000        1.5620000000
  O         7.6520000000        4.4180000000        1.5620000000
  O        11.4780000000        4.4180000000        1.5620000000
  O        -1.9130000000        7.7320000000        1.5620000000
  O         1.9130000000        7.7320000000        1.5620000000
  O         5.7390000000        7.7320000000        1.5620000000
  O         9.5650000000        7.7320000000        1.5620000000
  O        -3.8260000000       11.0450000000        1.5620000000
  O         0.0000000000       11.0450000000        1.5620000000
  O         3.8260000000       11.0450000000        1.5620000000
  O         7.6520000000       11.0450000000        1.5620000000
  O         0.0000000000        2.2090000000        3.1240000000
  O         3.8260000000        2.2090000000        3.1240000000
  O         7.6520000000        2.2090000000        3.1240000000
  O        11.4780000000        2.2090000000        3.1240000000
  O        -1.9130000000        5.5230000000        3.1240000000
  O         1.9130000000        5.5230000000        3.1240000000
  O         5.7390000000        5.5230000000        3.1240000000
  O         9.5650000000        5.5230000000        3.1240000000
  O        -3.8260000000        8.8360000000        3.1240000000
  O         0.0000000000        8.8360000000        3.1240000000
  O         3.8260000000        8.8360000000        3.1240000000
  O         7.6520000000        8.8360000000        3.1240000000
  O        -5.7390000000       12.1500000000        3.1240000000
  O        -1.9130000000       12.1500000000        3.1240000000
  O         1.9130000000       12.1500000000        3.1240000000
  O         5.7390000000       12.1500000000        3.1240000000
  O        -0.0998516459       -0.1201860214        4.7095856474
  O         3.8415998421        0.0822310887        4.7538635847
  O         7.8182097780       -0.1980457868        4.7881965920
  O        11.4258562770        0.0322149038        4.8375804132
  O        -1.8676236830        3.2125732817        4.7671482541
  O         2.0201687148        3.4953776348        4.8200350280
  O         5.8030763715        3.2758992820        4.6824072087
  O         9.6277691082        3.2268332210        4.7269753931
  O        -3.9581958136        6.7801036491        4.7970309069
  O        -0.1183672550        6.5145475073        4.8743712929
  O         3.7449256000        6.7801397650        4.9698352188
  O         7.7773323989        6.5979738924        4.6380706936
  O        -5.6158322469       10.0610913802        4.7186870792
  O        -1.8255862149        9.9595537323        4.7070099650
  O         1.9110415541        9.7258619767        4.8276997859
  O         5.8075703541        9.9455038666        4.8432021611
  O         1.9374874153        1.0730034415        6.4653779492
  O         5.5629128656        1.1007582549        6.2024667438
  O         9.4558366203        0.9571615559        6.4598872003
  O        13.3767621513        1.2370557683        6.4284956560
  O        -0.0834446033        4.4040238839        6.3859717745
  O         3.7846082999        4.6085054379        6.3411271826
  O         7.5521803633        4.3591973642        6.3375939026
  O        11.4061562223        4.3826647397        6.4659640925
  O        -2.0338532032        7.6388990663        6.3808255073
  O         1.7545022191        7.7867203886        6.2719742132
  O         5.7294197403        7.6333363046        6.1395625747
  O         9.2921787358        7.8528076210        6.4774937632
  O        -3.7837412350       10.8832936809        6.3860271210
  O        -0.0166462539       10.8273429988        6.3570079252
  O         3.8494433430       10.9961129126        6.3692232581
  O         7.6539620205       10.9905510457        6.2877247988
  O         0.1213941097        2.2107556459        8.0708582590
  O         3.7152352181        2.0980663561        7.8080312224
  O         7.5211121764        1.9756983652        7.6995998920
  O        11.5358943801        1.9698107386        8.3356744641
  O        -1.8449690764        5.4586483287        8.2362802024
  O         1.8668666388        5.7443902366        7.8546179106
  O         5.8376130195        5.4284027690        8.0084307317
  O         9.3204696332        5.4895906635        7.9306514430
  O        -3.8581302044        8.5931666979        7.8926178874
  O         0.0169481525        8.6131541647        8.1245829268
  O         3.7595774373        8.8480118143        7.8999012184
  O         7.1574129877        8.3408580619        8.1962071097
  O        -5.8253728647       12.3649347879        7.9273909659
  O        -1.8658657103       11.9866908183        8.0879457160
  O         1.9206901331       11.8816516565        7.9665345490
  O         5.6531719777       12.2289345649        7.8892114054
 Ce         0.0000000000        2.2090000000        0.7810000000
 Ce         3.8260000000        2.2090000000        0.7810000000
 Ce         7.6520000000        2.2090000000        0.7810000000
 Ce        11.4780000000        2.2090000000        0.7810000000
 Ce        -1.9130000000        5.5230000000        0.7810000000
 Ce         1.9130000000        5.5230000000        0.7810000000
 Ce         5.7390000000        5.5230000000        0.7810000000
 Ce         9.5650000000        5.5230000000        0.7810000000
 Ce        -3.8260000000        8.8360000000        0.7810000000
 Ce         0.0000000000        8.8360000000        0.7810000000
 Ce         3.8260000000        8.8360000000        0.7810000000
 Ce         7.6520000000        8.8360000000        0.7810000000
 Ce        -5.7390000000       12.1500000000        0.7810000000
 Ce        -1.9130000000       12.1500000000        0.7810000000
 Ce         1.9130000000       12.1500000000        0.7810000000
 Ce         5.7390000000       12.1500000000        0.7810000000
 Ce         2.1408670185        0.9478196761        3.9785169229
 Ce         5.6973682656        1.2360906992        3.9449098004
 Ce         9.4911269214        0.9832671297        3.9611163538
 Ce        13.4196398822        1.1250311776        3.8827052239
 Ce         0.0019025658        4.3194713921        3.9414413915
 Ce         3.7636849022        4.3875884679        4.0594211372
 Ce         7.6033066679        4.4589449652        3.9947852159
 Ce        11.4140477036        4.3344273843        4.0235413461
 Ce        -1.8578915154        7.7401995440        3.8798049508
 Ce         1.8816365578        7.7522812877        3.9868654063
 Ce         5.7128939459        7.6507233516        3.8767978222
 Ce         9.6182160936        7.7503551825        3.7519430882
 Ce        -3.8085836721       11.0837698074        3.9379772781
 Ce         0.0038672381       11.0392893868        3.9244309246
 Ce         3.8004226141       11.0593431347        3.9285590632
 Ce         7.5377065894       10.9732765033        4.0081213289
 Ce        -0.1435480558       -0.1022032908        7.1417533117
 Ce         3.8838845039       -0.1000689684        7.3161328274
 Ce         7.7633579741       -0.1270489110        7.3619678102
 Ce        11.4783691353        0.0382940655        7.2443935768
 Ce        -1.9566656577        3.3853964655        7.2537031753
 Ce         1.8188466934        3.3792882906        7.1003688641
 Ce         5.6656148898        3.2037886310        7.1159207817
 Ce         9.2949245908        3.3043285288        7.2190412893
 Ce        -4.0465997303        6.6110156286        7.2123082147
 Ce         0.0299802654        6.6829562410        7.0836472164
 Ce         3.9496689668        6.8112461745        7.1891669476
 Ce         7.5389381293        6.5678020744        7.0135778721
 Ce        -5.6515079896       10.0144921225        7.1788511211
 Ce        -1.9474432057        9.8471548198        7.0854906358
 Ce         1.8184918870        9.8786723557        7.2216377762
 Ce         5.6344252052        9.9963942200        7.0382951483
 Pt        -0.8582592500        4.6898837227        9.9761642589
 Pt         7.1852463112        2.0193698802        9.9371372719
 Pt         0.6953108819        2.4579025390        9.9591047624
 Pt        -6.9694124636       11.5292087434       10.9375619126
 Pt         7.8222290371        9.8343625023        9.2267975904
 Pt         1.9150134241        0.1361765928        9.9326723521
 Pt         9.6375415612        1.8838714993        9.5259496861
 Pt         1.7133372356        5.2042921565        9.8019728028
 Pt         5.7675728375        4.4517694514        9.8716092890
 Pt         4.4863001098        0.8254751069       10.7041448645
 Pt         3.4493981272        3.0499426983        9.6332269718
 Pt         1.1539671649        3.9404613538       12.1659515136
 Pt         2.4205597278        1.6797789242       11.9023635465
 Pt         5.7153254445        2.8841902074       11.9130632498
 Pt         3.6543828620        4.7977587653       11.4773677212
 Pt         3.3538403151        3.3240074946       13.5826389438
     160
 i =     1310, time =     1310.000, E =     -5324.9077870156
  O         0.0000000000        0.0000000000        0.0000000000
  O         3.8260000000        0.0000000000        0.0000000000
  O         7.6520000000        0.0000000000        0.0000000000
  O        11.4780000000        0.0000000000        0.0000000000
  O        -1.9130000000        3.3140000000        0.0000000000
  O         1.9130000000        3.3140000000        0.0000000000
  O         5.7390000000        3.3140000000        0.0000000000
  O         9.5650000000        3.3140000000        0.0000000000
  O        -3.8260000000        6.6270000000        0.0000000000
  O         0.0000000000        6.6270000000        0.0000000000
  O         3.8260000000        6.6270000000        0.0000000000
  O         7.6520000000        6.6270000000        0.0000000000
  O        -5.7390000000        9.9410000000        0.0000000000
  O        -1.9130000000        9.9410000000        0.0000000000
  O         1.9130000000        9.9410000000        0.0000000000
  O         5.7390000000        9.9410000000        0.0000000000
  O         1.9130000000        1.1050000000        1.5620000000
  O         5.7390000000        1.1050000000        1.5620000000
  O         9.5650000000        1.1050000000        1.5620000000
  O        13.3920000000        1.1050000000        1.5620000000
  O         0.0000000000        4.4180000000        1.5620000000
  O         3.8260000000        4.4180000000        1.5620000000
  O         7.6520000000        4.4180000000        1.5620000000
  O        11.4780000000        4.4180000000        1.5620000000
  O        -1.9130000000        7.7320000000        1.5620000000
  O         1.9130000000        7.7320000000        1.5620000000
  O         5.7390000000        7.7320000000        1.5620000000
  O         9.5650000000        7.7320000000        1.5620000000
  O        -3.8260000000       11.0450000000        1.5620000000
  O         0.0000000000       11.0450000000        1.5620000000
  O         3.8260000000       11.0450000000        1.5620000000
  O         7.6520000000       11.0450000000        1.5620000000
  O         0.0000000000        2.2090000000        3.1240000000
  O         3.8260000000        2.2090000000        3.1240000000
  O         7.6520000000        2.2090000000        3.1240000000
  O        11.4780000000        2.2090000000        3.1240000000
  O        -1.9130000000        5.5230000000        3.1240000000
  O         1.9130000000        5.5230000000        3.1240000000
  O         5.7390000000        5.5230000000        3.1240000000
  O         9.5650000000        5.5230000000        3.1240000000
  O        -3.8260000000        8.8360000000        3.1240000000
  O         0.0000000000        8.8360000000        3.1240000000
  O         3.8260000000        8.8360000000        3.1240000000
  O         7.6520000000        8.8360000000        3.1240000000
  O        -5.7390000000       12.1500000000        3.1240000000
  O        -1.9130000000       12.1500000000        3.1240000000
  O         1.9130000000       12.1500000000        3.1240000000
  O         5.7390000000       12.1500000000        3.1240000000
  O        -0.1015358027       -0.1242195674        4.7053911821
  O         3.8463424172        0.0854896503        4.7515591801
  O         7.8290052488       -0.1970908930        4.7809641904
  O        11.4265423677        0.0379703560        4.8246128769
  O        -1.8698449982        3.2059890509        4.7701330034
  O         2.0132892435        3.5042367945        4.8262354140
  O         5.8147915305        3.2841960284        4.6752614272
  O         9.6232256826        3.2322957871        4.7210515638
  O        -3.9625097513        6.7808727239        4.7951731102
  O        -0.1231989445        6.5150791824        4.8736054500
  O         3.7347114728        6.7738763634        4.9567662436
  O         7.7767995418        6.5908413913        4.6365811533
  O        -5.6054523955       10.0703668188        4.7265899074
  O        -1.8212833134        9.9605703173        4.7099848019
  O         1.9153592135        9.7241825855        4.8315614188
  O         5.8041765739        9.9447919024        4.8493388913
  O         1.9358162595        1.0732700477        6.4701025946
  O         5.5668634573        1.1103769527        6.2003290759
  O         9.4523236806        0.9534505985        6.4590114207
  O        13.3745268881        1.2337658314        6.4240373964
  O        -0.0751451943        4.4128660282        6.3889448966
  O         3.7867917929        4.6120268282        6.3248748680
  O         7.5515866320        4.3558649050        6.3324775255
  O        11.4073350383        4.3897131484        6.4715293101
  O        -2.0330134523        7.6399824091        6.3804022215
  O         1.7432573628        7.7895787380        6.2770359385
  O         5.7301667497        7.6362812583        6.1405694276
  O         9.2856290265        7.8451809837        6.4663958697
  O        -3.7818322367       10.8798824227        6.3934258410
  O        -0.0229004546       10.8261048354        6.3715421185
  O         3.8533949927       10.9964021514        6.3663865853
  O         7.6606596873       10.9859449115        6.2921550527
  O         0.1243371706        2.2071459774        8.0663598243
  O         3.7111856957        2.0951739152        7.8107844242
  O         7.5226308004        1.9750994787        7.6903745078
  O        11.5280503494        1.9585867285        8.3341859227
  O        -1.8444721737        5.4536322094        8.2374044052
  O         1.8719257098        5.7471583532        7.8547602098
  O         5.8434482044        5.4325054229        8.0095975834
  O         9.3162714416        5.4836516430        7.9294321411
  O        -3.8618725373        8.6045935724        7.8927818171
  O         0.0083808363        8.6222870131        8.1354244724
  O         3.7573575998        8.8458408155        7.8958014298
  O         7.1521320671        8.3398728526        8.1995899520
  O        -5.8285923784       12.3623694412        7.9261282777
  O        -1.8662748898       11.9885699969        8.0919810176
  O         1.9284828864       11.8887829587        7.9732501339
  O         5.6518503568       12.2303989629        7.8815509364
 Ce         0.0000000000        2.2090000000        0.7810000000
 Ce         3.8260000000        2.2090000000        0.7810000000
 Ce         7.6520000000        2.2090000000        0.7810000000
 Ce        11.4780000000        2.2090000000        0.7810000000
 Ce        -1.9130000000        5.5230000000        0.7810000000
 Ce         1.9130000000        5.5230000000        0.7810000000
 Ce         5.7390000000        5.5230000000        0.7810000000
 Ce         9.5650000000        5.5230000000        0.7810000000
 Ce        -3.8260000000        8.8360000000        0.7810000000
 Ce         0.0000000000        8.8360000000        0.7810000000
 Ce         3.8260000000        8.8360000000        0.7810000000
 Ce         7.6520000000        8.8360000000        0.7810000000
 Ce        -5.7390000000       12.1500000000        0.7810000000
 Ce        -1.9130000000       12.1500000000        0.7810000000
 Ce         1.9130000000       12.1500000000        0.7810000000
 Ce         5.7390000000       12.1500000000        0.7810000000
 Ce         2.1420585884        0.9474066890        3.9788403046
 Ce         5.6959913277        1.2385030413        3.9437890243
 Ce         9.4913624297        0.9798327497        3.9594457409
 Ce        13.4161530911        1.1268590402        3.8815515029
 Ce        -0.0007223545        4.3176229937        3.9379537713
 Ce         3.7646439682        4.3897451909        4.0622890627
 Ce         7.5987231322        4.4595636198        3.9973742477
 Ce        11.4100771690        4.3346583799        4.0268306580
 Ce        -1.8592618358        7.7393047114        3.8801766026
 Ce         1.8833376623        7.7538697961        3.9852961245
 Ce         5.7128665567        7.6490087630        3.8762126952
 Ce         9.6158073461        7.7531230813        3.7523942077
 Ce        -3.8129177495       11.0832790727        3.9376213719
 Ce         0.0032639328       11.0384209432        3.9229153441
 Ce         3.7975581131       11.0613279605        3.9285357984
 Ce         7.5383153966       10.9742895524        4.0117622774
 Ce        -0.1460487117       -0.0991275852        7.1415985081
 Ce         3.8811131776       -0.0973048660        7.3150249159
 Ce         7.7626262883       -0.1313801153        7.3616022171
 Ce        11.4766561416        0.0382995451        7.2485507296
 Ce        -1.9559292215        3.3822374335        7.2547454025
 Ce         1.8189557671        3.3778104000        7.1005864010
 Ce         5.6668407978        3.2033294493        7.1205574067
 Ce         9.2949053286        3.3067530951        7.2173488788
 Ce        -4.0448353090        6.6099236223        7.2121623600
 Ce         0.0263303508        6.6841619358        7.0864404632
 Ce         3.9513418750        6.8139508224        7.1943460941
 Ce         7.5419156305        6.5671968928        7.0135773821
 Ce        -5.6489384358       10.0116867802        7.1781456307
 Ce        -1.9473227425        9.8469156459        7.0847358927
 Ce         1.8179643033        9.8749090417        7.2241004870
 Ce         5.6340139025        9.9967187474        7.0427969555
 Pt        -0.8598990979        4.6913619700        9.9774723110
 Pt         7.1849662104        2.0195231897        9.9357732176
 Pt         0.6957568645        2.4588744467        9.9607927630
 Pt        -6.9722649461       11.5299391900       10.9381225632
 Pt         7.8253961343        9.8368527540        9.2292976655
 Pt         1.9140667682        0.1369457903        9.9334672909
 Pt         9.6362629223        1.8834830872        9.5252473831
 Pt         1.7120325118        5.2029864017        9.7991286999
 Pt         5.7681520810        4.4509523928        9.8728338450
 Pt         4.4847483234        0.8250464993       10.7027624660
 Pt         3.4492211356        3.0504994011        9.6335879237
 Pt         1.1562006996        3.9417418233       12.1677399851
 Pt         2.4220985753        1.6781168987       11.9038930996
 Pt         5.7139331636        2.8846528355       11.9125126379
 Pt         3.6544000400        4.7986625294       11.4773137795
 Pt         3.3536028054        3.3258026204       13.5848716823
     160
 i =     1311, time =     1311.000, E =     -5324.9052202975
  O         0.0000000000        0.0000000000        0.0000000000
  O         3.8260000000        0.0000000000        0.0000000000
  O         7.6520000000        0.0000000000        0.0000000000
  O        11.4780000000        0.0000000000        0.0000000000
  O        -1.9130000000        3.3140000000        0.0000000000
  O         1.9130000000        3.3140000000        0.0000000000
  O         5.7390000000        3.3140000000        0.0000000000
  O         9.5650000000        3.3140000000        0.0000000000
  O        -3.8260000000        6.6270000000        0.0000000000
  O         0.0000000000        6.6270000000        0.0000000000
  O         3.8260000000        6.6270000000        0.0000000000
  O         7.6520000000        6.6270000000        0.0000000000
  O        -5.7390000000        9.9410000000        0.0000000000
  O        -1.9130000000        9.9410000000        0.0000000000
  O         1.9130000000        9.9410000000        0.0000000000
  O         5.7390000000        9.9410000000        0.0000000000
  O         1.9130000000        1.1050000000        1.5620000000
  O         5.7390000000        1.1050000000        1.5620000000
  O         9.5650000000        1.1050000000        1.5620000000
  O        13.3920000000        1.1050000000        1.5620000000
  O         0.0000000000        4.4180000000        1.5620000000
  O         3.8260000000        4.4180000000        1.5620000000
  O         7.6520000000        4.4180000000        1.5620000000
  O        11.4780000000        4.4180000000        1.5620000000
  O        -1.9130000000        7.7320000000        1.5620000000
  O         1.9130000000        7.7320000000        1.5620000000
  O         5.7390000000        7.7320000000        1.5620000000
  O         9.5650000000        7.7320000000        1.5620000000
  O        -3.8260000000       11.0450000000        1.5620000000
  O         0.0000000000       11.0450000000        1.5620000000
  O         3.8260000000       11.0450000000        1.5620000000
  O         7.6520000000       11.0450000000        1.5620000000
  O         0.0000000000        2.2090000000        3.1240000000
  O         3.8260000000        2.2090000000        3.1240000000
  O         7.6520000000        2.2090000000        3.1240000000
  O        11.4780000000        2.2090000000        3.1240000000
  O        -1.9130000000        5.5230000000        3.1240000000
  O         1.9130000000        5.5230000000        3.1240000000
  O         5.7390000000        5.5230000000        3.1240000000
  O         9.5650000000        5.5230000000        3.1240000000
  O        -3.8260000000        8.8360000000        3.1240000000
  O         0.0000000000        8.8360000000        3.1240000000
  O         3.8260000000        8.8360000000        3.1240000000
  O         7.6520000000        8.8360000000        3.1240000000
  O        -5.7390000000       12.1500000000        3.1240000000
  O        -1.9130000000       12.1500000000        3.1240000000
  O         1.9130000000       12.1500000000        3.1240000000
  O         5.7390000000       12.1500000000        3.1240000000
  O        -0.1029335833       -0.1277647339        4.7017294032
  O         3.8512851202        0.0877499126        4.7494354286
  O         7.8389994850       -0.1956708868        4.7740084293
  O        11.4274344845        0.0434298644        4.8114755575
  O        -1.8723847674        3.2000676719        4.7731238254
  O         2.0056823845        3.5120473557        4.8324217022
  O         5.8257551328        3.2929481777        4.6686498076
  O         9.6181736019        3.2379568132        4.7156748396
  O        -3.9666561804        6.7809399801        4.7935638426
  O        -0.1277606440        6.5159471518        4.8720209787
  O         3.7246942554        6.7672700016        4.9428575229
  O         7.7755752658        6.5835963783        4.6353220111
  O        -5.5954825625       10.0792616110        4.7347022855
  O        -1.8175657632        9.9613176364        4.7131204716
  O         1.9198527884        9.7240388476        4.8349445082
  O         5.8000661527        9.9438626852        4.8547856185
  O         1.9338190314        1.0737629390        6.4735402621
  O         5.5711252471        1.1198553187        6.1987568684
  O         9.4493181999        0.9501185821        6.4578022359
  O        13.3724126828        1.2302837956        6.4197127916
  O        -0.0667741149        4.4212422592        6.3918310913
  O         3.7895043808        4.6147253129        6.3087835787
  O         7.5507830537        4.3522156995        6.3269584996
  O        11.4087390432        4.3967606177        6.4769611603
  O        -2.0318433677        7.6413244172        6.3797561173
  O         1.7324506606        7.7921804940        6.2824481663
  O         5.7309552705        7.6394598963        6.1418734107
  O         9.2796713488        7.8378381990        6.4551681824
  O        -3.7799488726       10.8773497659        6.4008064937
  O        -0.0292852747       10.8252757049        6.3861887724
  O         3.8570381443       10.9969459834        6.3630403903
  O         7.6674535533       10.9813080790        6.2970216785
  O         0.1265518497        2.2033467906        8.0615402079
  O         3.7075289446        2.0928634949        7.8137557993
  O         7.5234716774        1.9752978587        7.6815825784
  O        11.5200405231        1.9477025169        8.3326230895
  O        -1.8443590525        5.4484309950        8.2387159020
  O         1.8775835350        5.7496756547        7.8552751284
  O         5.8487416246        5.4367062723        8.0111149405
  O         9.3125540019        5.4776066121        7.9281781557
  O        -3.8658087511        8.6167267987        7.8932995378
  O        -0.0003578143        8.6319459195        8.1459485745
  O         3.7554782007        8.8434353619        7.8918518298
  O         7.1462436887        8.3389248591        8.2028275289
  O        -5.8312260501       12.3589140041        7.9250804561
  O        -1.8668831069       11.9906398998        8.0954849299
  O         1.9360638263       11.8965684863        7.9802077317
  O         5.6507092500       12.2315818555        7.8738850680
 Ce         0.0000000000        2.2090000000        0.7810000000
 Ce         3.8260000000        2.2090000000        0.7810000000
 Ce         7.6520000000        2.2090000000        0.7810000000
 Ce        11.4780000000        2.2090000000        0.7810000000
 Ce        -1.9130000000        5.5230000000        0.7810000000
 Ce         1.9130000000        5.5230000000        0.7810000000
 Ce         5.7390000000        5.5230000000        0.7810000000
 Ce         9.5650000000        5.5230000000        0.7810000000
 Ce        -3.8260000000        8.8360000000        0.7810000000
 Ce         0.0000000000        8.8360000000        0.7810000000
 Ce         3.8260000000        8.8360000000        0.7810000000
 Ce         7.6520000000        8.8360000000        0.7810000000
 Ce        -5.7390000000       12.1500000000        0.7810000000
 Ce        -1.9130000000       12.1500000000        0.7810000000
 Ce         1.9130000000       12.1500000000        0.7810000000
 Ce         5.7390000000       12.1500000000        0.7810000000
 Ce         2.1429894826        0.9470702467        3.9791475630
 Ce         5.6947200979        1.2407765415        3.9426137928
 Ce         9.4916641143        0.9764935458        3.9577943195
 Ce        13.4126422305        1.1286590118        3.8804463568
 Ce        -0.0033877625        4.3158572387        3.9344479999
 Ce         3.7656377474        4.3920341845        4.0650662084
 Ce         7.5942528786        4.4601464604        3.9998434210
 Ce        11.4061383575        4.3349281286        4.0300609446
 Ce        -1.8607037097        7.7383539623        3.8806218531
 Ce         1.8850548470        7.7553909677        3.9837107143
 Ce         5.7128389265        7.6473509751        3.8756411903
 Ce         9.6133760896        7.7558847708        3.7530116881
 Ce        -3.8172386673       11.0827198441        3.9372244191
 Ce         0.0026488385       11.0375275206        3.9214260120
 Ce         3.7947076991       11.0633002447        3.9285499570
 Ce         7.5390522733       10.9753683571        4.0153363773
 Ce        -0.1484860938       -0.0959858933        7.1414155840
 Ce         3.8783217506       -0.0944992122        7.3138946596
 Ce         7.7618880818       -0.1358256692        7.3611895937
 Ce        11.4748921674        0.0382854977        7.2526756151
 Ce        -1.9551895216        3.3790282570        7.2557871650
 Ce         1.8191085355        3.3762999416        7.1008162495
 Ce         5.6680229430        3.2028993684        7.1251864084
 Ce         9.2950380791        3.3091636690        7.2156570170
 Ce        -4.0430592277        6.6088589215        7.2119479226
 Ce         0.0225538513        6.6853928967        7.0892947806
 Ce         3.9529044796        6.8165597362        7.1995019881
 Ce         7.5449945086        6.5666285626        7.0136228653
 Ce        -5.6464284888       10.0087975295        7.1774056330
 Ce        -1.9471182293        9.8466062300        7.0840282342
 Ce         1.8174374755        9.8710967069        7.2265361752
 Ce         5.6336478993        9.9970007199        7.0473913706
 Pt        -0.8614894714        4.6928357429        9.9787765467
 Pt         7.1846048024        2.0197219209        9.9344239798
 Pt         0.6961908569        2.4598559217        9.9624958895
 Pt        -6.9751114836       11.5306815325       10.9386787538
 Pt         7.8285842103        9.8393690186        9.2318468093
 Pt         1.9131505388        0.1377263729        9.9342780653
 Pt         9.6350449525        1.8830853604        9.5245238701
 Pt         1.7107228338        5.2016348304        9.7963154293
 Pt         5.7687333173        4.4501126424        9.8740700208
 Pt         4.4832301622        0.8246282281       10.7013576671
 Pt         3.4490640409        3.0510546688        9.6339406129
 Pt         1.1584011763        3.9430801535       12.1694812310
 Pt         2.4236272991        1.6764318251       11.9054284450
 Pt         5.7125191807        2.8850991438       11.9119409762
 Pt         3.6544170350        4.7995578951       11.4772527277
 Pt         3.3533924866        3.3276024881       13.5871051674
     160
 i =     1312, time =     1312.000, E =     -5324.9026639216
  O         0.0000000000        0.0000000000        0.0000000000
  O         3.8260000000        0.0000000000        0.0000000000
  O         7.6520000000        0.0000000000        0.0000000000
  O        11.4780000000        0.0000000000        0.0000000000
  O        -1.9130000000        3.3140000000        0.0000000000
  O         1.9130000000        3.3140000000        0.0000000000
  O         5.7390000000        3.3140000000        0.0000000000
  O         9.5650000000        3.3140000000        0.0000000000
  O        -3.8260000000        6.6270000000        0.0000000000
  O         0.0000000000        6.6270000000        0.0000000000
  O         3.8260000000        6.6270000000        0.0000000000
  O         7.6520000000        6.6270000000        0.0000000000
  O        -5.7390000000        9.9410000000        0.0000000000
  O        -1.9130000000        9.9410000000        0.0000000000
  O         1.9130000000        9.9410000000        0.0000000000
  O         5.7390000000        9.9410000000        0.0000000000
  O         1.9130000000        1.1050000000        1.5620000000
  O         5.7390000000        1.1050000000        1.5620000000
  O         9.5650000000        1.1050000000        1.5620000000
  O        13.3920000000        1.1050000000        1.5620000000
  O         0.0000000000        4.4180000000        1.5620000000
  O         3.8260000000        4.4180000000        1.5620000000
  O         7.6520000000        4.4180000000        1.5620000000
  O        11.4780000000        4.4180000000        1.5620000000
  O        -1.9130000000        7.7320000000        1.5620000000
  O         1.9130000000        7.7320000000        1.5620000000
  O         5.7390000000        7.7320000000        1.5620000000
  O         9.5650000000        7.7320000000        1.5620000000
  O        -3.8260000000       11.0450000000        1.5620000000
  O         0.0000000000       11.0450000000        1.5620000000
  O         3.8260000000       11.0450000000        1.5620000000
  O         7.6520000000       11.0450000000        1.5620000000
  O         0.0000000000        2.2090000000        3.1240000000
  O         3.8260000000        2.2090000000        3.1240000000
  O         7.6520000000        2.2090000000        3.1240000000
  O        11.4780000000        2.2090000000        3.1240000000
  O        -1.9130000000        5.5230000000        3.1240000000
  O         1.9130000000        5.5230000000        3.1240000000
  O         5.7390000000        5.5230000000        3.1240000000
  O         9.5650000000        5.5230000000        3.1240000000
  O        -3.8260000000        8.8360000000        3.1240000000
  O         0.0000000000        8.8360000000        3.1240000000
  O         3.8260000000        8.8360000000        3.1240000000
  O         7.6520000000        8.8360000000        3.1240000000
  O        -5.7390000000       12.1500000000        3.1240000000
  O        -1.9130000000       12.1500000000        3.1240000000
  O         1.9130000000       12.1500000000        3.1240000000
  O         5.7390000000       12.1500000000        3.1240000000
  O        -0.1040320577       -0.1308089565        4.6986105873
  O         3.8563849658        0.0890049554        4.7475247714
  O         7.8480947017       -0.1938562230        4.7673363765
  O        11.4285381942        0.0485708289        4.7982924572
  O        -1.8752302456        3.1948590518        4.7761476944
  O         1.9973850353        3.5187758368        4.8385385713
  O         5.8358474633        3.3020683350        4.6626386789
  O         9.6126471448        3.2438090501        4.7108605720
  O        -3.9706129067        6.7803054309        4.7922272255
  O        -0.1320462221        6.5171504476        4.8696407689
  O         3.7149302898        6.7603715577        4.9282211924
  O         7.7736414030        6.5762983847        4.6342958360
  O        -5.5860063822       10.0877170929        4.7429949516
  O        -1.8144407922        9.9617992684        4.7164176003
  O         1.9244931591        9.7254411871        4.8378487910
  O         5.7953041936        9.9427396141        4.8595498109
  O         1.9315107391        1.0744731898        6.4756675678
  O         5.5756630977        1.1291624820        6.1977408969
  O         9.4468472969        0.9471670200        6.4562676356
  O        13.3704277367        1.2266378601        6.4155326703
  O        -0.0584235003        4.4290889091        6.3946382040
  O         3.7927610459        4.6165910253        6.2929997208
  O         7.5497777948        4.3482895437        6.3210889359
  O        11.4103648560        4.4037962060        6.4822621776
  O        -2.0303778311        7.6428975929        6.3789131044
  O         1.7221434822        7.7945259207        6.2882096088
  O         5.7317348166        7.6428394461        6.1434615049
  O         9.2743683278        7.8308190762        6.4438877970
  O        -3.7781038891       10.8757412563        6.4081379140
  O        -0.0357313537       10.8248895864        6.4008121814
  O         3.8603340159       10.9977414909        6.3592211116
  O         7.6743149160       10.9766571467        6.3022771260
  O         0.1280184557        2.1993852320        8.0564484563
  O         3.7042735221        2.0911491853        7.8169439713
  O         7.5236390589        1.9762906172        7.6732237312
  O        11.5118776375        1.9372154417        8.3310027668
  O        -1.8446446904        5.4430684709        8.2402020180
  O         1.8838367312        5.7519575604        7.8561525652
  O         5.8534582439        5.4409925662        8.0129833649
  O         9.3093507804        5.4714833277        7.9269093784
  O        -3.8699531389        8.6294612926        7.8941450179
  O        -0.0092394044        8.6420885422        8.1561093006
  O         3.7539437542        8.8408198564        7.8880624125
  O         7.1397988993        8.3380641434        8.2059611339
  O        -5.8332705798       12.3545860276        7.9242596114
  O        -1.8676952449       11.9929338023        8.0984370802
  O         1.9434106982       11.9049193473        7.9874020831
  O         5.6497692557       12.2324677829        7.8662592923
 Ce         0.0000000000        2.2090000000        0.7810000000
 Ce         3.8260000000        2.2090000000        0.7810000000
 Ce         7.6520000000        2.2090000000        0.7810000000
 Ce        11.4780000000        2.2090000000        0.7810000000
 Ce        -1.9130000000        5.5230000000        0.7810000000
 Ce         1.9130000000        5.5230000000        0.7810000000
 Ce         5.7390000000        5.5230000000        0.7810000000
 Ce         9.5650000000        5.5230000000        0.7810000000
 Ce        -3.8260000000        8.8360000000        0.7810000000
 Ce         0.0000000000        8.8360000000        0.7810000000
 Ce         3.8260000000        8.8360000000        0.7810000000
 Ce         7.6520000000        8.8360000000        0.7810000000
 Ce        -5.7390000000       12.1500000000        0.7810000000
 Ce        -1.9130000000       12.1500000000        0.7810000000
 Ce         1.9130000000       12.1500000000        0.7810000000
 Ce         5.7390000000       12.1500000000        0.7810000000
 Ce         2.1436594548        0.9468112259        3.9794367710
 Ce         5.6935601821        1.2429157450        3.9413826883
 Ce         9.4920333403        0.9732574500        3.9561602271
 Ce        13.4091067533        1.1304266442        3.8793882029
 Ce        -0.0060900763        4.3141780182        3.9309274179
 Ce         3.7666626193        4.3944561464        4.0677481025
 Ce         7.5899036052        4.4606914668        4.0021861149
 Ce        11.4022297138        4.3352366389        4.0332266395
 Ce        -1.8622142900        7.7373474440        3.8811395907
 Ce         1.8867854752        7.7568411619        3.9821082819
 Ce         5.7128085916        7.6457503796        3.8750831069
 Ce         9.6109233208        7.7586331199        3.7537934262
 Ce        -3.8215370756       11.0820945354        3.9367859306
 Ce         0.0020212240       11.0366104766        3.9199624159
 Ce         3.7918762668       11.0652593347        3.9286016590
 Ce         7.5399100668       10.9765119841        4.0188436284
 Ce        -0.1508566154       -0.0927822784        7.1412028959
 Ce         3.8755118764       -0.0916569797        7.3127431036
 Ce         7.7611454631       -0.1403812443        7.3607326822
 Ce        11.4730723396        0.0382474116        7.2567613748
 Ce        -1.9544419258        3.3757707308        7.2568259785
 Ce         1.8193041631        3.3747610908        7.1010558524
 Ce         5.6691645711        3.2024994322        7.1298033188
 Ce         9.2953180981        3.3115552548        7.2139639438
 Ce        -4.0412717207        6.6078276972        7.2116646226
 Ce         0.0186540159        6.6866491077        7.0922089159
 Ce         3.9543584644        6.8190660873        7.2046247386
 Ce         7.5481692585        6.5660957488        7.0137117464
 Ce        -5.6439782668       10.0058288236        7.1766337003
 Ce        -1.9468300816        9.8462286048        7.0833738572
 Ce         1.8169067072        9.8672454585        7.2289469692
 Ce         5.6333298291        9.9972413753        7.0520720891
 Pt        -0.8630291452        4.6943037442        9.9800768315
 Pt         7.1841619612        2.0199666063        9.9330894969
 Pt         0.6966118599        2.4608461623        9.9642111230
 Pt        -6.9779510198       11.5314377409       10.9392309226
 Pt         7.8317897921        9.8419047419        9.2344418142
 Pt         1.9122641956        0.1385173074        9.9351045179
 Pt         9.6338864189        1.8826782959        9.5237794857
 Pt         1.7094086993        5.2002371451        9.7935344778
 Pt         5.7693172035        4.4492510998        9.8753164584
 Pt         4.4817464640        0.8242199687       10.6999300979
 Pt         3.4489268166        3.0516094801        9.6342861248
 Pt         1.1605681697        3.9444761070       12.1711747620
 Pt         2.4251451687        1.6747251629       11.9069703679
 Pt         5.7110839388        2.8855285656       11.9113484243
 Pt         3.6544331701        4.8004448942       11.4771840952
 Pt         3.3532091190        3.3294065943       13.5893386778
     160
 i =     1313, time =     1313.000, E =     -5324.9003619494
  O         0.0000000000        0.0000000000        0.0000000000
  O         3.8260000000        0.0000000000        0.0000000000
  O         7.6520000000        0.0000000000        0.0000000000
  O        11.4780000000        0.0000000000        0.0000000000
  O        -1.9130000000        3.3140000000        0.0000000000
  O         1.9130000000        3.3140000000        0.0000000000
  O         5.7390000000        3.3140000000        0.0000000000
  O         9.5650000000        3.3140000000        0.0000000000
  O        -3.8260000000        6.6270000000        0.0000000000
  O         0.0000000000        6.6270000000        0.0000000000
  O         3.8260000000        6.6270000000        0.0000000000
  O         7.6520000000        6.6270000000        0.0000000000
  O        -5.7390000000        9.9410000000        0.0000000000
  O        -1.9130000000        9.9410000000        0.0000000000
  O         1.9130000000        9.9410000000        0.0000000000
  O         5.7390000000        9.9410000000        0.0000000000
  O         1.9130000000        1.1050000000        1.5620000000
  O         5.7390000000        1.1050000000        1.5620000000
  O         9.5650000000        1.1050000000        1.5620000000
  O        13.3920000000        1.1050000000        1.5620000000
  O         0.0000000000        4.4180000000        1.5620000000
  O         3.8260000000        4.4180000000        1.5620000000
  O         7.6520000000        4.4180000000        1.5620000000
  O        11.4780000000        4.4180000000        1.5620000000
  O        -1.9130000000        7.7320000000        1.5620000000
  O         1.9130000000        7.7320000000        1.5620000000
  O         5.7390000000        7.7320000000        1.5620000000
  O         9.5650000000        7.7320000000        1.5620000000
  O        -3.8260000000       11.0450000000        1.5620000000
  O         0.0000000000       11.0450000000        1.5620000000
  O         3.8260000000       11.0450000000        1.5620000000
  O         7.6520000000       11.0450000000        1.5620000000
  O         0.0000000000        2.2090000000        3.1240000000
  O         3.8260000000        2.2090000000        3.1240000000
  O         7.6520000000        2.2090000000        3.1240000000
  O        11.4780000000        2.2090000000        3.1240000000
  O        -1.9130000000        5.5230000000        3.1240000000
  O         1.9130000000        5.5230000000        3.1240000000
  O         5.7390000000        5.5230000000        3.1240000000
  O         9.5650000000        5.5230000000        3.1240000000
  O        -3.8260000000        8.8360000000        3.1240000000
  O         0.0000000000        8.8360000000        3.1240000000
  O         3.8260000000        8.8360000000        3.1240000000
  O         7.6520000000        8.8360000000        3.1240000000
  O        -5.7390000000       12.1500000000        3.1240000000
  O        -1.9130000000       12.1500000000        3.1240000000
  O         1.9130000000       12.1500000000        3.1240000000
  O         5.7390000000       12.1500000000        3.1240000000
  O        -0.1048193398       -0.1333443682        4.6960472591
  O         3.8615988812        0.0892548261        4.7458572263
  O         7.8562082076       -0.1917221350        4.7609700942
  O        11.4298564757        0.0533666725        4.7851331252
  O        -1.8783729112        3.1904116398        4.7792340011
  O         1.9884275147        3.5244131895        4.8445439899
  O         5.8449570687        3.3114520777        4.6572828701
  O         9.6066911310        3.2498341316        4.7066182399
  O        -3.9743588192        6.7789730137        4.7911850809
  O        -0.1360438261        6.5186873811        4.8664920628
  O         3.7054544740        6.7532253959        4.9128958385
  O         7.7709868573        6.5690211714        4.6335078338
  O        -5.5770869252       10.0957043868        4.7514096286
  O        -1.8119108976        9.9620183678        4.7198760483
  O         1.9292510621        9.7283912236        4.8402827008
  O         5.7899569808        9.9414477616        4.8636422623
  O         1.9289094216        1.0753917465        6.4764698920
  O         5.5804286040        1.1382770204        6.1972704915
  O         9.4449334864        0.9445962216        6.4544205998
  O        13.3685762811        1.2228559880        6.4115026521
  O        -0.0501693744        4.4363658917        6.3973803891
  O         3.7965708712        4.6176264063        6.2777207609
  O         7.5485812910        4.3441294733        6.3149395069
  O        11.4122041694        4.4107965393        6.4874456082
  O        -2.0286497084        7.6446751750        6.3779023433
  O         1.7123863288        7.7966201610        6.2943006765
  O         5.7324567382        7.6463876625        6.1453193299
  O         9.2697643654        7.8241408274        6.4326468148
  O        -3.7763077559       10.8750999968        6.4154132214
  O        -0.0421679960       10.8249753257        6.4153380205
  O         3.8632450352       10.9987848574        6.3549648371
  O         7.6811996937       10.9720134444        6.3078610439
  O         0.1287190502        2.1952879850        8.0511247100
  O         3.7014279956        2.0900407785        7.8203495410
  O         7.5231461952        1.9780655669        7.6652879181
  O        11.5035800429        1.9271659492        8.3293448322
  O        -1.8453434146        5.4375689097        8.2418450392
  O         1.8906826303        5.7540255916        7.8573721028
  O         5.8575627013        5.4453480725        8.0151978605
  O         9.3066924589        5.4653210533        7.9256459772
  O        -3.8743006621        8.6426975568        7.8952953596
  O        -0.0182529265        8.6526684534        8.1658251645
  O         3.7527545470        8.8380257690        7.8844466644
  O         7.1328441127        8.3373388680        8.2090290922
  O        -5.8347229034       12.3494110764        7.9236750654
  O        -1.8687139838       11.9954855183        8.1008259713
  O         1.9505177894       11.9137456874        7.9948158841
  O         5.6490487484       12.2330417521        7.8587423152
 Ce         0.0000000000        2.2090000000        0.7810000000
 Ce         3.8260000000        2.2090000000        0.7810000000
 Ce         7.6520000000        2.2090000000        0.7810000000
 Ce        11.4780000000        2.2090000000        0.7810000000
 Ce        -1.9130000000        5.5230000000        0.7810000000
 Ce         1.9130000000        5.5230000000        0.7810000000
 Ce         5.7390000000        5.5230000000        0.7810000000
 Ce         9.5650000000        5.5230000000        0.7810000000
 Ce        -3.8260000000        8.8360000000        0.7810000000
 Ce         0.0000000000        8.8360000000        0.7810000000
 Ce         3.8260000000        8.8360000000        0.7810000000
 Ce         7.6520000000        8.8360000000        0.7810000000
 Ce        -5.7390000000       12.1500000000        0.7810000000
 Ce        -1.9130000000       12.1500000000        0.7810000000
 Ce         1.9130000000       12.1500000000        0.7810000000
 Ce         5.7390000000       12.1500000000        0.7810000000
 Ce         2.1440688109        0.9466304275        3.9797064957
 Ce         5.6925169406        1.2449249953        3.9400944962
 Ce         9.4924714543        0.9701324672        3.9545414844
 Ce        13.4055463304        1.1321575672        3.8783754006
 Ce        -0.0088256935        4.3125889448        3.9273951567
 Ce         3.7677144348        4.3970111322        4.0703297030
 Ce         7.5856835169        4.4611970819        4.0043955419
 Ce        11.3983496482        4.3355841579        4.0363223939
 Ce        -1.8637908748        7.7362852445        3.8817284313
 Ce         1.8885268774        7.7582174087        3.9804875259
 Ce         5.7127733216        7.6442073499        3.8745381607
 Ce         9.6084500220        7.7613608538        3.7547371468
 Ce        -3.8258034936       11.0814058866        3.9363054887
 Ce         0.0013803966       11.0356713871        3.9185236899
 Ce         3.7890686548       11.0672044818        3.9286910006
 Ce         7.5408814437       10.9777193309        4.0222841138
 Ce        -0.1531564468       -0.0895208311        7.1409589792
 Ce         3.8726850467       -0.0887834613        7.3115710422
 Ce         7.7604002327       -0.1450415881        7.3602340166
 Ce        11.4711922809        0.0381803414        7.2608010799
 Ce        -1.9536823217        3.3724663515        7.2578592382
 Ce         1.8195415815        3.3731973611        7.1013023146
 Ce         5.6702689771        3.2021306774        7.1344035009
 Ce         9.2957404608        3.3139230029        7.2122673703
 Ce        -4.0394728047        6.6068355968        7.2113122144
 Ce         0.0146339219        6.6879297325        7.0951812263
 Ce         3.9557062038        6.8214631028        7.2097052812
 Ce         7.5514340438        6.5655968036        7.0138411978
 Ce        -5.6415874463       10.0027856573        7.1758324922
 Ce        -1.9464600153        9.8457851935        7.0827787105
 Ce         1.8163678737        9.8633658083        7.2313346965
 Ce         5.6330622009        9.9974421343        7.0568324670
 Pt        -0.8645176471        4.6957645976        9.9813733821
 Pt         7.1836373208        2.0202575986        9.9317699972
 Pt         0.6970190649        2.4618441281        9.9659354827
 Pt        -6.9807824818       11.5322099860       10.9397795143
 Pt         7.8350092926        9.8444532693        9.2370795225
 Pt         1.9114073043        0.1393175255        9.9359466226
 Pt         9.6327859969        1.8822617550        9.5230147050
 Pt         1.7080907501        5.1987936038        9.7907872562
 Pt         5.7699045555        4.4483687922        9.8765722133
 Pt         4.4802975972        0.8238218584       10.6984795629
 Pt         3.4488094489        3.0521643735        9.6346255485
 Pt         1.1627018690        3.9459292597       12.1728207601
 Pt         2.4266520829        1.6729983697       11.9085196900
 Pt         5.7096276436        2.8859402625       11.9107349828
 Pt         3.6544477937        4.8013236575       11.4771079676
 Pt         3.3530523054        3.3312141310       13.5915708076
     160
 i =     1314, time =     1314.000, E =     -5324.8983861495
  O         0.0000000000        0.0000000000        0.0000000000
  O         3.8260000000        0.0000000000        0.0000000000
  O         7.6520000000        0.0000000000        0.0000000000
  O        11.4780000000        0.0000000000        0.0000000000
  O        -1.9130000000        3.3140000000        0.0000000000
  O         1.9130000000        3.3140000000        0.0000000000
  O         5.7390000000        3.3140000000        0.0000000000
  O         9.5650000000        3.3140000000        0.0000000000
  O        -3.8260000000        6.6270000000        0.0000000000
  O         0.0000000000        6.6270000000        0.0000000000
  O         3.8260000000        6.6270000000        0.0000000000
  O         7.6520000000        6.6270000000        0.0000000000
  O        -5.7390000000        9.9410000000        0.0000000000
  O        -1.9130000000        9.9410000000        0.0000000000
  O         1.9130000000        9.9410000000        0.0000000000
  O         5.7390000000        9.9410000000        0.0000000000
  O         1.9130000000        1.1050000000        1.5620000000
  O         5.7390000000        1.1050000000        1.5620000000
  O         9.5650000000        1.1050000000        1.5620000000
  O        13.3920000000        1.1050000000        1.5620000000
  O         0.0000000000        4.4180000000        1.5620000000
  O         3.8260000000        4.4180000000        1.5620000000
  O         7.6520000000        4.4180000000        1.5620000000
  O        11.4780000000        4.4180000000        1.5620000000
  O        -1.9130000000        7.7320000000        1.5620000000
  O         1.9130000000        7.7320000000        1.5620000000
  O         5.7390000000        7.7320000000        1.5620000000
  O         9.5650000000        7.7320000000        1.5620000000
  O        -3.8260000000       11.0450000000        1.5620000000
  O         0.0000000000       11.0450000000        1.5620000000
  O         3.8260000000       11.0450000000        1.5620000000
  O         7.6520000000       11.0450000000        1.5620000000
  O         0.0000000000        2.2090000000        3.1240000000
  O         3.8260000000        2.2090000000        3.1240000000
  O         7.6520000000        2.2090000000        3.1240000000
  O        11.4780000000        2.2090000000        3.1240000000
  O        -1.9130000000        5.5230000000        3.1240000000
  O         1.9130000000        5.5230000000        3.1240000000
  O         5.7390000000        5.5230000000        3.1240000000
  O         9.5650000000        5.5230000000        3.1240000000
  O        -3.8260000000        8.8360000000        3.1240000000
  O         0.0000000000        8.8360000000        3.1240000000
  O         3.8260000000        8.8360000000        3.1240000000
  O         7.6520000000        8.8360000000        3.1240000000
  O        -5.7390000000       12.1500000000        3.1240000000
  O        -1.9130000000       12.1500000000        3.1240000000
  O         1.9130000000       12.1500000000        3.1240000000
  O         5.7390000000       12.1500000000        3.1240000000
  O        -0.1052844770       -0.1353678369        4.6940533479
  O         3.8668822480        0.0885089533        4.7444593646
  O         7.8632776668       -0.1893408558        4.7549493124
  O        11.4313891861        0.0577885932        4.7719945116
  O        -1.8818069711        3.1867688474        4.7824133702
  O         1.9788448489        3.5289615380        4.8504120961
  O         5.8529973809        3.3209893981        4.6526189280
  O         9.6003648902        3.2560011136        4.7029563105
  O        -3.9778731555        6.7769504459        4.7904561354
  O        -0.1397391339        6.5205556415        4.8626030406
  O         3.6963018416        6.7458801761        4.8969413886
  O         7.7676116093        6.5618530700        4.6329648343
  O        -5.5687690553       10.1032108215        4.7598779623
  O        -1.8099746600        9.9619779666        4.7234924105
  O         1.9340989182        9.7328812068        4.8422597498
  O         5.7840886868        9.9400133120        4.8670728051
  O         1.9260357448        1.0765079162        6.4759400818
  O         5.5853641718        1.1471809253        6.1973328449
  O         9.4435934279        0.9424049939        6.4522780977
  O        13.3668592448        1.2189649363        6.4076258978
  O        -0.0420652429        4.4430618979        6.4000740783
  O         3.8009387688        4.6178395974        6.2630583707
  O         7.5472069757        4.3397801050        6.3086035671
  O        11.4142460262        4.4177242433        6.4925306421
  O        -2.0266904113        7.6466303020        6.3767553477
  O         1.7032010282        7.7984761444        6.3006802591
  O         5.7330757778        7.6500717957        6.1474287701
  O         9.2658890227        7.8178104062        6.4215005732
  O        -3.7745688112       10.8754649996        6.4226405651
  O        -0.0485230771       10.8255550832        6.4297777232
  O         3.8657370146       11.0000718026        6.3503043451
  O         7.6880487600       10.9673991616        6.3137043047
  O         0.1286397523        2.1910799350        8.0456036483
  O         3.6989990337        2.0895415346        7.8239723268
  O         7.5220153962        1.9806022007        7.6577699088
  O        11.4951866000        1.9176001798        8.3276714722
  O        -1.8464648261        5.4319512980        8.2436290898
  O         1.8981130822        5.7559064321        7.8589106904
  O         5.8610230741        5.4497540440        8.0177519278
  O         9.3046016968        5.4591670743        7.9244060317
  O        -3.8788344668        8.6563132294        7.8967304128
  O        -0.0273812351        8.6636171024        8.1750123122
  O         3.7519061232        8.8350897032        7.8810223462
  O         7.1254168849        8.3367941845        8.2120659039
  O        -5.8355822524       12.3434281103        7.9233334191
  O        -1.8699393527       11.9983278270        8.1026465634
  O         1.9573854462       11.9229625741        8.0024093390
  O         5.6485641749       12.2332916397        7.8514129460
 Ce         0.0000000000        2.2090000000        0.7810000000
 Ce         3.8260000000        2.2090000000        0.7810000000
 Ce         7.6520000000        2.2090000000        0.7810000000
 Ce        11.4780000000        2.2090000000        0.7810000000
 Ce        -1.9130000000        5.5230000000        0.7810000000
 Ce         1.9130000000        5.5230000000        0.7810000000
 Ce         5.7390000000        5.5230000000        0.7810000000
 Ce         9.5650000000        5.5230000000        0.7810000000
 Ce        -3.8260000000        8.8360000000        0.7810000000
 Ce         0.0000000000        8.8360000000        0.7810000000
 Ce         3.8260000000        8.8360000000        0.7810000000
 Ce         7.6520000000        8.8360000000        0.7810000000
 Ce        -5.7390000000       12.1500000000        0.7810000000
 Ce        -1.9130000000       12.1500000000        0.7810000000
 Ce         1.9130000000       12.1500000000        0.7810000000
 Ce         5.7390000000       12.1500000000        0.7810000000
 Ce         2.1442186329        0.9465284908        3.9799556544
 Ce         5.6915953533        1.2468088068        3.9387484894
 Ce         9.4929797363        0.9671265006        3.9529361909
 Ce        13.4019607848        1.1338476632        3.8774063508
 Ce        -0.0115910717        4.3110934376        3.9238543080
 Ce         3.7687887650        4.3996984634        4.0728056734
 Ce         7.5816006458        4.4616617007        4.0064648701
 Ce        11.3944966187        4.3359709666        4.0393432220
 Ce        -1.8654307233        7.7351675021        3.8823868189
 Ce         1.8902763643        7.7595175607        3.9788471721
 Ce         5.7127308708        7.6427223237        3.8740060814
 Ce         9.6059573053        7.7640607686        3.7558403633
 Ce        -3.8300284389       11.0806568506        3.9357827889
 Ce         0.0007256310       11.0347119965        3.9171089314
 Ce         3.7862896641       11.0691348457        3.9288181771
 Ce         7.5419588130       10.9789891568        4.0256581263
 Ce        -0.1553820440       -0.0862058448        7.1406824984
 Ce         3.8698430874       -0.0858841778        7.3103787506
 Ce         7.7596541763       -0.1498004387        7.3596961490
 Ce        11.4692478728        0.0380790936        7.2647880146
 Ce        -1.9529070113        3.3691167450        7.2588844617
 Ce         1.8198195974        3.3716121599        7.1015527417
 Ce         5.6713392675        3.2017944394        7.1389824287
 Ce         9.2963002188        3.3162621130        7.2105649977
 Ce        -4.0376624332        6.6058875239        7.2108906385
 Ce         0.0104970319        6.6892334538        7.0982098916
 Ce         3.9569503532        6.8237438864        7.2147356252
 Ce         7.5547827454        6.5651299553        7.0140087455
 Ce        -5.6392553614        9.9996730133        7.1750046307
 Ce        -1.9460104598        9.8452786333        7.0822485746
 Ce         1.8158171778        9.8594681787        7.2337008643
 Ce         5.6328472686        9.9976043210        7.0616656917
 Pt        -0.8659539693        4.6972168788        9.9826663089
 Pt         7.1830309164        2.0205953111        9.9304655981
 Pt         0.6974111439        2.4628493997        9.9676660001
 Pt        -6.9836051671       11.5330000634       10.9403253496
 Pt         7.8382389316        9.8470078874        9.2397566964
 Pt         1.9105791545        0.1401259321        9.9368036147
 Pt         9.6317422325        1.8818355612        9.5222298983
 Pt         1.7067697027        5.1973041474        9.7880757484
 Pt         5.7704957598        4.4474667806        9.8778367332
 Pt         4.4788846883        0.8234335873       10.6970059872
 Pt         3.4487118430        3.0527203715        9.6349602376
 Pt         1.1648028332        3.9474393960       12.1744188358
 Pt         2.4281477226        1.6712531681       11.9100776970
 Pt         5.7081504868        2.8863337853       11.9101008077
 Pt         3.6544596797        4.8021939168       11.4770235282
 Pt         3.3529215690        3.3330244706       13.5938001220
     160
 i =     1315, time =     1315.000, E =     -5324.8966053310
  O         0.0000000000        0.0000000000        0.0000000000
  O         3.8260000000        0.0000000000        0.0000000000
  O         7.6520000000        0.0000000000        0.0000000000
  O        11.4780000000        0.0000000000        0.0000000000
  O        -1.9130000000        3.3140000000        0.0000000000
  O         1.9130000000        3.3140000000        0.0000000000
  O         5.7390000000        3.3140000000        0.0000000000
  O         9.5650000000        3.3140000000        0.0000000000
  O        -3.8260000000        6.6270000000        0.0000000000
  O         0.0000000000        6.6270000000        0.0000000000
  O         3.8260000000        6.6270000000        0.0000000000
  O         7.6520000000        6.6270000000        0.0000000000
  O        -5.7390000000        9.9410000000        0.0000000000
  O        -1.9130000000        9.9410000000        0.0000000000
  O         1.9130000000        9.9410000000        0.0000000000
  O         5.7390000000        9.9410000000        0.0000000000
  O         1.9130000000        1.1050000000        1.5620000000
  O         5.7390000000        1.1050000000        1.5620000000
  O         9.5650000000        1.1050000000        1.5620000000
  O        13.3920000000        1.1050000000        1.5620000000
  O         0.0000000000        4.4180000000        1.5620000000
  O         3.8260000000        4.4180000000        1.5620000000
  O         7.6520000000        4.4180000000        1.5620000000
  O        11.4780000000        4.4180000000        1.5620000000
  O        -1.9130000000        7.7320000000        1.5620000000
  O         1.9130000000        7.7320000000        1.5620000000
  O         5.7390000000        7.7320000000        1.5620000000
  O         9.5650000000        7.7320000000        1.5620000000
  O        -3.8260000000       11.0450000000        1.5620000000
  O         0.0000000000       11.0450000000        1.5620000000
  O         3.8260000000       11.0450000000        1.5620000000
  O         7.6520000000       11.0450000000        1.5620000000
  O         0.0000000000        2.2090000000        3.1240000000
  O         3.8260000000        2.2090000000        3.1240000000
  O         7.6520000000        2.2090000000        3.1240000000
  O        11.4780000000        2.2090000000        3.1240000000
  O        -1.9130000000        5.5230000000        3.1240000000
  O         1.9130000000        5.5230000000        3.1240000000
  O         5.7390000000        5.5230000000        3.1240000000
  O         9.5650000000        5.5230000000        3.1240000000
  O        -3.8260000000        8.8360000000        3.1240000000
  O         0.0000000000        8.8360000000        3.1240000000
  O         3.8260000000        8.8360000000        3.1240000000
  O         7.6520000000        8.8360000000        3.1240000000
  O        -5.7390000000       12.1500000000        3.1240000000
  O        -1.9130000000       12.1500000000        3.1240000000
  O         1.9130000000       12.1500000000        3.1240000000
  O         5.7390000000       12.1500000000        3.1240000000
  O        -0.1054176083       -0.1368808344        4.6926423810
  O         3.8721861855        0.0867862690        4.7433517823
  O         7.8692544930       -0.1867794673        4.7493279898
  O        11.4331318946        0.0618065063        4.7588608419
  O        -1.8855269516        3.1839675948        4.7857166827
  O         1.9686889290        3.5324200094        4.8561316161
  O         5.8598866726        3.3305659800        4.6486659248
  O         9.5937381344        3.2622721293        4.6998844066
  O        -3.9811354438        6.7742493100        4.7900565270
  O        -0.1431170458        6.5227529134        4.8580023222
  O         3.6875234997        6.7383971364        4.8805151683
  O         7.7635285683        6.5548911506        4.6326752481
  O        -5.5611020594       10.1102184692        4.7683437434
  O        -1.8086267168        9.9616813264        4.7272585668
  O         1.9390090078        9.7388908475        4.8437977051
  O         5.7777580223        9.9384621541        4.8698494618
  O         1.9229120346        1.0778109789        6.4740740687
  O         5.5904148300        1.1558526143        6.1979135154
  O         9.4428378829        0.9405903694        6.4498607218
  O        13.3652738945        1.2149900428        6.4039055544
  O        -0.0341557136        4.4491852392        6.4027385796
  O         3.8058637447        4.6172446467        6.2490493058
  O         7.5456716037        4.3352848814        6.3021961627
  O        11.4164784159        4.4245334107        6.4975380821
  O        -2.0245299067        7.6487348914        6.3755048669
  O         1.6945895077        7.8001104175        6.3072899198
  O         5.7335498655        7.6538572748        6.1497677723
  O         9.2627621745        7.8118298822        6.4104468771
  O        -3.7728927437       10.8768683206        6.4298248689
  O        -0.0547196760       10.8266440963        6.4441377792
  O         3.8677799340       11.0015973300        6.3452677872
  O         7.6947991254       10.9628272124        6.3197402744
  O         0.1277715747        2.1867819186        8.0399170990
  O         3.6969917798        2.0896491128        7.8278139326
  O         7.5202772080        1.9838719410        7.6506847932
  O        11.4867431867        1.9085810656        8.3260059014
  O        -1.8480142696        5.4262320019        8.2455377818
  O         1.9061074142        5.7576297978        7.8607395493
  O         5.8638159973        5.4541906478        8.0206355208
  O         9.3030895048        5.4530708750        7.9232052133
  O        -3.8835450619        8.6701684872        7.8984327599
  O        -0.0365766240        8.6748510270        8.1836181237
  O         3.7513890752        8.8320534285        7.8778116155
  O         7.1175455676        8.3364718965        8.2150991954
  O        -5.8358487050       12.3366916107        7.9232412556
  O        -1.8713693215       12.0014946663        8.1038976438
  O         1.9640023572       11.9324912029        8.0101192513
  O         5.6483299147       12.2332077713        7.8443430055
 Ce         0.0000000000        2.2090000000        0.7810000000
 Ce         3.8260000000        2.2090000000        0.7810000000
 Ce         7.6520000000        2.2090000000        0.7810000000
 Ce        11.4780000000        2.2090000000        0.7810000000
 Ce        -1.9130000000        5.5230000000        0.7810000000
 Ce         1.9130000000        5.5230000000        0.7810000000
 Ce         5.7390000000        5.5230000000        0.7810000000
 Ce         9.5650000000        5.5230000000        0.7810000000
 Ce        -3.8260000000        8.8360000000        0.7810000000
 Ce         0.0000000000        8.8360000000        0.7810000000
 Ce         3.8260000000        8.8360000000        0.7810000000
 Ce         7.6520000000        8.8360000000        0.7810000000
 Ce        -5.7390000000       12.1500000000        0.7810000000
 Ce        -1.9130000000       12.1500000000        0.7810000000
 Ce         1.9130000000       12.1500000000        0.7810000000
 Ce         5.7390000000       12.1500000000        0.7810000000
 Ce         2.1441108657        0.9465057416        3.9801837520
 Ce         5.6907998099        1.2485716402        3.9373447280
 Ce         9.4935592759        0.9642472287        3.9513426444
 Ce        13.3983502008        1.1354931438        3.8764796302
 Ce        -0.0143828278        4.3096945982        3.9203078893
 Ce         3.7698810159        4.4025164383        4.0751701531
 Ce         7.5776626290        4.4620835645        4.0083873040
 Ce        11.3906692211        4.3363972968        4.0422845744
 Ce        -1.8671310920        7.7339944388        3.8831129985
 Ce         1.8920310832        7.7607404286        3.9771856640
 Ce         5.7126790885        7.6412958788        3.8734864689
 Ce         9.6034464457        7.7667258048        3.7571003630
 Ce        -3.8342024689       11.0798507004        3.9352177089
 Ce         0.0000560725       11.0337342938        3.9157172042
 Ce         3.7835441155       11.0710495248        3.9289833820
 Ce         7.5431343777       10.9803202691        4.0289662284
 Ce        -0.1575293946       -0.0828417065        7.1403724492
 Ce         3.8669876383       -0.0829644504        7.3091665688
 Ce         7.7589086056       -0.1546505040        7.3591215724
 Ce        11.4672354440        0.0379382996        7.2687156365
 Ce        -1.9521127425        3.3657234170        7.2598991205
 Ce         1.8201368079        3.3700081104        7.1018043117
 Ce         5.6723783282        3.2014918425        7.1435355122
 Ce         9.2969923960        3.3185676601        7.2088543957
 Ce        -4.0358404506        6.6049876487        7.2104000525
 Ce         0.0062469575        6.6905583972        7.1012927715
 Ce         3.9580942270        6.8259016844        7.2197090175
 Ce         7.5582089572        6.5646932842        7.0142121658
 Ce        -5.6369811435        9.9964965266        7.1741527284
 Ce        -1.9454846948        9.8447123491        7.0817890173
 Ce         1.8152511724        9.8555631187        7.2360467063
 Ce         5.6326871400        9.9977293422        7.0665646956
 Pt        -0.8673376480        4.6986594463        9.9839556078
 Pt         7.1823425232        2.0209803564        9.9291763883
 Pt         0.6977869050        2.4638611491        9.9693994241
 Pt        -6.9864180665       11.5338101505       10.9408688453
 Pt         7.8414749129        9.8495623695        9.2424705195
 Pt         1.9097792036        0.1409415330        9.9376751452
 Pt         9.6307531760        1.8813995404        9.5214255193
 Pt         1.7054461287        5.1957690276        9.7854018219
 Pt         5.7710913057        4.4465459675        9.8791096056
 Pt         4.4775084634        0.8230550417       10.6955092353
 Pt         3.4486338848        3.0532779184        9.6352914428
 Pt         1.1668712268        3.9490062679       12.1759687743
 Pt         2.4296319214        1.6694907573       11.9116450690
 Pt         5.7066530027        2.8867081482       11.9094457744
 Pt         3.6544678743        4.8030559114       11.4769299761
 Pt         3.3528167892        3.3348368743       13.5960259431
     160
 i =     1316, time =     1316.000, E =     -5324.8949836327
  O         0.0000000000        0.0000000000        0.0000000000
  O         3.8260000000        0.0000000000        0.0000000000
  O         7.6520000000        0.0000000000        0.0000000000
  O        11.4780000000        0.0000000000        0.0000000000
  O        -1.9130000000        3.3140000000        0.0000000000
  O         1.9130000000        3.3140000000        0.0000000000
  O         5.7390000000        3.3140000000        0.0000000000
  O         9.5650000000        3.3140000000        0.0000000000
  O        -3.8260000000        6.6270000000        0.0000000000
  O         0.0000000000        6.6270000000        0.0000000000
  O         3.8260000000        6.6270000000        0.0000000000
  O         7.6520000000        6.6270000000        0.0000000000
  O        -5.7390000000        9.9410000000        0.0000000000
  O        -1.9130000000        9.9410000000        0.0000000000
  O         1.9130000000        9.9410000000        0.0000000000
  O         5.7390000000        9.9410000000        0.0000000000
  O         1.9130000000        1.1050000000        1.5620000000
  O         5.7390000000        1.1050000000        1.5620000000
  O         9.5650000000        1.1050000000        1.5620000000
  O        13.3920000000        1.1050000000        1.5620000000
  O         0.0000000000        4.4180000000        1.5620000000
  O         3.8260000000        4.4180000000        1.5620000000
  O         7.6520000000        4.4180000000        1.5620000000
  O        11.4780000000        4.4180000000        1.5620000000
  O        -1.9130000000        7.7320000000        1.5620000000
  O         1.9130000000        7.7320000000        1.5620000000
  O         5.7390000000        7.7320000000        1.5620000000
  O         9.5650000000        7.7320000000        1.5620000000
  O        -3.8260000000       11.0450000000        1.5620000000
  O         0.0000000000       11.0450000000        1.5620000000
  O         3.8260000000       11.0450000000        1.5620000000
  O         7.6520000000       11.0450000000        1.5620000000
  O         0.0000000000        2.2090000000        3.1240000000
  O         3.8260000000        2.2090000000        3.1240000000
  O         7.6520000000        2.2090000000        3.1240000000
  O        11.4780000000        2.2090000000        3.1240000000
  O        -1.9130000000        5.5230000000        3.1240000000
  O         1.9130000000        5.5230000000        3.1240000000
  O         5.7390000000        5.5230000000        3.1240000000
  O         9.5650000000        5.5230000000        3.1240000000
  O        -3.8260000000        8.8360000000        3.1240000000
  O         0.0000000000        8.8360000000        3.1240000000
  O         3.8260000000        8.8360000000        3.1240000000
  O         7.6520000000        8.8360000000        3.1240000000
  O        -5.7390000000       12.1500000000        3.1240000000
  O        -1.9130000000       12.1500000000        3.1240000000
  O         1.9130000000       12.1500000000        3.1240000000
  O         5.7390000000       12.1500000000        3.1240000000
  O        -0.1052102269       -0.1378874261        4.6918272167
  O         3.8774607186        0.0841135991        4.7425512754
  O         7.8740949440       -0.1841009070        4.7441673493
  O        11.4350788454        0.0653914065        4.7457701699
  O        -1.8895263971        3.1820394447        4.7891747096
  O         1.9580250177        3.5347777126        4.8616985260
  O         5.8655274328        3.3400680606        4.6454307508
  O         9.5868801522        3.2686132655        4.6974146476
  O        -3.9841249205        6.7708829626        4.7900014946
  O        -0.1461627893        6.5252779369        4.8527171514
  O         3.6791936303        6.7308382061        4.8637959897
  O         7.7587596338        6.5482306590        4.6326497558
  O        -5.5541494171       10.1166914144        4.7767802465
  O        -1.8078589927        9.9611318386        4.7311609450
  O         1.9439483133        9.7463842551        4.8449163651
  O         5.7710174670        9.9368193757        4.8719780880
  O         1.9195619556        1.0792888962        6.4708728957
  O         5.5955371269        1.1642626835        6.1989961363
  O         9.4426711872        0.9391477565        6.4471923023
  O        13.3638155707        1.2109551455        6.4003483632
  O        -0.0264930393        4.4547477193        6.4053985974
  O         3.8113419980        4.6158606716        6.2357524990
  O         7.5439925529        4.3306830624        6.2958427896
  O        11.4188917148        4.4311779275        6.5024858327
  O        -2.0221962328        7.6509598611        6.3741852932
  O         1.6865492633        7.8015397511        6.3140628597
  O         5.7338413989        7.6577086271        6.1523120331
  O         9.2603995992        7.8062039162        6.3994526691
  O        -3.7712819100       10.8793365723        6.4369567286
  O        -0.0606769356       10.8282545056        6.4583411381
  O         3.8693487462       11.0033565383        6.3398780794
  O         7.7013948795       10.9583007124        6.3259134302
  O         0.1261070117        2.1824103329        8.0340987188
  O         3.6954074309        2.0903544704        7.8318734761
  O         7.5179711919        1.9878393741        7.6440693716
  O        11.4782779511        1.9001808407        8.3243756644
  O        -1.8499904147        5.4204254668        8.2475601678
  O         1.9146236737        5.7592251984        7.8628256530
  O         5.8659278881        5.4586404486        8.0238332633
  O         9.3021586356        5.4470784649        7.9220573632
  O        -3.8884395687        8.6841487676        7.9003889714
  O        -0.0457877399        8.6863068637        8.1916276510
  O         3.7511896220        8.8289626487        7.8748416305
  O         7.1092556923        8.3364173714        8.2181506352
  O        -5.8355246157       12.3292719460        7.9234040683
  O        -1.8729986833       12.0050179277        8.1045829109
  O         1.9703399014       11.9422609898        8.0178694752
  O         5.6483587747       12.2327827466        7.8375848805
 Ce         0.0000000000        2.2090000000        0.7810000000
 Ce         3.8260000000        2.2090000000        0.7810000000
 Ce         7.6520000000        2.2090000000        0.7810000000
 Ce        11.4780000000        2.2090000000        0.7810000000
 Ce        -1.9130000000        5.5230000000        0.7810000000
 Ce         1.9130000000        5.5230000000        0.7810000000
 Ce         5.7390000000        5.5230000000        0.7810000000
 Ce         9.5650000000        5.5230000000        0.7810000000
 Ce        -3.8260000000        8.8360000000        0.7810000000
 Ce         0.0000000000        8.8360000000        0.7810000000
 Ce         3.8260000000        8.8360000000        0.7810000000
 Ce         7.6520000000        8.8360000000        0.7810000000
 Ce        -5.7390000000       12.1500000000        0.7810000000
 Ce        -1.9130000000       12.1500000000        0.7810000000
 Ce         1.9130000000       12.1500000000        0.7810000000
 Ce         5.7390000000       12.1500000000        0.7810000000
 Ce         2.1437477745        0.9465625340        3.9803906696
 Ce         5.6901343889        1.2502175386        3.9358835275
 Ce         9.4942109420        0.9615019942        3.9497592125
 Ce        13.3947149404        1.1370903272        3.8755938099
 Ce        -0.0171974788        4.3083953583        3.9167588498
 Ce         3.7709860387        4.4054629216        4.0774172550
 Ce         7.5738772839        4.4624613692        4.0101560427
 Ce        11.3868660955        4.3368636219        4.0451421199
 Ce        -1.8688893779        7.7327662396        3.8839051226
 Ce         1.8937883602        7.7618854193        3.9755015460
 Ce         5.7126159125        7.6399286095        3.8729790600
 Ce         9.6009187021        7.7693489480        3.7585144707
 Ce        -3.8383162854       11.0789908077        3.9346102269
 Ce        -0.0006290184       11.0327403910        3.9143474486
 Ce         3.7808367154       11.0729474784        3.9291868931
 Ce         7.5444004073       10.9817113586        4.0322089890
 Ce        -0.1595945843       -0.0794330470        7.1400277638
 Ce         3.8641202805       -0.0800296605        7.3079343745
 Ce         7.7581648393       -0.1595839006        7.3585124114
 Ce        11.4651517231        0.0377524139        7.2725775730
 Ce        -1.9512965257        3.3622878320        7.2609005692
 Ce         1.8204920584        3.3683876563        7.1020539172
 Ce         5.6733887040        3.2012243434        7.1480580411
 Ce         9.2978118211        3.3208348976        7.2071329170
 Ce        -4.0340067782        6.6041399429        7.2098404662
 Ce         0.0018876221        6.6919021883        7.1044273924
 Ce         3.9591414179        6.8279297528        7.2246192813
 Ce         7.5617060964        6.5642850004        7.0144493266
 Ce        -5.6347636094        9.9932620220        7.1732792781
 Ce        -1.9448869536        9.8440898865        7.0814052133
 Ce         1.8146668932        9.8516611138        7.2383730601
 Ce         5.6325838108        9.9978185810        7.0715222598
 Pt        -0.8686677737        4.7000911324        9.9852411123
 Pt         7.1815726031        2.0214130182        9.9279023577
 Pt         0.6981450589        2.4648789526        9.9711327649
 Pt        -6.9892204270       11.5346421310       10.9414108611
 Pt         7.8447132071        9.8521104525        9.2452182035
 Pt         1.9090068748        0.1417635748        9.9385605406
 Pt         9.6298170384        1.8809536139        9.5206017640
 Pt         1.7041198445        5.1941885273        9.7827675712
 Pt         5.7716918649        4.4456076650        9.8803902703
 Pt         4.4761699609        0.8226854982       10.6939894023
 Pt         3.4485751486        3.0538372214        9.6356205469
 Pt         1.1689072394        3.9506293701       12.1774696005
 Pt         2.4311042596        1.6677129185       11.9132223382
 Pt         5.7051354845        2.8870622974       11.9087704301
 Pt         3.6544714564        4.8039103358       11.4768269542
 Pt         3.3527376837        3.3366504088       13.5982479646
     160
 i =     1317, time =     1317.000, E =     -5324.8936325178
  O         0.0000000000        0.0000000000        0.0000000000
  O         3.8260000000        0.0000000000        0.0000000000
  O         7.6520000000        0.0000000000        0.0000000000
  O        11.4780000000        0.0000000000        0.0000000000
  O        -1.9130000000        3.3140000000        0.0000000000
  O         1.9130000000        3.3140000000        0.0000000000
  O         5.7390000000        3.3140000000        0.0000000000
  O         9.5650000000        3.3140000000        0.0000000000
  O        -3.8260000000        6.6270000000        0.0000000000
  O         0.0000000000        6.6270000000        0.0000000000
  O         3.8260000000        6.6270000000        0.0000000000
  O         7.6520000000        6.6270000000        0.0000000000
  O        -5.7390000000        9.9410000000        0.0000000000
  O        -1.9130000000        9.9410000000        0.0000000000
  O         1.9130000000        9.9410000000        0.0000000000
  O         5.7390000000        9.9410000000        0.0000000000
  O         1.9130000000        1.1050000000        1.5620000000
  O         5.7390000000        1.1050000000        1.5620000000
  O         9.5650000000        1.1050000000        1.5620000000
  O        13.3920000000        1.1050000000        1.5620000000
  O         0.0000000000        4.4180000000        1.5620000000
  O         3.8260000000        4.4180000000        1.5620000000
  O         7.6520000000        4.4180000000        1.5620000000
  O        11.4780000000        4.4180000000        1.5620000000
  O        -1.9130000000        7.7320000000        1.5620000000
  O         1.9130000000        7.7320000000        1.5620000000
  O         5.7390000000        7.7320000000        1.5620000000
  O         9.5650000000        7.7320000000        1.5620000000
  O        -3.8260000000       11.0450000000        1.5620000000
  O         0.0000000000       11.0450000000        1.5620000000
  O         3.8260000000       11.0450000000        1.5620000000
  O         7.6520000000       11.0450000000        1.5620000000
  O         0.0000000000        2.2090000000        3.1240000000
  O         3.8260000000        2.2090000000        3.1240000000
  O         7.6520000000        2.2090000000        3.1240000000
  O        11.4780000000        2.2090000000        3.1240000000
  O        -1.9130000000        5.5230000000        3.1240000000
  O         1.9130000000        5.5230000000        3.1240000000
  O         5.7390000000        5.5230000000        3.1240000000
  O         9.5650000000        5.5230000000        3.1240000000
  O        -3.8260000000        8.8360000000        3.1240000000
  O         0.0000000000        8.8360000000        3.1240000000
  O         3.8260000000        8.8360000000        3.1240000000
  O         7.6520000000        8.8360000000        3.1240000000
  O        -5.7390000000       12.1500000000        3.1240000000
  O        -1.9130000000       12.1500000000        3.1240000000
  O         1.9130000000       12.1500000000        3.1240000000
  O         5.7390000000       12.1500000000        3.1240000000
  O        -0.1046557129       -0.1383952249        4.6916177773
  O         3.8826530992        0.0805251120        4.7420682396
  O         7.8777578838       -0.1813658357        4.7395262258
  O        11.4372226021        0.0685148318        4.7328276520
  O        -1.8937964281        3.1810096706        4.7928159328
  O         1.9469177759        3.5360239733        4.8671089426
  O         5.8698137145        3.3493935957        4.6429107394
  O         9.5798490210        3.2750041448        4.6955605518
  O        -3.9868217661        6.7668677398        4.7903051065
  O        -0.1488636096        6.5281309616        4.8467750175
  O         3.6713748953        6.7232482942        4.8468506470
  O         7.7533305443        6.5419569919        4.6329007751
  O        -5.5479786725       10.1225805487        4.7851901067
  O        -1.8076603950        9.9603333993        4.7351787102
  O         1.9488735579        9.7552989266        4.8456360097
  O         5.7639177203        9.9351101321        4.8734646995
  O         1.9160108249        1.0809282114        6.4663447085
  O         5.6007000402        1.1723759552        6.2005614843
  O         9.4430922761        0.9380707901        6.4442986200
  O        13.3624772801        1.2068817619        6.3969642405
  O        -0.0191397808        4.4597587225        6.4080811977
  O         3.8173676681        4.6137110364        6.2233036719
  O         7.5421880314        4.3260128860        6.2896659607
  O        11.4214795129        4.4376207100        6.5073820631
  O        -2.0197180746        7.6532745740        6.3728312500
  O         1.6790847124        7.8027790681        6.3209358162
  O         5.7339167612        7.6615886155        6.1550348784
  O         9.2588147329        7.8009421358        6.3885046905
  O        -3.7697359441       10.8828882579        6.4440049572
  O        -0.0663128005       10.8303969203        6.4722601875
  O         3.8704249328       11.0053442108        6.3341566027
  O         7.7077881991       10.9538137990        6.3321824827
  O         0.1236415661        2.1779770147        8.0281847783
  O         3.6942445282        2.0916411818        7.8361435013
  O         7.5151456413        1.9924658779        7.6379759921
  O        11.4698024576        1.8924697745        8.3228079979
  O        -1.8523885972        5.4145535025        8.2496805363
  O         1.9236007348        5.7607162833        7.8651325878
  O         5.8673532705        5.4630896144        8.0273325498
  O         9.3018038022        5.4412308316        7.9209751127
  O        -3.8935270409        8.6981760011        7.9025888758
  O        -0.0549878360        8.6979541894        8.1990483833
  O         3.7512909010        8.8258654969        7.8721434243
  O         7.1005756031        8.3366759192        8.2212342870
  O        -5.8346126549       12.3212493597        7.9238231823
  O        -1.8748200760       12.0089274081        8.1047083064
  O         1.9763643340       11.9522053775        8.0255884353
  O         5.6486605239       12.2320096246        7.8311662056
 Ce         0.0000000000        2.2090000000        0.7810000000
 Ce         3.8260000000        2.2090000000        0.7810000000
 Ce         7.6520000000        2.2090000000        0.7810000000
 Ce        11.4780000000        2.2090000000        0.7810000000
 Ce        -1.9130000000        5.5230000000        0.7810000000
 Ce         1.9130000000        5.5230000000        0.7810000000
 Ce         5.7390000000        5.5230000000        0.7810000000
 Ce         9.5650000000        5.5230000000        0.7810000000
 Ce        -3.8260000000        8.8360000000        0.7810000000
 Ce         0.0000000000        8.8360000000        0.7810000000
 Ce         3.8260000000        8.8360000000        0.7810000000
 Ce         7.6520000000        8.8360000000        0.7810000000
 Ce        -5.7390000000       12.1500000000        0.7810000000
 Ce        -1.9130000000       12.1500000000        0.7810000000
 Ce         1.9130000000       12.1500000000        0.7810000000
 Ce         5.7390000000       12.1500000000        0.7810000000
 Ce         2.1431323333        0.9466990828        3.9805768860
 Ce         5.6896025753        1.2517503927        3.9343660040
 Ce         9.4949352671        0.9588977211        3.9481845962
 Ce        13.3910556059        1.1386358384        3.8747476432
 Ce        -0.0200316324        4.3071983960        3.9132101692
 Ce         3.7720986730        4.4085349324        4.0795409812
 Ce         7.5702517725        4.4627934832        4.0117645972
 Ce        11.3830860370        4.3373703471        4.0479119441
 Ce        -1.8707029195        7.7314831798        3.8847611573
 Ce         1.8955454100        7.7629526521        3.9737933353
 Ce         5.7125393212        7.6386212170        3.8724835352
 Ce         9.5983754551        7.7719234282        3.7600797869
 Ce        -3.8423607886       11.0780808192        3.9339605740
 Ce        -0.0013304219       11.0317326157        3.9129986495
 Ce         3.7781721199       11.0748276534        3.9294289782
 Ce         7.5457491723       10.9831612151        4.0353871293
 Ce        -0.1615733872       -0.0759845087        7.1396477965
 Ce         3.8612423838       -0.0770848422        7.3066820637
 Ce         7.7574237459       -0.1645919128        7.3578705946
 Ce        11.4629938998        0.0375158280        7.2763677057
 Ce        -1.9504556325        3.3588114279        7.2618862490
 Ce         1.8208841982        3.3667526536        7.1022988431
 Ce         5.6743724504        3.2009935688        7.1525455282
 Ce         9.2987532609        3.3230589560        7.2053977504
 Ce        -4.0321613538        6.6033476739        7.2092120455
 Ce        -0.0025768362        6.6932618629        7.1076112550
 Ce         3.9600958381        6.8298211202        7.2294611059
 Ce         7.5652673079        6.5639032202        7.0147184143
 Ce        -5.6326013368        9.9899760332        7.1723868337
 Ce        -1.9442220811        9.8434154815        7.0811020676
 Ce         1.8140616828        9.8477724640        7.2406804476
 Ce         5.6325389441        9.9978734769        7.0765308685
 Pt        -0.8699440149        4.7015110429        9.9865228738
 Pt         7.1807214385        2.0218937818        9.9266434940
 Pt         0.6984846232        2.4659019334        9.9728630675
 Pt        -6.9920114024       11.5354978921       10.9419522258
 Pt         7.8479497646        9.8546460778        9.2479972382
 Pt         1.9082616246        0.1425914216        9.9394591425
 Pt         9.6289319157        1.8804977674        9.5197590320
 Pt         1.7027912882        5.1925629435        9.7801753974
 Pt         5.7722975924        4.4446529299        9.8816784967
 Pt         4.4748702912        0.8223241175       10.6924467092
 Pt         3.4485351782        3.0543990065        9.6359492436
 Pt         1.1709113800        3.9523082838       12.1789206297
 Pt         2.4325641367        1.6659212652       11.9148101708
 Pt         5.7035978936        2.8873954156       11.9080752507
 Pt         3.6544697889        4.8047571989       11.4767134780
 Pt         3.3526842608        3.3384644428       13.6004654782
     160
 i =     1318, time =     1318.000, E =     -5324.8926463470
  O         0.0000000000        0.0000000000        0.0000000000
  O         3.8260000000        0.0000000000        0.0000000000
  O         7.6520000000        0.0000000000        0.0000000000
  O        11.4780000000        0.0000000000        0.0000000000
  O        -1.9130000000        3.3140000000        0.0000000000
  O         1.9130000000        3.3140000000        0.0000000000
  O         5.7390000000        3.3140000000        0.0000000000
  O         9.5650000000        3.3140000000        0.0000000000
  O        -3.8260000000        6.6270000000        0.0000000000
  O         0.0000000000        6.6270000000        0.0000000000
  O         3.8260000000        6.6270000000        0.0000000000
  O         7.6520000000        6.6270000000        0.0000000000
  O        -5.7390000000        9.9410000000        0.0000000000
  O        -1.9130000000        9.9410000000        0.0000000000
  O         1.9130000000        9.9410000000        0.0000000000
  O         5.7390000000        9.9410000000        0.0000000000
  O         1.9130000000        1.1050000000        1.5620000000
  O         5.7390000000        1.1050000000        1.5620000000
  O         9.5650000000        1.1050000000        1.5620000000
  O        13.3920000000        1.1050000000        1.5620000000
  O         0.0000000000        4.4180000000        1.5620000000
  O         3.8260000000        4.4180000000        1.5620000000
  O         7.6520000000        4.4180000000        1.5620000000
  O        11.4780000000        4.4180000000        1.5620000000
  O        -1.9130000000        7.7320000000        1.5620000000
  O         1.9130000000        7.7320000000        1.5620000000
  O         5.7390000000        7.7320000000        1.5620000000
  O         9.5650000000        7.7320000000        1.5620000000
  O        -3.8260000000       11.0450000000        1.5620000000
  O         0.0000000000       11.0450000000        1.5620000000
  O         3.8260000000       11.0450000000        1.5620000000
  O         7.6520000000       11.0450000000        1.5620000000
  O         0.0000000000        2.2090000000        3.1240000000
  O         3.8260000000        2.2090000000        3.1240000000
  O         7.6520000000        2.2090000000        3.1240000000
  O        11.4780000000        2.2090000000        3.1240000000
  O        -1.9130000000        5.5230000000        3.1240000000
  O         1.9130000000        5.5230000000        3.1240000000
  O         5.7390000000        5.5230000000        3.1240000000
  O         9.5650000000        5.5230000000        3.1240000000
  O        -3.8260000000        8.8360000000        3.1240000000
  O         0.0000000000        8.8360000000        3.1240000000
  O         3.8260000000        8.8360000000        3.1240000000
  O         7.6520000000        8.8360000000        3.1240000000
  O        -5.7390000000       12.1500000000        3.1240000000
  O        -1.9130000000       12.1500000000        3.1240000000
  O         1.9130000000       12.1500000000        3.1240000000
  O         5.7390000000       12.1500000000        3.1240000000
  O        -0.1037497019       -0.1384148318        4.6920201471
  O         3.8877122455        0.0760615463        4.7419077534
  O         7.8802053756       -0.1786324362        4.7354545027
  O        11.4395463100        0.0711566270        4.7201317444
  O        -1.8983248608        3.1808968239        4.7966644546
  O         1.9354255118        3.5361640149        4.8723549456
  O         5.8726501054        3.3584528744        4.6410972538
  O         9.5726907476        3.2814380796        4.6943346491
  O        -3.9892080131        6.7622234830        4.7909796449
  O        -0.1512097420        6.5313132106        4.8402098989
  O         3.6641080397        6.7156503113        4.8296892380
  O         7.7472652584        6.5361404024        4.6334415579
  O        -5.5426461431       10.1278364585        4.7935888463
  O        -1.8080167674        9.9592906468        4.7392834419
  O         1.9537298082        9.7655395368        4.8459774561
  O         5.7565139838        9.9333610793        4.8743175889
  O         1.9122869924        1.0827140792        6.4605146248
  O         5.6058761684        1.1801570987        6.2025882958
  O         9.4440946752        0.9373509158        6.4412054608
  O        13.3612508240        1.2027884485        6.3937672238
  O        -0.0121585281        4.4642272875        6.4108155404
  O         3.8239337099        4.6108241013        6.2118696516
  O         7.5402752692        4.3213135253        6.2837740998
  O        11.4242387589        4.4438362172        6.5122232821
  O        -2.0171245808        7.6556465468        6.3714778054
  O         1.6722124038        7.8038430267        6.3278607832
  O         5.7337455454        7.6654583825        6.1579077961
  O         9.2580153825        7.7960550321        6.3776407122
  O        -3.7682513808       10.8875354239        6.4509170788
  O        -0.0715473625       10.8330819098        6.4858139830
  O         3.8709968499       11.0075547472        6.3281287824
  O         7.7139350094       10.9493562228        6.3385216274
  O         0.1203743633        2.1734911315        8.0222211316
  O         3.6934957259        2.0934849175        7.8406075808
  O         7.5118557993        1.9977102836        7.6324589250
  O        11.4613312369        1.8855132950        8.3213308473
  O        -1.8552000350        5.4086460681        8.2518836976
  O         1.9329757445        5.7621166439        7.8676188099
  O         5.8680948963        5.4675290610        8.0311172805
  O         9.3020140996        5.4355637034        7.9199695710
  O        -3.8987944114        8.7121616439        7.9050251198
  O        -0.0641631978        8.7097629600        8.2058940742
  O         3.7516722656        8.8228117020        7.8697502921
  O         7.0915444454        8.3372898824        8.2243568953
  O        -5.8331147365       12.3127018278        7.9244948210
  O        -1.8768249503       12.0132487592        8.1042812648
  O         1.9820522545       11.9622542586        8.0332256550
  O         5.6492409130       12.2308835364        7.8250945955
 Ce         0.0000000000        2.2090000000        0.7810000000
 Ce         3.8260000000        2.2090000000        0.7810000000
 Ce         7.6520000000        2.2090000000        0.7810000000
 Ce        11.4780000000        2.2090000000        0.7810000000
 Ce        -1.9130000000        5.5230000000        0.7810000000
 Ce         1.9130000000        5.5230000000        0.7810000000
 Ce         5.7390000000        5.5230000000        0.7810000000
 Ce         9.5650000000        5.5230000000        0.7810000000
 Ce        -3.8260000000        8.8360000000        0.7810000000
 Ce         0.0000000000        8.8360000000        0.7810000000
 Ce         3.8260000000        8.8360000000        0.7810000000
 Ce         7.6520000000        8.8360000000        0.7810000000
 Ce        -5.7390000000       12.1500000000        0.7810000000
 Ce        -1.9130000000       12.1500000000        0.7810000000
 Ce         1.9130000000       12.1500000000        0.7810000000
 Ce         5.7390000000       12.1500000000        0.7810000000
 Ce         2.1422681961        0.9469154082        3.9807432638
 Ce         5.6892070429        1.2531738038        3.9327939575
 Ce         9.4957323344        0.9564406742        3.9466178142
 Ce        13.3873731627        1.1401266408        3.8739400187
 Ce        -0.0228820749        4.3061060935        3.9096646822
 Ce         3.7732139193        4.4117283889        4.0815349020
 Ce         7.5667922905        4.4630780651        4.0132068813
 Ce        11.3793281463        4.3379179138        4.0505906029
 Ce        -1.8725690315        7.7301456964        3.8856788193
 Ce         1.8972992030        7.7639431038        3.9720592810
 Ce         5.7124474783        7.6373746482        3.8719994721
 Ce         9.5958181825        7.7744429245        3.7617932539
 Ce        -3.8463272260       11.0771246069        3.9332692270
 Ce        -0.0020489583       11.0307134545        3.9116698003
 Ce         3.7755549806       11.0766889135        3.9297097760
 Ce         7.5471729802       10.9846686424        4.0385015266
 Ce        -0.1634616833       -0.0725010271        7.1392319307
 Ce         3.8583555526       -0.0741350951        7.3054093925
 Ce         7.7566858228       -0.1696651262        7.3571980361
 Ce        11.4607596241        0.0372231412        7.2800803743
 Ce        -1.9495878295        3.3552957911        7.2628537892
 Ce         1.8213119270        3.3651044894        7.1025364005
 Ce         5.6753313598        3.2008011563        7.1569935952
 Ce         9.2998115879        3.3252347695        7.2036464243
 Ce        -4.0303041004        6.6026133824        7.2085151418
 Ce        -0.0071423838        6.6946338956        7.1108418075
 Ce         3.9609620809        6.8315692622        7.2342302648
 Ce         7.5688855692        6.5635463795        7.0150180164
 Ce        -5.6304929304        9.9866455467        7.1714781922
 Ce        -1.9434956351        9.8426940266        7.0808841135
 Ce         1.8134333121        9.8439073756        7.2429691536
 Ce         5.6325539228        9.9978954469        7.0815827242
 Pt        -0.8711659835        4.7029182726        9.9878011573
 Pt         7.1797895316        2.0224228450        9.9253999807
 Pt         0.6988046518        2.4669292123        9.9745876997
 Pt        -6.9947900665       11.5363793968       10.9424938892
 Pt         7.8511806889        9.8571633491        9.2508051391
 Pt         1.9075429492        0.1434243746        9.9403703500
 Pt         9.6280957765        1.8800321250        9.5188976377
 Pt         1.7014604263        5.1908926371        9.7776279489
 Pt         5.7729088437        4.4436830236        9.8829740722
 Pt         4.4736105606        0.8219700906       10.6908816140
 Pt         3.4485134932        3.0549640349        9.6362795206
 Pt         1.1728844258        3.9540422346       12.1803209185
 Pt         2.4340109431        1.6641179514       11.9164093490
 Pt         5.7020396624        2.8877065931       11.9073609531
 Pt         3.6544625434        4.8055965162       11.4765894269
 Pt         3.3526562361        3.3402781846       13.6026769710
     160
 i =     1319, time =     1319.000, E =     -5324.8920034359
  O         0.0000000000        0.0000000000        0.0000000000
  O         3.8260000000        0.0000000000        0.0000000000
  O         7.6520000000        0.0000000000        0.0000000000
  O        11.4780000000        0.0000000000        0.0000000000
  O        -1.9130000000        3.3140000000        0.0000000000
  O         1.9130000000        3.3140000000        0.0000000000
  O         5.7390000000        3.3140000000        0.0000000000
  O         9.5650000000        3.3140000000        0.0000000000
  O        -3.8260000000        6.6270000000        0.0000000000
  O         0.0000000000        6.6270000000        0.0000000000
  O         3.8260000000        6.6270000000        0.0000000000
  O         7.6520000000        6.6270000000        0.0000000000
  O        -5.7390000000        9.9410000000        0.0000000000
  O        -1.9130000000        9.9410000000        0.0000000000
  O         1.9130000000        9.9410000000        0.0000000000
  O         5.7390000000        9.9410000000        0.0000000000
  O         1.9130000000        1.1050000000        1.5620000000
  O         5.7390000000        1.1050000000        1.5620000000
  O         9.5650000000        1.1050000000        1.5620000000
  O        13.3920000000        1.1050000000        1.5620000000
  O         0.0000000000        4.4180000000        1.5620000000
  O         3.8260000000        4.4180000000        1.5620000000
  O         7.6520000000        4.4180000000        1.5620000000
  O        11.4780000000        4.4180000000        1.5620000000
  O        -1.9130000000        7.7320000000        1.5620000000
  O         1.9130000000        7.7320000000        1.5620000000
  O         5.7390000000        7.7320000000        1.5620000000
  O         9.5650000000        7.7320000000        1.5620000000
  O        -3.8260000000       11.0450000000        1.5620000000
  O         0.0000000000       11.0450000000        1.5620000000
  O         3.8260000000       11.0450000000        1.5620000000
  O         7.6520000000       11.0450000000        1.5620000000
  O         0.0000000000        2.2090000000        3.1240000000
  O         3.8260000000        2.2090000000        3.1240000000
  O         7.6520000000        2.2090000000        3.1240000000
  O        11.4780000000        2.2090000000        3.1240000000
  O        -1.9130000000        5.5230000000        3.1240000000
  O         1.9130000000        5.5230000000        3.1240000000
  O         5.7390000000        5.5230000000        3.1240000000
  O         9.5650000000        5.5230000000        3.1240000000
  O        -3.8260000000        8.8360000000        3.1240000000
  O         0.0000000000        8.8360000000        3.1240000000
  O         3.8260000000        8.8360000000        3.1240000000
  O         7.6520000000        8.8360000000        3.1240000000
  O        -5.7390000000       12.1500000000        3.1240000000
  O        -1.9130000000       12.1500000000        3.1240000000
  O         1.9130000000       12.1500000000        3.1240000000
  O         5.7390000000       12.1500000000        3.1240000000
  O        -0.1024897366       -0.1379588985        4.6930370853
  O         3.8925930909        0.0707672002        4.7420702571
  O         7.8814025458       -0.1759545644        4.7319905993
  O        11.4420336954        0.0733018874        4.7077096016
  O        -1.9030963517        3.1817130338        4.8007377851
  O         1.9236101316        3.5352224567        4.8774182509
  O         5.8739581824        3.3671580683        4.6399784916
  O         9.5654494312        3.2879138963        4.6937493735
  O        -3.9912691060        6.7569734859        4.7920356757
  O        -0.1531934790        6.5348272870        4.8330708353
  O         3.6574209873        6.7080581154        4.8124071548
  O         7.7405809963        6.5308366356        4.6342872561
  O        -5.5381916528       10.1324171810        4.8019852532
  O        -1.8089122494        9.9580088900        4.7434404173
  O         1.9584595239        9.7769954107        4.8459612632
  O         5.7488718270        9.9316009162        4.8745480075
  O         1.9084225669        1.0846300408        6.4534278536
  O         5.6110311454        1.1875735289        6.2050533805
  O         9.4456676883        0.9369778155        6.4379378006
  O        13.3601270082        1.1986905377        6.3907747058
  O        -0.0056020041        4.4681670123        6.4136329228
  O         3.8310362539        4.6072264676        6.2015767471
  O         7.5382701732        4.3166243436        6.2782566155
  O        11.4271686914        4.4498069440        6.5169938187
  O        -2.0144436371        7.6580422285        6.3701598906
  O         1.6659571335        7.8047490415        6.3348123597
  O         5.7333018497        7.6692784914        6.1609023824
  O         9.2580031672        7.7915545119        6.3669443470
  O        -3.7668218650       10.8932878072        6.4576284941
  O        -0.0763066405       10.8363217460        6.4990056618
  O         3.8710590748       11.0099820269        6.3218311865
  O         7.7197881037       10.9449184695        6.3449163570
  O         0.1163089356        2.1689619711        8.0162659919
  O         3.6931504211        2.0958551014        7.8452410949
  O         7.5081591003        2.0035304576        7.6275728737
  O        11.4528942572        1.8793741909        8.3199715649
  O        -1.8584136440        5.4027420676        8.2541569153
  O         1.9427058918        5.7634382135        7.8702448953
  O         5.8681617880        5.4719529594        8.0351771101
  O         9.3027728838        5.4301092858        7.9190507913
  O        -3.9042033450        8.7259764925        7.9076930716
  O        -0.0732780310        8.7216658685        8.2121712603
  O         3.7523104216        8.8198519974        7.8676966384
  O         7.0822189847        8.3382962327        8.2275204283
  O        -5.8310293628       12.3036945609        7.9254136184
  O        -1.8790046328       12.0180048368        8.1033107265
  O         1.9873947628       11.9723324136        8.0407604067
  O         5.6501010560       12.2294012546        7.8193665695
 Ce         0.0000000000        2.2090000000        0.7810000000
 Ce         3.8260000000        2.2090000000        0.7810000000
 Ce         7.6520000000        2.2090000000        0.7810000000
 Ce        11.4780000000        2.2090000000        0.7810000000
 Ce        -1.9130000000        5.5230000000        0.7810000000
 Ce         1.9130000000        5.5230000000        0.7810000000
 Ce         5.7390000000        5.5230000000        0.7810000000
 Ce         9.5650000000        5.5230000000        0.7810000000
 Ce        -3.8260000000        8.8360000000        0.7810000000
 Ce         0.0000000000        8.8360000000        0.7810000000
 Ce         3.8260000000        8.8360000000        0.7810000000
 Ce         7.6520000000        8.8360000000        0.7810000000
 Ce        -5.7390000000       12.1500000000        0.7810000000
 Ce        -1.9130000000       12.1500000000        0.7810000000
 Ce         1.9130000000       12.1500000000        0.7810000000
 Ce         5.7390000000       12.1500000000        0.7810000000
 Ce         2.1411593012        0.9472115363        3.9808910497
 Ce         5.6889499245        1.2544909011        3.9311696595
 Ce         9.4966018112        0.9541364831        3.9450582062
 Ce        13.3836688580        1.1415600134        3.8731700111
 Ce        -0.0257456691        4.3051206606        3.9061252685
 Ce         3.7743265685        4.4150387495        4.0833927558
 Ce         7.5635045389        4.4633133024        4.0144771862
 Ce        11.3755916960        4.3385068796        4.0531750555
 Ce        -1.8744850944        7.7287542037        3.8866557289
 Ce         1.8990468504        7.7648581999        3.9702977043
 Ce         5.7123385816        7.6361899203        3.8715265258
 Ce         9.5932484410        7.7769012919        3.7636518887
 Ce        -3.8502072273       11.0761260741        3.9325369009
 Ce        -0.0027854196       11.0296855370        3.9103599671
 Ce         3.7729898809       11.0785300820        3.9300294051
 Ce         7.5486643208       10.9862324733        4.0415531133
 Ce        -0.1652552809       -0.0689875621        7.1387796666
 Ce         3.8554611668       -0.0711854680        7.3041158930
 Ce         7.7559513255       -0.1747937304        7.3564962315
 Ce        11.4584471796        0.0368690300        7.2837100974
 Ce        -1.9486911430        3.3517424316        7.2638008990
 Ce         1.8217738931        3.3634442297        7.1027639968
 Ce         5.6762667204        3.2006490798        7.1613979091
 Ce         9.3009818251        3.3273574335        7.2018762686
 Ce        -4.0284350088        6.6019390521        7.2077501570
 Ce        -0.0118048217        6.6960142595        7.1141163747
 Ce         3.9617448971        6.8331673859        7.2389230518
 Ce         7.5725537048        6.5632130612        7.0153470062
 Ce        -5.6284368947        9.9832779589        7.1705562527
 Ce        -1.9427139056        9.8419308069        7.0807553776
 Ce         1.8127799355        9.8400757778        7.2452391322
 Ce         5.6326298526        9.9978860465        7.0866698249
 Pt        -0.8723334395        4.7043121971        9.9890760330
 Pt         7.1787772998        2.0230005246        9.9241718316
 Pt         0.6991042969        2.4679597490        9.9763036530
 Pt        -6.9975555779       11.5372885140       10.9430369591
 Pt         7.8544021567        9.8596562134        9.2536393536
 Pt         1.9068504658        0.1442616976        9.9412932782
 Pt         9.6273063642        1.8795568536        9.5180180400
 Pt         1.7001273474        5.1891777028        9.7751275491
 Pt         5.7735256440        4.4426990010        9.8842766309
 Pt         4.4723920489        0.8216226737       10.6892944356
 Pt         3.4485095785        3.0555335769        9.6366137637
 Pt         1.1748265718        3.9558306074       12.1816699617
 Pt         2.4354439950        1.6623049577       11.9180208575
 Pt         5.7004605455        2.8879949909       11.9066281233
 Pt         3.6544497365        4.8064281814       11.4764543131
 Pt         3.3526534872        3.3420908855       13.6048813882
     160
 i =     1320, time =     1320.000, E =     -5324.8917558597
  O         0.0000000000        0.0000000000        0.0000000000
  O         3.8260000000        0.0000000000        0.0000000000
  O         7.6520000000        0.0000000000        0.0000000000
  O        11.4780000000        0.0000000000        0.0000000000
  O        -1.9130000000        3.3140000000        0.0000000000
  O         1.9130000000        3.3140000000        0.0000000000
  O         5.7390000000        3.3140000000        0.0000000000
  O         9.5650000000        3.3140000000        0.0000000000
  O        -3.8260000000        6.6270000000        0.0000000000
  O         0.0000000000        6.6270000000        0.0000000000
  O         3.8260000000        6.6270000000        0.0000000000
  O         7.6520000000        6.6270000000        0.0000000000
  O        -5.7390000000        9.9410000000        0.0000000000
  O        -1.9130000000        9.9410000000        0.0000000000
  O         1.9130000000        9.9410000000        0.0000000000
  O         5.7390000000        9.9410000000        0.0000000000
  O         1.9130000000        1.1050000000        1.5620000000
  O         5.7390000000        1.1050000000        1.5620000000
  O         9.5650000000        1.1050000000        1.5620000000
  O        13.3920000000        1.1050000000        1.5620000000
  O         0.0000000000        4.4180000000        1.5620000000
  O         3.8260000000        4.4180000000        1.5620000000
  O         7.6520000000        4.4180000000        1.5620000000
  O        11.4780000000        4.4180000000        1.5620000000
  O        -1.9130000000        7.7320000000        1.5620000000
  O         1.9130000000        7.7320000000        1.5620000000
  O         5.7390000000        7.7320000000        1.5620000000
  O         9.5650000000        7.7320000000        1.5620000000
  O        -3.8260000000       11.0450000000        1.5620000000
  O         0.0000000000       11.0450000000        1.5620000000
  O         3.8260000000       11.0450000000        1.5620000000
  O         7.6520000000       11.0450000000        1.5620000000
  O         0.0000000000        2.2090000000        3.1240000000
  O         3.8260000000        2.2090000000        3.1240000000
  O         7.6520000000        2.2090000000        3.1240000000
  O        11.4780000000        2.2090000000        3.1240000000
  O        -1.9130000000        5.5230000000        3.1240000000
  O         1.9130000000        5.5230000000        3.1240000000
  O         5.7390000000        5.5230000000        3.1240000000
  O         9.5650000000        5.5230000000        3.1240000000
  O        -3.8260000000        8.8360000000        3.1240000000
  O         0.0000000000        8.8360000000        3.1240000000
  O         3.8260000000        8.8360000000        3.1240000000
  O         7.6520000000        8.8360000000        3.1240000000
  O        -5.7390000000       12.1500000000        3.1240000000
  O        -1.9130000000       12.1500000000        3.1240000000
  O         1.9130000000       12.1500000000        3.1240000000
  O         5.7390000000       12.1500000000        3.1240000000
  O        -0.1008749430       -0.1370422169        4.6946683969
  O         3.8972587116        0.0646906983        4.7425516547
  O         7.8813219190       -0.1733795762        4.7291601480
  O        11.4446678370        0.0749403011        4.6955373930
  O        -1.9080910592        3.1834619135        4.8050447332
  O         1.9115489869        3.5332349106        4.8822697728
  O         5.8736791211        3.3754185553        4.6395398325
  O         9.5581780723        3.2944242924        4.6938150558
  O        -3.9929947746        6.7511462522        4.7934796773
  O        -0.1548087174        6.5386755211        4.8254316119
  O         3.6513436183        6.7004915946        4.7951810016
  O         7.7332933819        6.5260920071        4.6354541313
  O        -5.5346407798       10.1362912458        4.8103617556
  O        -1.8103292160        9.9564945632        4.7476103697
  O         1.9630158911        9.7895700067        4.8456071692
  O         5.7410698340        9.9298589369        4.8741710991
  O         1.9044534063        1.0866583842        6.4451556145
  O         5.6161186069        1.1945967122        6.2079309607
  O         9.4477964362        0.9369391355        6.4345169203
  O        13.3590965173        1.1946007180        6.3880067913
  O         0.0004922384        4.4715997307        6.4165668315
  O         3.8386711026        4.6029449208        6.1924900078
  O         7.5361864806        4.3119874071        6.2731821227
  O        11.4302690914        4.4555162780        6.5216664036
  O        -2.0116996509        7.6604269192        6.3689107919
  O         1.6603445176        7.8055169969        6.3417856409
  O         5.7325642796        7.6730096240        6.1639909730
  O         9.2587780375        7.7874508322        6.3564980181
  O        -3.7654388887       10.9001526379        6.4640757499
  O        -0.0805250803       10.8401295097        6.5118583624
  O         3.8706115447       11.0126192478        6.3153184470
  O         7.7252930435       10.9404985682        6.3513546839
  O         0.1114571200        2.1644011097        8.0103906625
  O         3.6931922100        2.0987161945        7.8500113817
  O         7.5041122321        2.0098812963        7.6233628599
  O        11.4445343185        1.8741070897        8.3187554121
  O        -1.8620188701        5.3968850532        8.2564897302
  O         1.9527682705        5.7646950009        7.8729719582
  O         5.8675676609        5.4763601898        8.0395040192
  O         9.3040575707        5.4248986038        7.9182269768
  O        -3.9097114830        8.7394963084        7.9105902255
  O        -0.0822759117        8.7335734379        8.2178739711
  O         3.7531794631        8.8170362914        7.8660160044
  O         7.0726716028        8.3397176415        8.2307185100
  O        -5.8283513733       12.2942837597        7.9265738176
  O        -1.8813523756       12.0232143637        8.1018062900
  O         1.9923888823       11.9823640532        8.0481971248
  O         5.6512387543       12.2275626896        7.8139765613
 Ce         0.0000000000        2.2090000000        0.7810000000
 Ce         3.8260000000        2.2090000000        0.7810000000
 Ce         7.6520000000        2.2090000000        0.7810000000
 Ce        11.4780000000        2.2090000000        0.7810000000
 Ce        -1.9130000000        5.5230000000        0.7810000000
 Ce         1.9130000000        5.5230000000        0.7810000000
 Ce         5.7390000000        5.5230000000        0.7810000000
 Ce         9.5650000000        5.5230000000        0.7810000000
 Ce        -3.8260000000        8.8360000000        0.7810000000
 Ce         0.0000000000        8.8360000000        0.7810000000
 Ce         3.8260000000        8.8360000000        0.7810000000
 Ce         7.6520000000        8.8360000000        0.7810000000
 Ce        -5.7390000000       12.1500000000        0.7810000000
 Ce        -1.9130000000       12.1500000000        0.7810000000
 Ce         1.9130000000       12.1500000000        0.7810000000
 Ce         5.7390000000       12.1500000000        0.7810000000
 Ce         2.1398099387        0.9475873812        3.9810218003
 Ce         5.6888326666        1.2557043733        3.9294959859
 Ce         9.4975428162        0.9519899774        3.9435055982
 Ce        13.3799442188        1.1429336210        3.8724369346
 Ce        -0.0286194803        4.3042440940        3.9025947649
 Ce         3.7754315535        4.4184608056        4.0851083541
 Ce         7.5603931373        4.4634971482        4.0155704990
 Ce        11.3718762403        4.3391379126        4.0556628340
 Ce        -1.8764485843        7.7273091676        3.8876894585
 Ce         1.9007854364        7.7656998765        3.9685068472
 Ce         5.7122109269        7.6350682617        3.8710643632
 Ce         9.5906679797        7.7792927379        3.7656527577
 Ce        -3.8539929640       11.0750890741        3.9317646221
 Ce        -0.0035406224       11.0286516156        3.9090683305
 Ce         3.7704814043       11.0803499394        3.9303879525
 Ce         7.5502158453       10.9878515774        4.0445429451
 Ce        -0.1669500616       -0.0654492065        7.1382903824
 Ce         3.8525606717       -0.0682410797        7.3028009498
 Ce         7.7552202469       -0.1799674701        7.3557666274
 Ce        11.4560553427        0.0364484943        7.2872517717
 Ce        -1.9477641929        3.3481529096        7.2647254216
 Ce         1.8222685168        3.3617724897        7.1029787628
 Ce         5.6771797067        3.2005392418        7.1657541329
 Ce         9.3022592327        3.3294220889        7.2000849238
 Ce        -4.0265541033        6.6013259340        7.2069178293
 Ce        -0.0165600915        6.6973986836        7.1174320308
 Ce         3.9624494030        6.8346090714        7.2435364977
 Ce         7.5762647178        6.5629020719        7.0157045742
 Ce        -5.6264317532        9.9798808151        7.1696239353
 Ce        -1.9418838485        9.8411315947        7.0807194318
 Ce         1.8121001146        9.8362874346        7.2474900777
 Ce         5.6327675755        9.9978470231        7.0917839687
 Pt        -0.8734460415        4.7056921330        9.9903475724
 Pt         7.1776851389        2.0236267141        9.9229589267
 Pt         0.6993828653        2.4689921219        9.9780079081
 Pt        -7.0003068329       11.5382275898       10.9435821321
 Pt         7.8576105880        9.8621190290        9.2564976746
 Pt         1.9061837387        0.1451025574        9.9422276785
 Pt         9.6265615389        1.8790721090        9.5171206845
 Pt         1.6987920185        5.1874182490        9.7726762332
 Pt         5.7741481361        4.4417022203        9.8855855124
 Pt         4.4712153823        0.8212812497       10.6876853162
 Pt         3.4485231169        3.0561089127        9.6369544985
 Pt         1.1767378687        3.9576726808       12.1829674171
 Pt         2.4368626342        1.6604841063       11.9196452536
 Pt         5.6988604637        2.8882596375       11.9058778024
 Pt         3.6544313424        4.8072523890       11.4763080737
 Pt         3.3526756075        3.3439016469       13.6070777954
     160
 i =     1321, time =     1321.000, E =     -5324.8920274251
  O         0.0000000000        0.0000000000        0.0000000000
  O         3.8260000000        0.0000000000        0.0000000000
  O         7.6520000000        0.0000000000        0.0000000000
  O        11.4780000000        0.0000000000        0.0000000000
  O        -1.9130000000        3.3140000000        0.0000000000
  O         1.9130000000        3.3140000000        0.0000000000
  O         5.7390000000        3.3140000000        0.0000000000
  O         9.5650000000        3.3140000000        0.0000000000
  O        -3.8260000000        6.6270000000        0.0000000000
  O         0.0000000000        6.6270000000        0.0000000000
  O         3.8260000000        6.6270000000        0.0000000000
  O         7.6520000000        6.6270000000        0.0000000000
  O        -5.7390000000        9.9410000000        0.0000000000
  O        -1.9130000000        9.9410000000        0.0000000000
  O         1.9130000000        9.9410000000        0.0000000000
  O         5.7390000000        9.9410000000        0.0000000000
  O         1.9130000000        1.1050000000        1.5620000000
  O         5.7390000000        1.1050000000        1.5620000000
  O         9.5650000000        1.1050000000        1.5620000000
  O        13.3920000000        1.1050000000        1.5620000000
  O         0.0000000000        4.4180000000        1.5620000000
  O         3.8260000000        4.4180000000        1.5620000000
  O         7.6520000000        4.4180000000        1.5620000000
  O        11.4780000000        4.4180000000        1.5620000000
  O        -1.9130000000        7.7320000000        1.5620000000
  O         1.9130000000        7.7320000000        1.5620000000
  O         5.7390000000        7.7320000000        1.5620000000
  O         9.5650000000        7.7320000000        1.5620000000
  O        -3.8260000000       11.0450000000        1.5620000000
  O         0.0000000000       11.0450000000        1.5620000000
  O         3.8260000000       11.0450000000        1.5620000000
  O         7.6520000000       11.0450000000        1.5620000000
  O         0.0000000000        2.2090000000        3.1240000000
  O         3.8260000000        2.2090000000        3.1240000000
  O         7.6520000000        2.2090000000        3.1240000000
  O        11.4780000000        2.2090000000        3.1240000000
  O        -1.9130000000        5.5230000000        3.1240000000
  O         1.9130000000        5.5230000000        3.1240000000
  O         5.7390000000        5.5230000000        3.1240000000
  O         9.5650000000        5.5230000000        3.1240000000
  O        -3.8260000000        8.8360000000        3.1240000000
  O         0.0000000000        8.8360000000        3.1240000000
  O         3.8260000000        8.8360000000        3.1240000000
  O         7.6520000000        8.8360000000        3.1240000000
  O        -5.7390000000       12.1500000000        3.1240000000
  O        -1.9130000000       12.1500000000        3.1240000000
  O         1.9130000000       12.1500000000        3.1240000000
  O         5.7390000000       12.1500000000        3.1240000000
  O        -0.0989061622       -0.1356817273        4.6969113833
  O         3.9016803491        0.0578866114        4.7433439468
  O         7.8799461243       -0.1709463719        4.7269776713
  O        11.4474303515        0.0760678684        4.6835978875
  O        -1.9132840509        3.1861366444        4.8095832881
  O         1.8993293438        3.5302303799        4.8868703179
  O         5.8717722178        3.3831448201        4.6397638220
  O         9.5509405589        3.3009487088        4.6945387726
  O        -3.9943797917        6.7447751602        4.7953126517
  O        -0.1560501765        6.5428586364        4.8173918927
  O         3.6459158499        6.6929891464        4.7781063369
  O         7.7254256535        6.5219503407        4.6369593399
  O        -5.5320103776       10.1394356568        4.8186656157
  O        -1.8122485895        9.9547553040        4.7517527289
  O         1.9673660347        9.8031901762        4.8449340138
  O         5.7331959298        9.9281612764        4.8732050057
  O         1.9004177015        1.0887780839        6.4357875573
  O         5.6210846840        1.2012003817        6.2111910534
  O         9.4504613813        0.9372205345        6.4309586976
  O        13.3581495934        1.1905297325        6.3854835305
  O         0.0060983442        4.4745551708        6.4196513732
  O         3.8468255353        4.5980108110        6.1846405023
  O         7.5340362635        4.3074483067        6.2686025547
  O        11.4335383161        4.4609417220        6.5262052421
  O        -2.0089115656        7.6627661245        6.3677614484
  O         1.6553955073        7.8061696642        6.3487864351
  O         5.7315162115        7.6766134145        6.1671473122
  O         9.2603314039        7.7837474891        6.3463387364
  O        -3.7640923863       10.9081297752        6.4702071100
  O        -0.0841456200       10.8445149833        6.5243404891
  O         3.8696583110       11.0154596608        6.3086667880
  O         7.7303890738       10.9361036065        6.3578184626
  O         0.1058421253        2.1598258824        8.0046705224
  O         3.6936004867        2.1020285272        7.8548729885
  O         7.4997698288        2.0167118972        7.6198638167
  O        11.4362909655        1.8697530683        8.3177054607
  O        -1.8660071168        5.3911162790        8.2588776916
  O         1.9631488814        5.7659042079        7.8757629691
  O         5.8663320970        5.4807543856        8.0440966604
  O         9.3058390278        5.4199627748        7.9175049071
  O        -3.9152930061        8.7526515368        7.9137151074
  O        -0.0911181495        8.7454271059        8.2229810023
  O         3.7542517998        8.8144129942        7.8647397378
  O         7.0629682859        8.3415646699        8.2339408496
  O        -5.8250762198       12.2845262126        7.9279661322
  O        -1.8838613369       12.0288899761        8.0997799663
  O         1.9970232326       11.9922833150        8.0555514720
  O         5.6526492235       12.2253707660        7.8089233897
 Ce         0.0000000000        2.2090000000        0.7810000000
 Ce         3.8260000000        2.2090000000        0.7810000000
 Ce         7.6520000000        2.2090000000        0.7810000000
 Ce        11.4780000000        2.2090000000        0.7810000000
 Ce        -1.9130000000        5.5230000000        0.7810000000
 Ce         1.9130000000        5.5230000000        0.7810000000
 Ce         5.7390000000        5.5230000000        0.7810000000
 Ce         9.5650000000        5.5230000000        0.7810000000
 Ce        -3.8260000000        8.8360000000        0.7810000000
 Ce         0.0000000000        8.8360000000        0.7810000000
 Ce         3.8260000000        8.8360000000        0.7810000000
 Ce         7.6520000000        8.8360000000        0.7810000000
 Ce        -5.7390000000       12.1500000000        0.7810000000
 Ce        -1.9130000000       12.1500000000        0.7810000000
 Ce         1.9130000000       12.1500000000        0.7810000000
 Ce         5.7390000000       12.1500000000        0.7810000000
 Ce         2.1382247364        0.9480427546        3.9811372525
 Ce         5.6888560009        1.2568164695        3.9277763211
 Ce         9.4985538674        0.9500051033        3.9419602945
 Ce        13.3762010862        1.1442455539        3.8717403577
 Ce        -0.0315008316        4.3034781960        3.8990759786
 Ce         3.7765240216        4.4219886736        4.0866757221
 Ce         7.5574614954        4.4636273727        4.0164826417
 Ce        11.3681816679        4.3398118780        4.0580521408
 Ce        -1.8784571226        7.7258110852        3.8887775859
 Ce         1.9025119851        7.7664705337        3.9666849214
 Ce         5.7120629340        7.6340111431        3.8706127493
 Ce         9.5880787660        7.7816118044        3.7677929851
 Ce        -3.8576772040       11.0740173714        3.9309537318
 Ce        -0.0043153923       11.0276145427        3.9077941474
 Ce         3.7680341257       11.0821471830        3.9307854606
 Ce         7.5518203806       10.9895248061        4.0474721268
 Ce        -0.1685424299       -0.0618911741        7.1377635305
 Ce         3.8496558789       -0.0653072329        7.3014635641
 Ce         7.7544924441       -0.1851755932        7.3550105159
 Ce        11.4535833638        0.0359570318        7.2907008380
 Ce        -1.9468061549        3.3445290896        7.2656255443
 Ce         1.8227939957        3.3600897252        7.1031779483
 Ce         5.6780711910        3.2004737231        7.1700580649
 Ce         9.3036394797        3.3314241160        7.1982703754
 Ce        -4.0246613767        6.6007744215        7.2060192622
 Ce        -0.0214041702        6.6987826458        7.1207857876
 Ce         3.9630809285        6.8358881988        7.2480684542
 Ce         7.5800118187        6.5626124338        7.0160902535
 Ce        -5.6244758202        9.9764615224        7.1686840405
 Ce        -1.9410129936        9.8403023764        7.0807794048
 Ce         1.8113929623        9.8325517636        7.2497214895
 Ce         5.6329675943        9.9977802080        7.0969168633
 Pt        -0.8745030636        4.7070572893        9.9916155401
 Pt         7.1765136613        2.0243014144        9.9217611625
 Pt         0.6996393824        2.4700254977        9.9796977450
 Pt        -7.0030431290       11.5391984776       10.9441303111
 Pt         7.8608023122        9.8645460099        9.2593778655
 Pt         1.9055421867        0.1459459807        9.9431727674
 Pt         9.6258590149        1.8785780383        9.5162059840
 Pt         1.6974543985        5.1856143139        9.7702760334
 Pt         5.7747762487        4.4406938923        9.8869001549
 Pt         4.4700818108        0.8209452311       10.6860543342
 Pt         3.4485537313        3.0566916219        9.6373046639
 Pt         1.1786183458        3.9595678856       12.1842129364
 Pt         2.4382662178        1.6586573846       11.9212834932
 Pt         5.6972395884        2.8884996890       11.9051109336
 Pt         3.6544071530        4.8080693497       11.4761505492
 Pt         3.3527220906        3.3457096371       13.6092652475
     160
 i =     1322, time =     1322.000, E =     -5324.8927312748
  O         0.0000000000        0.0000000000        0.0000000000
  O         3.8260000000        0.0000000000        0.0000000000
  O         7.6520000000        0.0000000000        0.0000000000
  O        11.4780000000        0.0000000000        0.0000000000
  O        -1.9130000000        3.3140000000        0.0000000000
  O         1.9130000000        3.3140000000        0.0000000000
  O         5.7390000000        3.3140000000        0.0000000000
  O         9.5650000000        3.3140000000        0.0000000000
  O        -3.8260000000        6.6270000000        0.0000000000
  O         0.0000000000        6.6270000000        0.0000000000
  O         3.8260000000        6.6270000000        0.0000000000
  O         7.6520000000        6.6270000000        0.0000000000
  O        -5.7390000000        9.9410000000        0.0000000000
  O        -1.9130000000        9.9410000000        0.0000000000
  O         1.9130000000        9.9410000000        0.0000000000
  O         5.7390000000        9.9410000000        0.0000000000
  O         1.9130000000        1.1050000000        1.5620000000
  O         5.7390000000        1.1050000000        1.5620000000
  O         9.5650000000        1.1050000000        1.5620000000
  O        13.3920000000        1.1050000000        1.5620000000
  O         0.0000000000        4.4180000000        1.5620000000
  O         3.8260000000        4.4180000000        1.5620000000
  O         7.6520000000        4.4180000000        1.5620000000
  O        11.4780000000        4.4180000000        1.5620000000
  O        -1.9130000000        7.7320000000        1.5620000000
  O         1.9130000000        7.7320000000        1.5620000000
  O         5.7390000000        7.7320000000        1.5620000000
  O         9.5650000000        7.7320000000        1.5620000000
  O        -3.8260000000       11.0450000000        1.5620000000
  O         0.0000000000       11.0450000000        1.5620000000
  O         3.8260000000       11.0450000000        1.5620000000
  O         7.6520000000       11.0450000000        1.5620000000
  O         0.0000000000        2.2090000000        3.1240000000
  O         3.8260000000        2.2090000000        3.1240000000
  O         7.6520000000        2.2090000000        3.1240000000
  O        11.4780000000        2.2090000000        3.1240000000
  O        -1.9130000000        5.5230000000        3.1240000000
  O         1.9130000000        5.5230000000        3.1240000000
  O         5.7390000000        5.5230000000        3.1240000000
  O         9.5650000000        5.5230000000        3.1240000000
  O        -3.8260000000        8.8360000000        3.1240000000
  O         0.0000000000        8.8360000000        3.1240000000
  O         3.8260000000        8.8360000000        3.1240000000
  O         7.6520000000        8.8360000000        3.1240000000
  O        -5.7390000000       12.1500000000        3.1240000000
  O        -1.9130000000       12.1500000000        3.1240000000
  O         1.9130000000       12.1500000000        3.1240000000
  O         5.7390000000       12.1500000000        3.1240000000
  O        -0.0965857726       -0.1338965333        4.6997630401
  O         3.9058321800        0.0504154268        4.7444348835
  O         7.8772685479       -0.1686843374        4.7254490601
  O        11.4503015228        0.0766848713        4.6719275768
  O        -1.9186442806        3.1897180643        4.8143393934
  O         1.8870301308        3.5262205630        4.8911727437
  O         5.8682152528        3.3902571160        4.6406301203
  O         9.5438014844        3.3074544079        4.6959247295
  O        -3.9954236943        6.7378962962        4.7975288151
  O        -0.1569127956        6.5473746310        4.8090655121
  O         3.6411817730        6.6856046679        4.7611792522
  O         7.7170158968        6.5184590802        4.6388206861
  O        -5.5303123399       10.1418336636        4.8268171226
  O        -1.8146506501        9.9527997125        4.7558290378
  O         1.9714793339        9.8177721067        4.8439609856
  O         5.7253366170        9.9265269938        4.8716700140
  O         1.8963521972        1.0909662770        6.4254042096
  O         5.6258770978        1.2073592175        6.2147980870
  O         9.4536384287        0.9378065123        6.4272728536
  O        13.3572758869        1.1864882008        6.3832236657
  O         0.0111945430        4.4770685726        6.4229197108
  O         3.8554659020        4.5924639893        6.1780552359
  O         7.5318318845        4.3030574157        6.2645588175
  O        11.4369708407        4.4660501644        6.5305699319
  O        -2.0060917848        7.6650272465        6.3667396985
  O         1.6511236376        7.8067316599        6.3558169068
  O         5.7301464023        7.6800540291        6.1703484361
  O         9.2626440731        7.7804419773        6.3364577876
  O        -3.7627734450       10.9172010904        6.4759893523
  O        -0.0871190694       10.8494808620        6.5363586727
  O         3.8682069123       11.0184973223        6.3019719386
  O         7.7350130635       10.9317480382        6.3642772237
  O         0.0995026975        2.1552621142        7.9991803413
  O         3.6943514125        2.1057503535        7.8597696167
  O         7.4951888428        2.0239600722        7.6171026445
  O        11.4281942439        1.8663383796        8.3168415524
  O        -1.8703736399        5.3854711875        8.2613177857
  O         1.9738231237        5.7670836752        7.8785809715
  O         5.8644809620        5.4851442531        8.0489569576
  O         9.3080829819        5.4153343251        7.9168903748
  O        -3.9209310185        8.7654075807        7.9170648216
  O        -0.0997915602        8.7572061903        8.2274640853
  O         3.7554990993        8.8120297196        7.8638959228
  O         7.0531505681        8.3438463834        8.2371756448
  O        -5.8212035907       12.2744952943        7.9295822034
  O        -1.8865236491       12.0350388654        8.0972478890
  O         2.0012737717       12.0020388121        8.0628395476
  O         5.6543257859       12.2228316092        7.8042145130
 Ce         0.0000000000        2.2090000000        0.7810000000
 Ce         3.8260000000        2.2090000000        0.7810000000
 Ce         7.6520000000        2.2090000000        0.7810000000
 Ce        11.4780000000        2.2090000000        0.7810000000
 Ce        -1.9130000000        5.5230000000        0.7810000000
 Ce         1.9130000000        5.5230000000        0.7810000000
 Ce         5.7390000000        5.5230000000        0.7810000000
 Ce         9.5650000000        5.5230000000        0.7810000000
 Ce        -3.8260000000        8.8360000000        0.7810000000
 Ce         0.0000000000        8.8360000000        0.7810000000
 Ce         3.8260000000        8.8360000000        0.7810000000
 Ce         7.6520000000        8.8360000000        0.7810000000
 Ce        -5.7390000000       12.1500000000        0.7810000000
 Ce        -1.9130000000       12.1500000000        0.7810000000
 Ce         1.9130000000       12.1500000000        0.7810000000
 Ce         5.7390000000       12.1500000000        0.7810000000
 Ce         2.1364085974        0.9485774869        3.9812393568
 Ce         5.6890200074        1.2578290536        3.9260145853
 Ce         9.4996329217        0.9481849313        3.9404230306
 Ce        13.3724415352        1.1454942622        3.8710800569
 Ce        -0.0343872180        4.3028245819        3.8955717786
 Ce         3.7775993027        4.4256158786        4.0880893837
 Ce         7.5547117243        4.4637015002        4.0172103663
 Ce        11.3645082403        4.3405298187        4.0603418448
 Ce        -1.8805084413        7.7242604938        3.8899177214
 Ce         1.9042235260        7.7671728770        3.9648301906
 Ce         5.7118930855        7.6330202240        3.8701715742
 Ce         9.5854829565        7.7838533820        3.7700697845
 Ce        -3.8612533275       11.0729146119        3.9301059301
 Ce        -0.0051105117       11.0265772354        3.9065368213
 Ce         3.7656526164       11.0839204734        3.9312218785
 Ce         7.5534709480       10.9912510090        4.0503418004
 Ce        -0.1700288862       -0.0583187430        7.1371985315
 Ce         3.8467488233       -0.0623891363        7.3001025524
 Ce         7.7537673430       -0.1904071942        7.3542289230
 Ce        11.4510310118        0.0353905257        7.2940531533
 Ce        -1.9458168445        3.3408730976        7.2664993260
 Ce         1.8233486610        3.3583962851        7.1033589083
 Ce         5.6789413998        3.2004548582        7.1743055607
 Ce         9.3051185873        3.3333593422        7.1964306471
 Ce        -4.0227568008        6.6002842522        7.2050560049
 Ce        -0.0263329678        6.7001614870        7.1241745684
 Ce         3.9636449208        6.8369988808        7.2525175396
 Ce         7.5837884293        6.5623431636        7.0165037607
 Ce        -5.6225671427        9.9730274797        7.1677390396
 Ce        -1.9401093118        9.8394494944        7.0809379153
 Ce         1.8106580680        9.8288778075        7.2519327326
 Ce         5.6332301122        9.9976874149        7.1020601690
 Pt        -0.8755041926        4.7084068103        9.9928799650
 Pt         7.1752633623        2.0250244104        9.9205785932
 Pt         0.6998732283        2.4710587300        9.9813708809
 Pt        -7.0057636268       11.5402033352       10.9446821378
 Pt         7.8639737397        9.8669317195        9.2622781195
 Pt         1.9049251738        0.1467911012        9.9441282730
 Pt         9.6251967294        1.8780746572        9.5152744950
 Pt         1.6961147454        5.1837661264        9.7679289427
 Pt         5.7754098171        4.4396754062        9.8882201903
 Pt         4.4689919920        0.8206142230       10.6844015604
 Pt         3.4486011453        3.0572831520        9.6376672499
 Pt         1.1804683938        3.9615154744       12.1854063748
 Pt         2.4396542641        1.6568266663       11.9229359285
 Pt         5.6955981184        2.8887142253       11.9043285131
 Pt         3.6543767035        4.8088793660       11.4759817055
 Pt         3.3527922335        3.3475139326       13.6114425846
     160
 i =     1323, time =     1323.000, E =     -5324.8936149415
  O         0.0000000000        0.0000000000        0.0000000000
  O         3.8260000000        0.0000000000        0.0000000000
  O         7.6520000000        0.0000000000        0.0000000000
  O        11.4780000000        0.0000000000        0.0000000000
  O        -1.9130000000        3.3140000000        0.0000000000
  O         1.9130000000        3.3140000000        0.0000000000
  O         5.7390000000        3.3140000000        0.0000000000
  O         9.5650000000        3.3140000000        0.0000000000
  O        -3.8260000000        6.6270000000        0.0000000000
  O         0.0000000000        6.6270000000        0.0000000000
  O         3.8260000000        6.6270000000        0.0000000000
  O         7.6520000000        6.6270000000        0.0000000000
  O        -5.7390000000        9.9410000000        0.0000000000
  O        -1.9130000000        9.9410000000        0.0000000000
  O         1.9130000000        9.9410000000        0.0000000000
  O         5.7390000000        9.9410000000        0.0000000000
  O         1.9130000000        1.1050000000        1.5620000000
  O         5.7390000000        1.1050000000        1.5620000000
  O         9.5650000000        1.1050000000        1.5620000000
  O        13.3920000000        1.1050000000        1.5620000000
  O         0.0000000000        4.4180000000        1.5620000000
  O         3.8260000000        4.4180000000        1.5620000000
  O         7.6520000000        4.4180000000        1.5620000000
  O        11.4780000000        4.4180000000        1.5620000000
  O        -1.9130000000        7.7320000000        1.5620000000
  O         1.9130000000        7.7320000000        1.5620000000
  O         5.7390000000        7.7320000000        1.5620000000
  O         9.5650000000        7.7320000000        1.5620000000
  O        -3.8260000000       11.0450000000        1.5620000000
  O         0.0000000000       11.0450000000        1.5620000000
  O         3.8260000000       11.0450000000        1.5620000000
  O         7.6520000000       11.0450000000        1.5620000000
  O         0.0000000000        2.2090000000        3.1240000000
  O         3.8260000000        2.2090000000        3.1240000000
  O         7.6520000000        2.2090000000        3.1240000000
  O        11.4780000000        2.2090000000        3.1240000000
  O        -1.9130000000        5.5230000000        3.1240000000
  O         1.9130000000        5.5230000000        3.1240000000
  O         5.7390000000        5.5230000000        3.1240000000
  O         9.5650000000        5.5230000000        3.1240000000
  O        -3.8260000000        8.8360000000        3.1240000000
  O         0.0000000000        8.8360000000        3.1240000000
  O         3.8260000000        8.8360000000        3.1240000000
  O         7.6520000000        8.8360000000        3.1240000000
  O        -5.7390000000       12.1500000000        3.1240000000
  O        -1.9130000000       12.1500000000        3.1240000000
  O         1.9130000000       12.1500000000        3.1240000000
  O         5.7390000000       12.1500000000        3.1240000000
  O        -0.0939181333       -0.1317080449        4.7032213232
  O         3.9096849766        0.0423416275        4.7458079913
  O         7.8732929183       -0.1666126610        4.7245733352
  O        11.4532605786        0.0767973952        4.6606129683
  O        -1.9241359933        3.1941735606        4.8192848430
  O         1.8747218061        3.5212124220        4.8951274236
  O         5.8630090207        3.3966909472        4.6421157875
  O         9.5368119283        3.3139048651        4.6979751429
  O        -3.9961300850        6.7305436009        4.8001155186
  O        -0.1573911725        6.5522170045        4.8005587912
  O         3.6371807435        6.6783964284        4.7444378296
  O         7.7081141396        6.5156689880        4.6410565011
  O        -5.5295544921       10.1434730064        4.8347300211
  O        -1.8175154248        9.9506370125        4.7598061467
  O         1.9753093724        9.8331845826        4.8427065542
  O         5.7175671582        9.9249668778        4.8695884316
  O         1.8922910951        1.0932010452        6.4140508082
  O         5.6304517118        1.2130479000        6.2187093388
  O         9.4572998990        0.9386809548        6.4234614891
  O        13.3564647360        1.1824884133        6.3812432631
  O         0.0157588325        4.4791781325        6.4264028240
  O         3.8645343236        4.5863524302        6.1727700276
  O         7.5295862797        4.2988699990        6.2610855028
  O        11.4405559898        4.4707959673        6.5347192318
  O        -2.0032458244        7.6671804339        6.3658709135
  O         1.6475359063        7.8072275562        6.3628638688
  O         5.7284478105        7.6832981286        6.1735765428
  O         9.2656891249        7.7775246794        6.3268261073
  O        -3.7614780385       10.9273199659        6.4814070500
  O        -0.0894025954       10.8550187447        6.5478143714
  O         3.8662681989       11.0217264473        6.2953400905
  O         7.7391041362       10.9274501455        6.3706831203
  O         0.0924890232        2.1507480651        7.9939835497
  O         3.6954202220        2.1098417485        7.8646368677
  O         7.4904342224        2.0315506337        7.6151018292
  O        11.4202686703        1.8638784168        8.3161792327
  O        -1.8751136502        5.3799744090        8.2638118665
  O         1.9847363938        5.7682482983        7.8813922745
  O         5.8620462543        5.4895421649        8.0540899520
  O         9.3107520321        5.4110470484        7.9163875969
  O        -3.9265963852        8.7777158415        7.9206334542
  O        -0.1082773500        8.7688859969        8.2312933620
  O         3.7568932666        8.8099312826        7.8635086028
  O         7.0432415126        8.3465754317        8.2404106397
  O        -5.8167463959       12.2642892785        7.9314137068
  O        -1.8893266322       12.0416637475        8.0942310462
  O         2.0051108130       12.0115858851        8.0700620871
  O         5.6562597966       12.2199543074        7.7998656514
 Ce         0.0000000000        2.2090000000        0.7810000000
 Ce         3.8260000000        2.2090000000        0.7810000000
 Ce         7.6520000000        2.2090000000        0.7810000000
 Ce        11.4780000000        2.2090000000        0.7810000000
 Ce        -1.9130000000        5.5230000000        0.7810000000
 Ce         1.9130000000        5.5230000000        0.7810000000
 Ce         5.7390000000        5.5230000000        0.7810000000
 Ce         9.5650000000        5.5230000000        0.7810000000
 Ce        -3.8260000000        8.8360000000        0.7810000000
 Ce         0.0000000000        8.8360000000        0.7810000000
 Ce         3.8260000000        8.8360000000        0.7810000000
 Ce         7.6520000000        8.8360000000        0.7810000000
 Ce        -5.7390000000       12.1500000000        0.7810000000
 Ce        -1.9130000000       12.1500000000        0.7810000000
 Ce         1.9130000000       12.1500000000        0.7810000000
 Ce         5.7390000000       12.1500000000        0.7810000000
 Ce         2.1343666817        0.9491914135        3.9813302060
 Ce         5.6893240742        1.2587434922        3.9242152094
 Ce         9.5007773038        0.9465315586        3.9388949981
 Ce        13.3686678719        1.1466785388        3.8704559757
 Ce        -0.0372763175        4.3022846959        3.8920850150
 Ce         3.7786529636        4.4293353472        4.0893443423
 Ce         7.5521445841        4.4637168252        4.0177513570
 Ce        11.3608565947        4.3412929727        4.0625314177
 Ce        -1.8826003981        7.7226579797        3.8911075045
 Ce         1.9059170630        7.7678098601        3.9629408688
 Ce         5.7116999547        7.6320973830        3.8697407468
 Ce         9.5828829158        7.7860127295        3.7724804489
 Ce        -3.8647153170       11.0717843608        3.9292232477
 Ce        -0.0059267583       11.0255427281        3.9052959139
 Ce         3.7633414103       11.0856684640        3.9316970027
 Ce         7.5551608337       10.9930290341        4.0531530471
 Ce        -0.1714063676       -0.0547372176        7.1365949507
 Ce         3.8438421114       -0.0594919406        7.2987164889
 Ce         7.7530440984       -0.1956511254        7.3534227274
 Ce        11.4483983910        0.0347455444        7.2973053001
 Ce        -1.9447966930        3.3371874106        7.2673450318
 Ce         1.8239308404        3.3566923001        7.1035190802
 Ce         5.6797899642        3.2004848769        7.1784924754
 Ce         9.3066930512        3.3352238559        7.1945641005
 Ce        -4.0208404141        6.5998546792        7.2040299718
 Ce        -0.0313425750        6.7015304535        7.1275953113
 Ce         3.9641468731        6.8379357552        7.2568829136
 Ce         7.5875883941        6.5620933622        7.0169449746
 Ce        -5.6207032493        9.9695859911        7.1667912273
 Ce        -1.9391810916        9.8385796179        7.0811971177
 Ce         1.8098954216        9.8252744106        7.2541230905
 Ce         5.6335549615        9.9975705120        7.1072056117
 Pt        -0.8764492158        4.7097398889        9.9941405322
 Pt         7.1739348887        2.0257956627        9.9194113928
 Pt         0.7000835445        2.4720910758        9.9830253253
 Pt        -7.0084678217       11.5412439654       10.9452385049
 Pt         7.8671213685        9.8692708833        9.2651967875
 Pt         1.9043321175        0.1476369489        9.9450933422
 Pt         9.6245723780        1.8775619441        9.5143268138
 Pt         1.6947732631        5.1818740923        9.7656368720
 Pt         5.7760486349        4.4386481347        9.8895454800
 Pt         4.4679470033        0.8202879669       10.6827269939
 Pt         3.4486648926        3.0578846482        9.6380454394
 Pt         1.1822882777        3.9635148086       12.1865476801
 Pt         2.4410263622        1.6549937964       11.9246031412
 Pt         5.6939364543        2.8889022255       11.9035312699
 Pt         3.6543394702        4.8096829594       11.4758014897
 Pt         3.3528855742        3.3493137441       13.6136088859
     160
 i =     1324, time =     1324.000, E =     -5324.8946073346
  O         0.0000000000        0.0000000000        0.0000000000
  O         3.8260000000        0.0000000000        0.0000000000
  O         7.6520000000        0.0000000000        0.0000000000
  O        11.4780000000        0.0000000000        0.0000000000
  O        -1.9130000000        3.3140000000        0.0000000000
  O         1.9130000000        3.3140000000        0.0000000000
  O         5.7390000000        3.3140000000        0.0000000000
  O         9.5650000000        3.3140000000        0.0000000000
  O        -3.8260000000        6.6270000000        0.0000000000
  O         0.0000000000        6.6270000000        0.0000000000
  O         3.8260000000        6.6270000000        0.0000000000
  O         7.6520000000        6.6270000000        0.0000000000
  O        -5.7390000000        9.9410000000        0.0000000000
  O        -1.9130000000        9.9410000000        0.0000000000
  O         1.9130000000        9.9410000000        0.0000000000
  O         5.7390000000        9.9410000000        0.0000000000
  O         1.9130000000        1.1050000000        1.5620000000
  O         5.7390000000        1.1050000000        1.5620000000
  O         9.5650000000        1.1050000000        1.5620000000
  O        13.3920000000        1.1050000000        1.5620000000
  O         0.0000000000        4.4180000000        1.5620000000
  O         3.8260000000        4.4180000000        1.5620000000
  O         7.6520000000        4.4180000000        1.5620000000
  O        11.4780000000        4.4180000000        1.5620000000
  O        -1.9130000000        7.7320000000        1.5620000000
  O         1.9130000000        7.7320000000        1.5620000000
  O         5.7390000000        7.7320000000        1.5620000000
  O         9.5650000000        7.7320000000        1.5620000000
  O        -3.8260000000       11.0450000000        1.5620000000
  O         0.0000000000       11.0450000000        1.5620000000
  O         3.8260000000       11.0450000000        1.5620000000
  O         7.6520000000       11.0450000000        1.5620000000
  O         0.0000000000        2.2090000000        3.1240000000
  O         3.8260000000        2.2090000000        3.1240000000
  O         7.6520000000        2.2090000000        3.1240000000
  O        11.4780000000        2.2090000000        3.1240000000
  O        -1.9130000000        5.5230000000        3.1240000000
  O         1.9130000000        5.5230000000        3.1240000000
  O         5.7390000000        5.5230000000        3.1240000000
  O         9.5650000000        5.5230000000        3.1240000000
  O        -3.8260000000        8.8360000000        3.1240000000
  O         0.0000000000        8.8360000000        3.1240000000
  O         3.8260000000        8.8360000000        3.1240000000
  O         7.6520000000        8.8360000000        3.1240000000
  O        -5.7390000000       12.1500000000        3.1240000000
  O        -1.9130000000       12.1500000000        3.1240000000
  O         1.9130000000       12.1500000000        3.1240000000
  O         5.7390000000       12.1500000000        3.1240000000
  O        -0.0909105207       -0.1291404581        4.7072858804
  O         3.9132021885        0.0337283190        4.7474421644
  O         7.8680332090       -0.1647409281        4.7243438596
  O        11.4562873625        0.0764197764        4.6497350520
  O        -1.9297296140        3.1994610482        4.8243798238
  O         1.8624855862        3.5152301839        4.8986858127
  O         5.8561826226        3.4023964904        4.6441941126
  O         9.5300043779        3.3202667664        4.7006906307
  O        -3.9965050374        6.7227450708        4.8030524446
  O        -0.1574796777        6.5573729877        4.7919495475
  O         3.6339392649        6.6714155331        4.7280302577
  O         7.6987695544        6.5136279083        4.6436840409
  O        -5.5297393607       10.1443459024        4.8423317787
  O        -1.8208220385        9.9482774230        4.7636584212
  O         1.9787877328        9.8492811072        4.8411894331
  O         5.7099478340        9.9234864178        4.8669833957
  O         1.8882642698        1.0954620646        6.4017374083
  O         5.6347750443        1.2182402453        6.2228740721
  O         9.4614151931        0.9398275421        6.4195199011
  O        13.3557046238        1.1785465794        6.3795557625
  O         0.0197664084        4.4809239361        6.4301277161
  O         3.8739614545        4.5797206568        6.1688264893
  O         7.5273142694        4.2949444055        6.2582113834
  O        11.4442767068        4.4751212546        6.5386150942
  O        -2.0003733954        7.6691991342        6.3651779613
  O         1.6446328767        7.8076805460        6.3698915006
  O         5.7264173290        7.6863156275        6.1768194181
  O         9.2694348283        7.7749775835        6.3174284709
  O        -3.7602081553       10.9384147850        6.4864583413
  O        -0.0909583843       10.8611058297        6.5586610368
  O         3.8638552164       11.0251412633        6.2888754701
  O         7.7426076667       10.9232303456        6.3769710915
  O         0.0848490399        2.1463245835        7.9891285410
  O         3.6967812255        2.1142644456        7.8694088180
  O         7.4855862513        2.0393975561        7.6138820914
  O        11.4125427809        1.8623824073        8.3157291870
  O        -1.8802186496        5.3746412734        8.2663639510
  O         1.9958052897        5.7694092668        7.8841670452
  O         5.8590648424        5.4939635141        8.0594976968
  O         9.3138092820        5.4071352874        7.9159992625
  O        -3.9322348976        8.7895020048        7.9244127246
  O        -0.1165295549        8.7804064708        8.2344423212
  O         3.7584063349        8.8081598408        7.8635972577
  O         7.0332577646        8.3497625206        8.2436333336
  O        -5.8117379158       12.2540229835        7.9334512740
  O        -1.8922502909       12.0487657244        8.0907570775
  O         2.0085091178       12.0208762991        8.0771986826
  O         5.6584403019       12.2167520599        7.7959000296
 Ce         0.0000000000        2.2090000000        0.7810000000
 Ce         3.8260000000        2.2090000000        0.7810000000
 Ce         7.6520000000        2.2090000000        0.7810000000
 Ce        11.4780000000        2.2090000000        0.7810000000
 Ce        -1.9130000000        5.5230000000        0.7810000000
 Ce         1.9130000000        5.5230000000        0.7810000000
 Ce         5.7390000000        5.5230000000        0.7810000000
 Ce         9.5650000000        5.5230000000        0.7810000000
 Ce        -3.8260000000        8.8360000000        0.7810000000
 Ce         0.0000000000        8.8360000000        0.7810000000
 Ce         3.8260000000        8.8360000000        0.7810000000
 Ce         7.6520000000        8.8360000000        0.7810000000
 Ce        -5.7390000000       12.1500000000        0.7810000000
 Ce        -1.9130000000       12.1500000000        0.7810000000
 Ce         1.9130000000       12.1500000000        0.7810000000
 Ce         5.7390000000       12.1500000000        0.7810000000
 Ce         2.1321043582        0.9498843654        3.9814120930
 Ce         5.6897668134        1.2595606894        3.9223831878
 Ce         9.5019836477        0.9450460960        3.9373778812
 Ce        13.3648827060        1.1477974422        3.8698682285
 Ce        -0.0401658659        4.3018597616        3.8886185366
 Ce         3.7796808940        4.4331394454        4.0904363658
 Ce         7.5497592615        4.4636704812        4.0181045154
 Ce        11.3572276910        4.3421027462        4.0646209187
 Ce        -1.8847309688        7.7210042400        3.8923445668
 Ce         1.9075896720        7.7683845683        3.9610152078
 Ce         5.7114822238        7.6312447097        3.8693203210
 Ce         9.5802810587        7.7880856031        3.7750224089
 Ce        -3.8680579007       11.0706300799        3.9283080946
 Ce        -0.0067649178       11.0245141521        3.9040711501
 Ce         3.7611050637       11.0873897547        3.9322104875
 Ce         7.5568836375       10.9948576813        4.0559070200
 Ce        -0.1726718935       -0.0511519917        7.1359523827
 Ce         3.8409384827       -0.0566205620        7.2973037666
 Ce         7.7523215142       -0.2008961461        7.3525925799
 Ce        11.4456860949        0.0340192244        7.3004544541
 Ce        -1.9437466943        3.3334746573        7.2681609104
 Ce         1.8245390261        3.3549776630        7.1036560935
 Ce         5.6806158099        3.2005662059        7.1826148144
 Ce         9.3083596293        3.3370141894        7.1926693306
 Ce        -4.0189127610        6.5994848373        7.2029434193
 Ce        -0.0364289421        6.7028847202        7.1310449940
 Ce         3.9645924000        6.8386940011        7.2611643690
 Ce         7.5914057234        6.5618622818        7.0174141022
 Ce        -5.6188815486        9.9661443818        7.1658428161
 Ce        -1.9382368910        9.8376998786        7.0815586234
 Ce         1.8091055358        9.8217501078        7.2562917559
 Ce         5.6339417533        9.9974312629        7.1123450304
 Pt        -0.8773380744        4.7110556876        9.9953971003
 Pt         7.1725289674        2.0266150191        9.9182597634
 Pt         0.7002695889        2.4731217114        9.9846595788
 Pt        -7.0111551682       11.5423223425       10.9458002750
 Pt         7.8702417724        9.8715586632        9.2681323519
 Pt         1.9037624136        0.1484826942        9.9460673002
 Pt         9.6239837297        1.8770397837        9.5133636217
 Pt         1.6934302130        5.1799387303        9.7634019336
 Pt         5.7766925066        4.4376136339        9.8908760243
 Pt         4.4669475786        0.8199661584       10.6810306207
 Pt         3.4487444899        3.0584970131        9.6384422972
 Pt         1.1840785128        3.9655649555       12.1876364177
 Pt         2.4423819002        1.6531606985       11.9262853584
 Pt         5.6922549653        2.8890626455       11.9027200792
 Pt         3.6542947088        4.8104806622       11.4756098419
 Pt         3.3530016905        3.3511084076       13.6157633189
