     160
 i =      600, time =      600.000, E =     -5324.9491125916
  O         0.0000000000        0.0000000000        0.0000000000
  O         3.8260000000        0.0000000000        0.0000000000
  O         7.6520000000        0.0000000000        0.0000000000
  O        11.4780000000        0.0000000000        0.0000000000
  O        -1.9130000000        3.3140000000        0.0000000000
  O         1.9130000000        3.3140000000        0.0000000000
  O         5.7390000000        3.3140000000        0.0000000000
  O         9.5650000000        3.3140000000        0.0000000000
  O        -3.8260000000        6.6270000000        0.0000000000
  O         0.0000000000        6.6270000000        0.0000000000
  O         3.8260000000        6.6270000000        0.0000000000
  O         7.6520000000        6.6270000000        0.0000000000
  O        -5.7390000000        9.9410000000        0.0000000000
  O        -1.9130000000        9.9410000000        0.0000000000
  O         1.9130000000        9.9410000000        0.0000000000
  O         5.7390000000        9.9410000000        0.0000000000
  O         1.9130000000        1.1050000000        1.5620000000
  O         5.7390000000        1.1050000000        1.5620000000
  O         9.5650000000        1.1050000000        1.5620000000
  O        13.3920000000        1.1050000000        1.5620000000
  O         0.0000000000        4.4180000000        1.5620000000
  O         3.8260000000        4.4180000000        1.5620000000
  O         7.6520000000        4.4180000000        1.5620000000
  O        11.4780000000        4.4180000000        1.5620000000
  O        -1.9130000000        7.7320000000        1.5620000000
  O         1.9130000000        7.7320000000        1.5620000000
  O         5.7390000000        7.7320000000        1.5620000000
  O         9.5650000000        7.7320000000        1.5620000000
  O        -3.8260000000       11.0450000000        1.5620000000
  O         0.0000000000       11.0450000000        1.5620000000
  O         3.8260000000       11.0450000000        1.5620000000
  O         7.6520000000       11.0450000000        1.5620000000
  O         0.0000000000        2.2090000000        3.1240000000
  O         3.8260000000        2.2090000000        3.1240000000
  O         7.6520000000        2.2090000000        3.1240000000
  O        11.4780000000        2.2090000000        3.1240000000
  O        -1.9130000000        5.5230000000        3.1240000000
  O         1.9130000000        5.5230000000        3.1240000000
  O         5.7390000000        5.5230000000        3.1240000000
  O         9.5650000000        5.5230000000        3.1240000000
  O        -3.8260000000        8.8360000000        3.1240000000
  O         0.0000000000        8.8360000000        3.1240000000
  O         3.8260000000        8.8360000000        3.1240000000
  O         7.6520000000        8.8360000000        3.1240000000
  O        -5.7390000000       12.1500000000        3.1240000000
  O        -1.9130000000       12.1500000000        3.1240000000
  O         1.9130000000       12.1500000000        3.1240000000
  O         5.7390000000       12.1500000000        3.1240000000
  O        -0.1709165978        0.0062058573        4.8121679299
  O         3.6679327397       -0.0309825334        4.9105352850
  O         7.8509738029       -0.0572272006        4.8153431042
  O        11.6479384544       -0.1373620901        4.6982453688
  O        -1.9153843617        3.4522797523        4.7624381110
  O         1.9689520816        3.4255646847        4.8053549269
  O         5.7956041326        3.4471822845        4.8043481100
  O         9.4896513338        3.2124835397        4.7147960727
  O        -3.7206415661        6.5997624710        4.9925398695
  O        -0.1356981472        6.5591160310        4.7566236210
  O         3.8418050371        6.9559096207        4.8025176630
  O         7.6806232208        6.7582471316        4.9083613110
  O        -5.6483696145        9.9983635330        4.7693866514
  O        -1.8211971189        9.8955350611        4.9243464192
  O         2.0006532728        9.9289723538        4.8280612519
  O         5.7006098799        9.9866875628        4.7216064712
  O         1.6527634461        1.1767013702        6.2085033452
  O         5.8039837727        1.0283388930        6.0586032404
  O         9.6401436003        1.1635400767        6.3745433143
  O        13.1257406487        1.2391654380        6.5131527121
  O        -0.0380207139        4.4203697421        6.2851621875
  O         3.9873291049        4.6115116493        6.3466033110
  O         7.7770769682        4.4955150685        6.3957413612
  O        11.4883198825        4.1164141566        6.4662887626
  O        -1.8454315691        7.7844801535        6.3465998291
  O         1.9790824023        7.8211116997        6.4212857509
  O         5.9369555772        7.8606305680        6.6599609150
  O         9.7193485240        7.8578030161        6.4370890320
  O        -3.6682417856       11.0534149940        6.3070711941
  O        -0.0398954723       10.8773909867        6.4021257265
  O         3.9015500820       11.1147284559        6.4501383056
  O         7.6864703879       10.9560204179        6.5633857481
  O         0.0264557495        2.1145387299        8.0504578679
  O         3.9072139049        2.2352273387        7.8704035348
  O         7.5685351699        2.1873988141        7.8145545369
  O        11.5160650784        2.2692146120        8.4392505537
  O        -1.8444026837        5.5392198378        8.2419712776
  O         1.9394099319        5.5592355045        7.9944485801
  O         6.0092694968        5.6406244362        8.2216477594
  O         9.7623704839        5.6695832783        7.9111231483
  O        -3.7080494349        8.8781212532        8.1308063748
  O         0.0183860253        8.6157031391        7.9968507275
  O         3.7989396931        8.9152257553        8.1880181314
  O         7.9786993758        8.7630102652        8.4422889200
  O        -5.7491699129       12.2836163724        7.9787291067
  O        -1.8592553464       12.1468618778        7.9155731065
  O         1.8714607487       12.1338186685        8.0822395469
  O         5.7962383627       12.1327893142        8.1035675633
 Ce         0.0000000000        2.2090000000        0.7810000000
 Ce         3.8260000000        2.2090000000        0.7810000000
 Ce         7.6520000000        2.2090000000        0.7810000000
 Ce        11.4780000000        2.2090000000        0.7810000000
 Ce        -1.9130000000        5.5230000000        0.7810000000
 Ce         1.9130000000        5.5230000000        0.7810000000
 Ce         5.7390000000        5.5230000000        0.7810000000
 Ce         9.5650000000        5.5230000000        0.7810000000
 Ce        -3.8260000000        8.8360000000        0.7810000000
 Ce         0.0000000000        8.8360000000        0.7810000000
 Ce         3.8260000000        8.8360000000        0.7810000000
 Ce         7.6520000000        8.8360000000        0.7810000000
 Ce        -5.7390000000       12.1500000000        0.7810000000
 Ce        -1.9130000000       12.1500000000        0.7810000000
 Ce         1.9130000000       12.1500000000        0.7810000000
 Ce         5.7390000000       12.1500000000        0.7810000000
 Ce         1.9191643741        1.0955277102        3.9668478066
 Ce         5.7747055421        1.0611343165        3.8511849392
 Ce         9.6290579102        1.0206011874        3.9848453822
 Ce        13.3254792319        1.2592610467        3.8831562653
 Ce        -0.0394745598        4.4497491387        3.9438272991
 Ce         3.7789398999        4.5061819484        4.0366799478
 Ce         7.6999844882        4.3497278201        3.8632784257
 Ce        11.3973127019        4.5031894544        4.0769445176
 Ce        -1.8782969482        7.6617380677        3.9756545244
 Ce         2.0491642484        7.7604206345        3.9909779811
 Ce         5.8270851054        7.7403474500        3.8315567737
 Ce         9.6008637591        7.8339995836        3.9344809929
 Ce        -3.8778182165       11.0088700431        3.9807751894
 Ce         0.0441115634       11.0124686070        3.9808864325
 Ce         3.9032796828       11.0060795699        4.0073078271
 Ce         7.5848326119       11.0882423923        3.9278377511
 Ce        -0.1069056744        0.0001405939        7.1569336335
 Ce         3.9785826428       -0.0396902655        7.2265300142
 Ce         7.6676098480       -0.0218310683        7.2176274567
 Ce        11.4164149998       -0.0879124651        7.2778947030
 Ce        -1.9510247486        3.3003649226        7.3810613099
 Ce         1.8596808597        3.4033705177        7.1248206105
 Ce         5.8591845936        3.3066730009        6.9492976816
 Ce         9.5754610291        3.3454711272        7.1581445225
 Ce        -3.7029076639        6.7299913222        7.3586620992
 Ce        -0.0500754958        6.5979633528        7.1470807624
 Ce         4.0289902043        6.8534872338        7.4429696453
 Ce         7.9583316177        6.7288696858        7.1624914239
 Ce        -5.5670034398        9.9503674478        7.3312301523
 Ce        -1.9107020125        9.9439908972        7.2073177911
 Ce         1.8929054428        9.9094658627        7.2162778754
 Ce         5.8861285753       10.0709520721        7.6424850001
 Pt        -0.8114115913        4.6562162030       10.1565782200
 Pt         7.1401607372        2.1124417410        9.8129593640
 Pt         0.7677913518        2.2571253277       10.0116616983
 Pt        -4.6586260135       11.1754841269       10.9642668789
 Pt         8.7339626791        9.9132454529        9.9319022003
 Pt         2.4881203384        0.0782873374        9.8647220491
 Pt         9.8932316622        1.9213295815        9.5790013282
 Pt         1.8627964070        5.0699868030        9.9469425798
 Pt         5.7400570954        4.7178812868        9.8984508316
 Pt         4.8776213938        0.8032874105       10.6478236329
 Pt         3.6083104075        3.0721270185        9.7303516790
 Pt         1.1630889402        3.6737526190       12.1127777795
 Pt         2.6753714562        1.5134780694       11.9626145496
 Pt         5.6793279059        3.0079553681       11.8980884697
 Pt         3.8655228641        4.9878520464       11.6296673053
 Pt         3.4619881404        3.3625543452       13.5768451687
     160
 i =      601, time =      601.000, E =     -5324.9468289480
  O         0.0000000000        0.0000000000        0.0000000000
  O         3.8260000000        0.0000000000        0.0000000000
  O         7.6520000000        0.0000000000        0.0000000000
  O        11.4780000000        0.0000000000        0.0000000000
  O        -1.9130000000        3.3140000000        0.0000000000
  O         1.9130000000        3.3140000000        0.0000000000
  O         5.7390000000        3.3140000000        0.0000000000
  O         9.5650000000        3.3140000000        0.0000000000
  O        -3.8260000000        6.6270000000        0.0000000000
  O         0.0000000000        6.6270000000        0.0000000000
  O         3.8260000000        6.6270000000        0.0000000000
  O         7.6520000000        6.6270000000        0.0000000000
  O        -5.7390000000        9.9410000000        0.0000000000
  O        -1.9130000000        9.9410000000        0.0000000000
  O         1.9130000000        9.9410000000        0.0000000000
  O         5.7390000000        9.9410000000        0.0000000000
  O         1.9130000000        1.1050000000        1.5620000000
  O         5.7390000000        1.1050000000        1.5620000000
  O         9.5650000000        1.1050000000        1.5620000000
  O        13.3920000000        1.1050000000        1.5620000000
  O         0.0000000000        4.4180000000        1.5620000000
  O         3.8260000000        4.4180000000        1.5620000000
  O         7.6520000000        4.4180000000        1.5620000000
  O        11.4780000000        4.4180000000        1.5620000000
  O        -1.9130000000        7.7320000000        1.5620000000
  O         1.9130000000        7.7320000000        1.5620000000
  O         5.7390000000        7.7320000000        1.5620000000
  O         9.5650000000        7.7320000000        1.5620000000
  O        -3.8260000000       11.0450000000        1.5620000000
  O         0.0000000000       11.0450000000        1.5620000000
  O         3.8260000000       11.0450000000        1.5620000000
  O         7.6520000000       11.0450000000        1.5620000000
  O         0.0000000000        2.2090000000        3.1240000000
  O         3.8260000000        2.2090000000        3.1240000000
  O         7.6520000000        2.2090000000        3.1240000000
  O        11.4780000000        2.2090000000        3.1240000000
  O        -1.9130000000        5.5230000000        3.1240000000
  O         1.9130000000        5.5230000000        3.1240000000
  O         5.7390000000        5.5230000000        3.1240000000
  O         9.5650000000        5.5230000000        3.1240000000
  O        -3.8260000000        8.8360000000        3.1240000000
  O         0.0000000000        8.8360000000        3.1240000000
  O         3.8260000000        8.8360000000        3.1240000000
  O         7.6520000000        8.8360000000        3.1240000000
  O        -5.7390000000       12.1500000000        3.1240000000
  O        -1.9130000000       12.1500000000        3.1240000000
  O         1.9130000000       12.1500000000        3.1240000000
  O         5.7390000000       12.1500000000        3.1240000000
  O        -0.1708481178        0.0193985562        4.8156871867
  O         3.6662600459       -0.0277962234        4.9123627431
  O         7.8515678014       -0.0493860901        4.8148906058
  O        11.6519621110       -0.1388419967        4.7067347448
  O        -1.9104143089        3.4545695772        4.7638756306
  O         1.9652980063        3.4302595446        4.8064367843
  O         5.7952587498        3.4590005273        4.8108051173
  O         9.4804497166        3.2203088269        4.7141015216
  O        -3.7145838587        6.6073668005        4.9886238573
  O        -0.1429652616        6.5598142459        4.7608907877
  O         3.8484762680        6.9561407567        4.8049010651
  O         7.6730826164        6.7598497645        4.9038294494
  O        -5.6447874418       10.0052272594        4.7749721977
  O        -1.8282017698        9.8993185287        4.9277347095
  O         2.0147068916        9.9325462780        4.8263464524
  O         5.7011289761        9.9855136413        4.7214116261
  O         1.6645625979        1.1807568234        6.2081942956
  O         5.7998448857        1.0268452452        6.0587754310
  O         9.6334210473        1.1634258030        6.3843478326
  O        13.1210632152        1.2462568631        6.5122363717
  O        -0.0424416938        4.4184529238        6.2818641280
  O         3.9805545877        4.6100965819        6.3402821843
  O         7.7826182155        4.4894622593        6.3957853364
  O        11.4866595731        4.1221847997        6.4684641909
  O        -1.8414022885        7.7824540746        6.3414701264
  O         1.9773099927        7.8250082987        6.4198271702
  O         5.9407789058        7.8716901816        6.6592945251
  O         9.7123071510        7.8610972825        6.4374936877
  O        -3.6720905682       11.0484407707        6.3078302801
  O        -0.0456837176       10.8787622287        6.4007930017
  O         3.8977302131       11.1153097409        6.4385827195
  O         7.6905582139       10.9612228696        6.5690010557
  O         0.0277903574        2.1148937277        8.0546833548
  O         3.9136122301        2.2447913959        7.8697260768
  O         7.5785744166        2.1895768567        7.8161390710
  O        11.5149616855        2.2678663560        8.4455360544
  O        -1.8453940410        5.5406213921        8.2345281856
  O         1.9408638087        5.5782260586        7.9917746643
  O         6.0128196193        5.6337997435        8.2189956301
  O         9.7557741871        5.6719974278        7.9150233291
  O        -3.7020522595        8.8740583328        8.1367615749
  O         0.0173010610        8.6161471624        7.9990896646
  O         3.8020564253        8.9100720791        8.1881003736
  O         7.9804413978        8.7578440234        8.4364229267
  O        -5.7408921832       12.2787074816        7.9842887286
  O        -1.8471271027       12.1412935133        7.9190798317
  O         1.8643517825       12.1274208271        8.0904926236
  O         5.7872156337       12.1310876948        8.1027729498
 Ce         0.0000000000        2.2090000000        0.7810000000
 Ce         3.8260000000        2.2090000000        0.7810000000
 Ce         7.6520000000        2.2090000000        0.7810000000
 Ce        11.4780000000        2.2090000000        0.7810000000
 Ce        -1.9130000000        5.5230000000        0.7810000000
 Ce         1.9130000000        5.5230000000        0.7810000000
 Ce         5.7390000000        5.5230000000        0.7810000000
 Ce         9.5650000000        5.5230000000        0.7810000000
 Ce        -3.8260000000        8.8360000000        0.7810000000
 Ce         0.0000000000        8.8360000000        0.7810000000
 Ce         3.8260000000        8.8360000000        0.7810000000
 Ce         7.6520000000        8.8360000000        0.7810000000
 Ce        -5.7390000000       12.1500000000        0.7810000000
 Ce        -1.9130000000       12.1500000000        0.7810000000
 Ce         1.9130000000       12.1500000000        0.7810000000
 Ce         5.7390000000       12.1500000000        0.7810000000
 Ce         1.9183696456        1.0976982388        3.9667315102
 Ce         5.7732186035        1.0611055609        3.8492718835
 Ce         9.6302746537        1.0193091613        3.9814422255
 Ce        13.3282962106        1.2575726582        3.8821819594
 Ce        -0.0372893537        4.4474163427        3.9433923930
 Ce         3.7802580235        4.5057252452        4.0388227585
 Ce         7.7007083510        4.3499251086        3.8648690422
 Ce        11.3998704038        4.5020830676        4.0784278812
 Ce        -1.8786190455        7.6633503031        3.9729603936
 Ce         2.0493202451        7.7596963136        3.9897316706
 Ce         5.8288431169        7.7400202718        3.8305010108
 Ce         9.6027655210        7.8304518261        3.9308730181
 Ce        -3.8780852241       11.0087310317        3.9783644930
 Ce         0.0497786051       11.0087612440        3.9836903949
 Ce         3.9039178777       11.0059968671        4.0041380247
 Ce         7.5843104846       11.0858134566        3.9279827247
 Ce        -0.1107204187        0.0019497365        7.1565506726
 Ce         3.9805374831       -0.0402507179        7.2223901606
 Ce         7.6635279584       -0.0194813616        7.2165527986
 Ce        11.4147185448       -0.0893040631        7.2769533367
 Ce        -1.9536695423        3.2986184081        7.3813964241
 Ce         1.8591144513        3.3999699444        7.1247983728
 Ce         5.8615961481        3.3090095198        6.9431873212
 Ce         9.5749589781        3.3461310609        7.1590792056
 Ce        -3.7012937812        6.7293050403        7.3620643581
 Ce        -0.0490334301        6.6008264400        7.1504277265
 Ce         4.0275697735        6.8564301928        7.4435575822
 Ce         7.9614437724        6.7285300500        7.1653558885
 Ce        -5.5662744282        9.9502877044        7.3347700822
 Ce        -1.9141770297        9.9429049061        7.2082463226
 Ce         1.8936432108        9.9082775792        7.2149604214
 Ce         5.8869957982       10.0707649023        7.6409201226
 Pt        -0.8106550071        4.6560103314       10.1595044441
 Pt         7.1410807092        2.1128370393        9.8151480695
 Pt         0.7671375618        2.2563902315       10.0107835848
 Pt        -4.6583626916       11.1768503803       10.9680171315
 Pt         8.7342660767        9.9142478406        9.9310704922
 Pt         2.4878905837        0.0793715147        9.8667463165
 Pt         9.8943706078        1.9208160455        9.5796708034
 Pt         1.8620049354        5.0704399944        9.9476060073
 Pt         5.7398785208        4.7181865550        9.8997829780
 Pt         4.8772467970        0.8062814106       10.6458240013
 Pt         3.6085369630        3.0702172933        9.7302105921
 Pt         1.1637964843        3.6736287009       12.1106854662
 Pt         2.6745720638        1.5124823926       11.9643187477
 Pt         5.6781209216        3.0099303650       11.8975394508
 Pt         3.8636541441        4.9863838045       11.6287559433
 Pt         3.4627155459        3.3616794534       13.5774851084
     160
 i =      602, time =      602.000, E =     -5324.9443334851
  O         0.0000000000        0.0000000000        0.0000000000
  O         3.8260000000        0.0000000000        0.0000000000
  O         7.6520000000        0.0000000000        0.0000000000
  O        11.4780000000        0.0000000000        0.0000000000
  O        -1.9130000000        3.3140000000        0.0000000000
  O         1.9130000000        3.3140000000        0.0000000000
  O         5.7390000000        3.3140000000        0.0000000000
  O         9.5650000000        3.3140000000        0.0000000000
  O        -3.8260000000        6.6270000000        0.0000000000
  O         0.0000000000        6.6270000000        0.0000000000
  O         3.8260000000        6.6270000000        0.0000000000
  O         7.6520000000        6.6270000000        0.0000000000
  O        -5.7390000000        9.9410000000        0.0000000000
  O        -1.9130000000        9.9410000000        0.0000000000
  O         1.9130000000        9.9410000000        0.0000000000
  O         5.7390000000        9.9410000000        0.0000000000
  O         1.9130000000        1.1050000000        1.5620000000
  O         5.7390000000        1.1050000000        1.5620000000
  O         9.5650000000        1.1050000000        1.5620000000
  O        13.3920000000        1.1050000000        1.5620000000
  O         0.0000000000        4.4180000000        1.5620000000
  O         3.8260000000        4.4180000000        1.5620000000
  O         7.6520000000        4.4180000000        1.5620000000
  O        11.4780000000        4.4180000000        1.5620000000
  O        -1.9130000000        7.7320000000        1.5620000000
  O         1.9130000000        7.7320000000        1.5620000000
  O         5.7390000000        7.7320000000        1.5620000000
  O         9.5650000000        7.7320000000        1.5620000000
  O        -3.8260000000       11.0450000000        1.5620000000
  O         0.0000000000       11.0450000000        1.5620000000
  O         3.8260000000       11.0450000000        1.5620000000
  O         7.6520000000       11.0450000000        1.5620000000
  O         0.0000000000        2.2090000000        3.1240000000
  O         3.8260000000        2.2090000000        3.1240000000
  O         7.6520000000        2.2090000000        3.1240000000
  O        11.4780000000        2.2090000000        3.1240000000
  O        -1.9130000000        5.5230000000        3.1240000000
  O         1.9130000000        5.5230000000        3.1240000000
  O         5.7390000000        5.5230000000        3.1240000000
  O         9.5650000000        5.5230000000        3.1240000000
  O        -3.8260000000        8.8360000000        3.1240000000
  O         0.0000000000        8.8360000000        3.1240000000
  O         3.8260000000        8.8360000000        3.1240000000
  O         7.6520000000        8.8360000000        3.1240000000
  O        -5.7390000000       12.1500000000        3.1240000000
  O        -1.9130000000       12.1500000000        3.1240000000
  O         1.9130000000       12.1500000000        3.1240000000
  O         5.7390000000       12.1500000000        3.1240000000
  O        -0.1707275646        0.0322703002        4.8192424485
  O         3.6649576024       -0.0245944235        4.9136636680
  O         7.8516355622       -0.0417604657        4.8145108185
  O        11.6552531140       -0.1394424861        4.7155265613
  O        -1.9057704522        3.4563724201        4.7651694669
  O         1.9617100906        3.4348674199        4.8076109906
  O         5.7949588197        3.4703668005        4.8166271310
  O         9.4716475563        3.2287040172        4.7134787681
  O        -3.7090583988        6.6146742660        4.9842258731
  O        -0.1494670068        6.5607599361        4.7653463189
  O         3.8558376128        6.9553128887        4.8075366783
  O         7.6658880737        6.7613353470        4.8986226644
  O        -5.6417422309       10.0117012225        4.7804865369
  O        -1.8355168397        9.9031268222        4.9301391427
  O         2.0283873028        9.9362978032        4.8245664364
  O         5.7023403936        9.9840409956        4.7211716060
  O         1.6767094070        1.1851313734        6.2083624067
  O         5.7956703356        1.0256391483        6.0598653390
  O         9.6269779670        1.1629207652        6.3940182951
  O        13.1169504531        1.2531795305        6.5113221433
  O        -0.0467570935        4.4163630189        6.2794753834
  O         3.9735705452        4.6085839016        6.3339787080
  O         7.7879766581        4.4833766100        6.3955591040
  O        11.4852801613        4.1287193363        6.4701606028
  O        -1.8377776284        7.7799168658        6.3368401580
  O         1.9754731788        7.8284795399        6.4183556098
  O         5.9444576483        7.8828119827        6.6588961130
  O         9.7053304478        7.8644041350        6.4376132600
  O        -3.6765214393       11.0433942509        6.3091726813
  O        -0.0507622643       10.8807355747        6.3994674717
  O         3.8937239050       11.1156755304        6.4275481324
  O         7.6945014224       10.9665310206        6.5743615268
  O         0.0289085019        2.1153879944        8.0591041909
  O         3.9198882491        2.2542773510        7.8685277847
  O         7.5886253430        2.1916131871        7.8174271606
  O        11.5141817308        2.2664276033        8.4517028606
  O        -1.8466441966        5.5419824447        8.2270782803
  O         1.9423669513        5.5974781540        7.9889954174
  O         6.0164269855        5.6273890557        8.2156070589
  O         9.7492463547        5.6742897665        7.9191785585
  O        -3.6959803068        8.8696836497        8.1425656495
  O         0.0161975832        8.6169735287        8.0015272051
  O         3.8053881063        8.9049530185        8.1882046192
  O         7.9817148711        8.7526466252        8.4303966259
  O        -5.7322024161       12.2740656106        7.9897930357
  O        -1.8349187241       12.1360461259        7.9228087825
  O         1.8571596311       12.1208439020        8.0982238085
  O         5.7780522912       12.1299972016        8.1021681175
 Ce         0.0000000000        2.2090000000        0.7810000000
 Ce         3.8260000000        2.2090000000        0.7810000000
 Ce         7.6520000000        2.2090000000        0.7810000000
 Ce        11.4780000000        2.2090000000        0.7810000000
 Ce        -1.9130000000        5.5230000000        0.7810000000
 Ce         1.9130000000        5.5230000000        0.7810000000
 Ce         5.7390000000        5.5230000000        0.7810000000
 Ce         9.5650000000        5.5230000000        0.7810000000
 Ce        -3.8260000000        8.8360000000        0.7810000000
 Ce         0.0000000000        8.8360000000        0.7810000000
 Ce         3.8260000000        8.8360000000        0.7810000000
 Ce         7.6520000000        8.8360000000        0.7810000000
 Ce        -5.7390000000       12.1500000000        0.7810000000
 Ce        -1.9130000000       12.1500000000        0.7810000000
 Ce         1.9130000000       12.1500000000        0.7810000000
 Ce         5.7390000000       12.1500000000        0.7810000000
 Ce         1.9175533329        1.0998751278        3.9666400238
 Ce         5.7716953138        1.0610781226        3.8473896797
 Ce         9.6314962584        1.0180128673        3.9780280457
 Ce        13.3311586869        1.2557872642        3.8812674867
 Ce        -0.0350969886        4.4450673713        3.9429362657
 Ce         3.7816132195        4.5052608084        4.0409296300
 Ce         7.7014039556        4.3501748162        3.8665080849
 Ce        11.4025238461        4.5009046091        4.0798582857
 Ce        -1.8789228151        7.6650408317        3.9702598588
 Ce         2.0493838397        7.7590061945        3.9884732462
 Ce         5.8305230329        7.7397259183        3.8295652008
 Ce         9.6046513178        7.8268800581        3.9273010844
 Ce        -3.8782799639       11.0086547383        3.9759556948
 Ce         0.0554322357       11.0050288870        3.9864950153
 Ce         3.9045407541       11.0059412384        4.0009526619
 Ce         7.5837709477       11.0834093693        3.9281669186
 Ce        -0.1144445023        0.0037481555        7.1561289333
 Ce         3.9824114668       -0.0407947102        7.2182047834
 Ce         7.6595143763       -0.0171782345        7.2154436366
 Ce        11.4130033849       -0.0906511803        7.2759939877
 Ce        -1.9563306722        3.2968423705        7.3817225158
 Ce         1.8585941614        3.3965015926        7.1247493467
 Ce         5.8639221021        3.3114182029        6.9371572115
 Ce         9.5744798858        3.3467429871        7.1600675947
 Ce        -3.6996954797        6.7286221926        7.3654223955
 Ce        -0.0479277590        6.6037799385        7.1537845924
 Ce         4.0261328248        6.8593448711        7.4440683250
 Ce         7.9644256531        6.7281874885        7.1682547072
 Ce        -5.5655852022        9.9502821589        7.3383138720
 Ce        -1.9175704872        9.9417825919        7.2091476289
 Ce         1.8943923768        9.9070709312        7.2136264820
 Ce         5.8878451014       10.0704711898        7.6392525531
 Pt        -0.8098282906        4.6557814365       10.1624148159
 Pt         7.1419825535        2.1132531928        9.8173983800
 Pt         0.7665029375        2.2556523481       10.0098613455
 Pt        -4.6581183052       11.1782038817       10.9717660513
 Pt         8.7345974954        9.9152596575        9.9302412635
 Pt         2.4876030878        0.0804582148        9.8687459167
 Pt         9.8954483084        1.9203061215        9.5803389066
 Pt         1.8611626147        5.0708487900        9.9482953889
 Pt         5.7396971314        4.7184358469        9.9011608031
 Pt         4.8768846698        0.8093152391       10.6438254367
 Pt         3.6087864939        3.0682956980        9.7301010659
 Pt         1.1645012091        3.6735697390       12.1085761770
 Pt         2.6737959961        1.5114950864       11.9659857741
 Pt         5.6769140220        3.0118893098       11.8969664479
 Pt         3.8617671188        4.9848876824       11.6278307371
 Pt         3.4634354693        3.3608034929       13.5781195656
     160
 i =      603, time =      603.000, E =     -5324.9418784697
  O         0.0000000000        0.0000000000        0.0000000000
  O         3.8260000000        0.0000000000        0.0000000000
  O         7.6520000000        0.0000000000        0.0000000000
  O        11.4780000000        0.0000000000        0.0000000000
  O        -1.9130000000        3.3140000000        0.0000000000
  O         1.9130000000        3.3140000000        0.0000000000
  O         5.7390000000        3.3140000000        0.0000000000
  O         9.5650000000        3.3140000000        0.0000000000
  O        -3.8260000000        6.6270000000        0.0000000000
  O         0.0000000000        6.6270000000        0.0000000000
  O         3.8260000000        6.6270000000        0.0000000000
  O         7.6520000000        6.6270000000        0.0000000000
  O        -5.7390000000        9.9410000000        0.0000000000
  O        -1.9130000000        9.9410000000        0.0000000000
  O         1.9130000000        9.9410000000        0.0000000000
  O         5.7390000000        9.9410000000        0.0000000000
  O         1.9130000000        1.1050000000        1.5620000000
  O         5.7390000000        1.1050000000        1.5620000000
  O         9.5650000000        1.1050000000        1.5620000000
  O        13.3920000000        1.1050000000        1.5620000000
  O         0.0000000000        4.4180000000        1.5620000000
  O         3.8260000000        4.4180000000        1.5620000000
  O         7.6520000000        4.4180000000        1.5620000000
  O        11.4780000000        4.4180000000        1.5620000000
  O        -1.9130000000        7.7320000000        1.5620000000
  O         1.9130000000        7.7320000000        1.5620000000
  O         5.7390000000        7.7320000000        1.5620000000
  O         9.5650000000        7.7320000000        1.5620000000
  O        -3.8260000000       11.0450000000        1.5620000000
  O         0.0000000000       11.0450000000        1.5620000000
  O         3.8260000000       11.0450000000        1.5620000000
  O         7.6520000000       11.0450000000        1.5620000000
  O         0.0000000000        2.2090000000        3.1240000000
  O         3.8260000000        2.2090000000        3.1240000000
  O         7.6520000000        2.2090000000        3.1240000000
  O        11.4780000000        2.2090000000        3.1240000000
  O        -1.9130000000        5.5230000000        3.1240000000
  O         1.9130000000        5.5230000000        3.1240000000
  O         5.7390000000        5.5230000000        3.1240000000
  O         9.5650000000        5.5230000000        3.1240000000
  O        -3.8260000000        8.8360000000        3.1240000000
  O         0.0000000000        8.8360000000        3.1240000000
  O         3.8260000000        8.8360000000        3.1240000000
  O         7.6520000000        8.8360000000        3.1240000000
  O        -5.7390000000       12.1500000000        3.1240000000
  O        -1.9130000000       12.1500000000        3.1240000000
  O         1.9130000000       12.1500000000        3.1240000000
  O         5.7390000000       12.1500000000        3.1240000000
  O        -0.1705678661        0.0448032792        4.8228126873
  O         3.6640442087       -0.0213941478        4.9144263870
  O         7.8511902511       -0.0343753682        4.8141868641
  O        11.6578080254       -0.1391485413        4.7246276231
  O        -1.9015038095        3.4576710132        4.7663066472
  O         1.9581935604        3.4393524308        4.8088594144
  O         5.7946887363        3.4812572407        4.8217243373
  O         9.4633047846        3.2376227035        4.7129264580
  O        -3.7041010526        6.6216610930        4.9793603020
  O        -0.1551741129        6.5619360358        4.7699518682
  O         3.8638200956        6.9534442791        4.8104039851
  O         7.6590746887        6.7626712485        4.8927953434
  O        -5.6392705411       10.0177402341        4.7859226949
  O        -1.8431201688        9.9069677506        4.9315411426
  O         2.0416419356        9.9401954396        4.8227271245
  O         5.7042580637        9.9822978846        4.7208790592
  O         1.6891484079        1.1898117619        6.2090412277
  O         5.7914712371        1.0247383897        6.0618567339
  O         9.6208353557        1.1620290691        6.4034698921
  O        13.1134247570        1.2599061132        6.5104223391
  O        -0.0509401099        4.4140938389        6.2780257027
  O         3.9663730963        4.6069788705        6.3276882893
  O         7.7931344560        4.4773076935        6.3950543080
  O        11.4841779094        4.1360062046        6.4713697719
  O        -1.8345694449        7.7769054209        6.3327199399
  O         1.9735864327        7.8315397826        6.4168374370
  O         5.9479616042        7.8939726447        6.6587837090
  O         9.6984889298        7.8676936803        6.4374317171
  O        -3.6815049514       11.0383383230        6.3111061417
  O        -0.0550800016       10.8832935807        6.3981029831
  O         3.8895260245       11.1158253326        6.4170946318
  O         7.6982666206       10.9719625807        6.5794754762
  O         0.0298008899        2.1159962233        8.0636965686
  O         3.9260419031        2.2636727379        7.8668114447
  O         7.5985928601        2.1935141376        7.8184339522
  O        11.5137555246        2.2649143792        8.4576927119
  O        -1.8481577462        5.5432978084        8.2196893535
  O         1.9439201176        5.6168590501        7.9861723703
  O         6.0200673213        5.6214022776        8.2114860223
  O         9.7428200929        5.6764651115        7.9235888679
  O        -3.6898527471        8.8649789519        8.1482062477
  O         0.0150848108        8.6181868502        8.0041489361
  O         3.8089128465        8.8999084269        8.1883345215
  O         7.9825351444        8.7474545466        8.4242591123
  O        -5.7231475475       12.2697417854        7.9952354260
  O        -1.8227427112       12.1311596820        7.9267340262
  O         1.8499302314       12.1140981333        8.1053730972
  O         5.7687634230       12.1295309812        8.1017386658
 Ce         0.0000000000        2.2090000000        0.7810000000
 Ce         3.8260000000        2.2090000000        0.7810000000
 Ce         7.6520000000        2.2090000000        0.7810000000
 Ce        11.4780000000        2.2090000000        0.7810000000
 Ce        -1.9130000000        5.5230000000        0.7810000000
 Ce         1.9130000000        5.5230000000        0.7810000000
 Ce         5.7390000000        5.5230000000        0.7810000000
 Ce         9.5650000000        5.5230000000        0.7810000000
 Ce        -3.8260000000        8.8360000000        0.7810000000
 Ce         0.0000000000        8.8360000000        0.7810000000
 Ce         3.8260000000        8.8360000000        0.7810000000
 Ce         7.6520000000        8.8360000000        0.7810000000
 Ce        -5.7390000000       12.1500000000        0.7810000000
 Ce        -1.9130000000       12.1500000000        0.7810000000
 Ce         1.9130000000       12.1500000000        0.7810000000
 Ce         5.7390000000       12.1500000000        0.7810000000
 Ce         1.9167165175        1.1020578843        3.9665740747
 Ce         5.7701377833        1.0610493468        3.8455389572
 Ce         9.6327201461        1.0167159169        3.9746079227
 Ce        13.3340641198        1.2539075391        3.8804146301
 Ce        -0.0328998929        4.4427083990        3.9424624123
 Ce         3.7830037379        4.5047925177        4.0430001119
 Ce         7.7020710059        4.3504810127        3.8681932761
 Ce        11.4052728489        4.4996584547        4.0812354722
 Ce        -1.8792082947        7.6668069028        3.9675578532
 Ce         2.0493608306        7.7583479074        3.9872055679
 Ce         5.8321235620        7.7394624368        3.8287516789
 Ce         9.6065199592        7.8232872879        3.9237695524
 Ce        -3.8784020574       11.0086401095        3.9735528833
 Ce         0.0610662931       11.0012758253        3.9893014101
 Ce         3.9051505396       11.0059128271        3.9977548960
 Ce         7.5832162371       11.0810301835        3.9283908679
 Ce        -0.1180740375        0.0055354792        7.1556706693
 Ce         3.9842038379       -0.0413235926        7.2139777405
 Ce         7.6555741390       -0.0149250851        7.2143034076
 Ce        11.4112654803       -0.0919562413        7.2750169901
 Ce        -1.9590060566        3.2950423597        7.3820398142
 Ce         1.8581201960        3.3929733562        7.1246728080
 Ce         5.8661644787        3.3138980103        6.9312201605
 Ce         9.5740231076        3.3473065199        7.1611106221
 Ce        -3.6981122415        6.7279432889        7.3687330042
 Ce        -0.0467614156        6.6068209076        7.1571475966
 Ce         4.0246814597        6.8622294006        7.4444995674
 Ce         7.9672724089        6.7278440050        7.1711848568
 Ce        -5.5649350247        9.9503497664        7.3418604247
 Ce        -1.9208781265        9.9406229294        7.2100217045
 Ce         1.8951498144        9.9058508786        7.2122785887
 Ce         5.8886772271       10.0700676375        7.6374821338
 Pt        -0.8089316451        4.6555291855       10.1653094112
 Pt         7.1428670580        2.1136906111        9.8197078003
 Pt         0.7658875927        2.2549123096       10.0088967207
 Pt        -4.6578934575       11.1795448134       10.9755134659
 Pt         8.7349562639        9.9162793672        9.9294133321
 Pt         2.4872584204        0.0815466955        9.8707195493
 Pt         9.8964636691        1.9197993364        9.5810082813
 Pt         1.8602697772        5.0712150378        9.9490050025
 Pt         5.7395127124        4.7186303510        9.9025820009
 Pt         4.8765357346        0.8123880381       10.6418282044
 Pt         3.6090583947        3.0663632301        9.7300232470
 Pt         1.1652034157        3.6735751600       12.1064497591
 Pt         2.6730425253        1.5105166948       11.9676156573
 Pt         5.6757076977        3.0138308964       11.8963708476
 Pt         3.8598617971        4.9833637214       11.6268926654
 Pt         3.4641479237        3.3599270490       13.5787483955
     160
 i =      604, time =      604.000, E =     -5324.9395496800
  O         0.0000000000        0.0000000000        0.0000000000
  O         3.8260000000        0.0000000000        0.0000000000
  O         7.6520000000        0.0000000000        0.0000000000
  O        11.4780000000        0.0000000000        0.0000000000
  O        -1.9130000000        3.3140000000        0.0000000000
  O         1.9130000000        3.3140000000        0.0000000000
  O         5.7390000000        3.3140000000        0.0000000000
  O         9.5650000000        3.3140000000        0.0000000000
  O        -3.8260000000        6.6270000000        0.0000000000
  O         0.0000000000        6.6270000000        0.0000000000
  O         3.8260000000        6.6270000000        0.0000000000
  O         7.6520000000        6.6270000000        0.0000000000
  O        -5.7390000000        9.9410000000        0.0000000000
  O        -1.9130000000        9.9410000000        0.0000000000
  O         1.9130000000        9.9410000000        0.0000000000
  O         5.7390000000        9.9410000000        0.0000000000
  O         1.9130000000        1.1050000000        1.5620000000
  O         5.7390000000        1.1050000000        1.5620000000
  O         9.5650000000        1.1050000000        1.5620000000
  O        13.3920000000        1.1050000000        1.5620000000
  O         0.0000000000        4.4180000000        1.5620000000
  O         3.8260000000        4.4180000000        1.5620000000
  O         7.6520000000        4.4180000000        1.5620000000
  O        11.4780000000        4.4180000000        1.5620000000
  O        -1.9130000000        7.7320000000        1.5620000000
  O         1.9130000000        7.7320000000        1.5620000000
  O         5.7390000000        7.7320000000        1.5620000000
  O         9.5650000000        7.7320000000        1.5620000000
  O        -3.8260000000       11.0450000000        1.5620000000
  O         0.0000000000       11.0450000000        1.5620000000
  O         3.8260000000       11.0450000000        1.5620000000
  O         7.6520000000       11.0450000000        1.5620000000
  O         0.0000000000        2.2090000000        3.1240000000
  O         3.8260000000        2.2090000000        3.1240000000
  O         7.6520000000        2.2090000000        3.1240000000
  O        11.4780000000        2.2090000000        3.1240000000
  O        -1.9130000000        5.5230000000        3.1240000000
  O         1.9130000000        5.5230000000        3.1240000000
  O         5.7390000000        5.5230000000        3.1240000000
  O         9.5650000000        5.5230000000        3.1240000000
  O        -3.8260000000        8.8360000000        3.1240000000
  O         0.0000000000        8.8360000000        3.1240000000
  O         3.8260000000        8.8360000000        3.1240000000
  O         7.6520000000        8.8360000000        3.1240000000
  O        -5.7390000000       12.1500000000        3.1240000000
  O        -1.9130000000       12.1500000000        3.1240000000
  O         1.9130000000       12.1500000000        3.1240000000
  O         5.7390000000       12.1500000000        3.1240000000
  O        -0.1703803581        0.0569753656        4.8263765916
  O         3.6635373107       -0.0182132376        4.9146402858
  O         7.8502477215       -0.0272458196        4.8139007268
  O        11.6596244915       -0.1379509428        4.7340257302
  O        -1.8976568590        3.4584524640        4.7672739711
  O         1.9547466660        3.4436813310        4.8101625972
  O         5.7944336291        3.4916431381        4.8260094942
  O         9.4554969970        3.2469972867        4.7124442913
  O        -3.6997472955        6.6282959991        4.9740536176
  O        -0.1600546503        6.5633247773        4.7746790087
  O         3.8723440178        6.9505633822        4.8134756928
  O         7.6526860740        6.7638254570        4.8864153872
  O        -5.6374054331       10.0233109420        4.7912765600
  O        -1.8509865637        9.9108445479        4.9319265239
  O         2.0543968945        9.9442026282        4.8208347613
  O         5.7068883034        9.9803142792        4.7205267332
  O         1.7018481916        1.1947996900        6.2102606708
  O         5.7872603634        1.0241614650        6.0647295435
  O         9.6150213516        1.1607579249        6.4126600422
  O        13.1105021390        1.2664157944        6.5095479827
  O        -0.0549618586        4.4116425583        6.2775393622
  O         3.9589533101        4.6052821337        6.3214157413
  O         7.7980794251        4.4713036218        6.3942640406
  O        11.4833471111        4.1440398448        6.4720882274
  O        -1.8317936328        7.7734598696        6.3291230428
  O         1.9716636719        7.8342040628        6.4152372563
  O         5.9512716527        7.9051642830        6.6589739906
  O         9.6918462592        7.8709428949        6.4369353904
  O        -3.6869984968       11.0333349553        6.3136356832
  O        -0.0585995611       10.8864158859        6.3966540855
  O         3.8851345040       11.1157567657        6.4072333266
  O         7.7018184979       10.9775273873        6.5843433565
  O         0.0304579609        2.1166922926        8.0684248403
  O         3.9320577732        2.2729408362        7.8645868994
  O         7.6083894951        2.1952769686        7.8191761184
  O        11.5137118585        2.2633417618        8.4634370851
  O        -1.8499401689        5.5445661662        8.2124155327
  O         1.9455154868        5.6363102078        7.9833684440
  O         6.0237187974        5.6158341917        8.2066414308
  O         9.7365329774        5.6785242279        7.9282450135
  O        -3.6836900923        8.8599288767        8.1536577864
  O         0.0139705511        8.6197930603        8.0069357772
  O         3.8126129689        8.8949829278        8.1884946777
  O         7.9829195602        8.7422983614        8.4180423452
  O        -5.7137591291       12.2657826237        8.0005987050
  O        -1.8106837624       12.1266455002        7.9308232485
  O         1.8427074927       12.1071896072        8.1119073095
  O         5.7593644045       12.1297005364        8.1014699521
 Ce         0.0000000000        2.2090000000        0.7810000000
 Ce         3.8260000000        2.2090000000        0.7810000000
 Ce         7.6520000000        2.2090000000        0.7810000000
 Ce        11.4780000000        2.2090000000        0.7810000000
 Ce        -1.9130000000        5.5230000000        0.7810000000
 Ce         1.9130000000        5.5230000000        0.7810000000
 Ce         5.7390000000        5.5230000000        0.7810000000
 Ce         9.5650000000        5.5230000000        0.7810000000
 Ce        -3.8260000000        8.8360000000        0.7810000000
 Ce         0.0000000000        8.8360000000        0.7810000000
 Ce         3.8260000000        8.8360000000        0.7810000000
 Ce         7.6520000000        8.8360000000        0.7810000000
 Ce        -5.7390000000       12.1500000000        0.7810000000
 Ce        -1.9130000000       12.1500000000        0.7810000000
 Ce         1.9130000000       12.1500000000        0.7810000000
 Ce         5.7390000000       12.1500000000        0.7810000000
 Ce         1.9158605407        1.1042460710        3.9665342460
 Ce         5.7685481978        1.0610165795        3.8437206272
 Ce         9.6339435775        1.0154219322        3.9711868219
 Ce        13.3370095913        1.2519364666        3.8796250774
 Ce        -0.0307005967        4.4403454739        3.9419744195
 Ce         3.7844279487        4.5043243980        4.0450337020
 Ce         7.7027092194        4.3508479477        3.8699220472
 Ce        11.4081169461        4.4983488701        4.0825592069
 Ce        -1.8794755588        7.6686455970        3.9648589509
 Ce         2.0492574136        7.7577187132        3.9859316626
 Ce         5.8336435785        7.7392276466        3.8280624537
 Ce         9.6083701494        7.8196761492        3.9202824676
 Ce        -3.8784514067       11.0086859668        3.9711599033
 Ce         0.0666747149       10.9975066198        3.9921105047
 Ce         3.9057497785       11.0059121452        3.9945478177
 Ce         7.5826488466       11.0786754551        3.9286548316
 Ce        -0.1216058508        0.0073117057        7.1551784403
 Ce         3.9859139776       -0.0418383804        7.2097127178
 Ce         7.6517121949       -0.0127249680        7.2131353928
 Ce        11.4095009711       -0.0932211739        7.2740227989
 Ce        -1.9616939401        3.2932237351        7.3823486570
 Ce         1.8576927035        3.3893927669        7.1245678212
 Ce         5.8683255460        3.3164477492        6.9253889012
 Ce         9.5735886169        3.3478212470        7.1622091384
 Ce        -3.6965437711        6.7272683037        7.3719928409
 Ce        -0.0455372367        6.6099462713        7.1605131369
 Ce         4.0232175014        6.8650811640        7.4448490502
 Ce         7.9699792221        6.7275014500        7.1741432121
 Ce        -5.5643236655        9.9504892537        7.3454088394
 Ce        -1.9240954448        9.9394253174        7.2108681683
 Ce         1.8959124937        9.9046224550        7.2109194613
 Ce         5.8894925876       10.0695514992        7.6356087006
 Pt        -0.8079656718        4.6552534519       10.1681883499
 Pt         7.1437349777        2.1141497874        9.8220735016
 Pt         0.7652919856        2.2541705664       10.0078912956
 Pt        -4.6576889864       11.1808737081       10.9792593264
 Pt         8.7353418704        9.9173056438        9.9285852838
 Pt         2.4868576108        0.0826358502        9.8726661100
 Pt         9.8974154266        1.9192952616        9.5816815131
 Pt         1.8593268700        5.0715404310        9.9497291366
 Pt         5.7393248923        4.7187712486        9.9040436800
 Pt         4.8762005236        0.8154988583       10.6398325415
 Pt         3.6093519873        3.0644207824        9.7299765774
 Pt         1.1659029992        3.6736450248       12.1043069084
 Pt         2.6723116988        1.5095471248       11.9692088509
 Pt         5.6745024999        3.0157539756       11.8957540062
 Pt         3.8579386595        4.9818125595       11.6259427618
 Pt         3.4648525992        3.3590504134       13.5793714349
     160
 i =      605, time =      605.000, E =     -5324.9371899216
  O         0.0000000000        0.0000000000        0.0000000000
  O         3.8260000000        0.0000000000        0.0000000000
  O         7.6520000000        0.0000000000        0.0000000000
  O        11.4780000000        0.0000000000        0.0000000000
  O        -1.9130000000        3.3140000000        0.0000000000
  O         1.9130000000        3.3140000000        0.0000000000
  O         5.7390000000        3.3140000000        0.0000000000
  O         9.5650000000        3.3140000000        0.0000000000
  O        -3.8260000000        6.6270000000        0.0000000000
  O         0.0000000000        6.6270000000        0.0000000000
  O         3.8260000000        6.6270000000        0.0000000000
  O         7.6520000000        6.6270000000        0.0000000000
  O        -5.7390000000        9.9410000000        0.0000000000
  O        -1.9130000000        9.9410000000        0.0000000000
  O         1.9130000000        9.9410000000        0.0000000000
  O         5.7390000000        9.9410000000        0.0000000000
  O         1.9130000000        1.1050000000        1.5620000000
  O         5.7390000000        1.1050000000        1.5620000000
  O         9.5650000000        1.1050000000        1.5620000000
  O        13.3920000000        1.1050000000        1.5620000000
  O         0.0000000000        4.4180000000        1.5620000000
  O         3.8260000000        4.4180000000        1.5620000000
  O         7.6520000000        4.4180000000        1.5620000000
  O        11.4780000000        4.4180000000        1.5620000000
  O        -1.9130000000        7.7320000000        1.5620000000
  O         1.9130000000        7.7320000000        1.5620000000
  O         5.7390000000        7.7320000000        1.5620000000
  O         9.5650000000        7.7320000000        1.5620000000
  O        -3.8260000000       11.0450000000        1.5620000000
  O         0.0000000000       11.0450000000        1.5620000000
  O         3.8260000000       11.0450000000        1.5620000000
  O         7.6520000000       11.0450000000        1.5620000000
  O         0.0000000000        2.2090000000        3.1240000000
  O         3.8260000000        2.2090000000        3.1240000000
  O         7.6520000000        2.2090000000        3.1240000000
  O        11.4780000000        2.2090000000        3.1240000000
  O        -1.9130000000        5.5230000000        3.1240000000
  O         1.9130000000        5.5230000000        3.1240000000
  O         5.7390000000        5.5230000000        3.1240000000
  O         9.5650000000        5.5230000000        3.1240000000
  O        -3.8260000000        8.8360000000        3.1240000000
  O         0.0000000000        8.8360000000        3.1240000000
  O         3.8260000000        8.8360000000        3.1240000000
  O         7.6520000000        8.8360000000        3.1240000000
  O        -5.7390000000       12.1500000000        3.1240000000
  O        -1.9130000000       12.1500000000        3.1240000000
  O         1.9130000000       12.1500000000        3.1240000000
  O         5.7390000000       12.1500000000        3.1240000000
  O        -0.1701726410        0.0687345952        4.8299114217
  O         3.6634525604       -0.0150701576        4.9142954020
  O         7.8488270240       -0.0203817434        4.8136328279
  O        11.6607028582       -0.1358484891        4.7436687032
  O        -1.8942641201        3.4587082655        4.7680582549
  O         1.9513627329        3.4478249052        4.8114985446
  O         5.7941834124        3.5014791365        4.8294071654
  O         9.4483165153        3.2567299929        4.7120323561
  O        -3.6960354860        6.6345418506        4.9683453060
  O        -0.1640754735        6.5649063915        4.7795078562
  O         3.8813218226        6.9467139678        4.8167174051
  O         7.6467684280        6.7647727769        4.8795550483
  O        -5.6361723906       10.0283933136        4.7965399457
  O        -1.8590816087        9.9147508112        4.9312865623
  O         2.0665349302        9.9482673984        4.8188968112
  O         5.7102297406        9.9781212277        4.7201073397
  O         1.7147810016        1.2000905457        6.2120429561
  O         5.7830525100        1.0239267650        6.0684544641
  O         9.6095718630        1.1591184383        6.4215776298
  O        13.1081900903        1.2726886918        6.5087086947
  O        -0.0587918007        4.4090100209        6.2780355529
  O         3.9513054680        4.6034907446        6.3151836728
  O         7.8027983847        4.4654114004        6.3931846225
  O        11.4827803848        4.1528176025        6.4723178080
  O        -1.8294695678        7.7696224050        6.3260661613
  O         1.9697177693        7.8364895615        6.4135187377
  O         5.9543833403        7.9163758181        6.6594819478
  O         9.6854538094        7.8741347970        6.4361149689
  O        -3.6929539860       11.0284349658        6.3167617627
  O        -0.0612957612       10.8900771071        6.3950763416
  O         3.8805535940       11.1154662077        6.3979631919
  O         7.7051221750       10.9832278157        6.5889568641
  O         0.0308687805        2.1174521004        8.0732449973
  O         3.9379002062        2.2820218475        7.8618765756
  O         7.6179491726        2.1969028613        7.8196715875
  O        11.5140758738        2.2617242444        8.4688799308
  O        -1.8519970232        5.5457890070        8.2052911687
  O         1.9471533045        5.6557784541        7.9806472315
  O         6.0273642729        5.6106658157        8.2010886912
  O         9.7304267508        5.6804633688        7.9331294169
  O        -3.6775189726        8.8545223822        8.1588862451
  O         0.0128618260        8.6217973465        8.0098652811
  O         3.8164770692        8.8902204819        8.1886917208
  O         7.9828853027        8.7372044998        8.4117667659
  O        -5.7040462653       12.2622203558        8.0058508708
  O        -1.7988060211       12.1225024630        7.9350385261
  O         1.8355233197       12.1001193013        8.1178167041
  O         5.7498749364       12.1305140242        8.1013471023
 Ce         0.0000000000        2.2090000000        0.7810000000
 Ce         3.8260000000        2.2090000000        0.7810000000
 Ce         7.6520000000        2.2090000000        0.7810000000
 Ce        11.4780000000        2.2090000000        0.7810000000
 Ce        -1.9130000000        5.5230000000        0.7810000000
 Ce         1.9130000000        5.5230000000        0.7810000000
 Ce         5.7390000000        5.5230000000        0.7810000000
 Ce         9.5650000000        5.5230000000        0.7810000000
 Ce        -3.8260000000        8.8360000000        0.7810000000
 Ce         0.0000000000        8.8360000000        0.7810000000
 Ce         3.8260000000        8.8360000000        0.7810000000
 Ce         7.6520000000        8.8360000000        0.7810000000
 Ce        -5.7390000000       12.1500000000        0.7810000000
 Ce        -1.9130000000       12.1500000000        0.7810000000
 Ce         1.9130000000       12.1500000000        0.7810000000
 Ce         5.7390000000       12.1500000000        0.7810000000
 Ce         1.9149869023        1.1064392154        3.9665213087
 Ce         5.7669287693        1.0609771470        3.8419359280
 Ce         9.6351637024        1.0141345197        3.9677697162
 Ce        13.3399919186        1.2498771644        3.8789005630
 Ce        -0.0285016462        4.4379844494        3.9414761648
 Ce         3.7858842453        4.5038605025        4.0470299146
 Ce         7.7033182673        4.3512799244        3.8716916113
 Ce        11.4110553577        4.4969799658        4.0838293032
 Ce        -1.8797246161        7.6705538361        3.9621675969
 Ce         2.0490800423        7.7571155735        3.9846547445
 Ce         5.8350821353        7.7390192229        3.8274992570
 Ce         9.6102005271        7.8160490890        3.9168436797
 Ce        -3.8784283721       11.0087909605        3.9687806995
 Ce         0.0722515017       10.9937260102        3.9949231639
 Ce         3.9063413734       11.0059400174        3.9913347349
 Ce         7.5820715103       11.0763443858        3.9289590902
 Ce        -0.1250370490        0.0090771322        7.1546551324
 Ce         3.9875412111       -0.0423399110        7.2054136413
 Ce         7.6479332683       -0.0105805692        7.2119428681
 Ce        11.4077061474       -0.0944474979        7.2730118236
 Ce        -1.9643925381        3.2913916794        7.3826494693
 Ce         1.8573118956        3.3857668018        7.1244335506
 Ce         5.8704076034        3.3190658522        6.9196755163
 Ce         9.5731770158        3.3482864908        7.1633637253
 Ce        -3.6949898802        6.7265968447        7.3751984316
 Ce        -0.0442578471        6.6131526807        7.1638778314
 Ce         4.0217421951        6.8678968763        7.4451144432
 Ce         7.9725415802        6.7271617291        7.1771263945
 Ce        -5.5637514261        9.9506995324        7.3489586344
 Ce        -1.9272179803        9.9381898662        7.2116863438
 Ce         1.8966775103        9.9033908230        7.2095517848
 Ce         5.8902916513       10.0689206997        7.6336318538
 Pt        -0.8069303605        4.6549537511       10.1710519838
 Pt         7.1445872099        2.1146315043        9.8244927339
 Pt         0.7647167456        2.2534278650       10.0068465195
 Pt        -4.6575054786       11.1821907312       10.9830043436
 Pt         8.7357534189        9.9183369509        9.9277552386
 Pt         2.4864013970        0.0837252335        9.8745842803
 Pt         9.8983023893        1.9187935876        9.5823607960
 Pt         1.8583342361        5.0718261876        9.9504625721
 Pt         5.7391330458        4.7188595077        9.9055427582
 Pt         4.8758799387        0.8186466758       10.6378389405
 Pt         3.6096664942        3.0624692087        9.7299597882
 Pt         1.1665995570        3.6737800876       12.1021481679
 Pt         2.6716041321        1.5085861182       11.9707665467
 Pt         5.6732985822        3.0176579714       11.8951167607
 Pt         3.8559985949        4.9802349053       11.6249817514
 Pt         3.4655488460        3.3581736469       13.5799880051
     160
 i =      606, time =      606.000, E =     -5324.9348714199
  O         0.0000000000        0.0000000000        0.0000000000
  O         3.8260000000        0.0000000000        0.0000000000
  O         7.6520000000        0.0000000000        0.0000000000
  O        11.4780000000        0.0000000000        0.0000000000
  O        -1.9130000000        3.3140000000        0.0000000000
  O         1.9130000000        3.3140000000        0.0000000000
  O         5.7390000000        3.3140000000        0.0000000000
  O         9.5650000000        3.3140000000        0.0000000000
  O        -3.8260000000        6.6270000000        0.0000000000
  O         0.0000000000        6.6270000000        0.0000000000
  O         3.8260000000        6.6270000000        0.0000000000
  O         7.6520000000        6.6270000000        0.0000000000
  O        -5.7390000000        9.9410000000        0.0000000000
  O        -1.9130000000        9.9410000000        0.0000000000
  O         1.9130000000        9.9410000000        0.0000000000
  O         5.7390000000        9.9410000000        0.0000000000
  O         1.9130000000        1.1050000000        1.5620000000
  O         5.7390000000        1.1050000000        1.5620000000
  O         9.5650000000        1.1050000000        1.5620000000
  O        13.3920000000        1.1050000000        1.5620000000
  O         0.0000000000        4.4180000000        1.5620000000
  O         3.8260000000        4.4180000000        1.5620000000
  O         7.6520000000        4.4180000000        1.5620000000
  O        11.4780000000        4.4180000000        1.5620000000
  O        -1.9130000000        7.7320000000        1.5620000000
  O         1.9130000000        7.7320000000        1.5620000000
  O         5.7390000000        7.7320000000        1.5620000000
  O         9.5650000000        7.7320000000        1.5620000000
  O        -3.8260000000       11.0450000000        1.5620000000
  O         0.0000000000       11.0450000000        1.5620000000
  O         3.8260000000       11.0450000000        1.5620000000
  O         7.6520000000       11.0450000000        1.5620000000
  O         0.0000000000        2.2090000000        3.1240000000
  O         3.8260000000        2.2090000000        3.1240000000
  O         7.6520000000        2.2090000000        3.1240000000
  O        11.4780000000        2.2090000000        3.1240000000
  O        -1.9130000000        5.5230000000        3.1240000000
  O         1.9130000000        5.5230000000        3.1240000000
  O         5.7390000000        5.5230000000        3.1240000000
  O         9.5650000000        5.5230000000        3.1240000000
  O        -3.8260000000        8.8360000000        3.1240000000
  O         0.0000000000        8.8360000000        3.1240000000
  O         3.8260000000        8.8360000000        3.1240000000
  O         7.6520000000        8.8360000000        3.1240000000
  O        -5.7390000000       12.1500000000        3.1240000000
  O        -1.9130000000       12.1500000000        3.1240000000
  O         1.9130000000       12.1500000000        3.1240000000
  O         5.7390000000       12.1500000000        3.1240000000
  O        -0.1699386647        0.0800161356        4.8334011545
  O         3.6638037563       -0.0119845744        4.9133835336
  O         7.8469483499       -0.0137946787        4.8133640361
  O        11.6610466006       -0.1328485417        4.7534664376
  O        -1.8913532216        3.4584324697        4.7686473010
  O         1.9480326185        3.4517568429        4.8128432215
  O         5.7939367135        3.5107108245        4.8318577519
  O         9.4418508339        3.2667123060        4.7116923502
  O        -3.6930081064        6.6403613197        4.9622852314
  O        -0.1672031478        6.5666592164        4.7844249316
  O         3.8906713021        6.9419511299        4.8200907959
  O         7.6413618807        6.7654946245        4.8722766893
  O        -5.6355883112       10.0329794033        4.8016967472
  O        -1.8673645736        9.9186727108        4.9296181236
  O         2.0779435026        9.9523468392        4.8169218558
  O         5.7142747391        9.9757496093        4.7196138922
  O         1.7279052099        1.2056572632        6.2144032260
  O         5.7788642999        1.0240500047        6.0729911653
  O         9.6045282744        1.1571249516        6.4302189688
  O        13.1064892678        1.2787009089        6.5079122054
  O        -0.0623989852        4.4061995842        6.2795276676
  O         3.9434328542        4.6016014936        6.3090323852
  O         7.8072724500        4.4596762869        6.3918143360
  O        11.4824689653        4.1623286027        6.4720643390
  O        -1.8276179405        7.7654367529        6.3235671036
  O         1.9677613637        7.8384147699        6.4116433838
  O         5.9573015551        7.9275862157        6.6603175194
  O         9.6793518103        7.8772578694        6.4349658966
  O        -3.6993272064       11.0236757280        6.3204818873
  O        -0.0631541513       10.8942478856        6.3933271593
  O         3.8757945516       11.1149499462        6.3893034738
  O         7.7081483191       10.9890625812        6.5933005762
  O         0.0310215472        2.1182518162        8.0781022965
  O         3.9435355491        2.2908669306        7.8587142380
  O         7.6272252936        2.1984015796        7.8199376439
  O        11.5148670281        2.2600753541        8.4739803732
  O        -1.8543334488        5.5469707944        8.1983281302
  O         1.9488444907        5.6751766873        7.9780681707
  O         6.0309907702        5.6058719238        8.1948385826
  O         9.7245430745        5.6822750455        7.9382165238
  O        -3.6713737092        8.8487618266        8.1638553306
  O         0.0117642428        8.6242060710        8.0129112812
  O         3.8204989977        8.8856617591        8.1889318546
  O         7.9824501445        8.7322029564        8.4054507813
  O        -5.6940027258       12.2590800943        8.0109549282
  O        -1.7871799346       12.1187367403        7.9393399494
  O         1.8283970171       12.0928879082        8.1231042672
  O         5.7403242465       12.1319718481        8.1013547170
 Ce         0.0000000000        2.2090000000        0.7810000000
 Ce         3.8260000000        2.2090000000        0.7810000000
 Ce         7.6520000000        2.2090000000        0.7810000000
 Ce        11.4780000000        2.2090000000        0.7810000000
 Ce        -1.9130000000        5.5230000000        0.7810000000
 Ce         1.9130000000        5.5230000000        0.7810000000
 Ce         5.7390000000        5.5230000000        0.7810000000
 Ce         9.5650000000        5.5230000000        0.7810000000
 Ce        -3.8260000000        8.8360000000        0.7810000000
 Ce         0.0000000000        8.8360000000        0.7810000000
 Ce         3.8260000000        8.8360000000        0.7810000000
 Ce         7.6520000000        8.8360000000        0.7810000000
 Ce        -5.7390000000       12.1500000000        0.7810000000
 Ce        -1.9130000000       12.1500000000        0.7810000000
 Ce         1.9130000000       12.1500000000        0.7810000000
 Ce         5.7390000000       12.1500000000        0.7810000000
 Ce         1.9140972475        1.1086368828        3.9665358829
 Ce         5.7652817630        1.0609286208        3.8401860769
 Ce         9.6363776563        1.0128572982        3.9643613465
 Ce        13.3430076384        1.2477329856        3.8782427260
 Ce        -0.0263056292        4.4356309166        3.9409716513
 Ce         3.7873711287        4.5034046520        4.0489879936
 Ce         7.7038976848        4.3517812972        3.8734988866
 Ce        11.4140869469        4.4955558781        4.0850454101
 Ce        -1.8799557135        7.6725282891        3.9594880548
 Ce         2.0488349344        7.7565353508        3.9833778183
 Ce         5.8364387900        7.7388347962        3.8270632400
 Ce         9.6120097344        7.8124083294        3.9134568512
 Ce        -3.8783338802       11.0089534660        3.9664189352
 Ce         0.0777908772       10.9899389348        3.9977398879
 Ce         3.9069284442       11.0059974333        3.9881190842
 Ce         7.5814872791       11.0740357385        3.9293038762
 Ce        -0.1283652254        0.0108322568        7.1541038179
 Ce         3.9890846821       -0.0428284105        7.2010844986
 Ce         7.6442420594       -0.0084942933        7.2107289373
 Ce        11.4058775866       -0.0956365672        7.2719844482
 Ce        -1.9670998537        3.2895514654        7.3829427560
 Ce         1.8569781171        3.3821023617        7.1242694551
 Ce         5.8724128074        3.3217507814        6.9140912525
 Ce         9.5727892273        3.3487019328        7.1645747385
 Ce        -3.6934504140        6.7259282888        7.3783463242
 Ce        -0.0429257805        6.6164365863        7.1672387782
 Ce         4.0202562009        6.8706727390        7.4452941144
 Ce         7.9749557288        6.7268263660        7.1801310174
 Ce        -5.5632188386        9.9509792303        7.3525090992
 Ce        -1.9302413260        9.9369166397        7.2124754281
 Ce         1.8974423069        9.9021611789        7.2081785049
 Ce         5.8910748468       10.0681737416        7.6315512966
 Pt        -0.8058257537        4.6546294805       10.1739008455
 Pt         7.1454247959        2.1151361702        9.8269625862
 Pt         0.7641626945        2.2526845289       10.0057638894
 Pt        -4.6573442396       11.1834964621       10.9867488537
 Pt         8.7361905035        9.9193720064        9.9269216815
 Pt         2.4858908233        0.0848142659        9.8764733678
 Pt         9.8991240232        1.9182939985        9.5830481492
 Pt         1.8572923489        5.0720735434        9.9512004529
 Pt         5.7389369184        4.7188965773        9.9070757131
 Pt         4.8755740566        0.8218299799       10.6358478911
 Pt         3.6100010591        3.0605091862        9.7299708780
 Pt         1.1672927400        3.6739813728       12.0999745017
 Pt         2.6709210250        1.5076329309       11.9722900213
 Pt         5.6720958505        3.0195426712       11.8944605633
 Pt         3.8540423798        4.9786319034       11.6240105807
 Pt         3.4662356704        3.3572965046       13.5805971204
     160
 i =      607, time =      607.000, E =     -5324.9328190673
  O         0.0000000000        0.0000000000        0.0000000000
  O         3.8260000000        0.0000000000        0.0000000000
  O         7.6520000000        0.0000000000        0.0000000000
  O        11.4780000000        0.0000000000        0.0000000000
  O        -1.9130000000        3.3140000000        0.0000000000
  O         1.9130000000        3.3140000000        0.0000000000
  O         5.7390000000        3.3140000000        0.0000000000
  O         9.5650000000        3.3140000000        0.0000000000
  O        -3.8260000000        6.6270000000        0.0000000000
  O         0.0000000000        6.6270000000        0.0000000000
  O         3.8260000000        6.6270000000        0.0000000000
  O         7.6520000000        6.6270000000        0.0000000000
  O        -5.7390000000        9.9410000000        0.0000000000
  O        -1.9130000000        9.9410000000        0.0000000000
  O         1.9130000000        9.9410000000        0.0000000000
  O         5.7390000000        9.9410000000        0.0000000000
  O         1.9130000000        1.1050000000        1.5620000000
  O         5.7390000000        1.1050000000        1.5620000000
  O         9.5650000000        1.1050000000        1.5620000000
  O        13.3920000000        1.1050000000        1.5620000000
  O         0.0000000000        4.4180000000        1.5620000000
  O         3.8260000000        4.4180000000        1.5620000000
  O         7.6520000000        4.4180000000        1.5620000000
  O        11.4780000000        4.4180000000        1.5620000000
  O        -1.9130000000        7.7320000000        1.5620000000
  O         1.9130000000        7.7320000000        1.5620000000
  O         5.7390000000        7.7320000000        1.5620000000
  O         9.5650000000        7.7320000000        1.5620000000
  O        -3.8260000000       11.0450000000        1.5620000000
  O         0.0000000000       11.0450000000        1.5620000000
  O         3.8260000000       11.0450000000        1.5620000000
  O         7.6520000000       11.0450000000        1.5620000000
  O         0.0000000000        2.2090000000        3.1240000000
  O         3.8260000000        2.2090000000        3.1240000000
  O         7.6520000000        2.2090000000        3.1240000000
  O        11.4780000000        2.2090000000        3.1240000000
  O        -1.9130000000        5.5230000000        3.1240000000
  O         1.9130000000        5.5230000000        3.1240000000
  O         5.7390000000        5.5230000000        3.1240000000
  O         9.5650000000        5.5230000000        3.1240000000
  O        -3.8260000000        8.8360000000        3.1240000000
  O         0.0000000000        8.8360000000        3.1240000000
  O         3.8260000000        8.8360000000        3.1240000000
  O         7.6520000000        8.8360000000        3.1240000000
  O        -5.7390000000       12.1500000000        3.1240000000
  O        -1.9130000000       12.1500000000        3.1240000000
  O         1.9130000000       12.1500000000        3.1240000000
  O         5.7390000000       12.1500000000        3.1240000000
  O        -0.1696638758        0.0907835152        4.8368354413
  O         3.6646030567       -0.0089774463        4.9118966108
  O         7.8446317370       -0.0075016096        4.8130753816
  O        11.6606599019       -0.1289661019        4.7633172154
  O        -1.8889458184        3.4576200622        4.7690284975
  O         1.9447473193        3.4554536329        4.8141708582
  O         5.7937004322        3.5192926380        4.8333137898
  O         9.4361659784        3.2768538155        4.7114278214
  O        -3.6907085550        6.6457267266        4.9559232273
  O        -0.1694057863        6.5685605342        4.7894204858
  O         3.9003287717        6.9363300268        4.8235542903
  O         7.6364993252        6.7659755230        4.8646238052
  O        -5.6356643726       10.0370680973        4.8067201683
  O        -1.8757982850        9.9225940627        4.9269210290
  O         2.0885526302        9.9564087821        4.8149169635
  O         5.7190117158        9.9732279736        4.7190400164
  O         1.7411832932        1.2114653055        6.2173486517
  O         5.7747136799        1.0245452099        6.0782878672
  O         9.5999342129        1.1547943092        6.4385645877
  O        13.1053972034        1.2844232003        6.5071640424
  O        -0.0657518862        4.4032161647        6.2820253710
  O         3.9353527909        4.5996133992        6.3030171899
  O         7.8114747801        4.4541408114        6.3901553298
  O        11.4824028254        4.1725417183        6.4713355853
  O        -1.8262593507        7.7609468754        6.3216432093
  O         1.9658069691        7.8399985697        6.4095725280
  O         5.9600281484        7.9387750109        6.6614879383
  O         9.6735744945        7.8803026770        6.4334865894
  O        -3.7060806813       11.0190814635        6.3247931920
  O        -0.0641676164       10.8988948533        6.3913664040
  O         3.8708747437       11.1142024216        6.3813054694
  O         7.7108746645       10.9950297345        6.5973543217
  O         0.0309036375        2.1190705676        8.0829342466
  O         3.9489518752        2.2994600671        7.8551352840
  O         7.6361708874        2.1997912254        7.8199954735
  O        11.5160988610        2.2584081531        8.4787121771
  O        -1.8569532844        5.5481178641        8.1915228428
  O         1.9505996253        5.6944635376        7.9756858874
  O         6.0345863341        5.6014220734        8.1879013915
  O         9.7189178008        5.6839483824        7.9434781945
  O        -3.6652891267        8.8426642071        8.1685327614
  O         0.0106826813        8.6270269384        8.0160452223
  O         3.8246759892        8.8813420726        8.1892208866
  O         7.9816293204        8.7273292142        8.3991163096
  O        -5.6836254653       12.2563870926        8.0158696794
  O        -1.7758841732       12.1153643955        7.9436881848
  O         1.8213482529       12.0855042075        8.1277757181
  O         5.7307512276       12.1340605533        8.1014751639
 Ce         0.0000000000        2.2090000000        0.7810000000
 Ce         3.8260000000        2.2090000000        0.7810000000
 Ce         7.6520000000        2.2090000000        0.7810000000
 Ce        11.4780000000        2.2090000000        0.7810000000
 Ce        -1.9130000000        5.5230000000        0.7810000000
 Ce         1.9130000000        5.5230000000        0.7810000000
 Ce         5.7390000000        5.5230000000        0.7810000000
 Ce         9.5650000000        5.5230000000        0.7810000000
 Ce        -3.8260000000        8.8360000000        0.7810000000
 Ce         0.0000000000        8.8360000000        0.7810000000
 Ce         3.8260000000        8.8360000000        0.7810000000
 Ce         7.6520000000        8.8360000000        0.7810000000
 Ce        -5.7390000000       12.1500000000        0.7810000000
 Ce        -1.9130000000       12.1500000000        0.7810000000
 Ce         1.9130000000       12.1500000000        0.7810000000
 Ce         5.7390000000       12.1500000000        0.7810000000
 Ce         1.9131934010        1.1108386198        3.9665786709
 Ce         5.7636094405        1.0608686071        3.8384725645
 Ce         9.6375825094        1.0115938200        3.9609662912
 Ce        13.3460530430        1.2455074395        3.8776531491
 Ce        -0.0241152208        4.4332903141        3.9404649359
 Ce         3.7888871540        4.5029607170        4.0509070772
 Ce         7.7044470358        4.3523563903        3.8753404737
 Ce        11.4172103483        4.4940806471        4.0862072957
 Ce        -1.8801690948        7.6745654843        3.9568243952
 Ce         2.0485282752        7.7559746755        3.9821038692
 Ce         5.8377131573        7.7386718342        3.8267552622
 Ce         9.6137963841        7.8087558067        3.9101254792
 Ce        -3.8781690833       11.0091718089        3.9640781479
 Ce         0.0832871042       10.9861504543        4.0005610295
 Ce         3.9075143022       11.0060856565        3.9849042307
 Ce         7.5808994070       11.0717480676        3.9296892681
 Ce        -0.1315884684        0.0125778397        7.1535278964
 Ce         3.9905435049       -0.0433034731        7.1967293466
 Ce         7.6406431443       -0.0064682444        7.2094964748
 Ce        11.4040122074       -0.0967893696        7.2709411993
 Ce        -1.9698140555        3.2877081652        7.3832288988
 Ce         1.8566916977        3.3784054860        7.1240751812
 Ce         5.8743428545        3.3245007771        6.9086470799
 Ce         9.5724266447        3.3490671363        7.1658423191
 Ce        -3.6919251299        6.7252615460        7.3814331318
 Ce        -0.0415436910        6.6197942279        7.1705932286
 Ce         4.0187604165        6.8734047054        7.4453862244
 Ce         7.9772179897        6.7264966103        7.1831534752
 Ce        -5.5627265948        9.9513268943        7.3560591438
 Ce        -1.9331609971        9.9356062205        7.2132342824
 Ce         1.8982042727        9.9009389681        7.2068026236
 Ce         5.8918430203       10.0673098823        7.6293668471
 Pt        -0.8046522351        4.6542801176       10.1767352686
 Pt         7.1462482375        2.1156643651        9.8294804746
 Pt         0.7636307969        2.2519404781       10.0046447011
 Pt        -4.6572061925       11.1847915082       10.9904933838
 Pt         8.7366524253        9.9204092210        9.9260832263
 Pt         2.4853270723        0.0859029525        9.8783330128
 Pt         9.8998793787        1.9177963293        9.5837454644
 Pt         1.8562017188        5.0722839081        9.9519379566
 Pt         5.7387368744        4.7188833582        9.9086386261
 Pt         4.8752832249        0.8250483389       10.6338596545
 Pt         3.6103548872        3.0585406931        9.7300077416
 Pt         1.1679819564        3.6742499637       12.0977872525
 Pt         2.6702639920        1.5066865858       11.9737802736
 Pt         5.6708944423        3.0214076199       11.8937856488
 Pt         3.8520708413        4.9770055172       11.6230303318
 Pt         3.4669125121        3.3564184038       13.5811984443
     160
 i =      608, time =      608.000, E =     -5324.9310651732
  O         0.0000000000        0.0000000000        0.0000000000
  O         3.8260000000        0.0000000000        0.0000000000
  O         7.6520000000        0.0000000000        0.0000000000
  O        11.4780000000        0.0000000000        0.0000000000
  O        -1.9130000000        3.3140000000        0.0000000000
  O         1.9130000000        3.3140000000        0.0000000000
  O         5.7390000000        3.3140000000        0.0000000000
  O         9.5650000000        3.3140000000        0.0000000000
  O        -3.8260000000        6.6270000000        0.0000000000
  O         0.0000000000        6.6270000000        0.0000000000
  O         3.8260000000        6.6270000000        0.0000000000
  O         7.6520000000        6.6270000000        0.0000000000
  O        -5.7390000000        9.9410000000        0.0000000000
  O        -1.9130000000        9.9410000000        0.0000000000
  O         1.9130000000        9.9410000000        0.0000000000
  O         5.7390000000        9.9410000000        0.0000000000
  O         1.9130000000        1.1050000000        1.5620000000
  O         5.7390000000        1.1050000000        1.5620000000
  O         9.5650000000        1.1050000000        1.5620000000
  O        13.3920000000        1.1050000000        1.5620000000
  O         0.0000000000        4.4180000000        1.5620000000
  O         3.8260000000        4.4180000000        1.5620000000
  O         7.6520000000        4.4180000000        1.5620000000
  O        11.4780000000        4.4180000000        1.5620000000
  O        -1.9130000000        7.7320000000        1.5620000000
  O         1.9130000000        7.7320000000        1.5620000000
  O         5.7390000000        7.7320000000        1.5620000000
  O         9.5650000000        7.7320000000        1.5620000000
  O        -3.8260000000       11.0450000000        1.5620000000
  O         0.0000000000       11.0450000000        1.5620000000
  O         3.8260000000       11.0450000000        1.5620000000
  O         7.6520000000       11.0450000000        1.5620000000
  O         0.0000000000        2.2090000000        3.1240000000
  O         3.8260000000        2.2090000000        3.1240000000
  O         7.6520000000        2.2090000000        3.1240000000
  O        11.4780000000        2.2090000000        3.1240000000
  O        -1.9130000000        5.5230000000        3.1240000000
  O         1.9130000000        5.5230000000        3.1240000000
  O         5.7390000000        5.5230000000        3.1240000000
  O         9.5650000000        5.5230000000        3.1240000000
  O        -3.8260000000        8.8360000000        3.1240000000
  O         0.0000000000        8.8360000000        3.1240000000
  O         3.8260000000        8.8360000000        3.1240000000
  O         7.6520000000        8.8360000000        3.1240000000
  O        -5.7390000000       12.1500000000        3.1240000000
  O        -1.9130000000       12.1500000000        3.1240000000
  O         1.9130000000       12.1500000000        3.1240000000
  O         5.7390000000       12.1500000000        3.1240000000
  O        -0.1693300506        0.1010273970        4.8402057284
  O         3.6658613481       -0.0060707448        4.9098285825
  O         7.8418943972       -0.0015236354        4.8127490398
  O        11.6595475048       -0.1242249206        4.7731435484
  O        -1.8870581024        3.4562671554        4.7691895552
  O         1.9414984873        3.4588935625        4.8154543283
  O         5.7934850037        3.5271945018        4.8337398955
  O         9.4313125863        3.2870898890        4.7112446051
  O        -3.6891728933        6.6506213738        4.9492973253
  O        -0.1706557846        6.5705869398        4.7944841962
  O         3.9102465471        6.9299030217        4.8270667570
  O         7.6322067820        6.7662012051        4.8566178286
  O        -5.6364061747       10.0406631286        4.8115715258
  O        -1.8843567022        9.9265032775        4.9231987473
  O         2.0983119857        9.9604212596        4.8128891003
  O         5.7244247874        9.9705822332        4.7183798216
  O         1.7546004070        1.2174919458        6.2208744223
  O         5.7706212587        1.0254214792        6.0842773788
  O         9.5958309927        1.1521455588        6.4465678703
  O        13.1049097091        1.2898219101        6.5064684032
  O        -0.0688205149        4.4000642359        6.2855331129
  O         3.9271009321        4.5975316190        6.2972053150
  O         7.8153749646        4.4488428348        6.3882122020
  O        11.4825706790        4.1834010054        6.4701430682
  O        -1.8254123903        7.7561968667        6.3203095162
  O         1.9638679041        7.8412602938        6.4072683682
  O         5.9625532755        7.9499330938        6.6629948429
  O         9.6681538606        7.8832585086        6.4316774996
  O        -3.7131793943       11.0146667101        6.3296940005
  O        -0.0643370554       10.9039801978        6.3891570687
  O         3.8658179092       11.1132178526        6.3740406978
  O         7.7132847101       11.0011304558        6.6010972274
  O         0.0304993531        2.1198907722        8.0876713838
  O         3.9541496928        2.3078050316        7.8511701570
  O         7.6447313272        2.2010928010        7.8198645111
  O        11.5177779026        2.2567360649        8.4830626189
  O        -1.8598581351        5.5492367560        8.1848670656
  O         1.9524196167        5.7135892508        7.9735541616
  O         6.0381346017        5.5972906024        8.1802903608
  O         9.7135788741        5.6854710478        7.9488878469
  O        -3.6592896148        8.8362566481        8.1728950322
  O         0.0096220280        8.6302678432        8.0192380565
  O         3.8290039477        8.8772909917        8.1895647463
  O         7.9804359107        8.7226243957        8.3928002261
  O        -5.6729298413       12.2541695880        8.0205562402
  O        -1.7649897790       12.1123912941        7.9480475561
  O         1.8144107233       12.0779884468        8.1318342094
  O         5.7211974963       12.1367502098        8.1016893550
 Ce         0.0000000000        2.2090000000        0.7810000000
 Ce         3.8260000000        2.2090000000        0.7810000000
 Ce         7.6520000000        2.2090000000        0.7810000000
 Ce        11.4780000000        2.2090000000        0.7810000000
 Ce        -1.9130000000        5.5230000000        0.7810000000
 Ce         1.9130000000        5.5230000000        0.7810000000
 Ce         5.7390000000        5.5230000000        0.7810000000
 Ce         9.5650000000        5.5230000000        0.7810000000
 Ce        -3.8260000000        8.8360000000        0.7810000000
 Ce         0.0000000000        8.8360000000        0.7810000000
 Ce         3.8260000000        8.8360000000        0.7810000000
 Ce         7.6520000000        8.8360000000        0.7810000000
 Ce        -5.7390000000       12.1500000000        0.7810000000
 Ce        -1.9130000000       12.1500000000        0.7810000000
 Ce         1.9130000000       12.1500000000        0.7810000000
 Ce         5.7390000000       12.1500000000        0.7810000000
 Ce         1.9122773435        1.1130439565        3.9666503065
 Ce         5.7619140572        1.0607949084        3.8367969274
 Ce         9.6387753280        1.0103476077        3.9575888703
 Ce        13.3491242258        1.2432042584        3.8771333287
 Ce        -0.0219331696        4.4309678730        3.9399602013
 Ce         3.7904310125        4.5025323923        4.0527862146
 Ce         7.7049657948        4.3530095543        3.8772127815
 Ce        11.4204239565        4.4925583684        4.0873147687
 Ce        -1.8803652253        7.6766617957        3.9541806666
 Ce         2.0481659482        7.7554300504        3.9808357389
 Ce         5.8389052095        7.7385276849        3.8265758404
 Ce         9.6155590762        7.8050931979        3.9068530976
 Ce        -3.8779354732       11.0094441533        3.9617616693
 Ce         0.0887345289       10.9823657649        4.0033866926
 Ce         3.9081023471       11.0062060622        3.9816934719
 Ce         7.5803114860       11.0694796639        3.9301153160
 Ce        -0.1347052968        0.0143146825        7.1529310983
 Ce         3.9919165306       -0.0437642566        7.1923522853
 Ce         7.6371407871       -0.0045044024        7.2082480859
 Ce        11.4021075368       -0.0979067836        7.2698826414
 Ce        -1.9725331790        3.2858669864        7.3835081663
 Ce         1.8564531650        3.3746817664        7.1238507494
 Ce         5.8761988648        3.3273141753        6.9033533506
 Ce         9.5720909202        3.3493823435        7.1671661653
 Ce        -3.6904137710        6.7245952631        7.3844555671
 Ce        -0.0401142979        6.6232216111        7.1739386292
 Ce         4.0172563173        6.8760883276        7.4453889070
 Ce         7.9793251488        6.7261735033        7.1861901752
 Ce        -5.5622752768        9.9517406103        7.3596074318
 Ce        -1.9359727862        9.9342590797        7.2139617914
 Ce         1.8989608320        9.8997295976        7.2054272295
 Ce         5.8925974553       10.0663292067        7.6270787654
 Pt        -0.8034099316        4.6539054445       10.1795554013
 Pt         7.1470585287        2.1162166657        9.8320437581
 Pt         0.7631215793        2.2511952422       10.0034904268
 Pt        -4.6570924735       11.1860762950       10.9942379995
 Pt         8.7371387232        9.9214471686        9.9252389020
 Pt         2.4847110892        0.0869908760        9.8801630423
 Pt         9.9005682554        1.9173003660        9.5844544929
 Pt         1.8550633757        5.0724587588        9.9526709229
 Pt         5.7385336806        4.7188215050        9.9102269839
 Pt         4.8750076152        0.8283002232       10.6318741448
 Pt         3.6107270779        3.0565642838        9.7300688938
 Pt         1.1686671676        3.6745870267       12.0955879232
 Pt         2.6696341657        1.5057463434       11.9752381739
 Pt         5.6696944732        3.0232530777       11.8930933474
 Pt         3.8500838644        4.9753570433       11.6220416119
 Pt         3.4675789030        3.3555394563       13.5817914461
     160
 i =      609, time =      609.000, E =     -5324.9296648088
  O         0.0000000000        0.0000000000        0.0000000000
  O         3.8260000000        0.0000000000        0.0000000000
  O         7.6520000000        0.0000000000        0.0000000000
  O        11.4780000000        0.0000000000        0.0000000000
  O        -1.9130000000        3.3140000000        0.0000000000
  O         1.9130000000        3.3140000000        0.0000000000
  O         5.7390000000        3.3140000000        0.0000000000
  O         9.5650000000        3.3140000000        0.0000000000
  O        -3.8260000000        6.6270000000        0.0000000000
  O         0.0000000000        6.6270000000        0.0000000000
  O         3.8260000000        6.6270000000        0.0000000000
  O         7.6520000000        6.6270000000        0.0000000000
  O        -5.7390000000        9.9410000000        0.0000000000
  O        -1.9130000000        9.9410000000        0.0000000000
  O         1.9130000000        9.9410000000        0.0000000000
  O         5.7390000000        9.9410000000        0.0000000000
  O         1.9130000000        1.1050000000        1.5620000000
  O         5.7390000000        1.1050000000        1.5620000000
  O         9.5650000000        1.1050000000        1.5620000000
  O        13.3920000000        1.1050000000        1.5620000000
  O         0.0000000000        4.4180000000        1.5620000000
  O         3.8260000000        4.4180000000        1.5620000000
  O         7.6520000000        4.4180000000        1.5620000000
  O        11.4780000000        4.4180000000        1.5620000000
  O        -1.9130000000        7.7320000000        1.5620000000
  O         1.9130000000        7.7320000000        1.5620000000
  O         5.7390000000        7.7320000000        1.5620000000
  O         9.5650000000        7.7320000000        1.5620000000
  O        -3.8260000000       11.0450000000        1.5620000000
  O         0.0000000000       11.0450000000        1.5620000000
  O         3.8260000000       11.0450000000        1.5620000000
  O         7.6520000000       11.0450000000        1.5620000000
  O         0.0000000000        2.2090000000        3.1240000000
  O         3.8260000000        2.2090000000        3.1240000000
  O         7.6520000000        2.2090000000        3.1240000000
  O        11.4780000000        2.2090000000        3.1240000000
  O        -1.9130000000        5.5230000000        3.1240000000
  O         1.9130000000        5.5230000000        3.1240000000
  O         5.7390000000        5.5230000000        3.1240000000
  O         9.5650000000        5.5230000000        3.1240000000
  O        -3.8260000000        8.8360000000        3.1240000000
  O         0.0000000000        8.8360000000        3.1240000000
  O         3.8260000000        8.8360000000        3.1240000000
  O         7.6520000000        8.8360000000        3.1240000000
  O        -5.7390000000       12.1500000000        3.1240000000
  O        -1.9130000000       12.1500000000        3.1240000000
  O         1.9130000000       12.1500000000        3.1240000000
  O         5.7390000000       12.1500000000        3.1240000000
  O        -0.1689169299        0.1107470682        4.8435066463
  O         3.6675873595       -0.0032864590        4.9071778133
  O         7.8387496310        0.0041189964        4.8123682206
  O        11.6577146474       -0.1186588973        4.7829100489
  O        -1.8856992467        3.4543721493        4.7691184008
  O         1.9382799748        3.4620558469        4.8166656007
  O         5.7933005639        3.5343972505        4.8331147813
  O         9.4273392059        3.2973652369        4.7111494504
  O        -3.6884263565        6.6550387275        4.9424268080
  O        -0.1709341636        6.5727158902        4.7996007290
  O         3.9203734882        6.9227290337        4.8305883227
  O         7.6285032639        6.7661586712        4.8482644235
  O        -5.6378133681       10.0437727311        4.8162017145
  O        -1.8930223575        9.9303947272        4.9184620975
  O         2.1071701354        9.9643449573        4.8108439898
  O         5.7304920195        9.9678371664        4.7176265884
  O         1.7681459062        1.2237206793        6.2249645655
  O         5.7666089379        1.0266826434        6.0908829227
  O         9.5922529942        1.1491973131        6.4541575927
  O        13.1050216872        1.2948628891        6.5058289238
  O        -0.0715789020        4.3967464031        6.2900443408
  O         3.9187239388        4.5953559444        6.2916622889
  O         7.8189439900        4.4438142935        6.3859941129
  O        11.4829604389        4.1948432828        6.4685052411
  O        -1.8250913468        7.7512332866        6.3195754628
  O         1.9619568944        7.8422209074        6.4046949092
  O         5.9648571312        7.9610567264        6.6648317837
  O         9.6631203578        7.8861114266        6.4295407313
  O        -3.7205828119       11.0104423227        6.3351883821
  O        -0.0636733077       10.9094596422        6.3866670865
  O         3.8606564492       11.1119948515        6.3675825118
  O         7.7153669110       11.0073702420        6.6045111975
  O         0.0297968292        2.1206958881        8.0922529764
  O         3.9591300771        2.3159111997        7.8468567995
  O         7.6528344671        2.2023225326        7.8195679156
  O        11.5199038487        2.2550707962        8.4870321295
  O        -1.8630457579        5.5503328749        8.1783591955
  O         1.9543034978        5.7324393426        7.9717218885
  O         6.0416158349        5.5934536495        8.1720312168
  O         9.7085453367        5.6868314034        7.9544267961
  O        -3.6533845786        8.8295704105        8.1769298848
  O         0.0085857953        8.6339368866        8.0224615985
  O         3.8334727980        8.8735341095        8.1899697240
  O         7.9788825941        8.7181343570        8.3865578118
  O        -5.6619486643       12.2524535040        8.0249855358
  O        -1.7545524343       12.1098057227        7.9523900840
  O         1.8076305914       12.0703668114        8.1352798522
  O         5.7116954541       12.1400015249        8.1019781432
 Ce         0.0000000000        2.2090000000        0.7810000000
 Ce         3.8260000000        2.2090000000        0.7810000000
 Ce         7.6520000000        2.2090000000        0.7810000000
 Ce        11.4780000000        2.2090000000        0.7810000000
 Ce        -1.9130000000        5.5230000000        0.7810000000
 Ce         1.9130000000        5.5230000000        0.7810000000
 Ce         5.7390000000        5.5230000000        0.7810000000
 Ce         9.5650000000        5.5230000000        0.7810000000
 Ce        -3.8260000000        8.8360000000        0.7810000000
 Ce         0.0000000000        8.8360000000        0.7810000000
 Ce         3.8260000000        8.8360000000        0.7810000000
 Ce         7.6520000000        8.8360000000        0.7810000000
 Ce        -5.7390000000       12.1500000000        0.7810000000
 Ce        -1.9130000000       12.1500000000        0.7810000000
 Ce         1.9130000000       12.1500000000        0.7810000000
 Ce         5.7390000000       12.1500000000        0.7810000000
 Ce         1.9113511148        1.1152523160        3.9667515736
 Ce         5.7601978908        1.0607054479        3.8351607954
 Ce         9.6399532108        1.0091221467        3.9542332532
 Ce        13.3522170964        1.2408272583        3.8766847420
 Ce        -0.0197622704        4.4286685647        3.9394618458
 Ce         3.7920014058        4.5021233057        4.0546243356
 Ce         7.7054535627        4.3537450869        3.8791120362
 Ce        11.4237258345        4.4909931030        4.0883676914
 Ce        -1.8805447190        7.6788133300        3.9515609199
 Ce         2.0477535883        7.7548977790        3.9795761559
 Ce         5.8400153091        7.7383995733        3.8265253130
 Ce         9.6172963616        7.8014219625        3.9036432392
 Ce        -3.8776350845       11.0097684018        3.9594727938
 Ce         0.0941275784       10.9785900906        4.0062167289
 Ce         3.9086960952       11.0063600628        3.9784903257
 Ce         7.5797273469       11.0672285683        3.9305821540
 Ce        -0.1377146556        0.0160435235        7.1523170075
 Ce         3.9932021755       -0.0442096553        7.1879573297
 Ce         7.6337390854       -0.0026047018        7.2069859549
 Ce        11.4001616836       -0.0989896615        7.2688092746
 Ce        -1.9752551494        3.2840331919        7.3837805133
 Ce         1.8562629675        3.3709363293        7.1235962449
 Ce         5.8779816039        3.3301895784        6.8982192723
 Ce         9.5717840271        3.3496481684        7.1685452835
 Ce        -3.6889162624        6.7239276199        7.3874105495
 Ce        -0.0386403959        6.6267144391        7.1772726889
 Ce         4.0157463407        6.8787193679        7.4453002974
 Ce         7.9812744972        6.7258581670        7.1892373613
 Ce        -5.5618657325        9.9522182504        7.3631522342
 Ce        -1.9386727951        9.9328759927        7.2146565029
 Ce         1.8997096623        9.8985385192        7.2040553631
 Ce         5.8933396789       10.0652326902        7.6246877992
 Pt        -0.8020989126        4.6535051738       10.1823614929
 Pt         7.1478563454        2.1167935718        9.8346500903
 Pt         0.7626359080        2.2504479883       10.0023025991
 Pt        -4.6570039017       11.1873514825       10.9979823912
 Pt         8.7376489096        9.9224844478        9.9243880152
 Pt         2.4840437471        0.0880777896        9.8819639872
 Pt         9.9011904141        1.9168059683        9.5851767647
 Pt         1.8538783887        5.0725998929        9.9533953644
 Pt         5.7383290290        4.7187126928        9.9118354190
 Pt         4.8747470288        0.8315846984       10.6298909222
 Pt         3.6111169242        3.0545800020        9.7301528794
 Pt         1.1693486487        3.6749928912       12.0933776497
 Pt         2.6690322824        1.5048121591       11.9766631674
 Pt         5.6684963308        3.0250787540       11.8923850253
 Pt         3.8480805650        4.9736882820       11.6210456529
 Pt         3.4682346200        3.3546595890       13.5823758574
     160
 i =      610, time =      610.000, E =     -5324.9286396230
  O         0.0000000000        0.0000000000        0.0000000000
  O         3.8260000000        0.0000000000        0.0000000000
  O         7.6520000000        0.0000000000        0.0000000000
  O        11.4780000000        0.0000000000        0.0000000000
  O        -1.9130000000        3.3140000000        0.0000000000
  O         1.9130000000        3.3140000000        0.0000000000
  O         5.7390000000        3.3140000000        0.0000000000
  O         9.5650000000        3.3140000000        0.0000000000
  O        -3.8260000000        6.6270000000        0.0000000000
  O         0.0000000000        6.6270000000        0.0000000000
  O         3.8260000000        6.6270000000        0.0000000000
  O         7.6520000000        6.6270000000        0.0000000000
  O        -5.7390000000        9.9410000000        0.0000000000
  O        -1.9130000000        9.9410000000        0.0000000000
  O         1.9130000000        9.9410000000        0.0000000000
  O         5.7390000000        9.9410000000        0.0000000000
  O         1.9130000000        1.1050000000        1.5620000000
  O         5.7390000000        1.1050000000        1.5620000000
  O         9.5650000000        1.1050000000        1.5620000000
  O        13.3920000000        1.1050000000        1.5620000000
  O         0.0000000000        4.4180000000        1.5620000000
  O         3.8260000000        4.4180000000        1.5620000000
  O         7.6520000000        4.4180000000        1.5620000000
  O        11.4780000000        4.4180000000        1.5620000000
  O        -1.9130000000        7.7320000000        1.5620000000
  O         1.9130000000        7.7320000000        1.5620000000
  O         5.7390000000        7.7320000000        1.5620000000
  O         9.5650000000        7.7320000000        1.5620000000
  O        -3.8260000000       11.0450000000        1.5620000000
  O         0.0000000000       11.0450000000        1.5620000000
  O         3.8260000000       11.0450000000        1.5620000000
  O         7.6520000000       11.0450000000        1.5620000000
  O         0.0000000000        2.2090000000        3.1240000000
  O         3.8260000000        2.2090000000        3.1240000000
  O         7.6520000000        2.2090000000        3.1240000000
  O        11.4780000000        2.2090000000        3.1240000000
  O        -1.9130000000        5.5230000000        3.1240000000
  O         1.9130000000        5.5230000000        3.1240000000
  O         5.7390000000        5.5230000000        3.1240000000
  O         9.5650000000        5.5230000000        3.1240000000
  O        -3.8260000000        8.8360000000        3.1240000000
  O         0.0000000000        8.8360000000        3.1240000000
  O         3.8260000000        8.8360000000        3.1240000000
  O         7.6520000000        8.8360000000        3.1240000000
  O        -5.7390000000       12.1500000000        3.1240000000
  O        -1.9130000000       12.1500000000        3.1240000000
  O         1.9130000000       12.1500000000        3.1240000000
  O         5.7390000000       12.1500000000        3.1240000000
  O        -0.1684038761        0.1199331795        4.8467352865
  O         3.6697886811       -0.0006473588        4.9039469441
  O         7.8352049999        0.0094103528        4.8119182262
  O        11.6551650392       -0.1123083064        4.7926133481
  O        -1.8848731228        3.4519350262        4.7688039641
  O         1.9350865843        3.4649198627        4.8177765618
  O         5.7931543435        3.5408826329        4.8314279287
  O         9.4243041012        3.3076101719        4.7111514518
  O        -3.6884864987        6.6589781068        4.9353094674
  O        -0.1702274560        6.5749259505        4.8047471449
  O         3.9306344720        6.9148768367        4.8340851879
  O         7.6254027883        6.7658351090        4.8395705275
  O        -5.6398831780       10.0464068810        4.8205554520
  O        -1.9017753125        9.9342628353        4.9127314283
  O         2.1150657327        9.9681335416        4.8087861739
  O         5.7371841765        9.9650176214        4.7167735681
  O         1.7817744043        1.2301188789        6.2295929901
  O         5.7626994188        1.0283284885        6.0980290703
  O         9.5892261648        1.1459642126        6.4612545407
  O        13.1057278433        1.2995139711        6.5052471970
  O        -0.0740061530        4.3932639759        6.2955380544
  O         3.9102532935        4.5930836862        6.2864407889
  O         7.8221561300        4.4390830681        6.3835135668
  O        11.4835612591        4.2068269882        6.4664449376
  O        -1.8253088505        7.7461050306        6.3194472437
  O         1.9600874868        7.8429002033        6.4018182659
  O         5.9669127084        7.9721282826        6.6669870420
  O         9.6585041550        7.8888444903        6.4270791933
  O        -3.7282395675       11.0064213745        6.3412890899
  O        -0.0621959740       10.9152812830        6.3838690176
  O         3.8554284653       11.1105381891        6.3619854658
  O         7.7171142837       11.0137570819        6.6075816188
  O         0.0287853802        2.1214712349        8.0966218322
  O         3.9638865135        2.3237780940        7.8422322922
  O         7.6603985374        2.2034928271        7.8191289780
  O        11.5224705039        2.2534233294        8.4906276116
  O        -1.8665110474        5.5514108247        8.1720114825
  O         1.9562675956        5.7509523621        7.9702375549
  O         6.0450075915        5.5898919156        8.1631754924
  O         9.7038316573        5.6880202167        7.9600885024
  O        -3.6475743046        8.8226348819        8.1806330246
  O         0.0075757878        8.6380412687        8.0256892852
  O         3.8380654718        8.8700889305        8.1904413195
  O         7.9769818901        8.7139050500        8.3804641961
  O        -5.6507151620       12.2512474928        8.0291381187
  O        -1.7446227657       12.1075804314        7.9566971241
  O         1.8010549026       12.0626558183        8.1381079597
  O         5.7022585781       12.1437785366        8.1023226576
 Ce         0.0000000000        2.2090000000        0.7810000000
 Ce         3.8260000000        2.2090000000        0.7810000000
 Ce         7.6520000000        2.2090000000        0.7810000000
 Ce        11.4780000000        2.2090000000        0.7810000000
 Ce        -1.9130000000        5.5230000000        0.7810000000
 Ce         1.9130000000        5.5230000000        0.7810000000
 Ce         5.7390000000        5.5230000000        0.7810000000
 Ce         9.5650000000        5.5230000000        0.7810000000
 Ce        -3.8260000000        8.8360000000        0.7810000000
 Ce         0.0000000000        8.8360000000        0.7810000000
 Ce         3.8260000000        8.8360000000        0.7810000000
 Ce         7.6520000000        8.8360000000        0.7810000000
 Ce        -5.7390000000       12.1500000000        0.7810000000
 Ce        -1.9130000000       12.1500000000        0.7810000000
 Ce         1.9130000000       12.1500000000        0.7810000000
 Ce         5.7390000000       12.1500000000        0.7810000000
 Ce         1.9104168379        1.1174630501        3.9668828832
 Ce         5.7584632061        1.0605983585        3.8335655992
 Ce         9.6411133658        1.0079209384        3.9509032923
 Ce        13.3553274611        1.2383804315        3.8763086450
 Ce        -0.0176053078        4.4263971042        3.9389738836
 Ce         3.7935972042        4.5017368673        4.0564197221
 Ce         7.7059098693        4.3545672833        3.8810341931
 Ce        11.4271135854        4.4893889277        4.0893658019
 Ce        -1.8807085454        7.6810162435        3.9489688283
 Ce         2.0472961292        7.7543742857        3.9783274103
 Ce         5.8410443115        7.7382848946        3.8266033917
 Ce         9.6190067778        7.7977434998        3.9004993931
 Ce        -3.8772702798       11.0101424053        3.9572144065
 Ce         0.0994608580       10.9748288289        4.0090506382
 Ce         3.9092990513       11.0065490696        3.9752981489
 Ce         7.5791512519       11.0649926850        3.9310900105
 Ce        -0.1406159332        0.0177648342        7.1516896218
 Ce         3.9943985224       -0.0446384177        7.1835488228
 Ce         7.6304419370       -0.0007711666        7.2057120357
 Ce        11.3981732291       -0.1000389598        7.2677218038
 Ce        -1.9779776835        3.2822119974        7.3840462128
 Ce         1.8561213306        3.3671737237        7.1233120717
 Ce         5.8796918444        3.3331255799        6.8932535598
 Ce         9.5715081910        3.3498657482        7.1699784375
 Ce        -3.6874329394        6.7232566041        7.3902950789
 Ce        -0.0371250292        6.6302684028        7.1805933641
 Ce         4.0142338532        6.8812941106        7.4451184733
 Ce         7.9830640997        6.7255517850        7.1922914090
 Ce        -5.5614988514        9.9527580083        7.3666920214
 Ce        -1.9412573803        9.9314577109        7.2153170613
 Ce         1.9004485863        9.8973714993        7.2026901930
 Ce         5.8940710498       10.0640219281        7.6221951475
 Pt        -0.8007195322        4.6530795099       10.1851536374
 Pt         7.1486425255        2.1173955609        9.8372972573
 Pt         0.7621742511        2.2496980865       10.0010830422
 Pt        -4.6569415273       11.1886172130       11.0017255534
 Pt         8.7381830122        9.9235201586        9.9235300087
 Pt         2.4833259007        0.0891625203        9.8837357816
 Pt         9.9017456881        1.9163130373        9.5859135152
 Pt         1.8526478419        5.0727094489        9.9541075551
 Pt         5.7381249097        4.7185591921        9.9134579457
 Pt         4.8745014855        0.8349003562       10.6279092844
 Pt         3.6115236161        3.0525883378        9.7302589020
 Pt         1.1700269571        3.6754674858       12.0911574058
 Pt         2.6684583267        1.5038839938       11.9780549064
 Pt         5.6673003699        3.0268842877       11.8916624626
 Pt         3.8460598667        4.9720002105       11.6200434463
 Pt         3.4688800314        3.3537793303       13.5829515350
     160
 i =      611, time =      611.000, E =     -5324.9279453242
  O         0.0000000000        0.0000000000        0.0000000000
  O         3.8260000000        0.0000000000        0.0000000000
  O         7.6520000000        0.0000000000        0.0000000000
  O        11.4780000000        0.0000000000        0.0000000000
  O        -1.9130000000        3.3140000000        0.0000000000
  O         1.9130000000        3.3140000000        0.0000000000
  O         5.7390000000        3.3140000000        0.0000000000
  O         9.5650000000        3.3140000000        0.0000000000
  O        -3.8260000000        6.6270000000        0.0000000000
  O         0.0000000000        6.6270000000        0.0000000000
  O         3.8260000000        6.6270000000        0.0000000000
  O         7.6520000000        6.6270000000        0.0000000000
  O        -5.7390000000        9.9410000000        0.0000000000
  O        -1.9130000000        9.9410000000        0.0000000000
  O         1.9130000000        9.9410000000        0.0000000000
  O         5.7390000000        9.9410000000        0.0000000000
  O         1.9130000000        1.1050000000        1.5620000000
  O         5.7390000000        1.1050000000        1.5620000000
  O         9.5650000000        1.1050000000        1.5620000000
  O        13.3920000000        1.1050000000        1.5620000000
  O         0.0000000000        4.4180000000        1.5620000000
  O         3.8260000000        4.4180000000        1.5620000000
  O         7.6520000000        4.4180000000        1.5620000000
  O        11.4780000000        4.4180000000        1.5620000000
  O        -1.9130000000        7.7320000000        1.5620000000
  O         1.9130000000        7.7320000000        1.5620000000
  O         5.7390000000        7.7320000000        1.5620000000
  O         9.5650000000        7.7320000000        1.5620000000
  O        -3.8260000000       11.0450000000        1.5620000000
  O         0.0000000000       11.0450000000        1.5620000000
  O         3.8260000000       11.0450000000        1.5620000000
  O         7.6520000000       11.0450000000        1.5620000000
  O         0.0000000000        2.2090000000        3.1240000000
  O         3.8260000000        2.2090000000        3.1240000000
  O         7.6520000000        2.2090000000        3.1240000000
  O        11.4780000000        2.2090000000        3.1240000000
  O        -1.9130000000        5.5230000000        3.1240000000
  O         1.9130000000        5.5230000000        3.1240000000
  O         5.7390000000        5.5230000000        3.1240000000
  O         9.5650000000        5.5230000000        3.1240000000
  O        -3.8260000000        8.8360000000        3.1240000000
  O         0.0000000000        8.8360000000        3.1240000000
  O         3.8260000000        8.8360000000        3.1240000000
  O         7.6520000000        8.8360000000        3.1240000000
  O        -5.7390000000       12.1500000000        3.1240000000
  O        -1.9130000000       12.1500000000        3.1240000000
  O         1.9130000000       12.1500000000        3.1240000000
  O         5.7390000000       12.1500000000        3.1240000000
  O        -0.1677732717        0.1285666798        4.8498919809
  O         3.6724684381        0.0018238276        4.9001481854
  O         7.8312670791        0.0143425873        4.8113857616
  O        11.6519041263       -0.1052184960        4.8022505174
  O        -1.8845765010        3.4489599271        4.7682356498
  O         1.9319149856        3.4674664096        4.8187596762
  O         5.7930505016        3.5466297235        4.8286904228
  O         9.4222662214        3.3177322198        4.7112600383
  O        -3.6893614281        6.6624450223        4.9279258475
  O        -0.1685334014        6.5771986227        4.8098889476
  O         3.9409379463        6.9064113340        4.8375326190
  O         7.6229131378        6.7652192494        4.8305677409
  O        -5.6426069116       10.0485801430        4.8245774993
  O        -1.9105803775        9.9380961673        4.9060464660
  O         2.1219390409        9.9717427756        4.8067180910
  O         5.7444588034        9.9621538159        4.7158135788
  O         1.7954172583        1.2366343708        6.2347128092
  O         5.7589136552        1.0303555671        6.1056523983
  O         9.5867668791        1.1424605107        6.4677930238
  O        13.1070217244        1.3037489947        6.5047246422
  O        -0.0760870497        4.3896168990        6.3019720376
  O         3.9017063606        4.5907115026        6.2815811686
  O         7.8249918670        4.4346729837        6.3807889719
  O        11.4843621568        4.2193301801        6.4639907370
  O        -1.8260740743        7.7408644807        6.3199251689
  O         1.9582733031        7.8433201326        6.3986099956
  O         5.9686945192        7.9831048208        6.6694436375
  O         9.6543316684        7.8914402059        6.4242983418
  O        -3.7360862511       11.0026227352        6.3480127049
  O        -0.0599373638       10.9213816393        6.3807424724
  O         3.8501705288       11.1088549739        6.3572749123
  O         7.7185238386       11.0202983210        6.6103002136
  O         0.0274590151        2.1222035990        8.1007315963
  O         3.9684000624        2.3313869336        7.8373352358
  O         7.6673471256        2.2046128240        7.8185740206
  O        11.5254664477        2.2518033765        8.4938588054
  O        -1.8702459237        5.5524751766        8.1658520151
  O         1.9583436263        5.7691177560        7.9691464686
  O         6.0482847017        5.5865852538        8.1538089667
  O         9.6994483991        5.6890321777        7.9658788587
  O        -3.6418577988        8.8154768517        8.1840078412
  O         0.0065922257        8.6425840562        8.0288974523
  O         3.8427578241        8.8669664066        8.1909829231
  O         7.9747451454        8.7099770547        8.3745965831
  O        -5.6392496844       12.2505410928        8.0330046619
  O        -1.7352565642       12.1056848369        7.9609588614
  O         1.7947168450       12.0548538353        8.1403122925
  O         5.6928840980       12.1480455613        8.1027035322
 Ce         0.0000000000        2.2090000000        0.7810000000
 Ce         3.8260000000        2.2090000000        0.7810000000
 Ce         7.6520000000        2.2090000000        0.7810000000
 Ce        11.4780000000        2.2090000000        0.7810000000
 Ce        -1.9130000000        5.5230000000        0.7810000000
 Ce         1.9130000000        5.5230000000        0.7810000000
 Ce         5.7390000000        5.5230000000        0.7810000000
 Ce         9.5650000000        5.5230000000        0.7810000000
 Ce        -3.8260000000        8.8360000000        0.7810000000
 Ce         0.0000000000        8.8360000000        0.7810000000
 Ce         3.8260000000        8.8360000000        0.7810000000
 Ce         7.6520000000        8.8360000000        0.7810000000
 Ce        -5.7390000000       12.1500000000        0.7810000000
 Ce        -1.9130000000       12.1500000000        0.7810000000
 Ce         1.9130000000       12.1500000000        0.7810000000
 Ce         5.7390000000       12.1500000000        0.7810000000
 Ce         1.9094767356        1.1196753306        3.9670449000
 Ce         5.7567123451        1.0604718371        3.8320128181
 Ce         9.6422529556        1.0067473332        3.9476027159
 Ce        13.3584509381        1.2358677238        3.8760063398
 Ce        -0.0154652593        4.4241577293        3.9385006694
 Ce         3.7952172222        4.5013761163        4.0581705363
 Ce         7.7063347787        4.3554800737        3.8829750278
 Ce        11.4305846412        4.4877496511        4.0903087304
 Ce        -1.8808577557        7.6832662377        3.9464080465
 Ce         2.0467982435        7.7538559448        3.9770915658
 Ce         5.8419936008        7.7381809467        3.8268094458
 Ce         9.6206888117        7.7940590144        3.8974247928
 Ce        -3.8768441314       11.0105637935        3.9549891456
 Ce         0.1047291002       10.9710874985        4.0118874890
 Ce         3.9099146263       11.0067745414        3.9721207704
 Ce         7.5785875763       11.0627697692        3.9316390687
 Ce        -0.1434090515        0.0194790804        7.1510528018
 Ce         3.9955034926       -0.0450489037        7.1791306519
 Ce         7.6272532506        0.0009945208        7.2044280027
 Ce        11.3961413962       -0.1010554256        7.2666209857
 Ce        -1.9806985614        3.2804082489        7.3843054290
 Ce         1.8560283610        3.3633979558        7.1229986356
 Ce         5.8813301188        3.3361208371        6.8884634481
 Ce         9.5712659251        3.3500364398        7.1714638266
 Ce        -3.6859644811        6.7225795836        7.3931060561
 Ce        -0.0355713599        6.6338789612        7.1838989539
 Ce         4.0127225348        6.8838093802        7.4448413800
 Ce         7.9846927752        6.7252555347        7.1953487078
 Ce        -5.5611759545        9.9533582769        7.3702244434
 Ce        -1.9437229417        9.9300055259        7.2159417310
 Ce         1.9011757125        9.8962342440        7.2013346360
 Ce         5.8947925895       10.0626996590        7.6196023664
 Pt        -0.7992724096        4.6526287663       10.1879318010
 Pt         7.1494179250        2.1180231654        9.8399829157
 Pt         0.7617367427        2.2489455304        9.9998337420
 Pt        -4.6569049015       11.1898732101       11.0054672511
 Pt         8.7387399140        9.9245532684        9.9226644874
 Pt         2.4825580983        0.0902442901        9.8854772779
 Pt         9.9022341143        1.9158215595        9.5866656798
 Pt         1.8513725604        5.0727897488        9.9548037211
 Pt         5.7379230662        4.7183638436        9.9150878487
 Pt         4.8742716810        0.8382456520       10.6259285152
 Pt         3.6119463071        3.0505898605        9.7303862578
 Pt         1.1707024196        3.6760101781       12.0889275478
 Pt         2.6679114224        1.5029619136       11.9794133716
 Pt         5.6661073117        3.0286689441       11.8909273738
 Pt         3.8440212547        4.9702934836       11.6190356419
 Pt         3.4695159237        3.3528995112       13.5835192687
     160
 i =      612, time =      612.000, E =     -5324.9275348441
  O         0.0000000000        0.0000000000        0.0000000000
  O         3.8260000000        0.0000000000        0.0000000000
  O         7.6520000000        0.0000000000        0.0000000000
  O        11.4780000000        0.0000000000        0.0000000000
  O        -1.9130000000        3.3140000000        0.0000000000
  O         1.9130000000        3.3140000000        0.0000000000
  O         5.7390000000        3.3140000000        0.0000000000
  O         9.5650000000        3.3140000000        0.0000000000
  O        -3.8260000000        6.6270000000        0.0000000000
  O         0.0000000000        6.6270000000        0.0000000000
  O         3.8260000000        6.6270000000        0.0000000000
  O         7.6520000000        6.6270000000        0.0000000000
  O        -5.7390000000        9.9410000000        0.0000000000
  O        -1.9130000000        9.9410000000        0.0000000000
  O         1.9130000000        9.9410000000        0.0000000000
  O         5.7390000000        9.9410000000        0.0000000000
  O         1.9130000000        1.1050000000        1.5620000000
  O         5.7390000000        1.1050000000        1.5620000000
  O         9.5650000000        1.1050000000        1.5620000000
  O        13.3920000000        1.1050000000        1.5620000000
  O         0.0000000000        4.4180000000        1.5620000000
  O         3.8260000000        4.4180000000        1.5620000000
  O         7.6520000000        4.4180000000        1.5620000000
  O        11.4780000000        4.4180000000        1.5620000000
  O        -1.9130000000        7.7320000000        1.5620000000
  O         1.9130000000        7.7320000000        1.5620000000
  O         5.7390000000        7.7320000000        1.5620000000
  O         9.5650000000        7.7320000000        1.5620000000
  O        -3.8260000000       11.0450000000        1.5620000000
  O         0.0000000000       11.0450000000        1.5620000000
  O         3.8260000000       11.0450000000        1.5620000000
  O         7.6520000000       11.0450000000        1.5620000000
  O         0.0000000000        2.2090000000        3.1240000000
  O         3.8260000000        2.2090000000        3.1240000000
  O         7.6520000000        2.2090000000        3.1240000000
  O        11.4780000000        2.2090000000        3.1240000000
  O        -1.9130000000        5.5230000000        3.1240000000
  O         1.9130000000        5.5230000000        3.1240000000
  O         5.7390000000        5.5230000000        3.1240000000
  O         9.5650000000        5.5230000000        3.1240000000
  O        -3.8260000000        8.8360000000        3.1240000000
  O         0.0000000000        8.8360000000        3.1240000000
  O         3.8260000000        8.8360000000        3.1240000000
  O         7.6520000000        8.8360000000        3.1240000000
  O        -5.7390000000       12.1500000000        3.1240000000
  O        -1.9130000000       12.1500000000        3.1240000000
  O         1.9130000000       12.1500000000        3.1240000000
  O         5.7390000000       12.1500000000        3.1240000000
  O        -0.1670103840        0.1366268483        4.8529768740
  O         3.6756263779        0.0041042114        4.8957997521
  O         7.8269420149        0.0189131377        4.8107590379
  O        11.6479408454       -0.0974337785        4.8117886137
  O        -1.8848013441        3.4454542475        4.7674040083
  O         1.9287608739        3.4696762022        4.8195863504
  O         5.7929898227        3.5516114841        4.8249245842
  O         9.4212805905        3.3276285353        4.7114857678
  O        -3.6910535051        6.6654500139        4.9202492983
  O        -0.1658557754        6.5795185914        4.8149804116
  O         3.9512128114        6.8973717218        4.8409122943
  O         7.6210403824        6.7642993729        4.8213235045
  O        -5.6459743124       10.0503080481        4.8282154304
  O        -1.9193843012        9.9418732252        4.8984676155
  O         2.1277386102        9.9751361034        4.8046396345
  O         5.7522614668        9.9592827393        4.7147402520
  O         1.8090567093        1.2432322433        6.2402752388
  O         5.7552718383        1.0327598200        6.1137133451
  O         9.5848835108        1.1387002721        6.4737278857
  O        13.1088974830        1.3075454903        6.5042598644
  O        -0.0778131959        4.3858053261        6.3092848044
  O         3.8930889866        4.5882349827        6.2771127977
  O         7.8274378779        4.4306067045        6.3778418293
  O        11.4853525654        4.2323279249        6.4611768882
  O        -1.8273941674        7.7355669987        6.3210044888
  O         1.9565258333        7.8435024207        6.3950472040
  O         5.9701916466        7.9939350053        6.6721785741
  O         9.6506289790        7.8938780088        6.4212032217
  O        -3.7440561203       10.9990696012        6.3553729432
  O        -0.0569359906       10.9276883039        6.3772753117
  O         3.8449161575       11.1069503050        6.3534567792
  O         7.7195901517       11.0269985060        6.6126643182
  O         0.0258141664        2.1228810988        8.1045514285
  O         3.9726439104        2.3387054199        7.8321983988
  O         7.6736213581        2.2056916110        7.8179262397
  O        11.5288799023        2.2502162984        8.4967359461
  O        -1.8742411065        5.5535340325        8.1599220367
  O         1.9605575635        5.7868839843        7.9684964836
  O         6.0514192349        5.5835180612        8.1440397384
  O         9.6954059812        5.6898660843        7.9718163535
  O        -3.6362398955        8.8081182817        8.1870643535
  O         0.0056327875        8.6475641164        8.0320660181
  O         3.8475232426        8.8641773936        8.1915990846
  O         7.9721801976        8.7063871281        8.3690320894
  O        -5.6275590692       12.2503210426        8.0365866355
  O        -1.7265185839       12.1040946257        7.9651745569
  O         1.7886345283       12.0469453802        8.1418862454
  O         5.6835697691       12.1527616490        8.1031041702
 Ce         0.0000000000        2.2090000000        0.7810000000
 Ce         3.8260000000        2.2090000000        0.7810000000
 Ce         7.6520000000        2.2090000000        0.7810000000
 Ce        11.4780000000        2.2090000000        0.7810000000
 Ce        -1.9130000000        5.5230000000        0.7810000000
 Ce         1.9130000000        5.5230000000        0.7810000000
 Ce         5.7390000000        5.5230000000        0.7810000000
 Ce         9.5650000000        5.5230000000        0.7810000000
 Ce        -3.8260000000        8.8360000000        0.7810000000
 Ce         0.0000000000        8.8360000000        0.7810000000
 Ce         3.8260000000        8.8360000000        0.7810000000
 Ce         7.6520000000        8.8360000000        0.7810000000
 Ce        -5.7390000000       12.1500000000        0.7810000000
 Ce        -1.9130000000       12.1500000000        0.7810000000
 Ce         1.9130000000       12.1500000000        0.7810000000
 Ce         5.7390000000       12.1500000000        0.7810000000
 Ce         1.9085331229        1.1218882796        3.9672380917
 Ce         5.7549476075        1.0603242923        3.8305039654
 Ce         9.6433693446        1.0056047613        3.9443353032
 Ce        13.3615830010        1.2332932310        3.8757791254
 Ce        -0.0133449542        4.4219544270        3.9380462476
 Ce         3.7968603768        4.5010440224        4.0598747817
 Ce         7.7067283119        4.3564872055        3.8849302604
 Ce        11.4341359413        4.4860787928        4.0911961415
 Ce        -1.8809935688        7.6855591593        3.9438817587
 Ce         2.0462639669        7.7533391411        3.9758705509
 Ce         5.8428647440        7.7380850888        3.8271424793
 Ce         9.6223408522        7.7903696557        3.8944226352
 Ce        -3.8763597987       11.0110303906        3.9527994040
 Ce         0.1099272046       10.9673717686        4.0147262847
 Ce         3.9105460476       11.0070378855        3.9689619439
 Ce         7.5780410583       11.0605576322        3.9322296851
 Ce        -0.1460946080        0.0211865853        7.1504103982
 Ce         3.9965153406       -0.0454394170        7.1747065588
 Ce         7.6241766840        0.0026909325        7.2031353723
 Ce        11.3940656249       -0.1020395147        7.2655078454
 Ce        -1.9834157007        3.2786264522        7.3845583921
 Ce         1.8559843075        3.3596130420        7.1226565049
 Ce         5.8828968243        3.3391738514        6.8838556624
 Ce         9.5710597079        3.3501615363        7.1729996571
 Ce        -3.6845119252        6.7218940637        7.3958404001
 Ce        -0.0339822043        6.6375413809        7.1871877000
 Ce         4.0112155297        6.8862622396        7.4444670638
 Ce         7.9861594740        6.7249705452        7.1984057321
 Ce        -5.5608986890        9.9540173433        7.3737474681
 Ce        -1.9460661704        9.9285211226        7.2165289739
 Ce         1.9018893817        9.8951327426        7.1999916509
 Ce         5.8955053333       10.0612693108        7.6169110887
 Pt        -0.7977585184        4.6521530263       10.1906964909
 Pt         7.1501835868        2.1186768181        9.8427048835
 Pt         0.7613235944        2.2481908973        9.9985570599
 Pt        -4.6568942145       11.1911192868       11.0092070017
 Pt         8.7393190981        9.9255831719        9.9217909268
 Pt         2.4817411684        0.0913225971        9.8871876912
 Pt         9.9026559085        1.9153316624        9.5874337865
 Pt         1.8500537066        5.0728427387        9.9554803805
 Pt         5.7377244070        4.7181298863        9.9167189366
 Pt         4.8740581971        0.8416192785       10.6239484745
 Pt         3.6123840952        3.0485855839        9.7305338453
 Pt         1.1713758160        3.6766198936       12.0866877575
 Pt         2.6673903276        1.5020462465       11.9807387698
 Pt         5.6649177359        3.0304316451       11.8901813640
 Pt         3.8419648720        4.9685676443       11.6180224291
 Pt         3.4701428595        3.3520210543       13.5840791834
     160
 i =      613, time =      613.000, E =     -5324.9274985931
  O         0.0000000000        0.0000000000        0.0000000000
  O         3.8260000000        0.0000000000        0.0000000000
  O         7.6520000000        0.0000000000        0.0000000000
  O        11.4780000000        0.0000000000        0.0000000000
  O        -1.9130000000        3.3140000000        0.0000000000
  O         1.9130000000        3.3140000000        0.0000000000
  O         5.7390000000        3.3140000000        0.0000000000
  O         9.5650000000        3.3140000000        0.0000000000
  O        -3.8260000000        6.6270000000        0.0000000000
  O         0.0000000000        6.6270000000        0.0000000000
  O         3.8260000000        6.6270000000        0.0000000000
  O         7.6520000000        6.6270000000        0.0000000000
  O        -5.7390000000        9.9410000000        0.0000000000
  O        -1.9130000000        9.9410000000        0.0000000000
  O         1.9130000000        9.9410000000        0.0000000000
  O         5.7390000000        9.9410000000        0.0000000000
  O         1.9130000000        1.1050000000        1.5620000000
  O         5.7390000000        1.1050000000        1.5620000000
  O         9.5650000000        1.1050000000        1.5620000000
  O        13.3920000000        1.1050000000        1.5620000000
  O         0.0000000000        4.4180000000        1.5620000000
  O         3.8260000000        4.4180000000        1.5620000000
  O         7.6520000000        4.4180000000        1.5620000000
  O        11.4780000000        4.4180000000        1.5620000000
  O        -1.9130000000        7.7320000000        1.5620000000
  O         1.9130000000        7.7320000000        1.5620000000
  O         5.7390000000        7.7320000000        1.5620000000
  O         9.5650000000        7.7320000000        1.5620000000
  O        -3.8260000000       11.0450000000        1.5620000000
  O         0.0000000000       11.0450000000        1.5620000000
  O         3.8260000000       11.0450000000        1.5620000000
  O         7.6520000000       11.0450000000        1.5620000000
  O         0.0000000000        2.2090000000        3.1240000000
  O         3.8260000000        2.2090000000        3.1240000000
  O         7.6520000000        2.2090000000        3.1240000000
  O        11.4780000000        2.2090000000        3.1240000000
  O        -1.9130000000        5.5230000000        3.1240000000
  O         1.9130000000        5.5230000000        3.1240000000
  O         5.7390000000        5.5230000000        3.1240000000
  O         9.5650000000        5.5230000000        3.1240000000
  O        -3.8260000000        8.8360000000        3.1240000000
  O         0.0000000000        8.8360000000        3.1240000000
  O         3.8260000000        8.8360000000        3.1240000000
  O         7.6520000000        8.8360000000        3.1240000000
  O        -5.7390000000       12.1500000000        3.1240000000
  O        -1.9130000000       12.1500000000        3.1240000000
  O         1.9130000000       12.1500000000        3.1240000000
  O         5.7390000000       12.1500000000        3.1240000000
  O        -0.1661044437        0.1441015823        4.8559921928
  O         3.6792551856        0.0061709634        4.8909306519
  O         7.8222403612        0.0231239481        4.8100280937
  O        11.6432940207       -0.0889984726        4.8211532104
  O        -1.8855336266        3.4414301894        4.7663010420
  O         1.9256188461        3.4715308294        4.8202284644
  O         5.7929701060        3.5557983394        4.8201757917
  O         9.4213876821        3.3372104572        4.7118399020
  O        -3.6935580094        6.6680076743        4.9122599981
  O        -0.1622063284        6.5818759922        4.8199664290
  O         3.9614130108        6.8877820222        4.8442118838
  O         7.6197865828        6.7630655603        4.8119364838
  O        -5.6499701386       10.0516107427        4.8314244837
  O        -1.9281215627        9.9455656228        4.8900909615
  O         2.1324294433        9.9782863044        4.8025478203
  O         5.7605292359        9.9564489009        4.7135497993
  O         1.8226969594        1.2498820608        6.2462299055
  O         5.7517915714        1.0355352531        6.1221950823
  O         9.5835775470        1.1346988500        6.4790371807
  O        13.1113481118        1.3108844976        6.5038506112
  O        -0.0791819332        4.3818301711        6.3174015517
  O         3.8844051947        4.5856520339        6.2730507204
  O         7.8294870386        4.4269049408        6.3746981475
  O        11.4865181168        4.2457699863        6.4580452772
  O        -1.8292703720        7.7302714505        6.3226737936
  O         1.9548549214        7.8434706485        6.3911148688
  O         5.9714098819        8.0045882572        6.6751628919
  O         9.6474144050        7.8961373847        6.4177998525
  O        -3.7520896190       10.9957829557        6.3633687098
  O        -0.0532320368       10.9341287591        6.3734627305
  O         3.8396958142       11.1048280764        6.3505221630
  O         7.7203051651       11.0338527032        6.6146781993
  O         0.0238492290        2.1234918123        8.1080645724
  O         3.9765956797        2.3457030944        7.8268485935
  O         7.6791817869        2.2067380063        7.8172104883
  O        11.5326945983        2.2486632435        8.4992705840
  O        -1.8784842580        5.5545954397        8.1542736230
  O         1.9629077009        5.8042048729        7.9683310992
  O         6.0543788732        5.5806764568        8.1339635167
  O         9.6917127748        5.6905228730        7.9779251573
  O        -3.6307344650        8.8005820680        8.1898174037
  O         0.0046920306        8.6529750205        8.0351784131
  O         3.8523365716        8.8617370265        8.1922936108
  O         7.9692916657        8.7031693113        8.3638315939
  O        -5.6156459811       12.2505858154        8.0398934971
  O        -1.7184699375       12.1027925408        7.9693495629
  O         1.7828192008       12.0389168175        8.1428248641
  O         5.6743323548       12.1578688506        8.1035070929
 Ce         0.0000000000        2.2090000000        0.7810000000
 Ce         3.8260000000        2.2090000000        0.7810000000
 Ce         7.6520000000        2.2090000000        0.7810000000
 Ce        11.4780000000        2.2090000000        0.7810000000
 Ce        -1.9130000000        5.5230000000        0.7810000000
 Ce         1.9130000000        5.5230000000        0.7810000000
 Ce         5.7390000000        5.5230000000        0.7810000000
 Ce         9.5650000000        5.5230000000        0.7810000000
 Ce        -3.8260000000        8.8360000000        0.7810000000
 Ce         0.0000000000        8.8360000000        0.7810000000
 Ce         3.8260000000        8.8360000000        0.7810000000
 Ce         7.6520000000        8.8360000000        0.7810000000
 Ce        -5.7390000000       12.1500000000        0.7810000000
 Ce        -1.9130000000       12.1500000000        0.7810000000
 Ce         1.9130000000       12.1500000000        0.7810000000
 Ce         5.7390000000       12.1500000000        0.7810000000
 Ce         1.9075884941        1.1241009482        3.9674629553
 Ce         5.7531713246        1.0601542927        3.8290404804
 Ce         9.6444598752        1.0044965828        3.9411046377
 Ce        13.3647189738        1.2306611193        3.8756282500
 Ce        -0.0112472612        4.4197908577        3.9376147603
 Ce         3.7985255306        4.5007432218        4.0615304663
 Ce         7.7070910411        4.3575919502        3.8868954547
 Ce        11.4377642199        4.4843797429        4.0920276970
 Ce        -1.8811173402        7.6878905045        3.9413930658
 Ce         2.0456968303        7.7528201573        3.9746661267
 Ce         5.8436596040        7.7379943877        3.8276010111
 Ce         9.6239614078        7.7866762843        3.8914958695
 Ce        -3.8758208035       11.0115399519        3.9506472145
 Ce         0.1150501823       10.9636873312        4.0175656864
 Ce         3.9111959831       11.0073404203        3.9658255611
 Ce         7.5775167616       11.0583541232        3.9328619066
 Ce        -0.1486736297        0.0228880323        7.1497661967
 Ce         3.9974324448       -0.0458078820        7.1702802375
 Ce         7.6212156962        0.0043168001        7.2018353680
 Ce        11.3919457117       -0.1029913728        7.2643835094
 Ce        -1.9861271269        3.2768708493        7.3848053278
 Ce         1.8559894616        3.3558228982        7.1222866203
 Ce         5.8843918978        3.3422830619        6.8794354036
 Ce         9.5708921997        3.3502424748        7.1745837486
 Ce        -3.6830763853        6.7211973243        7.3984946721
 Ce        -0.0323602657        6.6412506807        7.1904582108
 Ce         4.0097150778        6.8886494811        7.4439941883
 Ce         7.9874639521        6.7246978305        7.2014588897
 Ce        -5.5606689477        9.9547332608        7.3772589040
 Ce        -1.9482839630        9.9270065162        7.2170771759
 Ce         1.9025881521        9.8940727304        7.1986641348
 Ce         5.8962099128       10.0597354609        7.6141230480
 Pt        -0.7961787062        4.6516519815       10.1934482092
 Pt         7.1509407697        2.1193566934        9.8454605599
 Pt         0.7609349751        2.2474352572        9.9972549583
 Pt        -4.6569099179       11.1923557448       11.0129442984
 Pt         8.7399201327        9.9266092048        9.9209091075
 Pt         2.4808766215        0.0923974840        9.8888666078
 Pt         9.9030118711        1.9148436984        9.5882178285
 Pt         1.8486918590        5.0728701532        9.9561335874
 Pt         5.7375296619        4.7178608393        9.9183449307
 Pt         4.8738616036        0.8450201202       10.6219692299
 Pt         3.6128358230        3.0465760546        9.7306995106
 Pt         1.1720472618        3.6772953964       12.0844372829
 Pt         2.6668934348        1.5011372214       11.9820316512
 Pt         5.6637328118        3.0321706013       11.8894260937
 Pt         3.8398914458        4.9668230456       11.6170046246
 Pt         3.4707612244        3.3511445523       13.5846322605
     160
 i =      614, time =      614.000, E =     -5324.9278892238
  O         0.0000000000        0.0000000000        0.0000000000
  O         3.8260000000        0.0000000000        0.0000000000
  O         7.6520000000        0.0000000000        0.0000000000
  O        11.4780000000        0.0000000000        0.0000000000
  O        -1.9130000000        3.3140000000        0.0000000000
  O         1.9130000000        3.3140000000        0.0000000000
  O         5.7390000000        3.3140000000        0.0000000000
  O         9.5650000000        3.3140000000        0.0000000000
  O        -3.8260000000        6.6270000000        0.0000000000
  O         0.0000000000        6.6270000000        0.0000000000
  O         3.8260000000        6.6270000000        0.0000000000
  O         7.6520000000        6.6270000000        0.0000000000
  O        -5.7390000000        9.9410000000        0.0000000000
  O        -1.9130000000        9.9410000000        0.0000000000
  O         1.9130000000        9.9410000000        0.0000000000
  O         5.7390000000        9.9410000000        0.0000000000
  O         1.9130000000        1.1050000000        1.5620000000
  O         5.7390000000        1.1050000000        1.5620000000
  O         9.5650000000        1.1050000000        1.5620000000
  O        13.3920000000        1.1050000000        1.5620000000
  O         0.0000000000        4.4180000000        1.5620000000
  O         3.8260000000        4.4180000000        1.5620000000
  O         7.6520000000        4.4180000000        1.5620000000
  O        11.4780000000        4.4180000000        1.5620000000
  O        -1.9130000000        7.7320000000        1.5620000000
  O         1.9130000000        7.7320000000        1.5620000000
  O         5.7390000000        7.7320000000        1.5620000000
  O         9.5650000000        7.7320000000        1.5620000000
  O        -3.8260000000       11.0450000000        1.5620000000
  O         0.0000000000       11.0450000000        1.5620000000
  O         3.8260000000       11.0450000000        1.5620000000
  O         7.6520000000       11.0450000000        1.5620000000
  O         0.0000000000        2.2090000000        3.1240000000
  O         3.8260000000        2.2090000000        3.1240000000
  O         7.6520000000        2.2090000000        3.1240000000
  O        11.4780000000        2.2090000000        3.1240000000
  O        -1.9130000000        5.5230000000        3.1240000000
  O         1.9130000000        5.5230000000        3.1240000000
  O         5.7390000000        5.5230000000        3.1240000000
  O         9.5650000000        5.5230000000        3.1240000000
  O        -3.8260000000        8.8360000000        3.1240000000
  O         0.0000000000        8.8360000000        3.1240000000
  O         3.8260000000        8.8360000000        3.1240000000
  O         7.6520000000        8.8360000000        3.1240000000
  O        -5.7390000000       12.1500000000        3.1240000000
  O        -1.9130000000       12.1500000000        3.1240000000
  O         1.9130000000       12.1500000000        3.1240000000
  O         5.7390000000       12.1500000000        3.1240000000
  O        -0.1650468607        0.1509898482        4.8589397156
  O         3.6833406412        0.0080023341        4.8855772843
  O         7.8171770485        0.0269774396        4.8091842410
  O        11.6379932096       -0.0799583593        4.8302439678
  O        -1.8867557146        3.4369047094        4.7649212062
  O         1.9224801007        3.4730119341        4.8206595330
  O         5.7929862055        3.5591588418        4.8145055113
  O         9.4226187146        3.3464145941        4.7123347633
  O        -3.6968654794        6.6701351400        4.9039630735
  O        -0.1575995681        6.5842668903        4.8247897867
  O         3.9714861567        6.8776800705        4.8474246979
  O         7.6191531855        6.7615086437        4.8025092321
  O        -5.6545748718       10.0525101735        4.8341669410
  O        -1.9367463594        9.9491487534        4.8810336480
  O         2.1359879749        9.9811712395        4.8004369503
  O         5.7692017434        9.9536985453        4.7122401617
  O         1.8363227331        1.2565402040        6.2525335450
  O         5.7484866974        1.0386741674        6.1310928103
  O         9.5828469418        1.1304711991        6.4837152757
  O        13.1143648593        1.3137486543        6.5034923703
  O        -0.0801948305        4.3776957125        6.3262532557
  O         3.8756680875        4.5829662972        6.2694020333
  O         7.8311359746        4.4235888888        6.3713857361
  O        11.4878374163        4.2596040584        6.4546446381
  O        -1.8317025996        7.7250366464        6.3249195906
  O         1.9532690622        7.8432475109        6.3868074321
  O         5.9723624025        8.0150559732        6.6783635845
  O         9.6447034325        7.8981969095        6.4140941926
  O        -3.7601379294       10.9927752733        6.3719699307
  O        -0.0488638941       10.9406402144        6.3693036286
  O         3.8345348390       11.1024899543        6.3484541710
  O         7.7206605722       11.0408421376        6.6163503406
  O         0.0215615237        2.1240259056        8.1112583205
  O         3.9802428177        2.3523641376        7.8213062032
  O         7.6840017411        2.2077642803        7.8164469870
  O        11.5368943625        2.2471445816        8.5014711794
  O        -1.8829649393        5.5556685298        8.1489572661
  O         1.9653692557        5.8210738025        7.9686960243
  O         6.0571312013        5.5780488429        8.1236392239
  O         9.6883841277        5.6910068722        7.9842318194
  O        -3.6253606883        8.7928856677        8.1922832201
  O         0.0037613645        8.6588055741        8.0382211241
  O         3.8571759602        8.8596625521        8.1930714409
  O         7.9660832611        8.7003547356        8.3590406847
  O        -5.6035210690       12.2513473446        8.0429356177
  O        -1.7111598380       12.1017595610        7.9734914839
  O         1.7772875921       12.0307685109        8.1431263979
  O         5.6652112522       12.1633003179        8.1038954980
 Ce         0.0000000000        2.2090000000        0.7810000000
 Ce         3.8260000000        2.2090000000        0.7810000000
 Ce         7.6520000000        2.2090000000        0.7810000000
 Ce        11.4780000000        2.2090000000        0.7810000000
 Ce        -1.9130000000        5.5230000000        0.7810000000
 Ce         1.9130000000        5.5230000000        0.7810000000
 Ce         5.7390000000        5.5230000000        0.7810000000
 Ce         9.5650000000        5.5230000000        0.7810000000
 Ce        -3.8260000000        8.8360000000        0.7810000000
 Ce         0.0000000000        8.8360000000        0.7810000000
 Ce         3.8260000000        8.8360000000        0.7810000000
 Ce         7.6520000000        8.8360000000        0.7810000000
 Ce        -5.7390000000       12.1500000000        0.7810000000
 Ce        -1.9130000000       12.1500000000        0.7810000000
 Ce         1.9130000000       12.1500000000        0.7810000000
 Ce         5.7390000000       12.1500000000        0.7810000000
 Ce         1.9066455031        1.1263124103        3.9677196268
 Ce         5.7513858547        1.0599606687        3.8276238124
 Ce         9.6455219415        1.0034262063        3.9379142485
 Ce        13.3678540740        1.2279757246        3.8755547213
 Ce        -0.0091748238        4.4176703790        3.9372098596
 Ce         3.8002117300        4.5004761426        4.0631354992
 Ce         7.7074235519        4.3587972272        3.8888661369
 Ce        11.4414657332        4.4826554545        4.0928027312
 Ce        -1.8812304394        7.6902559890        3.9389444139
 Ce         2.0450998441        7.7522953355        3.9734798975
 Ce         5.8443801660        7.7379059686        3.8281831057
 Ce         9.6255487833        7.7829798064        3.8886471527
 Ce        -3.8752308212       11.0120905045        3.9485341030
 Ce         0.1200932981       10.9600400913        4.0204041455
 Ce         3.9118667113       11.0076833091        3.9627152565
 Ce         7.5770201295       11.0561571472        3.9335357070
 Ce        -0.1511478862        0.0245843585        7.1491242543
 Ce         3.9982535993       -0.0461518795        7.1658557757
 Ce         7.6183735459        0.0058712699        7.2005291240
 Ce        11.3897814907       -0.1039109798        7.2632493748
 Ce        -1.9888308286        3.2751449746        7.3850467946
 Ce         1.8560443633        3.3520312841        7.1218903589
 Ce         5.8858151186        3.3454467031        6.8752071907
 Ce         9.5707659684        3.3502803587        7.1762141434
 Ce        -3.6816595976        6.7204866055        7.4010654172
 Ce        -0.0307077262        6.6450017858        7.1937093043
 Ce         4.0082233051        6.8909674041        7.4434217137
 Ce         7.9886062164        6.7244383599        7.2045045014
 Ce        -5.5604891697        9.9555042431        7.3807570790
 Ce        -1.9503732843        9.9254642286        7.2175849655
 Ce         1.9032708838        9.8930599655        7.1973550238
 Ce         5.8969065489       10.0581029847        7.6112399004
 Pt        -0.7945335705        4.6511254657       10.1961879021
 Pt         7.1516910504        2.1200633442        9.8482475879
 Pt         0.7605710072        2.2466795460        9.9959291216
 Pt        -4.6569528752       11.1935827795       11.0166786785
 Pt         8.7405427217        9.9276303341        9.9200186626
 Pt         2.4799658828        0.0934691400        9.8905137147
 Pt         9.9033027430        1.9143582372        9.5890173905
 Pt         1.8472878512        5.0728732349        9.9567598447
 Pt         5.7373394679        4.7175593905        9.9199601596
 Pt         4.8736828528        0.8484469789       10.6199910753
 Pt         3.6133002173        3.0445619970        9.7308805137
 Pt         1.1727168004        3.6780360727       12.0821758119
 Pt         2.6664196753        1.5002350076       11.9832934726
 Pt         5.6625532527        3.0338846277       11.8886627576
 Pt         3.8378017654        4.9650599694       11.6159829572
 Pt         3.4713709355        3.3502704771       13.5851784995
     160
 i =      615, time =      615.000, E =     -5324.9285287080
  O         0.0000000000        0.0000000000        0.0000000000
  O         3.8260000000        0.0000000000        0.0000000000
  O         7.6520000000        0.0000000000        0.0000000000
  O        11.4780000000        0.0000000000        0.0000000000
  O        -1.9130000000        3.3140000000        0.0000000000
  O         1.9130000000        3.3140000000        0.0000000000
  O         5.7390000000        3.3140000000        0.0000000000
  O         9.5650000000        3.3140000000        0.0000000000
  O        -3.8260000000        6.6270000000        0.0000000000
  O         0.0000000000        6.6270000000        0.0000000000
  O         3.8260000000        6.6270000000        0.0000000000
  O         7.6520000000        6.6270000000        0.0000000000
  O        -5.7390000000        9.9410000000        0.0000000000
  O        -1.9130000000        9.9410000000        0.0000000000
  O         1.9130000000        9.9410000000        0.0000000000
  O         5.7390000000        9.9410000000        0.0000000000
  O         1.9130000000        1.1050000000        1.5620000000
  O         5.7390000000        1.1050000000        1.5620000000
  O         9.5650000000        1.1050000000        1.5620000000
  O        13.3920000000        1.1050000000        1.5620000000
  O         0.0000000000        4.4180000000        1.5620000000
  O         3.8260000000        4.4180000000        1.5620000000
  O         7.6520000000        4.4180000000        1.5620000000
  O        11.4780000000        4.4180000000        1.5620000000
  O        -1.9130000000        7.7320000000        1.5620000000
  O         1.9130000000        7.7320000000        1.5620000000
  O         5.7390000000        7.7320000000        1.5620000000
  O         9.5650000000        7.7320000000        1.5620000000
  O        -3.8260000000       11.0450000000        1.5620000000
  O         0.0000000000       11.0450000000        1.5620000000
  O         3.8260000000       11.0450000000        1.5620000000
  O         7.6520000000       11.0450000000        1.5620000000
  O         0.0000000000        2.2090000000        3.1240000000
  O         3.8260000000        2.2090000000        3.1240000000
  O         7.6520000000        2.2090000000        3.1240000000
  O        11.4780000000        2.2090000000        3.1240000000
  O        -1.9130000000        5.5230000000        3.1240000000
  O         1.9130000000        5.5230000000        3.1240000000
  O         5.7390000000        5.5230000000        3.1240000000
  O         9.5650000000        5.5230000000        3.1240000000
  O        -3.8260000000        8.8360000000        3.1240000000
  O         0.0000000000        8.8360000000        3.1240000000
  O         3.8260000000        8.8360000000        3.1240000000
  O         7.6520000000        8.8360000000        3.1240000000
  O        -5.7390000000       12.1500000000        3.1240000000
  O        -1.9130000000       12.1500000000        3.1240000000
  O         1.9130000000       12.1500000000        3.1240000000
  O         5.7390000000       12.1500000000        3.1240000000
  O        -0.1638310108        0.1573007919        4.8618186040
  O         3.6878615159        0.0095824555        4.8797790145
  O         7.8117740686        0.0304769247        4.8082202769
  O        11.6320767917       -0.0703705320        4.8389653121
  O        -1.8884434280        3.4319021459        4.7632616293
  O         1.9193336145        3.4741035115        4.8208558190
  O         5.7930297080        3.5616656529        4.8079947841
  O         9.4249912501        3.3551988998        4.7129808590
  O        -3.7009578144        6.6718543564        4.8953961269
  O        -0.1520572317        6.5866933919        4.8293970961
  O         3.9813564750        6.8671415621        4.8505480917
  O         7.6191380423        6.7596227842        4.7931167570
  O        -5.6597581402       10.0530319501        4.8364128691
  O        -1.9452330121        9.9526055005        4.8714053383
  O         2.1384052763        9.9837729303        4.7982978240
  O         5.7782274600        9.9510730203        4.7108093019
  O         1.8499024131        1.2631604412        6.2591534997
  O         5.7453650888        1.0421649750        6.1403906508
  O         9.5826825435        1.1260339044        6.4877689328
  O        13.1179323794        1.3161257830        6.5031800973
  O        -0.0808586967        4.3734096940        6.3357938180
  O         3.8669040069        4.5801843303        6.2661673015
  O         7.8323862122        4.4206778083        6.3679344241
  O        11.4892792893        4.2738001256        6.4510316011
  O        -1.8346850864        7.7199178975        6.3277246040
  O         1.9517741750        7.8428570157        6.3821318823
  O         5.9730674075        8.0253307634        6.6817400154
  O         9.6425060468        7.9000352451        6.4100959065
  O        -3.7681573990       10.9900503096        6.3811089938
  O        -0.0438727277       10.9471711921        6.3648005286
  O         3.8294518113       11.0999379183        6.3472261142
  O         7.7206524408       11.0479316196        6.6176921782
  O         0.0189502558        2.1244777299        8.1141278822
  O         3.9835827762        2.3586925586        7.8155974699
  O         7.6880670975        2.2087826722        7.8156547844
  O        11.5414598039        2.2456609012        8.5033454711
  O        -1.8876743142        5.5567619838        8.1440152411
  O         1.9679140843        5.8374588065        7.9696341810
  O         6.0596448841        5.5756238185        8.1130920202
  O         9.6854368863        5.6913272917        7.9907547006
  O        -3.6201329498        8.7850455443        8.1944807283
  O         0.0028293857        8.6650409771        8.0411827608
  O         3.8620217030        8.8579681731        8.1939379606
  O         7.9625640612        8.6979696346        8.3546879975
  O        -5.5912091910       12.2526158354        8.0457246268
  O        -1.7046181014       12.1009713826        7.9776077281
  O         1.7720661883       12.0225226826        8.1427960181
  O         5.6562496296       12.1689936223        8.1042545193
 Ce         0.0000000000        2.2090000000        0.7810000000
 Ce         3.8260000000        2.2090000000        0.7810000000
 Ce         7.6520000000        2.2090000000        0.7810000000
 Ce        11.4780000000        2.2090000000        0.7810000000
 Ce        -1.9130000000        5.5230000000        0.7810000000
 Ce         1.9130000000        5.5230000000        0.7810000000
 Ce         5.7390000000        5.5230000000        0.7810000000
 Ce         9.5650000000        5.5230000000        0.7810000000
 Ce        -3.8260000000        8.8360000000        0.7810000000
 Ce         0.0000000000        8.8360000000        0.7810000000
 Ce         3.8260000000        8.8360000000        0.7810000000
 Ce         7.6520000000        8.8360000000        0.7810000000
 Ce        -5.7390000000       12.1500000000        0.7810000000
 Ce        -1.9130000000       12.1500000000        0.7810000000
 Ce         1.9130000000       12.1500000000        0.7810000000
 Ce         5.7390000000       12.1500000000        0.7810000000
 Ce         1.9057068718        1.1285215291        3.9680082479
 Ce         5.7495936655        1.0597424003        3.8262553497
 Ce         9.6465529346        1.0023968742        3.9347675386
 Ce        13.3709834159        1.2252412135        3.8755594797
 Ce        -0.0071302243        4.4155958893        3.9368351416
 Ce         3.8019180149        4.5002448498        4.0646879848
 Ce         7.7077272151        4.3601052056        3.8908378941
 Ce        11.4452364665        4.4809086134        4.0935204837
 Ce        -1.8813343613        7.6926510593        3.9365380082
 Ce         2.0444756261        7.7517609921        3.9723132720
 Ce         5.8450287465        7.7378168232        3.8288866347
 Ce         9.6271012827        7.7792810380        3.8858787765
 Ce        -3.8745940221       11.0126799517        3.9464612207
 Ce         0.1250519644       10.9564359665        4.0232398198
 Ce         3.9125599136       11.0080673856        3.9596350280
 Ce         7.5765567324       11.0539645783        3.9342510337
 Ce        -0.1535197608        0.0262763232        7.1484885563
 Ce         3.9989777302       -0.0464686744        7.1614372944
 Ce         7.6156532225        0.0073539407        7.1992176117
 Ce        11.3875732538       -0.1047983058        7.2621069670
 Ce        -1.9915248112        3.2734515620        7.3852830444
 Ce         1.8561496011        3.3482417043        7.1214694154
 Ce         5.8871659739        3.3486630775        6.8711740296
 Ce         9.5706834825        3.3502757575        7.1778887460
 Ce        -3.6802633918        6.7197588918        7.4035488522
 Ce        -0.0290262112        6.6487896043        7.1969402944
 Ce         4.0067426315        6.8932122905        7.4427490693
 Ce         7.9895867110        6.7241932660        7.2075388592
 Ce        -5.5603627265        9.9563283952        7.3842403643
 Ce        -1.9523311114        9.9238974614        7.2180509127
 Ce         1.9039368290        9.8920999001        7.1960670464
 Ce         5.8975953123       10.0563774733        7.6082638696
 Pt        -0.7928233938        4.6505734258       10.1989167333
 Pt         7.1524356484        2.1207977326        9.8510639743
 Pt         0.7602321216        2.2459243069        9.9945807117
 Pt        -4.6570241406       11.1948008689       11.0204099190
 Pt         8.7411866171        9.9286455208        9.9191191752
 Pt         2.4790104538        0.0945376420        9.8921288968
 Pt         9.9035290564        1.9138760745        9.5898316488
 Pt         1.8458426070        5.0728530289        9.9573559995
 Pt         5.7371551509        4.7172268990        9.9215590380
 Pt         4.8735226313        0.8518988858       10.6180141563
 Pt         3.6137763017        3.0425435906        9.7310736129
 Pt         1.1733837809        3.6788418003       12.0799037818
 Pt         2.6659691764        1.4993391577       11.9845256018
 Pt         5.6613796503        3.0355730178       11.8878918929
 Pt         3.8356961240        4.9632797293       11.6149587056
 Pt         3.4719717520        3.3493989334       13.5857176853
     160
 i =      616, time =      616.000, E =     -5324.9294076129
  O         0.0000000000        0.0000000000        0.0000000000
  O         3.8260000000        0.0000000000        0.0000000000
  O         7.6520000000        0.0000000000        0.0000000000
  O        11.4780000000        0.0000000000        0.0000000000
  O        -1.9130000000        3.3140000000        0.0000000000
  O         1.9130000000        3.3140000000        0.0000000000
  O         5.7390000000        3.3140000000        0.0000000000
  O         9.5650000000        3.3140000000        0.0000000000
  O        -3.8260000000        6.6270000000        0.0000000000
  O         0.0000000000        6.6270000000        0.0000000000
  O         3.8260000000        6.6270000000        0.0000000000
  O         7.6520000000        6.6270000000        0.0000000000
  O        -5.7390000000        9.9410000000        0.0000000000
  O        -1.9130000000        9.9410000000        0.0000000000
  O         1.9130000000        9.9410000000        0.0000000000
  O         5.7390000000        9.9410000000        0.0000000000
  O         1.9130000000        1.1050000000        1.5620000000
  O         5.7390000000        1.1050000000        1.5620000000
  O         9.5650000000        1.1050000000        1.5620000000
  O        13.3920000000        1.1050000000        1.5620000000
  O         0.0000000000        4.4180000000        1.5620000000
  O         3.8260000000        4.4180000000        1.5620000000
  O         7.6520000000        4.4180000000        1.5620000000
  O        11.4780000000        4.4180000000        1.5620000000
  O        -1.9130000000        7.7320000000        1.5620000000
  O         1.9130000000        7.7320000000        1.5620000000
  O         5.7390000000        7.7320000000        1.5620000000
  O         9.5650000000        7.7320000000        1.5620000000
  O        -3.8260000000       11.0450000000        1.5620000000
  O         0.0000000000       11.0450000000        1.5620000000
  O         3.8260000000       11.0450000000        1.5620000000
  O         7.6520000000       11.0450000000        1.5620000000
  O         0.0000000000        2.2090000000        3.1240000000
  O         3.8260000000        2.2090000000        3.1240000000
  O         7.6520000000        2.2090000000        3.1240000000
  O        11.4780000000        2.2090000000        3.1240000000
  O        -1.9130000000        5.5230000000        3.1240000000
  O         1.9130000000        5.5230000000        3.1240000000
  O         5.7390000000        5.5230000000        3.1240000000
  O         9.5650000000        5.5230000000        3.1240000000
  O        -3.8260000000        8.8360000000        3.1240000000
  O         0.0000000000        8.8360000000        3.1240000000
  O         3.8260000000        8.8360000000        3.1240000000
  O         7.6520000000        8.8360000000        3.1240000000
  O        -5.7390000000       12.1500000000        3.1240000000
  O        -1.9130000000       12.1500000000        3.1240000000
  O         1.9130000000       12.1500000000        3.1240000000
  O         5.7390000000       12.1500000000        3.1240000000
  O        -0.1624497928        0.1630428878        4.8646266753
  O         3.6927977413        0.0108995729        4.8735653456
  O         7.8060542242        0.0336232219        4.8071319648
  O        11.6255759199       -0.0603043838        4.8472509483
  O        -1.8905682041        3.4264484195        4.7613217558
  O         1.9161662282        3.4747898005        4.8207954109
  O         5.7930896674        3.5632922700        4.8007200479
  O         9.4285233334        3.3635255264        4.7137900599
  O        -3.7058130425        6.6731892374        4.8866156917
  O        -0.1455988571        6.5891598152        4.8337434321
  O         3.9909567098        6.8562505048        4.8535831936
  O         7.6197388293        6.7574028989        4.7837918864
  O        -5.6654829478       10.0532017583        4.8381380751
  O        -1.9535662199        9.9559202972        4.8612814162
  O         2.1396771678        9.9860732197        4.7961183722
  O         5.7875647250        9.9486042315        4.7092554986
  O         1.8634198768        1.2697162612        6.2660742049
  O         5.7424324815        1.0459960232        6.1500428257
  O         9.5830706321        1.1214063700        6.4912080985
  O        13.1220352156        1.3180016451        6.5029087117
  O        -0.0811820998        4.3689836532        6.3460135854
  O         3.8581479943        4.5773091078        6.2633483954
  O         7.8332386273        4.4181896219        6.3643708486
  O        11.4908065575        4.2883368907        6.4472656343
  O        -1.8382028768        7.7149665407        6.3310706243
  O         1.9503755416        7.8423204126        6.3771054034
  O         5.9735421094        8.0353865670        6.6852486763
  O         9.6408268206        7.9016331087        6.4058163878
  O        -3.7761023843       10.9876079093        6.3906973809
  O        -0.0383004849       10.9536819755        6.3599548755
  O         3.8244612190       11.0971728059        6.3468095949
  O         7.7202792268       11.0550795665        6.6187162462
  O         0.0160128944        2.1248415771        8.1166671574
  O         3.9866183181        2.3647039071        7.8097517634
  O         7.6913690138        2.2098053124        7.8148459013
  O        11.5463710919        2.2442138880        8.5048954668
  O        -1.8925968851        5.5578785495        8.1394795990
  O         1.9705354769        5.8532989119        7.9711892373
  O         6.0618873565        5.5733913734        8.1023326590
  O         9.6828801112        5.6914916801        7.9974954746
  O        -3.6150551507        8.7770920629        8.1964285064
  O         0.0018838814        8.6716692471        8.0440534933
  O         3.8668566318        8.8566646477        8.1948992300
  O         7.9587455630        8.6960401377        8.3507903568
  O        -5.5787467788       12.2543870306        8.0482691117
  O        -1.6988645566       12.1003993230        7.9817039758
  O         1.7671893113       12.0142139967        8.1418399779
  O         5.6474776862       12.1749085450        8.1045691616
 Ce         0.0000000000        2.2090000000        0.7810000000
 Ce         3.8260000000        2.2090000000        0.7810000000
 Ce         7.6520000000        2.2090000000        0.7810000000
 Ce        11.4780000000        2.2090000000        0.7810000000
 Ce        -1.9130000000        5.5230000000        0.7810000000
 Ce         1.9130000000        5.5230000000        0.7810000000
 Ce         5.7390000000        5.5230000000        0.7810000000
 Ce         9.5650000000        5.5230000000        0.7810000000
 Ce        -3.8260000000        8.8360000000        0.7810000000
 Ce         0.0000000000        8.8360000000        0.7810000000
 Ce         3.8260000000        8.8360000000        0.7810000000
 Ce         7.6520000000        8.8360000000        0.7810000000
 Ce        -5.7390000000       12.1500000000        0.7810000000
 Ce        -1.9130000000       12.1500000000        0.7810000000
 Ce         1.9130000000       12.1500000000        0.7810000000
 Ce         5.7390000000       12.1500000000        0.7810000000
 Ce         1.9047752631        1.1307272312        3.9683285511
 Ce         5.7477973108        1.0594987111        3.8249363332
 Ce         9.6475505182        1.0014120636        3.9316679218
 Ce        13.3741020242        1.2224619211        3.8756434093
 Ce        -0.0051160523        4.4135702873        3.9364936487
 Ce         3.8036435112        4.5000513833        4.0661856597
 Ce         7.7080035752        4.3615177787        3.8928064224
 Ce        11.4490720815        4.4791418425        4.0941804060
 Ce        -1.8814308618        7.6950713810        3.9341758600
 Ce         2.0438260338        7.7512135976        3.9711675982
 Ce         5.8456077263        7.7377241291        3.8297092423
 Ce         9.6286173013        7.7755806789        3.8831932202
 Ce        -3.8739144410       11.0133063460        3.9444293421
 Ce         0.1299217972       10.9528808975        4.0260708020
 Ce         3.9132769098       11.0084933899        3.9565886080
 Ce         7.5761324823       11.0517745105        3.9350079711
 Ce        -0.1557916103        0.0279641794        7.1478633695
 Ce         3.9996036327       -0.0467557081        7.1570292827
 Ce         7.6130575821        0.0087643264        7.1979013678
 Ce        11.3853217073       -0.1056534440        7.2609578968
 Ce        -1.9942074081        3.2717931506        7.3855140143
 Ce         1.8563054988        3.3444575979        7.1210254979
 Ce         5.8884439742        3.3519307630        6.8673382652
 Ce         9.5706475901        3.3502295682        7.1796053106
 Ce        -3.6788897048        6.7190110538        7.4059416051
 Ce        -0.0273175456        6.6526093483        7.2001500780
 Ce         4.0052755782        6.8953809458        7.4419756631
 Ce         7.9904065749        6.7239634360        7.2105583295
 Ce        -5.5602929055        9.9572036220        7.3877071288
 Ce        -1.9541549547        9.9223089587        7.2184740711
 Ce         1.9045855999        9.8911979891        7.1948029808
 Ce         5.8982760154       10.0545647277        7.6051975432
 Pt        -0.7910487215        4.6499959354       10.2016359984
 Pt         7.1531755708        2.1215605830        9.8539079339
 Pt         0.7599192447        2.2451690573        9.9932110466
 Pt        -4.6571253386       11.1960111180       11.0241375743
 Pt         8.7418521500        9.9296540660        9.9182105528
 Pt         2.4780119465        0.0956028091        9.8937129178
 Pt         9.9036918622        1.9133978258        9.5906598721
 Pt         1.8443574900        5.0728106220        9.9579197498
 Pt         5.7369788369        4.7168647210        9.9231362179
 Pt         4.8733801120        0.8553742142       10.6160386567
 Pt         3.6142633037        3.0405205529        9.7312755697
 Pt         1.1740482052        3.6797126893       12.0776224824
 Pt         2.6655431023        1.4984491635       11.9857284316
 Pt         5.6602118266        3.0372358408       11.8871151329
 Pt         3.8335739815        4.9614837150       11.6139335680
 Pt         3.4725630447        3.3485299877       13.5862484962
     160
 i =      617, time =      617.000, E =     -5324.9305992298
  O         0.0000000000        0.0000000000        0.0000000000
  O         3.8260000000        0.0000000000        0.0000000000
  O         7.6520000000        0.0000000000        0.0000000000
  O        11.4780000000        0.0000000000        0.0000000000
  O        -1.9130000000        3.3140000000        0.0000000000
  O         1.9130000000        3.3140000000        0.0000000000
  O         5.7390000000        3.3140000000        0.0000000000
  O         9.5650000000        3.3140000000        0.0000000000
  O        -3.8260000000        6.6270000000        0.0000000000
  O         0.0000000000        6.6270000000        0.0000000000
  O         3.8260000000        6.6270000000        0.0000000000
  O         7.6520000000        6.6270000000        0.0000000000
  O        -5.7390000000        9.9410000000        0.0000000000
  O        -1.9130000000        9.9410000000        0.0000000000
  O         1.9130000000        9.9410000000        0.0000000000
  O         5.7390000000        9.9410000000        0.0000000000
  O         1.9130000000        1.1050000000        1.5620000000
  O         5.7390000000        1.1050000000        1.5620000000
  O         9.5650000000        1.1050000000        1.5620000000
  O        13.3920000000        1.1050000000        1.5620000000
  O         0.0000000000        4.4180000000        1.5620000000
  O         3.8260000000        4.4180000000        1.5620000000
  O         7.6520000000        4.4180000000        1.5620000000
  O        11.4780000000        4.4180000000        1.5620000000
  O        -1.9130000000        7.7320000000        1.5620000000
  O         1.9130000000        7.7320000000        1.5620000000
  O         5.7390000000        7.7320000000        1.5620000000
  O         9.5650000000        7.7320000000        1.5620000000
  O        -3.8260000000       11.0450000000        1.5620000000
  O         0.0000000000       11.0450000000        1.5620000000
  O         3.8260000000       11.0450000000        1.5620000000
  O         7.6520000000       11.0450000000        1.5620000000
  O         0.0000000000        2.2090000000        3.1240000000
  O         3.8260000000        2.2090000000        3.1240000000
  O         7.6520000000        2.2090000000        3.1240000000
  O        11.4780000000        2.2090000000        3.1240000000
  O        -1.9130000000        5.5230000000        3.1240000000
  O         1.9130000000        5.5230000000        3.1240000000
  O         5.7390000000        5.5230000000        3.1240000000
  O         9.5650000000        5.5230000000        3.1240000000
  O        -3.8260000000        8.8360000000        3.1240000000
  O         0.0000000000        8.8360000000        3.1240000000
  O         3.8260000000        8.8360000000        3.1240000000
  O         7.6520000000        8.8360000000        3.1240000000
  O        -5.7390000000       12.1500000000        3.1240000000
  O        -1.9130000000       12.1500000000        3.1240000000
  O         1.9130000000       12.1500000000        3.1240000000
  O         5.7390000000       12.1500000000        3.1240000000
  O        -0.1608955264        0.1682233730        4.8673691323
  O         3.6981269366        0.0119475769        4.8669556171
  O         7.8000421266        0.0364194992        4.8059170104
  O        11.6185105809       -0.0498385456        4.8550702154
  O        -1.8930921071        3.4205719458        4.7591058102
  O         1.9129638324        3.4750565234        4.8204593262
  O         5.7931545130        3.5640183140        4.7927526906
  O         9.4332255650        3.3713539776        4.7147736876
  O        -3.7113967204        6.6741668047        4.8776746080
  O        -0.1382504451        6.5916705000        4.8377934396
  O         4.0002556930        6.8450659679        4.8565350769
  O         7.6209465451        6.7548479680        4.7745365105
  O        -5.6717015463       10.0530496167        4.8393251759
  O        -1.9617302860        9.9590762409        4.8507015160
  O         2.1398127385        9.9880561335        4.7938836989
  O         5.7971654259        9.9463185961        4.7075785270
  O         1.8768625210        1.2761852054        6.2732891085
  O         5.7396930832        1.0501526151        6.1599624152
  O         9.5839926747        1.1166139432        6.4940463575
  O        13.1266588515        1.3193577253        6.5026739564
  O        -0.0811756380        4.3644339334        6.3569158452
  O         3.8494343690        4.5743356988        6.2609449943
  O         7.8336984361        4.4161354445        6.3607192993
  O        11.4923819089        4.3031521666        6.4434102037
  O        -1.8422235254        7.7102307966        6.3349340992
  O         1.9490792562        7.8416603410        6.3717561151
  O         5.9737962816        8.0451750828        6.6888451522
  O         9.6396562833        7.9029782985        6.4012719808
  O        -3.7839133023       10.9854481304        6.4006487954
  O        -0.0321985756       10.9601368000        6.3547644195
  O         3.8195778784       11.0941983611        6.3471708051
  O         7.7195424530       11.0622560029        6.6194382385
  O         0.0127487273        2.1251024646        8.1188698680
  O         3.9893565369        2.3704175335        7.8038067703
  O         7.6939039212        2.2108430335        7.8140333074
  O        11.5515970582        2.2428060115        8.5061278972
  O        -1.8977022694        5.5590103150        8.1353771693
  O         1.9732475412        5.8685780860        7.9734024839
  O         6.0638302030        5.5713370310        8.0913959147
  O         9.6807057088        5.6915024357        8.0044333106
  O        -3.6101208688        8.7690791746        8.1981475065
  O         0.0009140959        8.6786822668        8.0468239432
  O         3.8716648229        8.8557543444        8.1959601577
  O         7.9546410567        8.6945884400        8.3473543380
  O        -5.5661728817       12.2566389621        8.0505770506
  O        -1.6939087863       12.1000114859        7.9857810465
  O         1.7626852483       12.0058703040        8.1402669650
  O         5.6389150502       12.1810230608        8.1048223239
 Ce         0.0000000000        2.2090000000        0.7810000000
 Ce         3.8260000000        2.2090000000        0.7810000000
 Ce         7.6520000000        2.2090000000        0.7810000000
 Ce        11.4780000000        2.2090000000        0.7810000000
 Ce        -1.9130000000        5.5230000000        0.7810000000
 Ce         1.9130000000        5.5230000000        0.7810000000
 Ce         5.7390000000        5.5230000000        0.7810000000
 Ce         9.5650000000        5.5230000000        0.7810000000
 Ce        -3.8260000000        8.8360000000        0.7810000000
 Ce         0.0000000000        8.8360000000        0.7810000000
 Ce         3.8260000000        8.8360000000        0.7810000000
 Ce         7.6520000000        8.8360000000        0.7810000000
 Ce        -5.7390000000       12.1500000000        0.7810000000
 Ce        -1.9130000000       12.1500000000        0.7810000000
 Ce         1.9130000000       12.1500000000        0.7810000000
 Ce         5.7390000000       12.1500000000        0.7810000000
 Ce         1.9038537935        1.1329283171        3.9686797940
 Ce         5.7459995053        1.0592289223        3.8236678531
 Ce         9.6485122029        1.0004751524        3.9286185067
 Ce        13.3772045061        1.2196423604        3.8758068259
 Ce        -0.0031349011        4.4115963115        3.9361883375
 Ce         3.8053873144        4.4998973617        4.0676263305
 Ce         7.7082550999        4.3630362541        3.8947674570
 Ce        11.4529679384        4.4773580311        4.0947818581
 Ce        -1.8815221740        7.6975122922        3.9318602677
 Ce         2.0431523731        7.7506496258        3.9700439807
 Ce         5.8461200991        7.7376247854        3.8306483031
 Ce         9.6300955498        7.7718791700        3.8805929665
 Ce        -3.8731964552       11.0139673806        3.9424388036
 Ce         0.1346983663       10.9493807332        4.0288948155
 Ce         3.9140181856       11.0089615674        3.9535798499
 Ce         7.5757535903       11.0495846479        3.9358060797
 Ce        -0.1579655184        0.0296480914        7.1472528076
 Ce         4.0001305745       -0.0470098845        7.1526361367
 Ce         7.6105891100        0.0101021277        7.1965807991
 Ce        11.3830272799       -0.1064764740        7.2598037625
 Ce        -1.9968768086        3.2701731914        7.3857397039
 Ce         1.8565125189        3.3406828148        7.1205609335
 Ce         5.8896482441        3.3552484303        6.8637008120
 Ce         9.5706607250        3.3501434019        7.1813610011
 Ce        -3.6775409539        6.7182391884        7.4082409979
 Ce        -0.0255841428        6.6564564884        7.2033379346
 Ce         4.0038242483        6.8974707403        7.4411011443
 Ce         7.9910686583        6.7237495703        7.2135597846
 Ce        -5.5602825547        9.9581268210        7.3911555368
 Ce        -1.9558430263        9.9207008427        7.2188537676
 Ce         1.9052166806        9.8903591049        7.1935652452
 Ce         5.8989482115       10.0526706108        7.6020440670
 Pt        -0.7892099285        4.6493928541       10.2043462247
 Pt         7.1539113738        2.1223525671        9.8567776602
 Pt         0.7596328021        2.2444131349        9.9918210145
 Pt        -4.6572571812       11.1972143180       11.0278617951
 Pt         8.7425393732        9.9306555639        9.9172924217
 Pt         2.4769718729        0.0966645621        9.8952661500
 Pt         9.9037924361        1.9129240246        9.5915012381
 Pt         1.8428335777        5.0727474526        9.9584489478
 Pt         5.7368126019        4.7164742056        9.9246864470
 Pt         4.8732550272        0.8588709342       10.6140643692
 Pt         3.6147603249        3.0384922644        9.7314829956
 Pt         1.1747096864        3.6806491876       12.0753335293
 Pt         2.6651425437        1.4975643881       11.9869021311
 Pt         5.6590498675        3.0388732573       11.8863339501
 Pt         3.8314350455        4.9596740552       11.6129088804
 Pt         3.4731445723        3.3476637055       13.5867709354
     160
 i =      618, time =      618.000, E =     -5324.9319867326
  O         0.0000000000        0.0000000000        0.0000000000
  O         3.8260000000        0.0000000000        0.0000000000
  O         7.6520000000        0.0000000000        0.0000000000
  O        11.4780000000        0.0000000000        0.0000000000
  O        -1.9130000000        3.3140000000        0.0000000000
  O         1.9130000000        3.3140000000        0.0000000000
  O         5.7390000000        3.3140000000        0.0000000000
  O         9.5650000000        3.3140000000        0.0000000000
  O        -3.8260000000        6.6270000000        0.0000000000
  O         0.0000000000        6.6270000000        0.0000000000
  O         3.8260000000        6.6270000000        0.0000000000
  O         7.6520000000        6.6270000000        0.0000000000
  O        -5.7390000000        9.9410000000        0.0000000000
  O        -1.9130000000        9.9410000000        0.0000000000
  O         1.9130000000        9.9410000000        0.0000000000
  O         5.7390000000        9.9410000000        0.0000000000
  O         1.9130000000        1.1050000000        1.5620000000
  O         5.7390000000        1.1050000000        1.5620000000
  O         9.5650000000        1.1050000000        1.5620000000
  O        13.3920000000        1.1050000000        1.5620000000
  O         0.0000000000        4.4180000000        1.5620000000
  O         3.8260000000        4.4180000000        1.5620000000
  O         7.6520000000        4.4180000000        1.5620000000
  O        11.4780000000        4.4180000000        1.5620000000
  O        -1.9130000000        7.7320000000        1.5620000000
  O         1.9130000000        7.7320000000        1.5620000000
  O         5.7390000000        7.7320000000        1.5620000000
  O         9.5650000000        7.7320000000        1.5620000000
  O        -3.8260000000       11.0450000000        1.5620000000
  O         0.0000000000       11.0450000000        1.5620000000
  O         3.8260000000       11.0450000000        1.5620000000
  O         7.6520000000       11.0450000000        1.5620000000
  O         0.0000000000        2.2090000000        3.1240000000
  O         3.8260000000        2.2090000000        3.1240000000
  O         7.6520000000        2.2090000000        3.1240000000
  O        11.4780000000        2.2090000000        3.1240000000
  O        -1.9130000000        5.5230000000        3.1240000000
  O         1.9130000000        5.5230000000        3.1240000000
  O         5.7390000000        5.5230000000        3.1240000000
  O         9.5650000000        5.5230000000        3.1240000000
  O        -3.8260000000        8.8360000000        3.1240000000
  O         0.0000000000        8.8360000000        3.1240000000
  O         3.8260000000        8.8360000000        3.1240000000
  O         7.6520000000        8.8360000000        3.1240000000
  O        -5.7390000000       12.1500000000        3.1240000000
  O        -1.9130000000       12.1500000000        3.1240000000
  O         1.9130000000       12.1500000000        3.1240000000
  O         5.7390000000       12.1500000000        3.1240000000
  O        -0.1591580344        0.1728431956        4.8700551887
  O         3.7038292379        0.0127243360        4.8599510567
  O         7.7937570402        0.0388704227        4.8045757534
  O        11.6108928161       -0.0390448987        4.8624158155
  O        -1.8959711733        3.4142971025        4.7566223299
  O         1.9097116261        3.4748894968        4.8198306100
  O         5.7932132869        3.5638246060        4.7841338690
  O         9.4391073667        3.3786376810        4.7159445971
  O        -3.7176646053        6.6748125069        4.8685978609
  O        -0.1300396464        6.5942250834        4.8415237401
  O         4.0092359952        6.8336190323        4.8594123940
  O         7.6227505898        6.7519588067        4.7653488766
  O        -5.6783646816       10.0526031156        4.8399614383
  O        -1.9697000937        9.9620505970        4.8396877269
  O         2.1388260556        9.9897057735        4.7915767015
  O         5.8069622016        9.9442402858        4.7057803797
  O         1.8901856178        1.2825195584        6.2807928291
  O         5.7371525997        1.0546201250        6.1700447739
  O         9.5854275050        1.1116874449        6.4962957239
  O        13.1317945923        1.3201684514        6.5024702916
  O        -0.0808482199        4.3597820637        6.3684858794
  O         3.8407890794        4.5712497362        6.2589593713
  O         7.8337716596        4.4145227628        6.3569967500
  O        11.4939882673        4.3181532410        6.4395243948
  O        -1.8467084515        7.7057517649        6.3392930811
  O         1.9478931077        7.8408963608        6.3661159267
  O         5.9738265355        8.0546390846        6.6924897574
  O         9.6389794222        7.9040618600        6.3964854136
  O        -3.7915142623       10.9835723939        6.4109147105
  O        -0.0256289482       10.9664981503        6.3492184310
  O         3.8148204247       11.0910185290        6.3482768094
  O         7.7184439861       11.0694497824        6.6198726029
  O         0.0091572615        2.1252354856        8.1207287138
  O         3.9918033768        2.3758479222        7.7978097705
  O         7.6956699004        2.2119070715        7.8132265993
  O        11.5571021576        2.2414416809        8.5070487808
  O        -1.9029535741        5.5601445654        8.1317270463
  O         1.9760703191        5.8833094483        7.9763151744
  O         6.0654464554        5.5694472073        8.0803596617
  O         9.6788970151        5.6913569360        8.0115271994
  O        -3.6053214359        8.7610731645        8.1996583947
  O        -0.0000887376        8.6860785531        8.0494843670
  O         3.8764309686        8.8552319988        8.1971245776
  O         7.9502615645        8.6936335739        8.3443819054
  O        -5.5535117171       12.2593518770        8.0526550184
  O        -1.6897587875       12.0997753902        7.9898330175
  O         1.7585698652       11.9975007032        8.1380884544
  O         5.6305851936       12.1873251183        8.1049973471
 Ce         0.0000000000        2.2090000000        0.7810000000
 Ce         3.8260000000        2.2090000000        0.7810000000
 Ce         7.6520000000        2.2090000000        0.7810000000
 Ce        11.4780000000        2.2090000000        0.7810000000
 Ce        -1.9130000000        5.5230000000        0.7810000000
 Ce         1.9130000000        5.5230000000        0.7810000000
 Ce         5.7390000000        5.5230000000        0.7810000000
 Ce         9.5650000000        5.5230000000        0.7810000000
 Ce        -3.8260000000        8.8360000000        0.7810000000
 Ce         0.0000000000        8.8360000000        0.7810000000
 Ce         3.8260000000        8.8360000000        0.7810000000
 Ce         7.6520000000        8.8360000000        0.7810000000
 Ce        -5.7390000000       12.1500000000        0.7810000000
 Ce        -1.9130000000       12.1500000000        0.7810000000
 Ce         1.9130000000       12.1500000000        0.7810000000
 Ce         5.7390000000       12.1500000000        0.7810000000
 Ce         1.9029457792        1.1351236590        3.9690605867
 Ce         5.7442029910        1.0589325841        3.8224509394
 Ce         9.6494357031        0.9995897738        3.9256223395
 Ce        13.3802852222        1.2167873898        3.8760496973
 Ce        -0.0011893214        4.4096768395        3.9359216481
 Ce         3.8071486617        4.4997843149        4.0690076580
 Ce         7.7084844322        4.3646617004        3.8967170533
 Ce        11.4569190675        4.4755602178        4.0953244629
 Ce        -1.8816109275        7.6999693985        3.9295933621
 Ce         2.0424551788        7.7500657151        3.9689434565
 Ce         5.8465690269        7.7375158216        3.8317010074
 Ce         9.6315349467        7.7681768581        3.8780808542
 Ce        -3.8724441601       11.0146608994        3.9404895615
 Ce         0.1393773303       10.9459413004        4.0317094838
 Ce         3.9147837560       11.0094719287        3.9506121614
 Ce         7.5754267028       11.0473927847        3.9366447841
 Ce        -0.1600437156        0.0313282360        7.1466610966
 Ce         4.0005583233       -0.0472279044        7.1482623397
 Ce         7.6082499939        0.0113670746        7.1952560687
 Ce        11.3806902729       -0.1072674524        7.2586462738
 Ce        -1.9995315492        3.2685959746        7.3859603367
 Ce         1.8567713297        3.3369217598        7.1200783847
 Ce         5.8907777213        3.3586148418        6.8602627098
 Ce         9.5707250482        3.3500195028        7.1831529070
 Ce        -3.6762199262        6.7174390380        7.4104448208
 Ce        -0.0238286608        6.6603264591        7.2065029880
 Ce         4.0023900866        6.8994794690        7.4401253162
 Ce         7.9915765942        6.7235523351        7.2165404605
 Ce        -5.5603338340        9.9590943228        7.3945839520
 Ce        -1.9573942379        9.9190745909        7.2191899475
 Ce         1.9058296314        9.8895880536        7.1923562358
 Ce         5.8996112347       10.0507005736        7.5988069221
 Pt        -0.7873076385        4.6487640790       10.2070475080
 Pt         7.1546437091        2.1231740312        9.8596712844
 Pt         0.7593729592        2.2436560053        9.9904117103
 Pt        -4.6574196068       11.1984109141       11.0315829103
 Pt         8.7432482242        9.9316500511        9.9163641298
 Pt         2.4758915818        0.0977226764        9.8967888922
 Pt         9.9038324506        1.9124550397        9.5923549223
 Pt         1.8412725559        5.0726650647        9.9589419982
 Pt         5.7366576588        4.7160573392        9.9262048532
 Pt         4.8731472909        0.8623862067       10.6120910310
 Pt         3.6152664855        3.0364591401        9.7316930560
 Pt         1.1753686081        3.6816514505       12.0730385661
 Pt         2.6647678023        1.4966850188       11.9880467951
 Pt         5.6578937166        3.0404857911       11.8855503135
 Pt         3.8292789521        4.9578518005       11.6118847725
 Pt         3.4737160653        3.3468002620       13.5872848756
     160
 i =      619, time =      619.000, E =     -5324.9334079268
  O         0.0000000000        0.0000000000        0.0000000000
  O         3.8260000000        0.0000000000        0.0000000000
  O         7.6520000000        0.0000000000        0.0000000000
  O        11.4780000000        0.0000000000        0.0000000000
  O        -1.9130000000        3.3140000000        0.0000000000
  O         1.9130000000        3.3140000000        0.0000000000
  O         5.7390000000        3.3140000000        0.0000000000
  O         9.5650000000        3.3140000000        0.0000000000
  O        -3.8260000000        6.6270000000        0.0000000000
  O         0.0000000000        6.6270000000        0.0000000000
  O         3.8260000000        6.6270000000        0.0000000000
  O         7.6520000000        6.6270000000        0.0000000000
  O        -5.7390000000        9.9410000000        0.0000000000
  O        -1.9130000000        9.9410000000        0.0000000000
  O         1.9130000000        9.9410000000        0.0000000000
  O         5.7390000000        9.9410000000        0.0000000000
  O         1.9130000000        1.1050000000        1.5620000000
  O         5.7390000000        1.1050000000        1.5620000000
  O         9.5650000000        1.1050000000        1.5620000000
  O        13.3920000000        1.1050000000        1.5620000000
  O         0.0000000000        4.4180000000        1.5620000000
  O         3.8260000000        4.4180000000        1.5620000000
  O         7.6520000000        4.4180000000        1.5620000000
  O        11.4780000000        4.4180000000        1.5620000000
  O        -1.9130000000        7.7320000000        1.5620000000
  O         1.9130000000        7.7320000000        1.5620000000
  O         5.7390000000        7.7320000000        1.5620000000
  O         9.5650000000        7.7320000000        1.5620000000
  O        -3.8260000000       11.0450000000        1.5620000000
  O         0.0000000000       11.0450000000        1.5620000000
  O         3.8260000000       11.0450000000        1.5620000000
  O         7.6520000000       11.0450000000        1.5620000000
  O         0.0000000000        2.2090000000        3.1240000000
  O         3.8260000000        2.2090000000        3.1240000000
  O         7.6520000000        2.2090000000        3.1240000000
  O        11.4780000000        2.2090000000        3.1240000000
  O        -1.9130000000        5.5230000000        3.1240000000
  O         1.9130000000        5.5230000000        3.1240000000
  O         5.7390000000        5.5230000000        3.1240000000
  O         9.5650000000        5.5230000000        3.1240000000
  O        -3.8260000000        8.8360000000        3.1240000000
  O         0.0000000000        8.8360000000        3.1240000000
  O         3.8260000000        8.8360000000        3.1240000000
  O         7.6520000000        8.8360000000        3.1240000000
  O        -5.7390000000       12.1500000000        3.1240000000
  O        -1.9130000000       12.1500000000        3.1240000000
  O         1.9130000000       12.1500000000        3.1240000000
  O         5.7390000000       12.1500000000        3.1240000000
  O        -0.1572254406        0.1769017045        4.8726948258
  O         3.7098857451        0.0132322429        4.8525414811
  O         7.7872149972        0.0409864178        4.8031100139
  O        11.6027533755       -0.0279878153        4.8692866434
  O        -1.8991521411        3.4076467976        4.7538864400
  O         1.9063954071        3.4742775034        4.8188963863
  O         5.7932550466        3.5626984922        4.7748915383
  O         9.4461588266        3.3853298720        4.7173150946
  O        -3.7245579306        6.6751523394        4.8593750509
  O        -0.1210063425        6.5968159940        4.8449219117
  O         4.0178601988        6.8219499436        4.8622266482
  O         7.6251352733        6.7487404680        4.7562523701
  O        -5.6854223411       10.0518895386        4.8400394415
  O        -1.9774390273        9.9648176695        4.8282932181
  O         2.1367432246        9.9910084501        4.7891781242
  O         5.8168607138        9.9423948923        4.7038659508
  O         1.9033287081        1.2886452253        6.2885652002
  O         5.7348174719        1.0593821999        6.1802013704
  O         9.5873490332        1.1066639948        6.4979693855
  O        13.1374350486        1.3204084193        6.5022916812
  O        -0.0802097935        4.3550539007        6.3806507436
  O         3.8322315142        4.5680331890        6.2573921295
  O         7.8334683159        4.4133546363        6.3532136030
  O        11.4956284370        4.3332787535        6.4356622663
  O        -1.8516162743        7.7015603963        6.3441247395
  O         1.9468261180        7.8400467638        6.3602164620
  O         5.9736228608        8.0637316901        6.6961441006
  O         9.6387745368        7.9048771802        6.3914928130
  O        -3.7988220911       10.9819800703        6.4214828029
  O        -0.0186666157       10.9727187161        6.3432975332
  O         3.8102137733       11.0876392057        6.3500899292
  O         7.7169863595       11.0766639395        6.6200344986
  O         0.0052416413        2.1252093730        8.1222406970
  O         3.9939621331        2.3810032144        7.7918230078
  O         7.6966715589        2.2130079134        7.8124343018
  O        11.5628460147        2.2401266659        8.5076654924
  O        -1.9083128162        5.5612686207        8.1285398392
  O         1.9790099602        5.8974735339        7.9799606382
  O         6.0667150605        5.5677082315        8.0693274302
  O         9.6774318669        5.6910537403        8.0187220830
  O        -3.6006548916        8.7531410139        8.2009813547
  O        -0.0011313994        8.6938556232        8.0520239529
  O         3.8811378819        8.8550847581        8.1983941771
  O         7.9456200064        8.6931912172        8.3418719241
  O        -5.5407777396       12.2625195134        8.0545112110
  O        -1.6864189213       12.0996581767        7.9938439566
  O         1.7548468229       11.9891008424        8.1353189499
  O         5.6225268791       12.1937913310        8.1050775870
 Ce         0.0000000000        2.2090000000        0.7810000000
 Ce         3.8260000000        2.2090000000        0.7810000000
 Ce         7.6520000000        2.2090000000        0.7810000000
 Ce        11.4780000000        2.2090000000        0.7810000000
 Ce        -1.9130000000        5.5230000000        0.7810000000
 Ce         1.9130000000        5.5230000000        0.7810000000
 Ce         5.7390000000        5.5230000000        0.7810000000
 Ce         9.5650000000        5.5230000000        0.7810000000
 Ce        -3.8260000000        8.8360000000        0.7810000000
 Ce         0.0000000000        8.8360000000        0.7810000000
 Ce         3.8260000000        8.8360000000        0.7810000000
 Ce         7.6520000000        8.8360000000        0.7810000000
 Ce        -5.7390000000       12.1500000000        0.7810000000
 Ce        -1.9130000000       12.1500000000        0.7810000000
 Ce         1.9130000000       12.1500000000        0.7810000000
 Ce         5.7390000000       12.1500000000        0.7810000000
 Ce         1.9020547962        1.1373119480        3.9694693018
 Ce         5.7424106000        1.0586093095        3.8212864795
 Ce         9.6503186423        0.9987594463        3.9226822224
 Ce        13.3833383924        1.2139017781        3.8763716764
 Ce         0.0007182492        4.4078144294        3.9356956820
 Ce         3.8089266997        4.4997131943        4.0703272322
 Ce         7.7086950446        4.3663944161        3.8986512926
 Ce        11.4609201966        4.4737512624        4.0958075704
 Ce        -1.8816998851        7.7024383099        3.9273770663
 Ce         2.0417344326        7.7494586352        3.9678666855
 Ce         5.8469581606        7.7373941848        3.8328641027
 Ce         9.6329345165        7.7644740718        3.8756593559
 Ce        -3.8716618513       11.0153847710        3.9385810556
 Ce         0.1439543310       10.9425684277        4.0345120150
 Ce         3.9155728365       11.0100241980        3.9476889506
 Ce         7.5751587474       11.0451968012        3.9375230636
 Ce        -0.1620288162        0.0330052836        7.1460923663
 Ce         4.0008870818       -0.0474061483        7.1439124502
 Ce         7.6060418942        0.0125589184        7.1939273654
 Ce        11.3783111437       -0.1080262921        7.2574873842
 Ce        -2.0021702236        3.2670656590        7.3861763560
 Ce         1.8570826623        3.3331788723        7.1195810020
 Ce         5.8918311163        3.3620284060        6.8570239295
 Ce         9.5708423175        3.3498603551        7.1849780936
 Ce        -3.6749298046        6.7166063067        7.4125512153
 Ce        -0.0220538765        6.6642148608        7.2096447939
 Ce         4.0009741363        6.9014053679        7.4390484202
 Ce         7.9919353356        6.7233721212        7.2194978812
 Ce        -5.5604485373        9.9601023224        7.3979906929
 Ce        -1.9588079254        9.9174317599        7.2194829783
 Ce         1.9064240477        9.8888894456        7.1911781556
 Ce         5.9002641248       10.0486609061        7.5954901224
 Pt        -0.7853427809        4.6481094908       10.2097399229
 Pt         7.1553729923        2.1240250213        9.8625871176
 Pt         0.7591398881        2.2428975116        9.9889842384
 Pt        -4.6576123769       11.1996011933       11.0353007897
 Pt         8.7439786137        9.9326380011        9.9154252814
 Pt         2.4747725470        0.0987766364        9.8982815064
 Pt         9.9038139244        1.9119912889        9.5932197487
 Pt         1.8396759993        5.0725650569        9.9593970908
 Pt         5.7365151483        4.7156164669        9.9276864632
 Pt         4.8730566703        0.8659174525       10.6101184792
 Pt         3.6157808927        3.0344219091        9.7319034315
 Pt         1.1760253895        3.6827186452       12.0707385380
 Pt         2.6644182793        1.4958117818       11.9891621569
 Pt         5.6567437716        3.0420731918       11.8847658960
 Pt         3.8271052425        4.9560181637       11.6108615951
 Pt         3.4742776199        3.3459395369       13.5877910051
     160
 i =      620, time =      620.000, E =     -5324.9348271398
  O         0.0000000000        0.0000000000        0.0000000000
  O         3.8260000000        0.0000000000        0.0000000000
  O         7.6520000000        0.0000000000        0.0000000000
  O        11.4780000000        0.0000000000        0.0000000000
  O        -1.9130000000        3.3140000000        0.0000000000
  O         1.9130000000        3.3140000000        0.0000000000
  O         5.7390000000        3.3140000000        0.0000000000
  O         9.5650000000        3.3140000000        0.0000000000
  O        -3.8260000000        6.6270000000        0.0000000000
  O         0.0000000000        6.6270000000        0.0000000000
  O         3.8260000000        6.6270000000        0.0000000000
  O         7.6520000000        6.6270000000        0.0000000000
  O        -5.7390000000        9.9410000000        0.0000000000
  O        -1.9130000000        9.9410000000        0.0000000000
  O         1.9130000000        9.9410000000        0.0000000000
  O         5.7390000000        9.9410000000        0.0000000000
  O         1.9130000000        1.1050000000        1.5620000000
  O         5.7390000000        1.1050000000        1.5620000000
  O         9.5650000000        1.1050000000        1.5620000000
  O        13.3920000000        1.1050000000        1.5620000000
  O         0.0000000000        4.4180000000        1.5620000000
  O         3.8260000000        4.4180000000        1.5620000000
  O         7.6520000000        4.4180000000        1.5620000000
  O        11.4780000000        4.4180000000        1.5620000000
  O        -1.9130000000        7.7320000000        1.5620000000
  O         1.9130000000        7.7320000000        1.5620000000
  O         5.7390000000        7.7320000000        1.5620000000
  O         9.5650000000        7.7320000000        1.5620000000
  O        -3.8260000000       11.0450000000        1.5620000000
  O         0.0000000000       11.0450000000        1.5620000000
  O         3.8260000000       11.0450000000        1.5620000000
  O         7.6520000000       11.0450000000        1.5620000000
  O         0.0000000000        2.2090000000        3.1240000000
  O         3.8260000000        2.2090000000        3.1240000000
  O         7.6520000000        2.2090000000        3.1240000000
  O        11.4780000000        2.2090000000        3.1240000000
  O        -1.9130000000        5.5230000000        3.1240000000
  O         1.9130000000        5.5230000000        3.1240000000
  O         5.7390000000        5.5230000000        3.1240000000
  O         9.5650000000        5.5230000000        3.1240000000
  O        -3.8260000000        8.8360000000        3.1240000000
  O         0.0000000000        8.8360000000        3.1240000000
  O         3.8260000000        8.8360000000        3.1240000000
  O         7.6520000000        8.8360000000        3.1240000000
  O        -5.7390000000       12.1500000000        3.1240000000
  O        -1.9130000000       12.1500000000        3.1240000000
  O         1.9130000000       12.1500000000        3.1240000000
  O         5.7390000000       12.1500000000        3.1240000000
  O        -0.1550836443        0.1803986033        4.8752921979
  O         3.7162821295        0.0134764601        4.8447126820
  O         7.7804292772        0.0427836211        4.8015226677
  O        11.5941468249       -0.0167291975        4.8756723496
  O        -1.9025765448        3.4006419416        4.7509189528
  O         1.9030027607        3.4732125767        4.8176476041
  O         5.7932690633        3.5606334992        4.7650543631
  O         9.4543441343        3.3913869880        4.7188961726
  O        -3.7320082898        6.6752117250        4.8499706667
  O        -0.1112010352        6.5994306986        4.8479851812
  O         4.0260808308        6.8101270116        4.8649897944
  O         7.6280816886        6.7452016936        4.7473058461
  O        -5.6928310449       10.0509326419        4.8395557035
  O        -1.9849061904        9.9673524956        4.8166285232
  O         2.1335996772        9.9919529727        4.7866671152
  O         5.8267554442        9.9408058012        4.7018423122
  O         1.9162682441        1.2944891176        6.2965565533
  O         5.7326961625        1.0644221275        6.1903887943
  O         9.5897272628        1.1015832487        6.4990810719
  O        13.1435710262        1.3200554684        6.5021289376
  O        -0.0792705333        4.3502801588        6.3932889173
  O         3.8237832881        4.5646723868        6.2562436038
  O         7.8328006753        4.4126314414        6.3493746424
  O        11.4973129589        4.3484990784        6.4318735911
  O        -1.8569096477        7.6976770102        6.3494072631
  O         1.9458869263        7.8391279998        6.3540819080
  O         5.9731737246        8.0724202821        6.6997720124
  O         9.6390194627        7.9054173711        6.3863468632
  O        -3.8057564563       10.9806650791        6.4323518050
  O        -0.0113884748       10.9787441840        6.3369759804
  O         3.8057878953       11.0840658842        6.3525685646
  O         7.7151729712       11.0839057026        6.6199384735
  O         0.0010057355        2.1249968014        8.1234050101
  O         3.9958371251        2.3858865642        7.7859197645
  O         7.6969152943        2.2141562429        7.8116686649
  O        11.5687826845        2.2388694428        8.5079893657
  O        -1.9137469157        5.5623757524        8.1258224434
  O         1.9820549956        5.9110234398        7.9843687624
  O         6.0676204234        5.5661055084        8.0583909108
  O         9.6762882943        5.6905943731        8.0259675823
  O        -3.5961299436        8.7453383325        8.2021369624
  O        -0.0022197430        8.7020018125        8.0544301241
  O         3.8857654858        8.8552947943        8.1997707842
  O         7.9407333425        8.6932720018        8.3398247656
  O        -5.5280016854       12.2661336893        8.0561525787
  O        -1.6838897685       12.0996262107        7.9977886995
  O         1.7515120523       11.9806645801        8.1319726966
  O         5.6147878167       12.2003815268        8.1050481202
 Ce         0.0000000000        2.2090000000        0.7810000000
 Ce         3.8260000000        2.2090000000        0.7810000000
 Ce         7.6520000000        2.2090000000        0.7810000000
 Ce        11.4780000000        2.2090000000        0.7810000000
 Ce        -1.9130000000        5.5230000000        0.7810000000
 Ce         1.9130000000        5.5230000000        0.7810000000
 Ce         5.7390000000        5.5230000000        0.7810000000
 Ce         9.5650000000        5.5230000000        0.7810000000
 Ce        -3.8260000000        8.8360000000        0.7810000000
 Ce         0.0000000000        8.8360000000        0.7810000000
 Ce         3.8260000000        8.8360000000        0.7810000000
 Ce         7.6520000000        8.8360000000        0.7810000000
 Ce        -5.7390000000       12.1500000000        0.7810000000
 Ce        -1.9130000000       12.1500000000        0.7810000000
 Ce         1.9130000000       12.1500000000        0.7810000000
 Ce         5.7390000000       12.1500000000        0.7810000000
 Ce         1.9011843990        1.1394917226        3.9699042164
 Ce         5.7406252085        1.0582588555        3.8201753340
 Ce         9.6511586972        0.9979877232        3.9198009245
 Ce        13.3863582861        1.2109901478        3.8767723940
 Ce         0.0025855553        4.4060112980        3.9355121883
 Ce         3.8107205331        4.4996845430        4.0715827160
 Ce         7.7088910451        4.3682339471        3.9005664435
 Ce        11.4649657757        4.4719336417        4.0962304902
 Ce        -1.8817918216        7.7049147379        3.9252127774
 Ce         2.0409897002        7.7488252091        3.9668141177
 Ce         5.8472913297        7.7372567697        3.8341341792
 Ce         9.6342932749        7.7607711414        3.8733305454
 Ce        -3.8708538651       11.0161371430        3.9367123284
 Ce         0.1484250279       10.9392679670        4.0372993394
 Ce         3.9163840395       11.0106179496        3.9448135109
 Ce         7.5749568562       11.0429950692        3.9384397415
 Ce        -0.1639241640        0.0346802173        7.1455508345
 Ce         4.0011173905       -0.0475409571        7.1395907660
 Ce         7.6039661443        0.0136776123        7.1925947547
 Ce        11.3758906976       -0.1087526503        7.2563293802
 Ce        -2.0047914530        3.2655857569        7.3863885084
 Ce         1.8574469529        3.3294584793        7.1190723548
 Ce         5.8928070223        3.3654871786        6.8539836736
 Ce         9.5710141678        3.3496678072        7.1868337060
 Ce        -3.6736738991        6.7157365773        7.4145582158
 Ce        -0.0202620824        6.6681170945        7.2127631903
 Ce         3.9995774818        6.9032468659        7.4378708814
 Ce         7.9921498554        6.7232093757        7.2224295039
 Ce        -5.5606287318        9.9611474873        7.4013741802
 Ce        -1.9600836291        9.9157745106        7.2197334424
 Ce         1.9069997182        9.8882678421        7.1900330250
 Ce         5.9009058700       10.0465585806        7.5920979978
 Pt        -0.7833164321        4.6474292754       10.2124234584
 Pt         7.1561000647        2.1249059304        9.8655233662
 Pt         0.7589331183        2.2421379437        9.9875395593
 Pt        -4.6578355939       11.2007849862       11.0390148012
 Pt         8.7447307375        9.9336200997        9.9144757655
 Pt         2.4736162222        0.0998254319        9.8997440889
 Pt         9.9037384428        1.9115335254        9.5940939084
 Pt         1.8380453300        5.0724490192        9.9598121530
 Pt         5.7363857740        4.7151536998        9.9291265413
 Pt         4.8729837645        0.8694626055       10.6081468035
 Pt         3.6163026860        3.0323820907        9.7321123785
 Pt         1.1766800868        3.6838496269       12.0684341329
 Pt         2.6640928026        1.4949453720       11.9902486297
 Pt         5.6556010960        3.0436347331       11.8839815980
 Pt         3.8249139313        4.9541737314       11.6098393387
 Pt         3.4748297451        3.3450815912       13.5882903030
     160
 i =      621, time =      621.000, E =     -5324.9360144988
  O         0.0000000000        0.0000000000        0.0000000000
  O         3.8260000000        0.0000000000        0.0000000000
  O         7.6520000000        0.0000000000        0.0000000000
  O        11.4780000000        0.0000000000        0.0000000000
  O        -1.9130000000        3.3140000000        0.0000000000
  O         1.9130000000        3.3140000000        0.0000000000
  O         5.7390000000        3.3140000000        0.0000000000
  O         9.5650000000        3.3140000000        0.0000000000
  O        -3.8260000000        6.6270000000        0.0000000000
  O         0.0000000000        6.6270000000        0.0000000000
  O         3.8260000000        6.6270000000        0.0000000000
  O         7.6520000000        6.6270000000        0.0000000000
  O        -5.7390000000        9.9410000000        0.0000000000
  O        -1.9130000000        9.9410000000        0.0000000000
  O         1.9130000000        9.9410000000        0.0000000000
  O         5.7390000000        9.9410000000        0.0000000000
  O         1.9130000000        1.1050000000        1.5620000000
  O         5.7390000000        1.1050000000        1.5620000000
  O         9.5650000000        1.1050000000        1.5620000000
  O        13.3920000000        1.1050000000        1.5620000000
  O         0.0000000000        4.4180000000        1.5620000000
  O         3.8260000000        4.4180000000        1.5620000000
  O         7.6520000000        4.4180000000        1.5620000000
  O        11.4780000000        4.4180000000        1.5620000000
  O        -1.9130000000        7.7320000000        1.5620000000
  O         1.9130000000        7.7320000000        1.5620000000
  O         5.7390000000        7.7320000000        1.5620000000
  O         9.5650000000        7.7320000000        1.5620000000
  O        -3.8260000000       11.0450000000        1.5620000000
  O         0.0000000000       11.0450000000        1.5620000000
  O         3.8260000000       11.0450000000        1.5620000000
  O         7.6520000000       11.0450000000        1.5620000000
  O         0.0000000000        2.2090000000        3.1240000000
  O         3.8260000000        2.2090000000        3.1240000000
  O         7.6520000000        2.2090000000        3.1240000000
  O        11.4780000000        2.2090000000        3.1240000000
  O        -1.9130000000        5.5230000000        3.1240000000
  O         1.9130000000        5.5230000000        3.1240000000
  O         5.7390000000        5.5230000000        3.1240000000
  O         9.5650000000        5.5230000000        3.1240000000
  O        -3.8260000000        8.8360000000        3.1240000000
  O         0.0000000000        8.8360000000        3.1240000000
  O         3.8260000000        8.8360000000        3.1240000000
  O         7.6520000000        8.8360000000        3.1240000000
  O        -5.7390000000       12.1500000000        3.1240000000
  O        -1.9130000000       12.1500000000        3.1240000000
  O         1.9130000000       12.1500000000        3.1240000000
  O         5.7390000000       12.1500000000        3.1240000000
  O        -0.1527158371        0.1833339814        4.8778391303
  O         3.7230105084        0.0134605776        4.8364594344
  O         7.7734119929        0.0442805955        4.7998177987
  O        11.5851240505       -0.0053350110        4.8815463829
  O        -1.9061872319        3.3933013886        4.7477464656
  O         1.8995227622        3.4716879659        4.8160776278
  O         5.7932456608        3.5576242445        4.7546746514
  O         9.4636118977        3.3967721219        4.7207007706
  O        -3.7399478309        6.6750110864        4.8403468626
  O        -0.1006736424        6.6020591412        4.8507184821
  O         4.0338722779        6.7982282089        4.8677130444
  O         7.6315705737        6.7413529228        4.7385925276
  O        -5.7005590915       10.0497530170        4.8385068221
  O        -1.9920623596        9.9696348590        4.8048397853
  O         2.1294312264        9.9925287667        4.7840216627
  O         5.8365532827        9.9394903876        4.6997172422
  O         1.9290134408        1.2999896375        6.3046888909
  O         5.7308022641        1.0697272316        6.2006053476
  O         9.5925324572        1.0964845272        6.4996440380
  O        13.1501907992        1.3190941683        6.5019729280
  O        -0.0780407571        4.3454936895        6.4062977274
  O         3.8154728745        4.5611639532        6.2555150985
  O         7.8317808402        4.4123520183        6.3454754655
  O        11.4990497724        4.3637657982        6.4282017419
  O        -1.8625585156        7.6941117133        6.3551191446
  O         1.9450835952        7.8381516990        6.3477227745
  O         5.9724676899        8.0806736832        6.7033393216
  O         9.6396958041        7.9056724175        6.3811144870
  O        -3.8122470844       10.9796159479        6.4434947726
  O        -0.0038577724       10.9845224190        6.3302272165
  O         3.8015757909       11.0803026373        6.3556703011
  O         7.7130060301       11.0911752834        6.6195991880
  O        -0.0035455120        2.1245826013        8.1242329387
  O         3.9974276677        2.3904937331        7.7801819637
  O         7.6964085987        2.2153608299        7.8109361158
  O        11.5748730593        2.2376815118        8.5080295055
  O        -1.9192266292        5.5634629393        8.1235826887
  O         1.9851832351        5.9239378701        7.9895681245
  O         6.0681461401        5.5646352298        8.0475864281
  O         9.6754518934        5.6899831901        8.0332309569
  O        -3.5917624745        8.7377050431        8.2031431683
  O        -0.0033587513        8.7104888051        8.0566886765
  O         3.8902890657        8.8558431881        8.2012564623
  O         7.9356217753        8.6938868345        8.3382360694
  O        -5.5152437038       12.2701759093        8.0575863575
  O        -1.6821705499       12.0996459541        8.0016325233
  O         1.7485617329       11.9721970711        8.1280604252
  O         5.6074064256       12.2070497879        8.1048970458
 Ce         0.0000000000        2.2090000000        0.7810000000
 Ce         3.8260000000        2.2090000000        0.7810000000
 Ce         7.6520000000        2.2090000000        0.7810000000
 Ce        11.4780000000        2.2090000000        0.7810000000
 Ce        -1.9130000000        5.5230000000        0.7810000000
 Ce         1.9130000000        5.5230000000        0.7810000000
 Ce         5.7390000000        5.5230000000        0.7810000000
 Ce         9.5650000000        5.5230000000        0.7810000000
 Ce        -3.8260000000        8.8360000000        0.7810000000
 Ce         0.0000000000        8.8360000000        0.7810000000
 Ce         3.8260000000        8.8360000000        0.7810000000
 Ce         7.6520000000        8.8360000000        0.7810000000
 Ce        -5.7390000000       12.1500000000        0.7810000000
 Ce        -1.9130000000       12.1500000000        0.7810000000
 Ce         1.9130000000       12.1500000000        0.7810000000
 Ce         5.7390000000       12.1500000000        0.7810000000
 Ce         1.9003379272        1.1416614547        3.9703636150
 Ce         5.7388495809        1.0578811835        3.8191183990
 Ce         9.6519537664        0.9972782743        3.9169812212
 Ce        13.3893395531        1.2080569207        3.8772516775
 Ce         0.0044105744        4.4042694286        3.9353722329
 Ce         3.8125292726        4.4996986831        4.0727715364
 Ce         7.7090764005        4.3701796661        3.9024589233
 Ce        11.4690500235        4.4701094548        4.0965922593
 Ce        -1.8818895713        7.7073950010        3.9231011551
 Ce         2.0402201216        7.7481625339        3.9657860921
 Ce         5.8475724111        7.7371009860        3.8355076939
 Ce         9.6356100856        7.7570687732        3.8710965467
 Ce        -3.8700245838       11.0169166388        3.9348821790
 Ce         0.1527852198       10.9360458743        4.0400681842
 Ce         3.9172159241       11.0112526843        3.9419888047
 Ce         7.5748284786       11.0407865531        3.9393940526
 Ce        -0.1657330889        0.0363535709        7.1450406405
 Ce         4.0012496031       -0.0476292040        7.1353016464
 Ce         7.6020236202        0.0147230208        7.1912580110
 Ce        11.3734304832       -0.1094465155        7.2551744468
 Ce        -2.0073936397        3.2641586134        7.3865970960
 Ce         1.8578647943        3.3257647073        7.1185558781
 Ce         5.8937039355        3.3689891716        6.8511410561
 Ce         9.5712422421        3.3494437670        7.1887169368
 Ce        -3.6724559584        6.7148262647        7.4164636926
 Ce        -0.0184551306        6.6720288409        7.2158574763
 Ce         3.9982019469        6.9050026911        7.4365931381
 Ce         7.9922250394        6.7230647210        7.2253329602
 Ce        -5.5608771308        9.9622268298        7.4047331408
 Ce        -1.9612211875        9.9141053019        7.2199422802
 Ce         1.9075569428        9.8877277802        7.1889227257
 Ce         5.9015355758       10.0444012434        7.5886350235
 Pt        -0.7812292174        4.6467237087       10.2150989945
 Pt         7.1568265846        2.1258174285        9.8684786865
 Pt         0.7587521729        2.2413775647        9.9860782141
 Pt        -4.6580897269       11.2019625917       11.0427242199
 Pt         8.7455044843        9.9345961376        9.9135158347
 Pt         2.4724236562        0.1008690799        9.9011769077
 Pt         9.9036074462        1.9110826439        9.5949753794
 Pt         1.8363811945        5.0723178825        9.9601853976
 Pt         5.7362709984        4.7146709174        9.9305207882
 Pt         4.8729287579        0.8730202156       10.6061765060
 Pt         3.6168309691        3.0303408682        9.7323174579
 Pt         1.1773327715        3.6850428076       12.0661248051
 Pt         2.6637897404        1.4940865655       11.9913071576
 Pt         5.6544664257        3.0451690400       11.8831988412
 Pt         3.8227050438        4.9523185792       11.6088193016
 Pt         3.4753727777        3.3442270478       13.5887825143
     160
 i =      622, time =      622.000, E =     -5324.9369051082
  O         0.0000000000        0.0000000000        0.0000000000
  O         3.8260000000        0.0000000000        0.0000000000
  O         7.6520000000        0.0000000000        0.0000000000
  O        11.4780000000        0.0000000000        0.0000000000
  O        -1.9130000000        3.3140000000        0.0000000000
  O         1.9130000000        3.3140000000        0.0000000000
  O         5.7390000000        3.3140000000        0.0000000000
  O         9.5650000000        3.3140000000        0.0000000000
  O        -3.8260000000        6.6270000000        0.0000000000
  O         0.0000000000        6.6270000000        0.0000000000
  O         3.8260000000        6.6270000000        0.0000000000
  O         7.6520000000        6.6270000000        0.0000000000
  O        -5.7390000000        9.9410000000        0.0000000000
  O        -1.9130000000        9.9410000000        0.0000000000
  O         1.9130000000        9.9410000000        0.0000000000
  O         5.7390000000        9.9410000000        0.0000000000
  O         1.9130000000        1.1050000000        1.5620000000
  O         5.7390000000        1.1050000000        1.5620000000
  O         9.5650000000        1.1050000000        1.5620000000
  O        13.3920000000        1.1050000000        1.5620000000
  O         0.0000000000        4.4180000000        1.5620000000
  O         3.8260000000        4.4180000000        1.5620000000
  O         7.6520000000        4.4180000000        1.5620000000
  O        11.4780000000        4.4180000000        1.5620000000
  O        -1.9130000000        7.7320000000        1.5620000000
  O         1.9130000000        7.7320000000        1.5620000000
  O         5.7390000000        7.7320000000        1.5620000000
  O         9.5650000000        7.7320000000        1.5620000000
  O        -3.8260000000       11.0450000000        1.5620000000
  O         0.0000000000       11.0450000000        1.5620000000
  O         3.8260000000       11.0450000000        1.5620000000
  O         7.6520000000       11.0450000000        1.5620000000
  O         0.0000000000        2.2090000000        3.1240000000
  O         3.8260000000        2.2090000000        3.1240000000
  O         7.6520000000        2.2090000000        3.1240000000
  O        11.4780000000        2.2090000000        3.1240000000
  O        -1.9130000000        5.5230000000        3.1240000000
  O         1.9130000000        5.5230000000        3.1240000000
  O         5.7390000000        5.5230000000        3.1240000000
  O         9.5650000000        5.5230000000        3.1240000000
  O        -3.8260000000        8.8360000000        3.1240000000
  O         0.0000000000        8.8360000000        3.1240000000
  O         3.8260000000        8.8360000000        3.1240000000
  O         7.6520000000        8.8360000000        3.1240000000
  O        -5.7390000000       12.1500000000        3.1240000000
  O        -1.9130000000       12.1500000000        3.1240000000
  O         1.9130000000       12.1500000000        3.1240000000
  O         5.7390000000       12.1500000000        3.1240000000
  O        -0.1501047484        0.1857142354        4.8803160646
  O         3.7300624400        0.0131871143        4.8278093947
  O         7.7661832558        0.0454998600        4.7980013998
  O        11.5757146446        0.0061193326        4.8868697383
  O        -1.9099289861        3.3856497287        4.7444021433
  O         1.8959481005        3.4697013504        4.8141855585
  O         5.7931773258        3.5536749450        4.7438629651
  O         9.4738951173        3.4014690453        4.7227410624
  O        -3.7483124165        6.6745700411        4.8304878615
  O        -0.0894744882        6.6047040992        4.8531331693
  O         4.0412370348        6.7863163415        4.8704068619
  O         7.6355716417        6.7372092460        4.7301968896
  O        -5.7085797555       10.0483744384        4.8368964020
  O        -1.9988744569        9.9716535878        4.7930553217
  O         2.1242846576        9.9927304791        4.7812199777
  O         5.8461832917        9.9384573246        4.6975012382
  O         1.9415649410        1.3050816503        6.3128626666
  O         5.7291509065        1.0752839496        6.2108600242
  O         9.5957305116        1.0914052418        6.4996760900
  O        13.1572728682        1.3175255933        6.5018140134
  O        -0.0765333504        4.3407267359        6.4196372361
  O         3.8073343530        4.5575161684        6.2552051281
  O         7.8304255043        4.4125092316        6.3415098841
  O        11.5008280027        4.3789945001        6.4246832427
  O        -1.8685214185        7.6908726913        6.3612231544
  O         1.9444235116        7.8371290449        6.3411373958
  O         5.9714983102        8.0884527299        6.7068153569
  O         9.6407777413        7.9056372531        6.3758750164
  O        -3.8182404904       10.9788165838        6.4548272128
  O         0.0038757916       10.9900093679        6.3230359920
  O         3.7976095112       11.0763535986        6.3593436487
  O         7.7104930213       11.0984577566        6.6190320487
  O        -0.0084036984        2.1239655708        8.1247386891
  O         3.9987350793        2.3948175673        7.7746935436
  O         7.6951646381        2.2166297519        7.8102448816
  O        11.5810741394        2.2365727101        8.5077977077
  O        -1.9247170298        5.5645263858        8.1218263542
  O         1.9883776587        5.9362386081        7.9955746507
  O         6.0682779500        5.5632928106        8.0369197766
  O         9.6748940496        5.6892247898        8.0405020580
  O        -3.5875688236        8.7302875735        8.2040208708
  O        -0.0045518082        8.7192694385        8.0587838077
  O         3.8946808373        8.8567077288        8.2028523004
  O         7.9303128638        8.6950403326        8.3370992622
  O        -5.5025691796       12.2746073015        8.0588200873
  O        -1.6812515401       12.0996875903        8.0053336242
  O         1.7459945447       11.9637246740        8.1235904193
  O         5.6003972906       12.2137471502        8.1046145965
 Ce         0.0000000000        2.2090000000        0.7810000000
 Ce         3.8260000000        2.2090000000        0.7810000000
 Ce         7.6520000000        2.2090000000        0.7810000000
 Ce        11.4780000000        2.2090000000        0.7810000000
 Ce        -1.9130000000        5.5230000000        0.7810000000
 Ce         1.9130000000        5.5230000000        0.7810000000
 Ce         5.7390000000        5.5230000000        0.7810000000
 Ce         9.5650000000        5.5230000000        0.7810000000
 Ce        -3.8260000000        8.8360000000        0.7810000000
 Ce         0.0000000000        8.8360000000        0.7810000000
 Ce         3.8260000000        8.8360000000        0.7810000000
 Ce         7.6520000000        8.8360000000        0.7810000000
 Ce        -5.7390000000       12.1500000000        0.7810000000
 Ce        -1.9130000000       12.1500000000        0.7810000000
 Ce         1.9130000000       12.1500000000        0.7810000000
 Ce         5.7390000000       12.1500000000        0.7810000000
 Ce         1.8995184792        1.1438192862        3.9708456456
 Ce         5.7370865527        1.0574762835        3.8181160857
 Ce         9.6527017064        0.9966346121        3.9142253816
 Ce        13.3922772410        1.2051060227        3.8778092048
 Ce         0.0061914657        4.4025904303        3.9352763692
 Ce         3.8143518430        4.4997553884        4.0738912740
 Ce         7.7092560192        4.3722299785        3.9043250623
 Ce        11.4731671078        4.4682807062        4.0968916910
 Ce        -1.8819960496        7.7098753518        3.9210425143
 Ce         2.0394245232        7.7474677978        3.9647826015
 Ce         5.8478055254        7.7369241241        3.8369809120
 Ce         9.6368839777        7.7533676006        3.8689588719
 Ce        -3.8691784592       11.0177218249        3.9330886810
 Ce         0.1570305745       10.9329078628        4.0428146461
 Ce         3.9180662646       11.0119275334        3.9392176667
 Ce         7.5747810919       11.0385707478        3.9403849047
 Ce        -0.1674590755        0.0380252508        7.1445657399
 Ce         4.0012845775       -0.0476676307        7.1310485131
 Ce         7.6002146746        0.0156948135        7.1899165243
 Ce        11.3709330507       -0.1101083039        7.2540247598
 Ce        -2.0099749846        3.2627856373        7.3868018714
 Ce         1.8583366686        3.3221012539        7.1180352372
 Ce         5.8945196509        3.3725321892        6.8484937387
 Ce         9.5715278588        3.3491902095        7.1906244010
 Ce        -3.6712802046        6.7138716456        7.4182660414
 Ce        -0.0166346772        6.6759461816        7.2189271911
 Ce         3.9968491805        6.9066720525        7.4352158055
 Ce         7.9921664648        6.7229386774        7.2282059071
 Ce        -5.5611964457        9.9633373153        7.4080656006
 Ce        -1.9622208200        9.9124265456        7.2201106975
 Ce         1.9080962450        9.8872731092        7.1878487537
 Ce         5.9021518665       10.0421975632        7.5851059996
 Pt        -0.7790821978        4.6459931575       10.2177677588
 Pt         7.1575543335        2.1267606432        9.8714520621
 Pt         0.7585965066        2.2406170102        9.9846010576
 Pt        -4.6583759816       11.2031347032       11.0464282686
 Pt         8.7462997552        9.9355655623        9.9125465334
 Pt         2.4711961754        0.1019083410        9.9025808109
 Pt         9.9034217906        1.9106396551        9.5958621473
 Pt         1.8346845499        5.0721719960        9.9605157274
 Pt         5.7361720822        4.7141691151        9.9318651718
 Pt         4.8728923069        0.8765896110       10.6042078970
 Pt         3.6173647430        3.0282985927        9.7325152475
 Pt         1.1779834619        3.6862964252       12.0638099222
 Pt         2.6635078777        1.4932356024       11.9923387939
 Pt         5.6533406485        3.0466745160       11.8824187360
 Pt         3.8204791132        4.9504532738       11.6078028400
 Pt         3.4759068574        3.3433766310       13.5892672386
     160
 i =      623, time =      623.000, E =     -5324.9375584799
  O         0.0000000000        0.0000000000        0.0000000000
  O         3.8260000000        0.0000000000        0.0000000000
  O         7.6520000000        0.0000000000        0.0000000000
  O        11.4780000000        0.0000000000        0.0000000000
  O        -1.9130000000        3.3140000000        0.0000000000
  O         1.9130000000        3.3140000000        0.0000000000
  O         5.7390000000        3.3140000000        0.0000000000
  O         9.5650000000        3.3140000000        0.0000000000
  O        -3.8260000000        6.6270000000        0.0000000000
  O         0.0000000000        6.6270000000        0.0000000000
  O         3.8260000000        6.6270000000        0.0000000000
  O         7.6520000000        6.6270000000        0.0000000000
  O        -5.7390000000        9.9410000000        0.0000000000
  O        -1.9130000000        9.9410000000        0.0000000000
  O         1.9130000000        9.9410000000        0.0000000000
  O         5.7390000000        9.9410000000        0.0000000000
  O         1.9130000000        1.1050000000        1.5620000000
  O         5.7390000000        1.1050000000        1.5620000000
  O         9.5650000000        1.1050000000        1.5620000000
  O        13.3920000000        1.1050000000        1.5620000000
  O         0.0000000000        4.4180000000        1.5620000000
  O         3.8260000000        4.4180000000        1.5620000000
  O         7.6520000000        4.4180000000        1.5620000000
  O        11.4780000000        4.4180000000        1.5620000000
  O        -1.9130000000        7.7320000000        1.5620000000
  O         1.9130000000        7.7320000000        1.5620000000
  O         5.7390000000        7.7320000000        1.5620000000
  O         9.5650000000        7.7320000000        1.5620000000
  O        -3.8260000000       11.0450000000        1.5620000000
  O         0.0000000000       11.0450000000        1.5620000000
  O         3.8260000000       11.0450000000        1.5620000000
  O         7.6520000000       11.0450000000        1.5620000000
  O         0.0000000000        2.2090000000        3.1240000000
  O         3.8260000000        2.2090000000        3.1240000000
  O         7.6520000000        2.2090000000        3.1240000000
  O        11.4780000000        2.2090000000        3.1240000000
  O        -1.9130000000        5.5230000000        3.1240000000
  O         1.9130000000        5.5230000000        3.1240000000
  O         5.7390000000        5.5230000000        3.1240000000
  O         9.5650000000        5.5230000000        3.1240000000
  O        -3.8260000000        8.8360000000        3.1240000000
  O         0.0000000000        8.8360000000        3.1240000000
  O         3.8260000000        8.8360000000        3.1240000000
  O         7.6520000000        8.8360000000        3.1240000000
  O        -5.7390000000       12.1500000000        3.1240000000
  O        -1.9130000000       12.1500000000        3.1240000000
  O         1.9130000000       12.1500000000        3.1240000000
  O         5.7390000000       12.1500000000        3.1240000000
  O        -0.1472313124        0.1875474444        4.8826986576
  O         3.7374273179        0.0126542932        4.8188257379
  O         7.7587711098        0.0464610304        4.7960807052
  O        11.5659409643        0.0175530381        4.8915942447
  O        -1.9137543236        3.3777163524        4.7409229078
  O         1.8922738673        3.4672506154        4.8119737431
  O         5.7930550665        3.5487920886        4.7327643877
  O         9.4851367076        3.4054815009        4.7250301072
  O        -3.7570495341        6.6739069375        4.8204162071
  O        -0.0776517460        6.6073795075        4.8552436985
  O         4.0481740718        6.7744313777        4.8730779336
  O         7.6400477870        6.7327873178        4.7221792621
  O        -5.7168693121       10.0468243104        4.8347320725
  O        -2.0053145933        9.9734008517        4.7813394192
  O         2.1182074175        9.9925552398        4.7782409667
  O         5.8555904117        9.9377100832        4.6952083653
  O         1.9538896613        1.3096961570        6.3209816999
  O         5.7277595514        1.0810783485        6.2211344933
  O         9.5992872630        1.0863784698        6.4991951962
  O        13.1647946593        1.3153574374        6.5016432204
  O        -0.0747595633        4.3360081168        6.4333193377
  O         3.7993956389        4.5537425106        6.2553110463
  O         7.8287526358        4.4130947906        6.3374661496
  O        11.5026216454        4.3941191627        6.4213486194
  O        -1.8747439752        7.6879703521        6.3676642268
  O         1.9439139794        7.8360687781        6.3343138512
  O         5.9702637286        8.0957093718        6.7101742251
  O         9.6422364819        7.9053094444        6.3707126474
  O        -3.8236970604       10.9782489535        6.4662268468
  O         0.0117697610       10.9951683164        6.3154088186
  O         3.7939204758       11.0722192408        6.3635326277
  O         7.7076410695       11.1057258606        6.6182537823
  O        -0.0135595380        2.1231486300        8.1249395637
  O         3.9997572503        2.3988474578        7.7695227532
  O         7.6932006987        2.2179703307        7.8095970546
  O        11.5873433908        2.2355512238        8.5073070757
  O        -1.9301755779        5.5655602156        8.1205650609
  O         1.9916263922        5.9479476737        8.0023938891
  O         6.0680059850        5.5620775504        8.0263861585
  O         9.6745789349        5.6883203065        8.0477902457
  O        -3.5835604330        8.7231465871        8.2047921314
  O        -0.0058028065        8.7282892796        8.0606988435
  O         3.8989139213        8.8578712049        8.2045591856
  O         7.9248340737        8.6967327910        8.3364081592
  O        -5.4900097896       12.2793916719        8.0598607829
  O        -1.6811213117       12.0997245740        8.0088464446
  O         1.7438158197       11.9552883331        8.1185657374
  O         5.5937613250       12.2204282177        8.1041927927
 Ce         0.0000000000        2.2090000000        0.7810000000
 Ce         3.8260000000        2.2090000000        0.7810000000
 Ce         7.6520000000        2.2090000000        0.7810000000
 Ce        11.4780000000        2.2090000000        0.7810000000
 Ce        -1.9130000000        5.5230000000        0.7810000000
 Ce         1.9130000000        5.5230000000        0.7810000000
 Ce         5.7390000000        5.5230000000        0.7810000000
 Ce         9.5650000000        5.5230000000        0.7810000000
 Ce        -3.8260000000        8.8360000000        0.7810000000
 Ce         0.0000000000        8.8360000000        0.7810000000
 Ce         3.8260000000        8.8360000000        0.7810000000
 Ce         7.6520000000        8.8360000000        0.7810000000
 Ce        -5.7390000000       12.1500000000        0.7810000000
 Ce        -1.9130000000       12.1500000000        0.7810000000
 Ce         1.9130000000       12.1500000000        0.7810000000
 Ce         5.7390000000       12.1500000000        0.7810000000
 Ce         1.8987291018        1.1459633981        3.9713482422
 Ce         5.7353389589        1.0570443752        3.8171688181
 Ce         9.6534004860        0.9960603640        3.9115356045
 Ce        13.3951665614        1.2021413424        3.8784446155
 Ce         0.0079265037        4.4009759456        3.9352246939
 Ce         3.8161872693        4.4998542459        4.0749395019
 Ce         7.7094346404        4.3743831294        3.9061614147
 Ce        11.4773110890        4.4664494233        4.0971275877
 Ce        -1.8821143371        7.7123524632        3.9190370468
 Ce         2.0386013704        7.7467383986        3.9638036749
 Ce         5.8479947543        7.7367237016        3.8385499678
 Ce         9.6381141407        7.7496684300        3.8669192200
 Ce        -3.8683197589       11.0185514740        3.9313297020
 Ce         0.1611567268       10.9298596224        4.0455346210
 Ce         3.9189326317       11.0126415397        3.9365024956
 Ce         7.5748224446       11.0363475647        3.9414112040
 Ce        -0.1691052482        0.0396950578        7.1441299101
 Ce         4.0012234202       -0.0476530000        7.1268346314
 Ce         7.5985393693        0.0165928172        7.1885695078
 Ce        11.3684009955       -0.1107385869        7.2528823109
 Ce        -2.0125338506        3.2614683308        7.3870023917
 Ce         1.8588632219        3.3184720015        7.1175138195
 Ce         5.8952520829        3.3761141308        6.8460394161
 Ce         9.5718718203        3.3489094312        7.1925526942
 Ce        -3.6701513078        6.7128688534        7.4199638975
 Ce        -0.0148024343        6.6798653495        7.2219715694
 Ce         3.9955203755        6.9082539956        7.4337396753
 Ce         7.9919801604        6.7228315136        7.2310462337
 Ce        -5.5615887962        9.9644759082        7.4113695938
 Ce        -1.9630832557        9.9107400037        7.2202402409
 Ce         1.9086182572        9.8869072913        7.1868123682
 Ce         5.9027530358       10.0399562861        7.5815153947
 Pt        -0.7768761164        4.6452378090       10.2204302240
 Pt         7.1582851078        2.1277362993        9.8744426535
 Pt         0.7584652552        2.2398572631        9.9831083666
 Pt        -4.6586959897       11.2043020874       11.0501261477
 Pt         8.7471167805        9.9365279544        9.9115689337
 Pt         2.4699353173        0.1029436960        9.9039563226
 Pt         9.9031827243        1.9102054016        9.5967521792
 Pt         1.8329565505        5.0720120191        9.9608019635
 Pt         5.7360901200        4.7136493419        9.9331562266
 Pt         4.8728750338        0.8801693132       10.6022406196
 Pt         3.6179027219        3.0262549166        9.7327022524
 Pt         1.1786314596        3.6876093498       12.0614897197
 Pt         2.6632466200        1.4923919651       11.9933451762
 Pt         5.6522244250        3.0481502157       11.8816429708
 Pt         3.8182363343        4.9485789346       11.6067911893
 Pt         3.4764323578        3.3425311848       13.5897444167
     160
 i =      624, time =      624.000, E =     -5324.9378147303
  O         0.0000000000        0.0000000000        0.0000000000
  O         3.8260000000        0.0000000000        0.0000000000
  O         7.6520000000        0.0000000000        0.0000000000
  O        11.4780000000        0.0000000000        0.0000000000
  O        -1.9130000000        3.3140000000        0.0000000000
  O         1.9130000000        3.3140000000        0.0000000000
  O         5.7390000000        3.3140000000        0.0000000000
  O         9.5650000000        3.3140000000        0.0000000000
  O        -3.8260000000        6.6270000000        0.0000000000
  O         0.0000000000        6.6270000000        0.0000000000
  O         3.8260000000        6.6270000000        0.0000000000
  O         7.6520000000        6.6270000000        0.0000000000
  O        -5.7390000000        9.9410000000        0.0000000000
  O        -1.9130000000        9.9410000000        0.0000000000
  O         1.9130000000        9.9410000000        0.0000000000
  O         5.7390000000        9.9410000000        0.0000000000
  O         1.9130000000        1.1050000000        1.5620000000
  O         5.7390000000        1.1050000000        1.5620000000
  O         9.5650000000        1.1050000000        1.5620000000
  O        13.3920000000        1.1050000000        1.5620000000
  O         0.0000000000        4.4180000000        1.5620000000
  O         3.8260000000        4.4180000000        1.5620000000
  O         7.6520000000        4.4180000000        1.5620000000
  O        11.4780000000        4.4180000000        1.5620000000
  O        -1.9130000000        7.7320000000        1.5620000000
  O         1.9130000000        7.7320000000        1.5620000000
  O         5.7390000000        7.7320000000        1.5620000000
  O         9.5650000000        7.7320000000        1.5620000000
  O        -3.8260000000       11.0450000000        1.5620000000
  O         0.0000000000       11.0450000000        1.5620000000
  O         3.8260000000       11.0450000000        1.5620000000
  O         7.6520000000       11.0450000000        1.5620000000
  O         0.0000000000        2.2090000000        3.1240000000
  O         3.8260000000        2.2090000000        3.1240000000
  O         7.6520000000        2.2090000000        3.1240000000
  O        11.4780000000        2.2090000000        3.1240000000
  O        -1.9130000000        5.5230000000        3.1240000000
  O         1.9130000000        5.5230000000        3.1240000000
  O         5.7390000000        5.5230000000        3.1240000000
  O         9.5650000000        5.5230000000        3.1240000000
  O        -3.8260000000        8.8360000000        3.1240000000
  O         0.0000000000        8.8360000000        3.1240000000
  O         3.8260000000        8.8360000000        3.1240000000
  O         7.6520000000        8.8360000000        3.1240000000
  O        -5.7390000000       12.1500000000        3.1240000000
  O        -1.9130000000       12.1500000000        3.1240000000
  O         1.9130000000       12.1500000000        3.1240000000
  O         5.7390000000       12.1500000000        3.1240000000
  O        -0.1440760907        0.1888454319        4.8849693326
  O         3.7450847181        0.0118598663        4.8096003587
  O         7.7512131289        0.0471810331        4.7940635316
  O        11.5558571371        0.0288820009        4.8956724680
  O        -1.9176196897        3.3695382394        4.7373488741
  O         1.8884985709        3.4643348506        4.8094489479
  O         5.7928657907        3.5429882493        4.7215174316
  O         9.4972727815        3.4088268752        4.7275775491
  O        -3.7661078488        6.6730472278        4.8101908783
  O        -0.0652728243        6.6100982827        4.8570665992
  O         4.0546649897        6.7626126196        4.8757280169
  O         7.6449502579        6.7281075609        4.7145672658
  O        -5.7253962688       10.0451382964        4.8320299447
  O        -2.0113567967        9.9748715818        4.7697123025
  O         2.1112608430        9.9920068778        4.7750644959
  O         5.8647170485        9.9372493573        4.6928587052
  O         1.9659457224        1.3137775630        6.3289728663
  O         5.7266445267        1.0870919334        6.2313655937
  O         9.6031621678        1.0814334516        6.4982225483
  O        13.1727334287        1.3125996483        6.5014513382
  O        -0.0727332467        4.3313630158        6.4473228866
  O         3.7916723669        4.5498533427        6.2558243212
  O         7.8267842619        4.4140957039        6.3333328347
  O        11.5044020036        4.4091025031        6.4182237335
  O        -1.8811574898        7.6854174465        6.3743642778
  O         1.9435609332        7.8349800541        6.3272437486
  O         5.9687707301        8.1023925997        6.7133906762
  O         9.6440393748        7.9046901861        6.3657115849
  O        -3.8285853026       10.9778937197        6.4775830135
  O         0.0197720734       10.9999647340        6.3073853321
  O         3.7905370256       11.0678992569        6.3681682271
  O         7.7044608096       11.1129514917        6.6172821235
  O        -0.0189970619        2.1221279495        8.1248551109
  O         4.0004937637        2.4025758106        7.7647284837
  O         7.6905402359        2.2193894282        7.8089939273
  O        11.5936358955        2.2346189204        8.5065712517
  O        -1.9355570770        5.5665607030        8.1198081811
  O         1.9949179241        5.9590698658        8.0099996415
  O         6.0673267859        5.5609849191        8.0160075795
  O         9.6744652173        5.6872718073        8.0551124808
  O        -3.5797404914        8.7163505516        8.2054799193
  O        -0.0071193232        8.7375027052        8.0624156955
  O         3.9029658878        8.8593221158        8.2063763767
  O         7.9192087120        8.6989517087        8.3361512382
  O        -5.4775750391       12.2844976588        8.0607151192
  O        -1.6817613157       12.0997348434        8.0121241704
  O         1.7420330191       11.9469311066        8.1129884412
  O         5.5875047915       12.2270495837        8.1036233136
 Ce         0.0000000000        2.2090000000        0.7810000000
 Ce         3.8260000000        2.2090000000        0.7810000000
 Ce         7.6520000000        2.2090000000        0.7810000000
 Ce        11.4780000000        2.2090000000        0.7810000000
 Ce        -1.9130000000        5.5230000000        0.7810000000
 Ce         1.9130000000        5.5230000000        0.7810000000
 Ce         5.7390000000        5.5230000000        0.7810000000
 Ce         9.5650000000        5.5230000000        0.7810000000
 Ce        -3.8260000000        8.8360000000        0.7810000000
 Ce         0.0000000000        8.8360000000        0.7810000000
 Ce         3.8260000000        8.8360000000        0.7810000000
 Ce         7.6520000000        8.8360000000        0.7810000000
 Ce        -5.7390000000       12.1500000000        0.7810000000
 Ce        -1.9130000000       12.1500000000        0.7810000000
 Ce         1.9130000000       12.1500000000        0.7810000000
 Ce         5.7390000000       12.1500000000        0.7810000000
 Ce         1.8979730495        1.1480918638        3.9718686719
 Ce         5.7336098654        1.0565857768        3.8162765695
 Ce         9.6540478697        0.9955591241        3.9089135962
 Ce        13.3980025312        1.1991667185        3.8791568908
 Ce         0.0096140916        4.3994275686        3.9352168797
 Ce         3.8180344906        4.4999944013        4.0759140179
 Ce         7.7096177587        4.3766365352        3.9079646054
 Ce        11.4814759303        4.4646176266        4.0972986435
 Ce        -1.8822474929        7.7148229443        3.9170846854
 Ce         2.0377488173        7.7459717807        3.9628491395
 Ce         5.8481443474        7.7364969676        3.8402108269
 Ce         9.6392999588        7.7459718780        3.8649787522
 Ce        -3.8674526007       11.0194041590        3.9296024608
 Ce         0.1651590913       10.9269065570        4.0482233914
 Ce         3.9198117484       11.0133933176        3.9338454016
 Ce         7.5749602887       11.0341169711        3.9424709714
 Ce        -0.1706752974        0.0413636925        7.1437365658
 Ce         4.0010680980       -0.0475817428        7.1226631015
 Ce         7.5969972559        0.0174169710        7.1872161666
 Ce        11.3658366328       -0.1113378134        7.2517491476
 Ce        -2.0150684455        3.2602086581        7.3871983744
 Ce         1.8594450197        3.3148814535        7.1169954585
 Ce         5.8958989498        3.3797328212        6.8437747824
 Ce         9.5722745603        3.3486037215        7.1944981880
 Ce        -3.6690740216        6.7118139003        7.4215562160
 Ce        -0.0129599621        6.6837826889        7.2249902169
 Ce         3.9942162693        6.9097477374        7.4321662783
 Ce         7.9916727717        6.7227434765        7.2338522452
 Ce        -5.5620558660        9.9656391844        7.4146437426
 Ce        -1.9638095646        9.9090473665        7.2203326896
 Ce         1.9091236826        9.8866329128        7.1858144984
 Ce         5.9033367875       10.0376856953        7.5778678863
 Pt        -0.7746121369        4.6444572752       10.2230866879
 Pt         7.1590196367        2.1287445775        9.8774492733
 Pt         0.7583579736        2.2390986805        9.9816001416
 Pt        -4.6590507578       11.2054657260       11.0538172924
 Pt         8.7479560969        9.9374838266        9.9105835798
 Pt         2.4686428823        0.1039755891        9.9053045691
 Pt         9.9028918570        1.9097804712        9.5976436164
 Pt         1.8311989893        5.0718391368        9.9610432966
 Pt         5.7360261269        4.7131126821        9.9343908255
 Pt         4.8728767139        0.8837573581       10.6002739586
 Pt         3.6184439262        3.0242093117        9.7328755952
 Pt         1.1792762501        3.6889804538       12.0591650077
 Pt         2.6630059977        1.4915552946       11.9943268067
 Pt         5.6511184968        3.0495958071       11.8808733567
 Pt         3.8159765529        4.9466973709       11.6057851118
 Pt         3.4769491090        3.3416907265       13.5902144735
