82
CIF: 2.1-CO+Olat — CO2.cif | data_image0
O      0.55978923     0.45000431     0.59999690
O      2.55832747     1.54169902     3.76359258
O      0.79819519     2.98208028     7.23235149
O      0.55978923     2.65902057     2.16203261
O      0.57797796     0.43506284     5.46813275
O      2.66279813     1.87961285     8.63077412
O      4.38603242     0.45000431     0.59999690
O      6.32242617     1.52946018     3.74934445
O      4.33361220     2.65373896     6.95515642
O      4.38603242     2.65902057     2.16203261
O      4.42559677     0.45414097     5.42567922
O      6.27686890     1.40926376     8.65989338
O      8.21216082     0.45000431     0.59999690
O     10.06004302     1.51878169     3.75798776
O      8.19664165     2.64370170     6.99821414
O      8.21216082     2.65902057     2.16203261
O      8.20113738     0.44883144     5.44774354
O     10.00904931     1.58347251     8.59303633
O     -1.35327498     3.76352871     0.59999690
O      0.48042478     4.90665097     3.73101378
O     -1.43483871     6.03546230     6.97529203
O     -1.35333237     5.97264438     2.16203261
O     -1.39639422     3.77333978     5.51504495
O      0.24574919     5.26019167     8.96534541
O      2.47296821     3.76352871     0.59999690
O      4.45037237     4.81492318     3.73513190
O      3.13468232     4.88733170     8.19666123
O      2.47291082     5.97264438     2.16203261
O      2.57758059     3.76486538     5.60911536
O      6.29909662     3.76352871     0.59999690
O      8.21402368     4.87846551     3.77956846
O      6.19527390     5.96144365     7.09187210
O      6.29903923     5.97264438     2.16203261
O      6.30569177     3.74547422     5.39856809
O      8.25262930     4.94621741     8.69668945
O     -3.26639657     7.07715251     0.59999690
O     -1.34019761     8.15999320     3.81447516
O     -3.19404988     9.31047883     7.04877370
O     -3.26639657     9.28616878     2.16203261
O     -3.34809932     7.08830449     5.45256148
O     -1.36861785     8.22617965     8.71138835
O      0.55984662     7.07715251     0.59999690
O      2.47523007     8.26041720     3.74133953
O      0.54014242     9.27328499     6.97958510
O      0.55984662     9.28616878     2.16203261
O      0.62563757     7.02549522     5.57644340
O      2.49225803     8.01629506     8.45561762
O      4.38597502     7.07715251     0.59999690
O      6.27108366     8.17066999     3.78137904
O      4.38610633     9.29688025     6.99286223
O      4.38597502     9.28616878     2.16203261
O      4.34235549     7.06658101     5.52739543
O      6.27363226     8.13573230     8.70791892
O      0.60993248     4.02343200    11.05009579
Ce     2.47285343     1.55451244     1.38101475
Ce     0.53000271     2.66655733     4.55806105
Ce     0.53095263     0.48475057     7.90897137
Ce     6.29909662     1.55451244     1.38101475
Ce     4.45887362     2.62495709     4.48707566
Ce     4.46459878     0.37776566     7.79587592
Ce    10.12522502     1.55451244     1.38101475
Ce     8.23138516     2.66859234     4.59049201
Ce     8.21743510     0.46232090     7.77426871
Ce     0.55978923     4.86803684     1.38101475
Ce    -1.34801797     5.95313757     4.60634578
Ce    -1.43528489     3.83425862     7.91999048
Ce     4.38603242     4.86803684     1.38101475
Ce     2.46500847     5.98493494     4.47547665
Ce     8.21216082     4.86803684     1.38101475
Ce     6.28406525     5.95238468     4.58981380
Ce     6.39544569     3.69864724     7.84861269
Ce    -1.35333237     8.18166064     1.38101475
Ce    -3.27899992     9.30463276     4.61105074
Ce    -3.29951272     7.09108299     7.81356878
Ce     2.47291082     8.18166064     1.38101475
Ce     0.57602808     9.25466111     4.58167360
Ce     0.41336590     7.13906369     7.88982207
Ce     6.29903923     8.18166064     1.38101475
Ce     4.39296126     9.30644167     4.57561517
Ce     4.46651487     7.23806964     7.78012735
Mo     2.62515738     3.34414499     7.47956603
C     -0.06502688     4.02775598    10.08296468
