83
CIF: Mo-CeO2-Ov+CO2.cif | data_image0
O      0.55978923     0.45000431     0.59999690
O      2.55711024     1.57446740     3.81141583
O      0.56896842     2.74132564     7.07932012
O      0.55978923     2.65902057     2.16203261
O      0.57417998     0.35864530     5.42631386
O      2.50924999     2.21479535     8.73071953
O      4.38603242     0.45000431     0.59999690
O      6.30081181     1.54435663     3.75812302
O      4.31928399     2.55394489     6.93206982
O      4.38603242     2.65902057     2.16203261
O      4.43211386     0.39822557     5.39123167
O      6.29361381     1.42115342     8.67606982
O      8.21216082     0.45000431     0.59999690
O     10.06004008     1.52159939     3.76640502
O      8.19160660     2.61928231     6.96452291
O      8.21216082     2.65902057     2.16203261
O      8.19982831     0.43922554     5.43880053
O      9.96852412     1.63430914     8.68978264
O     -1.35327498     3.76352871     0.59999690
O      0.48541235     4.90618034     3.74242573
O     -1.28811301     5.96478739     7.05531825
O     -1.35333237     5.97264438     2.16203261
O     -1.45874647     3.79961411     5.45705335
O      1.16570973     4.91215154     8.32339551
O      2.47296821     3.76352871     0.59999690
O      4.43583881     4.81073407     3.76276317
O      3.77533514     4.85755626     8.21261350
O      2.47291082     5.97264438     2.16203261
O      2.48718242     3.94029233     5.82327107
O      5.53511038     4.44875207    10.60436042
O      6.29909662     3.76352871     0.59999690
O      8.20559378     4.89613154     3.76087303
O      6.29039172     6.00360681     7.02387381
O      6.29903923     5.97264438     2.16203261
O      6.30905462     3.76109502     5.39094364
O      8.31752095     4.91451599     8.63160708
O     -3.26639657     7.07715251     0.59999690
O     -1.33195566     8.15335591     3.77846995
O     -3.17963640     9.35769655     7.09986143
O     -3.26639657     9.28616878     2.16203261
O     -3.24975659     7.09414660     5.47496939
O     -1.30404313     8.17822261     8.69510118
O      0.55984662     7.07715251     0.59999690
O      2.48130193     8.26383935     3.72694018
O      0.54995551     9.30513808     6.97769531
O      0.55984662     9.28616878     2.16203261
O      0.61879370     7.08093321     5.54724518
O      2.47493225     7.96311489     8.45536267
O      4.38597502     7.07715251     0.59999690
O      6.29112571     8.14194893     3.77983719
O      4.37398325     9.32329180     7.03650254
O      4.38597502     9.28616878     2.16203261
O      4.34745351     7.08369595     5.53482696
O      6.31682862     8.08616709     8.72691049
O      3.46242613     4.38082002    11.71484311
Ce     2.47285343     1.55451244     1.38101475
Ce     0.53199997     2.65387187     4.60282179
Ce     0.53298222     0.51077198     7.87851498
Ce     6.29909662     1.55451244     1.38101475
Ce     4.43780436     2.63328732     4.57362400
Ce     4.46443890     0.45981343     7.74497824
Ce    10.12522502     1.55451244     1.38101475
Ce     8.20432633     2.65905436     4.55605439
Ce     8.20541603     0.47286727     7.78117378
Ce     0.55978923     4.86803684     1.38101475
Ce    -1.34116700     5.96393494     4.57476873
Ce    -1.44963262     3.71090868     7.74679505
Ce     4.38603242     4.86803684     1.38101475
Ce     2.47182830     5.99937653     4.47072879
Ce     8.21216082     4.86803684     1.38101475
Ce     6.29736559     5.95437410     4.58772728
Ce     6.27757640     3.72073986     7.82812792
Ce    -1.35333237     8.18166064     1.38101475
Ce    -3.26805852     9.29744063     4.60575262
Ce    -3.24668959     7.06611902     7.82488553
Ce     2.47291082     8.18166064     1.38101475
Ce     0.58276273     9.27371788     4.55081649
Ce     0.46555908     7.18751671     7.80060824
Ce     6.29903923     8.18166064     1.38101475
Ce     4.39534142     9.30259038     4.57651349
Ce     4.53207112     7.20958637     7.77918060
Mo     2.41446438     3.70007948     7.68892893
C      4.48765741     4.41168040    11.14932665
