84
CIF: Co-Y-CeO2-CO.cif | data_image0
Ce     1.93596140     1.11772783     0.89035214
Ce    -0.01518324     2.24458196     4.05262349
Ce    11.60617291     0.01645690     7.19464866
Ce     5.80789581     1.11772783     0.89035214
Ce     3.87524791     2.23354339     4.02913063
Ce     3.82719246     0.02335877     7.20927579
Ce     9.67981860     1.11772783     0.89035214
Ce     7.74575832     2.23020741     4.06142555
Ce     2.00716728    10.01188585     7.16156346
Ce     0.00000000     4.47091133     0.89035214
Ce    -1.95278001     5.57950808     4.06807298
Ce     9.67336771     3.27765726     7.28523759
Ce     3.87193441     4.47091133     0.89035214
Ce     1.93702582     5.58111576     4.03225400
Ce     1.94068797     3.38456043     7.19501536
Ce     7.74385721     4.47091133     0.89035214
Ce     5.82240561     5.58523206     4.03036719
Ce    -1.93596721     7.82410489     0.89035214
Ce    -3.87083705     8.96720089     3.99601505
Ce    -3.88102254     6.88959080     7.14143992
Ce     1.93596721     7.82410489     0.89035214
Ce    -0.01006323     8.94579401     4.04926064
Ce     0.00540469     6.70359562     7.22342749
Ce     5.80789000     7.82410489     0.89035214
Ce     3.88115402     8.93251792     4.02117521
Ce     3.87739147     6.67765839     7.18061811
Y      5.70581432     3.39716833     7.02669228
O      0.00000000     0.00000000     0.09999685
O      1.93370991     1.12869273     3.22450155
O      0.02966555     2.21378210     6.42126588
O      0.00000000     2.23545567     1.68070743
O     11.61240406     0.00438887     4.83447735
O      1.95950656     1.11233977     8.01693762
O      3.87192279     0.00000000     0.09999685
O      5.80502052     1.10241998     3.24061681
O      3.92641417     2.17294335     6.42218362
O      3.87192279     2.23545567     1.68070743
O     -1.94541089    10.04869419     4.83903396
O      5.93338299     1.16281043     8.38137255
O      7.74385721     0.00000000     0.09999685
O      9.68279119     1.11368033     3.23375780
O      7.65821063     2.16791079     6.34224072
O      7.74385721     2.23545567     1.68070743
O      1.95238125    10.01173442     4.81905382
O      9.68584820     0.93746836     8.02654317
O     -1.93596140     3.35318350     0.09999685
O      0.00467191     4.48807765     3.24687835
O     -2.11053650     5.59718331     6.53187176
O     -1.93596721     5.58864923     1.68070743
O     -1.92665222     3.36429789     4.83159312
O      0.11553762     4.57505050     8.00757816
O      1.93596140     3.35318350     0.09999685
O      3.85206012     4.47787278     3.21589286
O      1.92860995     5.62640645     6.33698830
O      1.93595559     5.58864923     1.68070743
O      1.95424837     3.34483773     4.86400882
O      5.80789581     3.35318350     0.09999685
O      7.75177075     4.48777439     3.24429581
O      5.97275968     5.55815389     6.47196305
O      5.80789000     5.58864923     1.68070743
O      5.76788494     3.38524353     4.77352955
O      7.43057368     3.67067499     8.66871378
O     -3.87192860     6.70637706     0.09999685
O     -1.92809957     7.82482929     3.22273288
O     -3.86900590     8.99479011     6.37408912
O     -3.87192860     8.94183273     1.68070743
O     -3.87103250     6.77070339     4.82281621
O     -1.96349100     7.91124696     8.00605984
O     -0.00000581     6.70637706     0.09999685
O      1.92713872     7.79379927     3.24733727
O     -0.00284869     9.04513080     6.45639728
O     -0.00000581     8.94183273     1.68070743
O     -0.06925890     6.71832912     4.91570691
O      3.87192860     6.70637706     0.09999685
O      5.80733118     7.82839659     3.21439006
O      3.88685730     8.89619679     6.35324248
O      3.87192860     8.94183273     1.68070743
O      3.92952664     6.66399801     4.86153417
O      5.83072803     7.86403211     7.98205989
O      3.81837441     4.51734281     7.89819775
O      1.94807513     7.79730318     7.96983584
O      6.41490581     2.44239965    12.48786422
Co     6.72907216     2.29843684     9.51533191
C      6.58039437     2.32725758    11.34740866
