84
CIF: Ni-Sc-CeO2-Ov-CO2.cif | data_image0
Ce     1.93038582     1.11050507     0.88387043
Ce    -0.00492446     2.23532596     4.03967595
Ce    -5.77095740    10.03823311     7.20289554
Ce     5.81181033     1.12175166     0.90127712
Ce     3.83466868     2.23331447     4.01123721
Ce    -1.92860768    10.04864619     7.24236550
Ce     9.66901012     1.12377363     0.90450652
Ce     7.76392898     2.22376147     4.03194684
Ce     1.94359706    10.02060504     7.25883166
Ce    -0.00709724     4.47602159     0.89067279
Ce    -1.95064376     5.58318154     4.06410279
Ce    -1.89840117     3.36588533     7.25881116
Ce     3.86254305     4.47635356     0.87798423
Ce     1.93579599     5.58850287     4.07879709
Ce     1.82883355     3.28561578     7.20629717
Ce     7.74213807     4.46545905     0.90125422
Ce     5.79101357     5.62189869     4.01106696
Ce    -1.94645625     7.83004003     0.90010904
Ce    -3.87371406     8.94289907     4.05522304
Ce    -3.85893579     6.70530986     7.24215679
Ce     1.92815559     7.82745473     0.89060408
Ce    -0.00270447     8.95713267     4.06400741
Ce    -0.00335210     6.70815523     7.23852392
Ce     5.81127600     7.83258510     0.88371011
Ce     3.86949921     8.94601905     4.03965123
Ce     3.87656042     6.83260092     7.20632672
Sc     5.76785678     3.37656929     6.62575866
Ni     7.14227306     2.58258030     8.47701971
O     11.61334069     0.00154917     0.10141687
O      1.92802408     1.10348886     3.21267330
O     -0.02156314     2.18624447     6.40504899
O     -0.00785227     2.23805103     1.69392277
O     -5.78837456    10.04838281     4.84695936
O      1.98766508     0.96861588     8.02680421
O     -1.93899312    10.05733740     0.10496691
O      5.80039795     1.09093280     3.23077889
O      4.02253253     2.38738338     6.51215004
O      3.86763657     2.23577757     1.68132582
O      3.85172740     0.07484310     4.89098616
O      6.05472376     1.02973812     8.33151410
O      7.73821774     0.00761509     0.10924988
O      9.68434315     1.11500491     3.23391541
O      7.57489923     2.33289116     6.46636191
O      7.74357843     2.23531483     1.71563532
O      7.75130642     0.02529474     4.86814725
O      9.67235001     1.12196958     8.01179972
O      9.67032270     3.35425987     0.10911246
O     -0.01404590     4.48376943     3.25073402
O     -2.01002781     5.59937565     6.40955667
O     -1.94403436     5.59119430     1.70564938
O      9.66165836     3.33384521     4.86822060
O     -0.09949920     4.54495227     8.04587897
O      1.92738314     3.35244915     0.09928684
O      3.83933648     4.48954688     3.21811356
O      1.99177966     5.55617717     6.45154149
O      1.92862022     5.59252216     1.67404250
O      1.92651569     3.31528818     4.80167583
O      3.89922082     4.46492746     9.22970022
O      5.81155478     3.35101064     0.10766953
O      7.76314707     4.49050146     3.23067719
O      5.75193744     5.38255480     6.51132968
O      5.80528807     5.59217007     1.68114259
O      5.80306852     3.35581704     4.63887699
O      7.94273962     4.30112333     8.33112215
O     -3.87155109     6.71022987     0.10512724
O     -1.94551830     7.82968725     3.27778799
O     -3.82098699     8.91220142     6.37576211
O     -3.87509971     8.94378428     1.69355631
O      7.66907697     6.68646594     4.89060746
O     -1.94301293     7.82812046     8.02361703
O     -0.01209783     6.71325780     0.10434852
O      1.91762117     7.82964612     3.25057342
O     -0.04647939     9.00043597     6.40963813
O     -0.00628994     8.94736548     1.70514550
O      0.00290580     6.70460276     4.90283865
O      1.82208898     7.87290399     8.04584309
O      3.86815347     6.71410280     0.09951587
O      5.81617699     7.83815115     3.21257187
O      3.90370626     8.98525698     6.40470205
O      3.86556896     8.94715423     1.69389986
O      3.89980484     6.73323516     4.80137535
O      5.96253850     7.85338959     8.02709504
O      5.12834498     3.76908349    11.11259993
C      4.53273579     4.10609545    10.16747960
