84
CIF: CO+O2 — CO2+Olat.cif | data_image0
O      0.55978923     0.45000431     0.59999690
O      2.47156797     1.57659345     3.75463930
O      0.48002170     2.68892724     6.98294291
O      0.55978923     2.65902057     2.16203261
O      0.57455108     0.47105049     5.38294237
O      2.47223041     1.10731913     8.74057720
O      4.38603242     0.45000431     0.59999690
O      6.29894404     1.55113550     3.73110125
O      4.29140719     2.70292035     6.96871882
O      4.38603242     2.65902057     2.16203261
O      4.38764620     0.47757303     5.38856308
O      6.29664384     1.59228260     8.54430537
O      8.21216082     0.45000431     0.59999690
O     10.12725186     1.54956240     3.75487644
O      8.21237594     2.64215809     6.90327854
O      8.21216082     2.65902057     2.16203261
O      8.19814146     0.44043039     5.38077366
O     10.05308465     1.55452125     8.60150913
O     -1.35327498     3.76352871     0.59999690
O      0.57439732     4.86411445     3.76362145
O     -1.30053196     5.93130603     6.93891435
O     -1.35333237     5.97264438     2.16203261
O     -1.38081361     3.75917689     5.35380321
O      2.47296821     3.76352871     0.59999690
O      4.38328206     4.87666175     3.74071184
O      2.38126589     5.86567908     7.03638370
O      2.47291082     5.97264438     2.16203261
O      2.51806350     3.80204813     5.42308589
O      4.35775656     4.86817915     8.44751002
O      6.29909662     3.76352871     0.59999690
O      8.19734266     4.86034513     3.73727607
O      6.30411910     5.97593403     6.91552004
O      6.29903923     5.97264438     2.16203261
O      6.28099460     3.73961049     5.38914141
O      8.18310406     4.82936655     8.54038647
O     -3.26639657     7.07715251     0.59999690
O     -1.35014376     8.18479880     3.75073428
O     -3.27592377     9.21830699     6.86353060
O     -3.26639657     9.28616878     2.16203261
O     -3.24901854     7.03650809     5.36623540
O     -1.37933496     8.15601534     8.56228666
O      0.55984662     7.07715251     0.59999690
O      2.47582168     8.18967361     3.73685393
O      0.53371918     9.28655849     6.96102183
O      0.55984662     9.28616878     2.16203261
O      0.58065606     7.09913770     5.38909079
O      2.49420300     8.20792106     8.53463156
O      4.38597502     7.07715251     0.59999690
O      6.28690222     8.17282132     3.76426467
O      4.40432175     9.31106197     6.93073602
O      4.38597502     9.28616878     2.16203261
O      4.33397309     7.06841294     5.42007677
O      6.29085853     8.14031286     8.56661501
O      0.10299909     5.09618475     9.07001327
O      0.59196131     5.85527854    10.12976513
O      2.00494249     3.92430656    10.91894606
Ce     2.47285343     1.55451244     1.38101475
Ce     0.55718683     2.66110672     4.62813446
Ce     0.60688949     0.48479006     7.79685689
Ce     6.29909662     1.55451244     1.38101475
Ce     4.38923436     2.64225093     4.53236195
Ce     4.30513369     0.43957283     7.81031824
Ce    10.12522502     1.55451244     1.38101475
Ce     8.20927358     2.65255959     4.53256875
Ce     8.19983395     0.45131172     7.75647893
Ce     0.55978923     4.86803684     1.38101475
Ce    -1.34780026     5.96831143     4.56598606
Ce    -1.40022160     3.66907411     7.72866702
Ce     4.38603242     4.86803684     1.38101475
Ce     2.45453093     5.99938807     4.53960607
Ce     8.21216082     4.86803684     1.38101475
Ce     6.29588987     5.96433432     4.55917922
Ce     6.32490302     3.74043571     7.75107528
Ce    -1.35333237     8.18166064     1.38101475
Ce    -3.26536938     9.28684261     4.56095414
Ce    -3.26818235     7.05429827     7.73676031
Ce     2.47291082     8.18166064     1.38101475
Ce     0.55109727     9.29228062     4.56787712
Ce     0.53236430     7.14950164     7.78981283
Ce     6.29903923     8.18166064     1.38101475
Ce     4.38923359     9.29842769     4.56825455
Ce     4.40672491     7.14368122     7.75992995
Mn     3.12467997     4.14741001     7.22663198
C      1.91187143     5.08233285    10.92287369
