82
CIF: Mn-CeO2-Ov+O2.cif | data_image0
O      0.55978923     0.45000431     0.59999690
O      2.46975320     1.57637630     3.75712936
O      0.48976932     2.66455499     6.97339944
O      0.55978923     2.65902057     2.16203261
O      0.57044829     0.45681861     5.37986287
O      2.47109015     1.10160867     8.75195396
O      4.38603242     0.45000431     0.59999690
O      6.29993931     1.55585039     3.73092978
O      4.28786616     2.70875149     6.97405165
O      4.38603242     2.65902057     2.16203261
O      4.38358482     0.48313420     5.38687412
O      6.29728855     1.59986737     8.54598141
O      8.21216082     0.45000431     0.59999690
O     10.12842784     1.54960062     3.75660461
O      8.22713474     2.65216622     6.91955674
O      8.21216082     2.65902057     2.16203261
O      8.20314170     0.44716934     5.37707701
O     10.06785852     1.50511113     8.59507725
O     -1.35327498     3.76352871     0.59999690
O      0.57589607     4.86930402     3.76532078
O     -1.26914528     5.94264550     6.97479771
O     -1.35333237     5.97264438     2.16203261
O     -1.37456351     3.77224770     5.35155014
O      2.47296821     3.76352871     0.59999690
O      4.38336277     4.87284888     3.73919740
O      2.37637197     5.87339114     7.02938675
O      2.47291082     5.97264438     2.16203261
O      2.51798286     3.80445164     5.42565589
O      4.35733991     4.87556167     8.44484501
O      6.29909662     3.76352871     0.59999690
O      8.19704512     4.86266915     3.73784119
O      6.29605847     5.98503207     6.90887183
O      6.29903923     5.97264438     2.16203261
O      6.28329414     3.73946157     5.39390786
O      8.16675635     4.86938715     8.53452923
O     -3.26639657     7.07715251     0.59999690
O     -1.34841064     8.18479090     3.75043151
O     -3.26921452     9.21615982     6.86957549
O     -3.26639657     9.28616878     2.16203261
O     -3.23867567     7.02969498     5.37543344
O     -1.34825585     8.16447077     8.57065357
O      0.55984662     7.07715251     0.59999690
O      2.47241027     8.18907520     3.73517078
O      0.53303971     9.30689378     6.94123819
O      0.55984662     9.28616878     2.16203261
O      0.57810456     7.11022909     5.38830492
O      2.45501851     8.20041868     8.53904209
O      4.38597502     7.07715251     0.59999690
O      6.29013657     8.16759844     3.76344883
O      4.39158820     9.28907194     6.92605042
O      4.38597502     9.28616878     2.16203261
O      4.33244524     7.06139710     5.41274803
O      6.28498125     8.13570673     8.56820046
O     -0.45102376     4.39320870     9.96759002
O      0.35442668     4.99594798     9.09097823
Ce     2.47285343     1.55451244     1.38101475
Ce     0.55401290     2.65826248     4.63457543
Ce     0.59910151     0.47725131     7.79470101
Ce     6.29909662     1.55451244     1.38101475
Ce     4.38748195     2.64294560     4.53476445
Ce     4.29843215     0.45447760     7.81716543
Ce    10.12522502     1.55451244     1.38101475
Ce     8.21786200     2.65769904     4.54454580
Ce     8.20956791     0.46894969     7.75614727
Ce     0.55978923     4.86803684     1.38101475
Ce    -1.34886086     5.96331225     4.56730849
Ce    -1.36063059     3.68455103     7.77638445
Ce     4.38603242     4.86803684     1.38101475
Ce     2.45781881     5.99516526     4.53471404
Ce     8.21216082     4.86803684     1.38101475
Ce     6.29582997     5.96338681     4.55963080
Ce     6.33474337     3.74665000     7.75082192
Ce    -1.35333237     8.18166064     1.38101475
Ce    -3.26428091     9.28627248     4.56200276
Ce    -3.27170044     7.05508572     7.74357695
Ce     2.47291082     8.18166064     1.38101475
Ce     0.55067440     9.30522655     4.55492197
Ce     0.53341686     7.19763240     7.73296202
Ce     6.29903923     8.18166064     1.38101475
Ce     4.38845824     9.29454425     4.56594356
Ce     4.40329979     7.13760397     7.75775286
Mn     3.12150137     4.15337349     7.23136375
