80
CIF: Mn-CeO2-Ov.cif | data_image0
O      0.55978923     0.45000431     0.59999690
O      2.47369300     1.57336755     3.76028626
O      0.59440953     2.62272993     6.97847604
O      0.55978923     2.65902057     2.16203261
O      0.57115656     0.44022141     5.36947060
O      2.48520872     1.07949167     8.80546678
O      4.38603242     0.45000431     0.59999690
O      6.30526097     1.56202597     3.72654676
O      4.28503147     2.70749049     6.97011330
O      4.38603242     2.65902057     2.16203261
O      4.38764425     0.48373241     5.37980824
O      6.29282260     1.61140551     8.57214764
O      8.21216082     0.45000431     0.59999690
O     10.13331949     1.55136467     3.76023851
O      8.19750733     2.63642415     6.92048275
O      8.21216082     2.65902057     2.16203261
O      8.21389798     0.44667526     5.36989659
O     10.07743136     1.40157345     8.65298434
O     -1.35327498     3.76352871     0.59999690
O      0.57749108     4.87373798     3.76844417
O     -1.18049955     5.96217587     7.08061641
O     -1.35333237     5.97264438     2.16203261
O     -1.36583486     3.77658548     5.34988758
O      2.47296821     3.76352871     0.59999690
O      4.39125588     4.87714939     3.73153051
O      2.30507110     5.83907160     7.08438748
O      2.47291082     5.97264438     2.16203261
O      2.53746625     3.82025933     5.40526987
O      4.34088893     4.87533568     8.44321794
O      6.29909662     3.76352871     0.59999690
O      8.20363248     4.86698670     3.74048322
O      6.29114835     5.99777835     6.89899796
O      6.29903923     5.97264438     2.16203261
O      6.28471028     3.74444649     5.39186421
O      8.08826344     4.92555906     8.59882824
O     -3.26639657     7.07715251     0.59999690
O     -1.34860630     8.18285899     3.74818367
O     -3.26381496     9.21919506     6.87857063
O     -3.26639657     9.28616878     2.16203261
O     -3.20231088     7.01142380     5.40692093
O     -1.32994104     8.20681116     8.60570590
O      0.55984662     7.07715251     0.59999690
O      2.47499753     8.18954451     3.72758001
O      0.54345160     9.34391578     6.92690582
O      0.55984662     9.28616878     2.16203261
O      0.58178531     7.13409203     5.37415685
O      2.46182342     8.20684937     8.55312563
O      4.38597502     7.07715251     0.59999690
O      6.29862974     8.15210323     3.77511864
O      4.39904866     9.27030974     6.91480478
O      4.38597502     9.28616878     2.16203261
O      4.30874099     7.04337639     5.42345181
O      6.28742209     8.12082279     8.58480950
Ce     2.47285343     1.55451244     1.38101475
Ce     0.56751452     2.64896766     4.65500993
Ce     0.60954387     0.46852686     7.79912040
Ce     6.29909662     1.55451244     1.38101475
Ce     4.39323349     2.64395949     4.53088164
Ce     4.29643090     0.47642773     7.83844354
Ce    10.12522502     1.55451244     1.38101475
Ce     8.22495209     2.65806726     4.54433199
Ce     8.22960170     0.47319957     7.77232806
Ce     0.55978923     4.86803684     1.38101475
Ce    -1.33735473     5.96002937     4.57495987
Ce    -1.39578654     3.64658998     7.76664427
Ce     4.38603242     4.86803684     1.38101475
Ce     2.45857915     5.99519084     4.52405898
Ce     8.21216082     4.86803684     1.38101475
Ce     6.30274727     5.95781224     4.56300235
Ce     6.32494877     3.75626194     7.76174595
Ce    -1.35333237     8.18166064     1.38101475
Ce    -3.25698641     9.28279731     4.56917376
Ce    -3.26885151     7.05758645     7.77426339
Ce     2.47291082     8.18166064     1.38101475
Ce     0.55521338     9.32119985     4.53612745
Ce     0.54294755     7.28301766     7.68397260
Ce     6.29903923     8.18166064     1.38101475
Ce     4.39104994     9.29357220     4.56577549
Ce     4.41144974     7.13490239     7.75621337
Mn     3.10904741     4.14385307     7.21997766
