83
CIF: Mn-CeO2-Ov+CO2.cif | data_image0
O      0.55978923     0.45000431     0.59999690
O      2.47278259     1.56897655     3.75887286
O      0.57229877     2.59535872     6.93993153
O      0.55978923     2.65902057     2.16203261
O      0.56743259     0.42195928     5.35736005
O      2.46566184     1.12185396     8.79359769
O      4.38603242     0.45000431     0.59999690
O      6.30316040     1.55941429     3.72658150
O      4.28169871     2.70920402     6.96332556
O      4.38603242     2.65902057     2.16203261
O      4.38494868     0.47982551     5.38147826
O      6.27790449     1.60603432     8.56845709
O      8.21216082     0.45000431     0.59999690
O     10.12941947     1.54961096     3.75913681
O      8.19766158     2.63118580     6.92840867
O      8.21216082     2.65902057     2.16203261
O      8.20872945     0.44399530     5.36923576
O     10.08017747     1.39127599     8.65119209
O     -1.35327498     3.76352871     0.59999690
O      0.57436529     4.87369083     3.76618756
O     -1.18335202     5.96022332     7.07958730
O     -1.35333237     5.97264438     2.16203261
O     -1.37253489     3.77940806     5.35056139
O      1.03334285     4.09313783     9.73899913
O      2.47296821     3.76352871     0.59999690
O      4.39141142     4.87406125     3.72911803
O      2.32436163     5.85444739     7.05415220
O      2.47291082     5.97264438     2.16203261
O      2.53358545     3.81900939     5.39742239
O      4.31724538     4.86514632     8.45991935
O      6.29909662     3.76352871     0.59999690
O      8.20183014     4.86692743     3.73982300
O      6.27870424     5.98436393     6.90289857
O      6.29903923     5.97264438     2.16203261
O      6.28413418     3.74003324     5.39170554
O      8.08664671     4.92121283     8.59883064
O     -3.26639657     7.07715251     0.59999690
O     -1.35247784     8.18012866     3.74791035
O     -3.26648558     9.22204312     6.88462418
O     -3.26639657     9.28616878     2.16203261
O     -3.20902741     7.00922315     5.41226998
O     -1.33918536     8.20646261     8.60260141
O      0.55984662     7.07715251     0.59999690
O      2.47203624     8.18956376     3.72608681
O      0.53875875     9.33567020     6.93047636
O      0.55984662     9.28616878     2.16203261
O      0.57713807     7.13217520     5.37389335
O      2.45695539     8.19835206     8.55521581
O      4.38597502     7.07715251     0.59999690
O      6.30008534     8.14715058     3.76819850
O      4.38806312     9.26416969     6.90860668
O      4.38597502     9.28616878     2.16203261
O      4.31486334     7.04386249     5.41306268
O      6.28219353     8.11613332     8.57714073
O      2.69722991     3.24740831    11.17145731
Ce     2.47285343     1.55451244     1.38101475
Ce     0.56026062     2.64525929     4.64654834
Ce     0.59857206     0.45940048     7.78077559
Ce     6.29909662     1.55451244     1.38101475
Ce     4.39207216     2.64084611     4.52620166
Ce     4.28690345     0.47614507     7.83370680
Ce    10.12522502     1.55451244     1.38101475
Ce     8.22392659     2.65776888     4.54995218
Ce     8.22514624     0.46973116     7.76552572
Ce     0.55978923     4.86803684     1.38101475
Ce    -1.34047791     5.95573889     4.57569850
Ce    -1.37532360     3.64442447     7.78693681
Ce     4.38603242     4.86803684     1.38101475
Ce     2.45617474     5.99611782     4.52019310
Ce     8.21216082     4.86803684     1.38101475
Ce     6.30016235     5.95497467     4.56032481
Ce     6.32493831     3.75064229     7.76028759
Ce    -1.35333237     8.18166064     1.38101475
Ce    -3.25904011     9.27853508     4.56583857
Ce    -3.27275748     7.05009463     7.77302605
Ce     2.47291082     8.18166064     1.38101475
Ce     0.55169489     9.31819342     4.53735670
Ce     0.53801380     7.27399562     7.68894049
Ce     6.29903923     8.18166064     1.38101475
Ce     4.38885187     9.28906814     4.55899998
Ce     4.40375026     7.12932146     7.74870090
Mn     3.11555096     4.15306792     7.19704777
C      1.87795612     3.64688378    10.44077536
