84
CIF: W-Y-CeO2-CO.cif | data_image0
Ce     1.93596140     1.11772783     0.89035214
Ce    -0.00175438     2.23313932     4.03789459
Ce    11.60828292     0.00548025     7.21539592
Ce     5.80789581     1.11772783     0.89035214
Ce     3.87102016     2.21938681     4.01041218
Ce    -2.06239991     9.99528435     7.15643835
Ce     9.67981860     1.11772783     0.89035214
Ce     7.74957753     2.23219267     4.09280398
Ce     2.05227554     9.99573862     7.24999765
Ce     0.00000000     4.47091133     0.89035214
Ce    -1.94495412     5.58362821     4.06629350
Ce    -1.82722044     3.28275919     7.24947085
Ce     3.87193441     4.47091133     0.89035214
Ce     1.94682582     5.58258830     4.02843820
Ce     1.96945813     3.37030646     7.18778194
Ce     7.74385721     4.47091133     0.89035214
Ce     5.82186150     5.59784905     4.01033750
Ce    -1.93596721     7.82410489     0.89035214
Ce    -3.88454108     8.94944819     3.97956255
Ce    -3.87920933     6.84946923     7.15649486
Ce     1.93596721     7.82410489     0.89035214
Ce    -0.00039139     8.95292955     4.06734777
Ce     0.02688905     6.68855244     7.22832415
Ce     5.80789000     7.82410489     0.89035214
Ce     3.87323589     8.94467526     4.03666565
Ce     3.87435026     6.66911297     7.18766328
Y      5.67768774     3.42942977     6.93513493
O      0.00000000     0.00000000     0.09999685
O      1.93165118     1.12159572     3.20804714
O      0.09078295     2.21808199     6.37542761
O      0.00000000     2.23545567     1.68070743
O     11.61386139     0.00125438     4.82041955
O      1.96767919     1.08149531     8.00879066
O      3.87192279     0.00000000     0.09999685
O      5.80530161     1.10371983     3.24760427
O      3.99401859     2.11834754     6.45757841
O      3.87192279     2.23545567     1.68070743
O     -1.97542298    10.03814700     4.81444713
O      6.16120261     1.31763501     8.92725507
O      7.74385721     0.00000000     0.09999685
O      9.68043828     1.11697646     3.23500083
O      7.60841094     2.31556821     6.47636115
O      7.74385721     2.23545567     1.68070743
O      1.94968939    10.05228080     4.82573641
O      9.85997144     1.01518243     8.10205584
O     -1.93596140     3.35318350     0.09999685
O      0.01206664     4.48657878     3.25356058
O     -2.07274708     5.59620714     6.50678787
O     -1.93596721     5.58864923     1.68070743
O     -1.92240748     3.34373145     4.82512640
O      0.15313611     4.54801375     8.01016309
O      1.93596140     3.35318350     0.09999685
O      3.85622635     4.48084950     3.20143629
O      1.93752871     5.58736106     6.31418714
O      1.93595559     5.58864923     1.68070743
O      2.00206940     3.32580643     4.85451028
O      5.80789581     3.35318350     0.09999685
O      7.75563607     4.48059175     3.24751892
O      5.97096118     5.54292830     6.45696988
O      5.80789000     5.58864923     1.68070743
O      5.75171422     3.38634390     4.74627712
O      7.73834675     4.05155853     8.93481564
O     -3.87192860     6.70637706     0.09999685
O     -1.92479958     7.81776315     3.22374939
O     -3.88839625     8.95172607     6.35524959
O     -3.87192860     8.94183273     1.68070743
O     -3.87114534     6.75112550     4.81498190
O     -2.01731152     7.86970880     8.03817671
O     -0.00000581     6.70637706     0.09999685
O      1.92897103     7.80577939     3.25324277
O     -0.07809079     9.05589336     6.50460605
O     -0.00000581     8.94183273     1.68070743
O     -0.04834283     6.73397073     4.91593207
O      3.87192860     6.70637706     0.09999685
O      5.80254494     7.82563031     3.20812898
O      3.93374669     8.87437432     6.37523615
O      3.87192860     8.94183273     1.68070743
O      3.92858257     6.66423610     4.85523462
O      5.85487897     7.81525046     8.00906093
O      3.83140003     4.49608622     7.89545260
O      1.94451078     7.65438464     8.00750703
O      5.29531809     3.62755635    12.31006304
W      6.94594355     2.68493707     9.78406306
C      5.97121583     3.24237891    11.43457201
