83
CIF: W-Y-CeO2-O-CO.cif | data_image0
Ce     1.93935099     1.12959346     0.86348801
Ce     0.00596033     2.22084360     4.05900525
Ce    -5.64620548     9.95147291     7.13941547
Ce     5.81974898     1.11977679     0.90418367
Ce     3.86403316     2.21836991     4.05055493
Ce    -2.02193439     9.98994943     7.16973298
Ce     9.67488691     1.11987213     0.90785063
Ce     7.73920911     2.23581853     4.10108587
Ce     1.94229079     9.97267824     7.19849943
Ce     0.00248263     4.46521021     0.90021942
Ce    -1.93928133     5.58686476     4.03364058
Ce    -1.87627554     3.40662210     7.20197689
Ce     3.86997803     4.46700638     0.90040238
Ce     1.93784348     5.57545947     4.06326534
Ce     1.96787313     3.35851996     7.30448800
Ce     7.74743358     4.45620324     0.89461956
Ce     5.82539922     5.59731738     4.02248616
Ce    -1.91597845     7.81293514     0.85167783
Ce    -3.85522416     8.93057631     3.91886650
Ce    -3.86222552     6.80503431     7.14968670
Ce     1.93924431     7.82249520     0.89913447
Ce     0.00102738     8.94168439     4.04197314
Ce     0.03128559     6.68601178     7.23856620
Ce     5.79883496     7.81525794     0.85317703
Ce     3.88615685     8.94411224     4.04222469
Ce     3.87817676     6.66500445     7.22676269
Y      5.69472161     3.43825917     7.01413608
O     11.60197820     0.00820178     0.10226004
O      1.93955344     1.10588470     3.18300501
O     -0.12663456     2.04437152     6.53798842
O     -0.00211153     2.24589363     1.70634994
O     -5.74931544    10.02028926     4.80375429
O      1.96887861     0.90637048     8.04788098
O      3.89622998     0.00917712     0.09987299
O      5.80116284     1.10414663     3.25797429
O      4.02441574     2.09119528     6.48336028
O      3.87829772     2.24660955     1.69881954
O     -1.96419456    10.02575556     4.80634862
O      6.04949485     1.51680429     8.74665025
O      7.74902980     0.00934601     0.10807504
O      9.69737211     1.10444724     3.26496970
O      7.66519503     2.27567460     6.41082725
O      7.74865968     2.22944745     1.72974174
O      1.94561991    10.01143278     4.80788296
O      8.96078526     1.52260415     8.97504999
O      9.67481582     3.34038704     0.10728360
O      0.03009461     4.48698633     3.25100458
O     -2.09245091     5.59906655     6.45690289
O     -1.92451343     5.57272490     1.68767766
O     -1.89341592     3.36909410     4.80502176
O      0.01324186     4.64362110     8.03448537
O      1.93609765     3.34177724     0.09226039
O      3.83458783     4.49555212     3.24258089
O      1.95373521     5.61944653     6.32099254
O      1.93220513     5.58605946     1.67152822
O      1.92785648     3.26464944     4.88358486
O      5.81962872     3.34164955     0.11028399
O      7.75005018     4.47563365     3.24538698
O      6.00173695     5.55796077     6.42169135
O      5.80294244     5.57460703     1.68408955
O      5.74981557     3.38689702     4.77275890
O      7.50535368     4.04867804     8.73481094
O      7.74704300     6.68152933     0.09316462
O     -1.91480700     7.81791739     3.17517948
O     -3.84140659     8.90533634     6.31363736
O     -3.86300937     8.93314742     1.61980166
O     -3.86004405     6.74956408     4.77547532
O     -1.99734613     7.84716275     8.01867019
O     -0.00387116     6.70968291     0.08805462
O      1.94367698     7.78177532     3.25595568
O     -0.06136537     9.04703970     6.49559165
O      0.02415922     8.93778606     1.69608357
O     -0.05723798     6.73413773     4.90279360
O      3.87747743     6.70993243     0.09273074
O      5.80626497     7.82383520     3.17228673
O      3.96545805     9.06843812     6.50530365
O      3.85819508     8.93949358     1.69843071
O      3.95117535     6.74531388     4.90517385
O      5.89881354     7.81994574     8.00135048
O      1.95514151     7.68645813     8.01082019
O      3.94775309     4.59725187     7.95401796
O      7.33109419     2.46745377    11.27255075
W      7.45089287     2.39600655     9.54074073
