83
CIF: Co-Ti-CeO2-O.cif | data_image0
Ce     1.93038582     1.11050507     0.88387043
Ce    -0.00915904     2.23419822     4.05055941
Ce    -5.78181838    10.04313330     7.18770281
Ce     5.81181033     1.12175166     0.90127712
Ce     3.80879684     2.19703820     3.99126215
Ce    -1.98008394     9.97558335     7.31314549
Ce     9.66901012     1.12377363     0.90450652
Ce     7.73013316     2.24339266     4.02733522
Ce     1.98982958     9.96071532     7.29040228
Ce    -0.00709724     4.47602159     0.89067279
Ce    -1.95117226     5.58337802     4.07731074
Ce    -1.80876280     3.36723671     7.26523129
Ce     3.86254305     4.47635356     0.87798423
Ce     1.94729840     5.57771448     4.07589072
Ce     1.90859462     3.27401476     7.28886774
Ce     7.74213807     4.46545905     0.90125422
Ce     5.81335522     5.65332214     3.97697034
Ce    -1.94645625     7.83004003     0.90010904
Ce    -3.85756569     8.92262903     4.07176808
Ce    -3.84352802     6.68203292     7.31147353
Ce     1.92815559     7.82745473     0.89060408
Ce    -0.00365316     8.95782743     4.09206062
Ce     0.01408994     6.69055337     7.25249692
Ce     5.81127600     7.83258510     0.88371011
Ce     3.86674216     8.96733371     4.03093107
Ce     3.89824415     6.78847313     7.18628279
Ti     5.53100465     3.50519352     6.55419095
Co     6.88381324     2.78511006     8.64862789
O     11.61334069     0.00154917     0.10141687
O      1.91441413     1.10551553     3.21510705
O     -0.01167386     2.22046692     6.37458141
O     -0.00785227     2.23805103     1.69392277
O      5.80948136    10.05475209     4.83718142
O      1.80182818     1.00732416     8.07100066
O     -1.93899312    10.05733740     0.10496691
O      5.80583981     1.11030388     3.23782736
O      4.10970362     2.29938417     6.40776863
O      3.86763657     2.23577757     1.68132582
O      3.85578848     0.00639788     4.83757078
O      6.45046914     1.04280423     8.72695799
O      7.73821774     0.00761509     0.10924988
O      9.67131004     1.12236529     3.22021454
O      7.19481994     2.56938278     6.61942023
O      7.74357843     2.23531483     1.71563532
O      7.77016695     0.13025119     4.91482441
O      9.62894729     1.13433617     7.88502393
O      9.67032270     3.35425987     0.10911246
O     -0.01982233     4.46848698     3.27261783
O     -1.95009199     5.49829425     6.39869883
O     -1.94403436     5.59119430     1.70564938
O      9.58782163     3.26769735     4.90016615
O     -0.03282039     4.51095844     8.05045619
O      1.92738314     3.35244915     0.09928684
O      3.83418893     4.49741828     3.19573066
O      2.06864264     5.59269317     6.45522476
O      1.92862022     5.59252216     1.67404250
O      1.95802557     3.32412143     4.82680612
O      5.81155478     3.35101064     0.10766953
O      7.74658691     4.46507679     3.22811626
O      5.80915612     5.37619131     6.36842036
O      5.80528807     5.59217007     1.68114259
O      5.72157314     3.39997052     4.67541373
O      8.14674473     4.07890032     8.65410183
O     -3.87155109     6.71022987     0.10512724
O     -1.91548278     7.81467908     3.26599871
O     -3.88989241     8.89309416     6.40905123
O     -3.87509971     8.94378428     1.69355631
O      7.72027136     6.69098593     4.81324722
O     -1.78256921     7.70608613     8.07006161
O     -0.01209783     6.71325780     0.10434852
O      1.93006639     7.84921356     3.27545787
O      0.08610197     8.99112457     6.44514721
O     -0.00628994     8.94736548     1.70514550
O      0.01572777     6.69968745     4.91086210
O      2.01142912     7.81471932     8.05576981
O      3.86815347     6.71410280     0.09951587
O      5.80078114     7.84983725     3.20720533
O      3.86455258     8.92304147     6.36429772
O      3.86556896     8.94715423     1.69389986
O      3.91842657     6.72156700     4.83562398
O      5.67950659     7.81240562     8.00604623
O      3.84152213     4.32369456     7.79996411
O      6.05882491     3.29017177     9.96484443
