86
CIF: 5-NHNO+2H-N2O+3H_fs.cif | data_image0
Ce    -0.00002003     0.03692670     8.79781049
Ce     1.92151382     1.12069812     5.59817928
Ce     0.00000000     2.23543938     2.47426506
Ce     3.77122405     0.06426575     8.78508886
Ce     5.80539799     1.09216296     5.65169852
Ce     3.87189458     2.23543938     2.47426506
Ce     7.84618518     0.07118757     8.79217630
Ce     9.69272007     1.12497491     5.60607351
Ce     7.74390532     2.23543938     2.47426506
Ce    -1.89985956     3.30022121     8.83044477
Ce    -0.00188213     4.47072792     5.57023079
Ce    -1.93600537     5.58869904     2.47426506
Ce     1.89323069     3.28348267     8.80456788
Ce     3.85866704     4.47567647     5.66751251
Ce     1.93588921     5.58869904     2.47426506
Ce     5.80335833     3.34511513     8.82408660
Ce     7.75100949     4.47362127     5.66546105
Ce     5.80789995     5.58869904     2.47426506
Ce     7.64743661     6.73228781     8.80974508
Ce    -1.96079395     7.81680464     5.60082287
Ce    -3.87195266     8.94185811     2.47426506
Ce     1.96087470     7.82151918     5.60248126
Ce    -0.00005808     8.94185811     2.47426506
Ce     3.98761280     6.75446124     8.79942248
Ce     5.80890699     7.82849457     5.60585536
Ce     3.87195266     8.94185811     2.47426506
Rh     0.00160268     7.19311070     8.32456371
O     -0.00005829     0.01159269     6.39275362
O     -0.00036116     2.07591930     9.66934095
O      1.93594729     1.11771969     3.26466483
O      0.00020928     2.22682997     4.77501432
O      0.00000000     0.00000000     1.68386529
O      1.93772336     1.11129385     7.92222260
O     -1.95772914    10.01829731     6.44027267
O      3.93775128     2.14328919     9.63712237
O      5.80795803     1.11771969     3.26466483
O      3.86426563     2.23679074     4.84620287
O      3.87189458     0.00000000     1.68386529
O      5.81132018     0.96458560     8.02092604
O      1.95631548    10.01746529     6.44208657
O      7.67392756     2.14555866     9.65602520
O      9.67985261     1.11771969     3.26466483
O      7.74571157     2.23896227     4.85252329
O      7.74390532     0.00000000     1.68386529
O      9.67243851     1.10929543     7.92570893
O     -1.81945616     3.39338682     6.42874326
O     -2.39326491     5.36794355    10.67357021
O      0.00000000     4.47087876     3.26466483
O     -1.94218424     5.59350833     4.79958381
O     -1.93594729     3.35315907     1.68386529
O      0.02400504     4.95136408     8.59816098
O      1.82764619     3.38755628     6.42342478
O      3.87201074     4.47087876     3.26466483
O      1.94369717     5.59527529     4.80050725
O      1.93594729     3.35315907     1.68386529
O      3.81715464     4.49220765     8.01809567
O      5.78837606     3.31082317     6.48810804
O      5.81493736     5.42824361     9.71808301
O      7.74390532     4.47087876     3.26466483
O      5.80443796     5.55926469     4.84224041
O      5.80795803     3.35315907     1.68386529
O      7.76841809     4.46492293     7.98138107
O     -3.86846566     6.73521325     6.38098274
O     -3.84054659     9.09133226     9.64651882
O     -1.93600537     7.82413842     3.26466483
O     -3.86936936     8.95063650     4.79606974
O     -3.87195266     6.70641873     1.68386529
O     -1.86567439     7.73692075     8.07606984
O      0.00272820     6.64585114     6.38305205
O     -0.00794069     8.74480105     9.89474017
O      1.93600537     7.82413842     3.26466483
O      0.00045966     8.93431318     4.82438436
O     -0.00005808     6.70641873     1.68386529
O      1.86914667     7.74108185     8.09446637
O      3.86969980     6.73831854     6.38369644
O      3.84846399     9.09752622     9.65417003
O      5.80789995     7.82413842     3.26466483
O      3.86903386     8.95252958     4.79607409
O      3.87195266     6.70641873     1.68386529
O      5.80512919     7.88132362     7.98024909
O      2.30915124     5.67484642    11.07373885
N      0.25136308     6.26402436    12.02314238
N      1.25699267     5.98147052    11.55448336
H     -2.81981560     5.18150716    11.52945679
H     -1.52094058     5.77242715    10.85630121
H     -0.08819670     8.46251881    10.82203803
