84
CIF: 6-OH+2H-H2O+H_is.cif | data_image0
Ce    -0.01259941     0.02829335     8.76557006
Ce     1.92309143     1.13585559     5.62491758
Ce     0.00000000     2.23543938     2.47426506
Ce     3.76389924     0.05767091     8.79026256
Ce     5.81041009     1.08564563     5.63477519
Ce     3.87189458     2.23543938     2.47426506
Ce     7.85628056     0.07522572     8.75415477
Ce     9.69290024     1.12351971     5.58990629
Ce     7.74390532     2.23543938     2.47426506
Ce    -1.90570857     3.37237063     8.76789307
Ce     0.00409851     4.47366884     5.64596925
Ce    -1.93600537     5.58869904     2.47426506
Ce     1.90496087     3.39006787     8.88500531
Ce     3.86318336     4.47168598     5.66215225
Ce     1.93588921     5.58869904     2.47426506
Ce     5.81717609     3.32108261     8.77355367
Ce     7.75189180     4.46692524     5.61608040
Ce     5.80789995     5.58869904     2.47426506
Ce     7.67248895     6.69118719     8.79767202
Ce    -1.97108040     7.82321561     5.58974674
Ce    -3.87195266     8.94185811     2.47426506
Ce     1.97539976     7.81578295     5.59314512
Ce    -0.00005808     8.94185811     2.47426506
Ce     3.92515331     6.68963202     8.89798172
Ce     5.79889902     7.81648114     5.63308586
Ce     3.87195266     8.94185811     2.47426506
Rh    -0.01566640     7.17224997     8.28611784
O     11.60891297     0.00353966     6.41804246
O     -0.13813372     2.21564509     9.57986951
O      1.93594729     1.11771969     3.26466483
O      0.00335625     2.22798316     4.80108664
O      0.00000000     0.00000000     1.68386529
O      1.91341480     1.09442806     7.98203216
O     -1.96150920    10.01670878     6.47358137
O      3.98214514     2.10984181     9.61293355
O      5.80795803     1.11771969     3.26466483
O      3.87102696     2.22149219     4.84677775
O      3.87189458     0.00000000     1.68386529
O      5.83756315     0.97632588     8.01915444
O      1.96961703    10.02514097     6.43619155
O      7.76098230     2.23096496     9.55585823
O      9.67985261     1.11771969     3.26466483
O      7.74619409     2.22355949     4.82048594
O      7.74390532     0.00000000     1.68386529
O      9.67577367     1.14913997     7.91532203
O     -1.88419587     3.35909825     6.41572815
O     -2.46896485     5.30443804    10.18254739
O      0.00000000     4.47087876     3.26466483
O     -1.94983084     5.59599952     4.80907435
O     -1.93594729     3.35315907     1.68386529
O     -0.13588959     4.76700450     8.12100664
O      1.87515119     3.37942340     6.43041229
O      3.87201074     4.47087876     3.26466483
O      1.94580703     5.59161098     4.81185484
O      1.93594729     3.35315907     1.68386529
O      3.92885003     4.44033482     7.97578763
O      5.83388663     3.29030516     6.45976523
O      5.96305552     5.51754254     9.62084674
O      7.74390532     4.47087876     3.26466483
O      5.81031917     5.56813434     4.83583908
O      5.80795803     3.35315907     1.68386529
O      7.80477281     4.48720888     7.92015071
O     -3.87636664     6.72921895     6.42587648
O     -3.85118184     8.96937737     9.60359323
O     -1.93600537     7.82413842     3.26466483
O     -3.87443750     8.95005210     4.80831654
O     -3.87195266     6.70641873     1.68386529
O     -1.90225626     7.67550004     8.06723080
O     -0.00183213     6.71445278     6.31962341
O     -0.01761694     8.74915600     9.81240696
O      1.93600537     7.82413842     3.26466483
O     -0.00738435     8.95714954     4.81364240
O     -0.00005808     6.70641873     1.68386529
O      1.83615458     7.75338335     8.03695979
O      3.86753527     6.73397021     6.40726981
O      3.84987633     9.11200174     9.59700779
O      5.80789995     7.82413842     3.26466483
O      3.88059351     8.94848686     4.79512794
O      3.87195266     6.70641873     1.68386529
O      5.85452642     7.86173505     8.00468810
O      2.39638647     5.35446350    10.25485958
H     -2.90388934     5.05610922    11.01941836
H      1.80387382     5.65922277    10.96164728
H     -0.06247595     8.34745813    10.69832678
