84
CIF: Pt-Rh-CeO2-CO.cif | data_image0
Ce     1.93038582     1.11050507     0.88387043
Ce    -0.00130326     2.22935349     4.03616173
Ce    -5.75821655    10.03077319     7.21793191
Ce     5.81181033     1.12175166     0.90127712
Ce     3.85183590     2.23437942     4.01327383
Ce    -1.90971884    10.03751290     7.22526142
Ce     9.66901012     1.12377363     0.90450652
Ce     7.73381636     2.24102945     4.09719850
Ce     2.01069421     9.98426608     7.23433980
Ce    -0.00709724     4.47602159     0.89067279
Ce    -1.94079864     5.58352278     4.05576462
Ce    -1.83396268     3.32557235     7.23449825
Ce     3.86254305     4.47635356     0.87798423
Ce     1.94121835     5.58550335     4.04419551
Ce     1.90136145     3.35028210     7.19272014
Ce     7.74213807     4.46545905     0.90125422
Ce     5.79876964     5.60679720     4.01289906
Ce    -1.94645625     7.83004003     0.90010904
Ce    -3.86351984     8.93695466     4.05677484
Ce    -3.84052599     6.69346853     7.22539088
Ce     1.92815559     7.82745473     0.89060408
Ce     0.00183441     8.94810504     4.05564657
Ce     0.00292456     6.70421615     7.18891059
Ce     5.81127600     7.83258510     0.88371011
Ce     3.87651152     8.94597715     4.03613715
Ce     3.85725284     6.73770378     7.19275010
Rh     4.88417121     3.88557628     6.53171991
Pt     6.80775216     2.77444974     8.25104590
O     11.61334069     0.00154917     0.10141687
O      1.93726697     1.11020133     3.22709090
O      0.03858842     2.22671140     6.39318488
O     -0.00785227     2.23805103     1.69392277
O     -5.79116099    10.04989953     4.85671328
O      1.97043542     1.09084534     7.99265504
O     -1.93899312    10.05733740     0.10496691
O      5.80819531     1.12137572     3.25011301
O      3.86842208     2.21016197     6.42858409
O      3.86763657     2.23577757     1.68132582
O      3.87819589     0.01045473     4.87224180
O      5.92661953     0.92201797     8.13738179
O      7.73821774     0.00761509     0.10924988
O      9.67555610     1.12005005     3.24845231
O      7.75896670     2.22615173     6.54315730
O      7.74357843     2.23531483     1.71563532
O      7.76042679     0.01975271     4.88571087
O      9.79856607     1.04901617     8.00117380
O      9.67032270     3.35425987     0.10911246
O     -0.01131871     4.46810954     3.23796220
O     -1.90882869     5.58376731     6.40853721
O     -1.94403436     5.59119430     1.70564938
O      9.67046701     3.32853834     4.88576755
O      0.03342924     4.45309779     8.01388844
O      1.92738314     3.35244915     0.09928684
O      3.86046450     4.47756121     3.20038209
O      1.89589347     5.61172108     6.37278047
O      1.92862022     5.59252216     1.67404250
O      1.92175333     3.34621102     4.83242491
O      3.77714816     4.52566486     8.04035458
O      5.81155478     3.35101064     0.10766953
O      7.74046340     4.46848946     3.24982729
O      5.82699658     5.60339461     6.42821054
O      5.80528807     5.59217007     1.68114259
O      5.81195425     3.35099716     4.82867883
O      7.97159391     4.46466400     8.13746178
O     -3.87155109     6.71022987     0.10512724
O     -1.94571778     7.82958238     3.24985504
O     -3.83071753     8.91741151     6.40911891
O     -3.87509971     8.94378428     1.69355631
O      7.73756274     6.69528329     4.87219059
O     -1.92197305     7.81530480     8.00548484
O     -0.01209783     6.71325780     0.10434852
O      1.93259648     7.83499894     3.23774580
O      0.01748128     8.91971174     6.40837790
O     -0.00628994     8.94736548     1.70514550
O     -0.01237390     6.71311029     4.83926066
O      1.96823757     7.80376895     8.01382170
O      3.86815347     6.71410280     0.09951587
O      5.81507496     7.82682497     3.22679648
O      3.89901761     8.91262223     6.39317478
O      3.86556896     8.94715423     1.69389986
O      3.87084088     6.72224136     4.83225567
O      5.84804427     7.80673265     7.99288905
O      5.69653548     3.41146645    10.95927175
C      6.10931066     3.17602123     9.90161316
