90
CIF: CH2CHCH2→CH2CCH2+H.cif | data_image0
O      0.00261135     0.00382715     0.19995339
O      1.93007434     1.10190452     3.31571877
O      0.25120244     2.44870317     6.59114703
O      0.00261135     2.21285656     1.76196664
O      0.03890911     0.07826905     4.97981028
O      2.08248026     0.52818557     8.78366848
O      3.82876252     0.00382715     0.19995339
O      5.74021101     1.09597676     3.30676667
O      3.16066073     2.63707805     7.16500986
O      3.82876252     2.21285656     1.76196664
O      3.86241779     0.17987954     5.08540614
O      5.65556358     0.99067431     8.15372253
O      7.65492518     0.00382715     0.19995339
O      9.55850768     1.10276008     3.33251825
O      7.64358106     2.20482790     6.52318025
O      7.65492518     2.21285656     1.76196664
O      7.63676708     0.00743921     4.96302473
O      9.51296413     1.21653063     8.19424537
O     -1.91046424     3.31737126     0.19995339
O     -0.00185957     4.40808289     3.33414551
O     -1.79682137     5.37413900     6.61377458
O     -1.91046998     5.52641062     1.76196664
O      9.58518061     3.24485170     4.98740192
O      0.92931764     4.01607474     8.48671020
O      1.91568694     3.31737126     0.19995339
O      3.83307073     4.43200022     3.31531211
O      2.00391418     5.24020877     6.52447110
O      1.91568120     5.52641062     1.76196664
O      1.92451946     3.31194390     4.91754134
O      4.32370804     4.83673050     8.89423339
O      5.74184959     3.31737126     0.19995339
O      7.63976416     4.39809920     3.39604254
O      5.79137891     5.50797736     6.50582083
O      5.74184385     5.52641062     1.76196664
O      5.59816905     3.22158873     5.03473831
O      7.76006285     4.41213866     8.27076600
O     -3.82354556     6.63092532     0.19995339
O     -1.89909315     7.76903148     3.39513467
O     -3.71699059     8.82587919     6.51408043
O     -3.82354556     8.83995473     1.76196664
O     -3.74969383     6.60009744     5.01215867
O     -1.91526630     7.68859369     8.24827991
O      0.00260561     6.63092532     0.19995339
O      1.91620245     7.75347965     3.33258971
O      0.01566525     8.79017733     6.51164369
O      0.00260561     8.83995473     1.76196664
O      0.05891174     6.59187885     4.96427126
O      1.98192118     7.84518227     8.23035121
O      3.82876826     6.63092532     0.19995339
O      5.77299285     7.73592993     3.39439355
O      3.83652217     8.90536125     6.51186943
O      3.82876826     8.83995473     1.76196664
O      3.80210103     6.63334920     4.96286325
O      5.90181597     7.68012327     8.21722721
Ce     1.91568694     1.10834185     0.98097142
Ce    -0.00941243     2.18977780     4.11322466
Ce    -5.67774403     9.93176542     7.47627360
Ce     5.74184959     1.10834185     0.98097142
Ce     3.84155508     2.21416397     4.06433395
Ce    -1.85486933     9.77512293     7.46212648
Ce     9.56800076     1.10834185     0.98097142
Ce     7.62556968     2.19974435     4.16741615
Ce     1.92018505     9.91631695     7.34493331
Ce     0.00261135     4.42188597     0.98097142
Ce    -1.88212489     5.50813553     4.20585828
Ce     9.43342923     3.24018468     7.34769641
Ce     3.82877400     4.42188597     0.98097142
Ce     1.93232178     5.56062917     4.10460348
Ce     7.65492518     4.42188597     0.98097142
Ce     5.74377182     5.51748663     4.21297936
Ce     5.74114027     3.34421829     7.53392664
Ce    -1.91046998     7.73544003     0.98097142
Ce    -3.80780916     8.85191995     4.20300042
Ce    -3.79185142     6.59979955     7.40073259
Ce     1.91569268     7.73544003     0.98097142
Ce     0.00908275     8.83671063     4.17469632
Ce     0.09374176     6.64486802     7.45033465
Ce     5.74184385     7.73544003     0.98097142
Ce     3.85136304     8.84715592     4.18636987
Ce     3.93314137     6.72678819     7.42104943
V      1.73052193     3.47895072     6.84665077
C      3.81298429     4.75415786    10.19713875
C      2.75080951     3.71854145    10.38980297
C      2.74322028     2.65474578    11.17922284
H      3.41567063     5.73615400    10.53840598
H      4.62869955     4.49789614    10.91785026
H      1.61474534     3.93226503     9.33330482
H      2.23843114     1.35935828     9.27339976
H      1.88289091     1.98890221    11.29742684
H      3.63855694     2.38521544    11.76315018
