90
CIF: H2O.cif | data_image0
O      0.00261135     0.00382715     0.19995339
O      1.91350298     1.12018148     3.31727298
O      0.48098049     2.44608603     7.04616111
O      0.00261135     2.21285656     1.76196664
O     -0.02212739     0.13448270     5.01282079
O      1.98970978     0.77917793     9.34043307
O      3.82876252     0.00382715     0.19995339
O      5.77768813     1.09679662     3.31599562
O      3.32097871     2.46394617     7.16132237
O      3.82876252     2.21285656     1.76196664
O      3.85550577     0.15097588     5.00516749
O      5.86989291     1.03479788     8.23907597
O      7.65492518     0.00382715     0.19995339
O      9.54632719     1.10971734     3.33000584
O      7.70967894     2.27426298     6.51181621
O      7.65492518     2.21285656     1.76196664
O      7.65232853     0.01347718     4.98618169
O      9.50498031     1.21332235     8.22877265
O     -1.91046424     3.31737126     0.19995339
O      0.02672892     4.40926828     3.31625010
O     -1.95758341     5.57098549     6.46605894
O     -1.91046998     5.52641062     1.76196664
O     -1.74522077     3.25947494     5.05947075
O     -0.49758911     4.71676813     8.51917246
O      1.91568694     3.31737126     0.19995339
O      3.81593262     4.41702100     3.32062351
O      1.94592685     5.01839573     6.96138883
O      1.91568120     5.52641062     1.76196664
O      1.94326844     3.28250048     4.94459661
O      4.43682759     4.66178862     9.03238182
O      5.74184959     3.31737126     0.19995339
O      7.66382940     4.39569752     3.43183277
O      5.74992530     5.55006477     6.52216257
O      5.74184385     5.52641062     1.76196664
O      5.61078373     3.23293632     5.02820921
O      7.74509016     4.52006828     8.30138086
O     -3.82354556     6.63092532     0.19995339
O     -1.87841207     7.74777946     3.41506434
O     -3.81324916     8.88954170     6.54252807
O     -3.82354556     8.83995473     1.76196664
O     -3.83859241     6.66685426     4.95577900
O     -1.92971850     7.66656046     8.30189756
O      0.00260561     6.63092532     0.19995339
O      1.91033006     7.75356431     3.32897732
O     -0.01077194     8.77892228     6.48637739
O      0.00260561     8.83995473     1.76196664
O      0.13318983     6.53303695     5.04475877
O      1.76775501     7.75440151     8.20781920
O      3.82876826     6.63092532     0.19995339
O      5.70983882     7.75933872     3.41500693
O      3.81015751     8.84421125     6.56563770
O      3.82876826     8.83995473     1.76196664
O      3.70708205     6.58332147     5.01228998
O      5.87961031     7.72205178     8.34845309
Ce     1.91568694     1.10834185     0.98097142
Ce    -0.05474268     2.17820616     4.04927937
Ce     5.66130899     9.89111910     7.47446892
Ce     5.74184959     1.10834185     0.98097142
Ce     3.90744375     2.17792846     4.03097189
Ce    -1.80291918     9.85075766     7.45335098
Ce     9.56800076     1.10834185     0.98097142
Ce     7.66184609     2.22546116     4.23614006
Ce     7.65265675     0.01729622     7.38337203
Ce     0.00261135     4.42188597     0.98097142
Ce    -1.89453616     5.52586384     4.20747742
Ce    -1.94859509     3.42775531     7.53178597
Ce     3.82877400     4.42188597     0.98097142
Ce     1.92756386     5.59147069     4.07315328
Ce     7.65492518     4.42188597     0.98097142
Ce     5.72195149     5.53125465     4.25002234
Ce     5.83088515     3.34668806     7.55225726
Ce    -1.91046998     7.73544003     0.98097142
Ce    -3.82690247     8.86161754     4.23587712
Ce    -3.84694891     6.66515626     7.40337125
Ce     1.91569268     7.73544003     0.98097142
Ce     0.01013354     8.83258862     4.20581375
Ce    -0.08717991     6.61036831     7.53235231
Ce     5.74184385     7.73544003     0.98097142
Ce     3.82382243     8.83469203     4.22619660
Ce     3.86226092     6.66099643     7.61358282
V      1.91383020     3.32269828     6.69844021
C      3.57567543     7.34778231    11.08735754
C      3.46867404     6.11011418    10.65476519
C      4.29313682     4.90876902    10.41087903
H      2.73620162     8.04879402    11.04890964
H      4.52589617     7.73070591    11.49520984
H      2.06320491     1.75270810     9.40265025
H      1.98519249     0.43915433    10.25401179
H      3.84081943     4.03772468    10.93437257
H      5.28828243     5.07747120    10.89503890
