80
CIF: V-CeO2-Ov.cif | data_image0
O      0.00261135     0.00382715     0.19995339
O      1.92053649     1.14101850     3.37229101
O      0.04849893     2.33067275     6.64855538
O      0.00261135     2.21285656     1.76196664
O      0.00085174     0.03647663     4.98281863
O      3.82876252     0.00382715     0.19995339
O      5.74353361     1.10829522     3.35130359
O      4.04459232     1.96208758     6.43872519
O      3.82876252     2.21285656     1.76196664
O     -1.90198056     9.83217305     4.90976928
O      5.81216578     0.93034030     8.30941995
O      7.65492518     0.00382715     0.19995339
O      9.57373331     1.13088869     3.33570390
O      7.64356274     2.20855266     6.53388938
O      7.65492518     2.21285656     1.76196664
O      7.66574589     0.02711023     4.97332519
O      9.44923299     1.22159248     8.24502181
O     -1.91046424     3.31737126     0.19995339
O     -0.05416115     4.37462908     3.35408504
O     -1.95433464     5.55864218     6.53795712
O     -1.91046998     5.52641062     1.76196664
O      9.56329997     3.30354123     5.02419965
O     -0.01064363     4.44023551     8.05568416
O      1.91568694     3.31737126     0.19995339
O      3.87315781     4.37269732     3.36555759
O      2.00836177     5.33836191     6.76661095
O      1.91568120     5.52641062     1.76196664
O      1.87058919     3.27077410     5.22972933
O      2.30639481     2.90004511     8.20244391
O      5.74184959     3.31737126     0.19995339
O      7.67099187     4.45921792     3.35940488
O      5.56727659     5.49780685     6.70084850
O      5.74184385     5.52641062     1.76196664
O      5.78764412     3.36053829     4.94833080
O      7.73200806     4.51135240     8.23797067
O     -3.82354556     6.63092532     0.19995339
O     -1.93040874     7.68660467     3.34625638
O     -3.75867538     8.98700420     6.71630043
O     -3.82354556     8.83995473     1.76196664
O      7.57053440     6.67697200     5.08468068
O     -1.82719469     7.71087192     8.19229441
O      0.00260561     6.63092532     0.19995339
O      1.92052758     7.80009839     3.32363718
O      0.05170145     8.83891184     6.50148828
O      0.00260561     8.83995473     1.76196664
O     -0.00943308     6.63324123     5.06020284
O      1.92404193     7.73169015     8.14775652
O      3.82876826     6.63092532     0.19995339
O      5.74420969     7.74487984     3.34473129
O      3.81303369     8.89893884     6.55758562
O      3.82876826     8.83995473     1.76196664
O      3.85498675     6.71377314     5.03141194
O      5.71223232     7.69084749     8.24462511
Ce     1.91568694     1.10834185     0.98097142
Ce     0.00210588     2.21959084     4.15549291
Ce    11.40095510     0.03437662     7.40879016
Ce     5.74184959     1.10834185     0.98097142
Ce     3.85791633     2.19545668     4.19992986
Ce    -1.73354751     9.88780858     7.26637173
Ce     9.56800076     1.10834185     0.98097142
Ce     7.64932223     2.22474127     4.14716845
Ce     7.66272418     0.04292493     7.38671657
Ce     0.00261135     4.42188597     0.98097142
Ce    -1.91347085     5.52375761     4.16741524
Ce     9.46761234     3.34724393     7.37203649
Ce     3.82877400     4.42188597     0.98097142
Ce     1.93095110     5.51014273     4.16609121
Ce     7.65492518     4.42188597     0.98097142
Ce     5.71981800     5.52109122     4.17624879
Ce     5.77388492     3.21089236     7.38590691
Ce    -1.91046998     7.73544003     0.98097142
Ce    -3.83826541     8.85220571     4.17383218
Ce     7.63228695     6.64650802     7.40455902
Ce     1.91569268     7.73544003     0.98097142
Ce     0.02786269     8.82224442     4.11009716
Ce    -0.01448369     6.67021310     7.34317597
Ce     5.74184385     7.73544003     0.98097142
Ce     3.82144852     8.87568639     4.12412557
Ce     3.84892419     6.80866743     7.30093652
V      1.35116077     3.61586718     7.08823267
