83
CIF: Cu-Rh-CeO2-O.cif | data_image0
Ce     1.93038582     1.11050507     0.88387043
Ce    -0.01374558     2.23391066     4.02963653
Ce    -5.78326125    10.04519780     7.22300790
Ce     5.81181033     1.12175166     0.90127712
Ce     3.83789389     2.22999335     4.02532391
Ce     3.87030941     0.00023961     7.22273316
Ce     9.66901012     1.12377363     0.90450652
Ce     7.72334695     2.24584545     4.08778419
Ce     1.99189316    10.00712776     7.22719526
Ce    -0.00709724     4.47602159     0.89067279
Ce    -1.95151648     5.59188193     4.05802249
Ce    -1.86680449     3.32833405     7.22851338
Ce     3.86254305     4.47635356     0.87798423
Ce     1.93332867     5.58931641     4.04974411
Ce     1.86592152     3.32420139     7.18637777
Ce     7.74213807     4.46545905     0.90125422
Ce     5.79586231     5.62044921     4.02572147
Ce    -1.94645625     7.83004003     0.90010904
Ce    -3.87487923     8.94377785     4.05273597
Ce    -3.87274658     6.70977875     7.22266422
Ce     1.92815559     7.82745473     0.89060408
Ce    -0.01032958     8.95229905     4.05788285
Ce    -0.00938248     6.70988560     7.19566243
Ce     5.81127600     7.83258510     0.88371011
Ce     3.86643480     8.95307033     4.02990139
Ce     3.86304385     6.77972475     7.18609175
Rh     4.87362035     3.89384160     6.51761732
Cu     6.82483297     2.75904405     8.08401184
O     11.61334069     0.00154917     0.10141687
O      1.92827322     1.11553617     3.22402892
O      0.01000554     2.22346599     6.38346517
O     -0.00785227     2.23805103     1.69392277
O     -5.80311721    10.05738575     4.84752135
O      1.92170903     1.09248634     8.00599577
O     -1.93899312    10.05733740     0.10496691
O      5.80312183     1.12888263     3.25317510
O      3.81825770     2.18122607     6.42712302
O      3.86763657     2.23577757     1.68132582
O     -1.94352404    10.05894658     4.86442300
O      6.00694656     1.02599513     8.12080141
O      7.73821774     0.00761509     0.10924988
O      9.66356858     1.12570063     3.24460433
O      7.75941786     2.22212490     6.52070839
O      7.74357843     2.23531483     1.71563532
O      7.74371680     0.02225059     4.87201171
O      9.75895645     1.06910325     8.00888735
O      9.67032270     3.35425987     0.10911246
O     -0.01578097     4.47801608     3.24150487
O     -1.95418097     5.59211135     6.43295226
O     -1.94403436     5.59119430     1.70564938
O      9.65723229     3.33994550     4.87080135
O      0.01642697     4.46156160     7.99856531
O      1.92738314     3.35244915     0.09928684
O      3.85344661     4.48080311     3.20946522
O      1.88089501     5.61812480     6.36797406
O      1.92862022     5.59252216     1.67404250
O      1.90568020     3.34708083     4.83531910
O      5.81155478     3.35101064     0.10766953
O      7.73093152     4.46959351     3.25295538
O      5.83083268     5.66334735     6.42640796
O      5.80528807     5.59217007     1.68114259
O      5.77975346     3.36890630     4.83570593
O      7.91838501     4.33374902     8.12573826
O     -3.87155109     6.71022987     0.10512724
O     -1.94777805     7.83088850     3.24045015
O     -3.85016674     8.92992278     6.41171086
O     -3.87509971     8.94378428     1.69355631
O     -3.87538694     6.71549296     4.86465904
O     -1.95354270     7.83279090     8.00136945
O     -0.01209783     6.71325780     0.10434852
O      1.92143153     7.83289480     3.24048551
O     -0.01193728     8.95149296     6.43294250
O     -0.00628994     8.94736548     1.70514550
O     -0.03460788     6.72579402     4.85745266
O      1.95395339     7.81211838     7.99768885
O      3.86815347     6.71410280     0.09951587
O      5.80640720     7.83241070     3.22430637
O      3.88924453     8.93710130     6.38268587
O      3.86556896     8.94715423     1.69389986
O      3.86071576     6.73427478     4.83440847
O      5.82526483     7.84882823     8.00637886
O      3.74497546     4.54396594     7.94356828
O      6.09749552     3.16078510     9.62010668
