86
CIF: 2-NH2+H+NO-NH2NO+H_fs.cif | data_image0
Ce    11.61405226     0.00214022     8.79057699
Ce     1.93846865     1.09956619     5.60839528
Ce     0.00000000     2.23543938     2.47426506
Ce    -1.87329352     9.99116942     8.81080530
Ce     5.79479039     1.11731293     5.61652285
Ce     3.87189458     2.23543938     2.47426506
Ce     7.65628609     0.03804810     8.83198370
Ce     9.66341462     1.11150944     5.62681426
Ce     7.74390532     2.23543938     2.47426506
Ce     9.60696168     3.28080120     8.76503802
Ce    -0.01079362     4.43499812     5.60782098
Ce    -1.93600537     5.58869904     2.47426506
Ce     1.93674692     3.16697420     8.77260173
Ce     3.83910601     4.49477165     5.64226162
Ce     1.93588921     5.58869904     2.47426506
Ce     5.77166951     3.38706581     8.76453875
Ce     7.73256471     4.48123217     5.62051624
Ce     5.80789995     5.58869904     2.47426506
Ce    -3.88520018     6.77831703     8.74845260
Ce    -1.93469015     7.82223931     5.66521015
Ce    -3.87195266     8.94185811     2.47426506
Ce     1.95264029     7.84646428     5.61442898
Ce    -0.00005808     8.94185811     2.47426506
Ce     4.00825585     6.82341385     8.78470886
Ce     5.80893305     7.83529275     5.58608238
Ce     3.87195266     8.94185811     2.47426506
Ni     0.60550786     6.32678294     8.26412566
O     11.59714320     0.01883677     6.41463067
O      0.00602960     2.17092360     9.57533046
O      1.93594729     1.11771969     3.26466483
O     -0.00094580     2.23255398     4.80330131
O      0.00000000     0.00000000     1.68386529
O      1.94382659     1.06975282     7.96278173
O     -1.92269298    10.04534490     6.41969884
O      3.86016581     2.22777931     9.53564739
O      5.80795803     1.11771969     3.26466483
O      3.86019448     2.24582082     4.82382873
O      3.87189458     0.00000000     1.68386529
O      5.81172459     1.18485888     7.90234376
O      1.93113922    10.03481409     6.42831621
O      7.69860939     2.28959667     9.58419535
O      9.67985261     1.11771969     3.26466483
O      7.72131900     2.24388347     4.82903981
O      7.74390532     0.00000000     1.68386529
O      9.63632303     1.12315067     7.98551659
O      9.68344025     3.33006572     6.41700030
O     -2.14135789     5.49151146     9.86659961
O      0.00000000     4.47087876     3.26466483
O     -1.92994525     5.58265190     4.83198108
O     -1.93594729     3.35315907     1.68386529
O     -0.10207383     4.44127511     8.08146721
O      1.90366900     3.32751535     6.45209312
O      3.87201074     4.47087876     3.26466483
O      1.95527924     5.56820680     4.80885991
O      1.93594729     3.35315907     1.68386529
O      3.73390871     4.54937421     8.08053969
O      5.74746919     3.42277681     6.45919351
O      5.86219848     5.63673385     9.48966547
O      7.74390532     4.47087876     3.26466483
O      5.78844670     5.59594033     4.80793733
O      5.80795803     3.35315907     1.68386529
O      7.76968496     4.46808047     7.94778404
O      7.72061690     6.70499099     6.39652082
O     -3.90710168     8.93286467     9.60677123
O     -1.93600537     7.82413842     3.26466483
O     -3.87049625     8.94310025     4.81493994
O     -3.87195266     6.70641873     1.68386529
O     -2.00983233     7.81717880     7.98066856
O      0.07777642     6.66423134     6.35262178
O      0.00546361     9.40290314     9.79173256
O      1.93600537     7.82413842     3.26466483
O      0.00216942     8.93299283     4.81983800
O     -0.00005808     6.70641873     1.68386529
O      1.91777691     7.86303005     8.10965413
O      3.87270189     6.74359103     6.43322047
O      3.95273941     8.96202832     9.58352075
O      5.80789995     7.82413842     3.26466483
O      3.87092964     8.94675348     4.80028160
O      3.87195266     6.70641873     1.68386529
O      5.82979693     7.86845481     7.93260440
O      2.96797310     5.86639708    10.77630344
N      0.79298313     6.08920839    10.30679922
N      1.87676383     5.18611723    10.60915513
H     -0.09800982     5.67739750    10.64012712
H     -1.46612328     6.03356418     9.39602997
H      0.94651676     7.02267543    10.72922302
