83
CIF: Au-CeO2-Ov+CO2.cif | data_image0
O      0.55978923     0.45000431     0.59999690
O      2.46084392     1.49430998     3.72003996
O      0.66504027     3.04734637     7.15890406
O      0.55978923     2.65902057     2.16203261
O      0.54177809     0.59251665     5.46908944
O      2.53447276     1.78129152     8.50240486
O      4.38603242     0.45000431     0.59999690
O      6.31205787     1.54375312     3.74207327
O      4.62795123     2.50459717     6.77389773
O      4.38603242     2.65902057     2.16203261
O      4.36337865     0.37018851     5.33683172
O      6.34440315     1.53823865     8.64274508
O      8.21216082     0.45000431     0.59999690
O     10.12693656     1.54746144     3.73048258
O      8.17569593     2.63034140     6.91378777
O      8.21216082     2.65902057     2.16203261
O      8.22694456     0.44187477     5.37900551
O     10.14544037     1.58757718     8.53809947
O     -1.35327498     3.76352871     0.59999690
O      0.50304143     4.89700089     3.74048097
O     -1.32269251     5.87895250     7.04825470
O     -1.35333237     5.97264438     2.16203261
O     -1.36829900     3.71849419     5.39107097
O      0.03197548     4.90368823     9.99642471
O      2.47296821     3.76352871     0.59999690
O      4.43312720     4.91399601     3.73150539
O      2.33757103     5.70119925     7.12829780
O      2.47291082     5.97264438     2.16203261
O      2.49103058     3.74623321     5.09133036
O      4.25283577     4.64180121     8.53487734
O      6.29909662     3.76352871     0.59999690
O      8.23074355     4.89380007     3.74701703
O      6.23869621     5.97920328     7.01421260
O      6.29903923     5.97264438     2.16203261
O      6.34821143     3.82191534     5.34442525
O      8.16683118     4.83095821     8.58629711
O     -3.26639657     7.07715251     0.59999690
O     -1.36997269     8.14972997     3.74443663
O     -3.32419675     9.35504535     6.96562053
O     -3.26639657     9.28616878     2.16203261
O     -3.25488611     7.07335833     5.45938868
O     -1.50190693     8.26259547     8.59944127
O      0.55984662     7.07715251     0.59999690
O      2.48762316     8.18136177     3.74185321
O      0.57009709     9.34972385     6.94050550
O      0.55984662     9.28616878     2.16203261
O      0.57850821     7.08860746     5.38169899
O      2.59686968     8.22077527     8.58875156
O      4.38597502     7.07715251     0.59999690
O      6.27850138     8.19847032     3.80556783
O      4.43025913     9.29823452     6.93695721
O      4.38597502     9.28616878     2.16203261
O      4.29178735     7.05024602     5.47073953
O      6.28958721     8.21728467     8.60413534
O      1.45703241     3.86514149    11.55473802
Ce     2.47285343     1.55451244     1.38101475
Ce     0.59602236     2.70059271     4.53835045
Ce     0.58117101     0.50975194     7.76535262
Ce     6.29909662     1.55451244     1.38101475
Ce     4.39077402     2.65486273     4.53542483
Ce     4.39667999     0.50141927     7.73338639
Ce    10.12522502     1.55451244     1.38101475
Ce     8.20690218     2.65642132     4.52055590
Ce     8.21967181     0.43952876     7.75278574
Ce     0.55978923     4.86803684     1.38101475
Ce    -1.35286792     5.97885704     4.58190880
Ce    -1.51928593     3.73046175     7.69474737
Ce     4.38603242     4.86803684     1.38101475
Ce     2.46039626     5.92878500     4.56407604
Ce     8.21216082     4.86803684     1.38101475
Ce     6.29184672     5.97215490     4.58033954
Ce     6.24322220     3.70511092     7.74447930
Ce    -1.35333237     8.18166064     1.38101475
Ce    -3.26780333     9.29613733     4.57039141
Ce    -3.29965183     7.11201653     7.80330393
Ce     2.47291082     8.18166064     1.38101475
Ce     0.56048133     9.26931047     4.54703488
Ce     0.53970404     7.19379088     7.79230960
Ce     6.29903923     8.18166064     1.38101475
Ce     4.36890194     9.30166228     4.57552420
Ce     4.36787307     7.06444794     7.77728234
Au     2.45767687     3.79237584     7.89558345
C      0.76053651     4.37302221    10.76791650
