83
CIF: Pd-Mo-CeO2-Ov-O2.cif | data_image0
Ce     1.93596140     1.11772783     0.89035214
Ce     0.00337340     2.25949189     4.05920437
Ce     0.01436781     0.01381589     7.20230568
Ce     5.80789581     1.11772783     0.89035214
Ce     3.81041195     2.23645781     3.99015238
Ce    -1.99617561    10.01072269     7.19869168
Ce     9.67981860     1.11772783     0.89035214
Ce     7.79478606     2.20733712     3.98093067
Ce     7.79454024     0.03002241     7.34397929
Ce     0.00000000     4.47091133     0.89035214
Ce    -1.94108600     5.58598441     4.06839090
Ce    -1.86183980     3.43166188     7.31434792
Ce     3.87193441     4.47091133     0.89035214
Ce     1.94732545     5.59376042     4.10194560
Ce     1.81855717     3.38011676     7.29927987
Ce     7.74385721     4.47091133     0.89035214
Ce     5.78768842     5.60939083     3.97909672
Ce    -1.93596721     7.82410489     0.89035214
Ce    -3.88497747     8.94054331     4.04193264
Ce    -3.75289623     6.77020152     7.32034618
Ce     1.93596721     7.82410489     0.89035214
Ce     0.01582165     8.97489843     4.08244677
Ce     0.04812705     6.76046097     7.24252089
Ce     5.80789000     7.82410489     0.89035214
Ce     3.87789198     8.93941136     4.09600180
Ce     3.83108642     6.79706266     7.37306022
Mo     5.80114384     3.01029710     6.80140471
O      0.00000000     0.00000000     0.09999685
O      1.86485219     1.06972879     3.21747349
O     -0.01635674     2.23544420     6.42003243
O      0.00000000     2.23545567     1.68070743
O      5.81123462    10.05124885     4.87642034
O      1.99734141     1.01247839     7.96653467
O      3.87192279     0.00000000     0.09999685
O      5.86865745     1.08759083     3.21780262
O      4.03374920     2.49048115     6.47795110
O      3.87192279     2.23545567     1.68070743
O      3.85522802     0.02442448     4.90507035
O      5.77555692     1.52976739     7.96918074
O      7.74385721     0.00000000     0.09999685
O      9.69421676     1.11222297     3.23580983
O      7.57239868     2.47521814     6.45211349
O      7.74385721     2.23545567     1.68070743
O      7.77070247     0.05900913     4.88722293
O      9.76232737     1.27680780     8.06060660
O     -1.93596140     3.35318350     0.09999685
O     -0.02411738     4.49786935     3.25746842
O     -1.91457569     5.66129800     6.38485613
O     -1.93596721     5.58864923     1.68070743
O      9.65297162     3.34736914     4.88842763
O     -0.09466660     4.54951853     8.07564189
O      1.93596140     3.35318350     0.09999685
O      3.88389962     4.54618315     3.22805827
O      1.94389707     5.61274190     6.45131504
O      1.93595559     5.58864923     1.68070743
O      1.88216932     3.37793748     4.85157885
O      5.80789581     3.35318350     0.09999685
O      7.73705477     4.46869110     3.22651577
O      5.66294324     4.89850801     6.90062467
O      5.80789000     5.58864923     1.68070743
O      5.84479074     3.30603965     4.85583357
O      8.14040414     4.71741203     8.39924025
O     -3.87192860     6.70637706     0.09999685
O     -1.97198564     7.81244490     3.28871351
O     -3.82500114     8.92384816     6.36846806
O     -3.87192860     8.94183273     1.68070743
O      7.58915754     6.61487234     4.97193539
O     -1.94640107     7.89788135     8.08229656
O     -0.00000581     6.70637706     0.09999685
O      1.97192122     7.83340929     3.28653539
O     -0.06234665     9.02029256     6.45463042
O     -0.00000581     8.94183273     1.68070743
O      0.02631000     6.75178624     4.87432693
O      3.87192860     6.70637706     0.09999685
O      5.81314606     7.82355205     3.22322146
O      3.91872397     8.99862730     6.47340568
O      3.87192860     8.94183273     1.68070743
O      4.00134783     6.68767329     4.93510091
O      5.97740780     7.80637553     7.99080676
O      1.80864307     7.82329838     8.12858753
O      3.40209889     4.66251273     8.84267951
O      4.35894244     4.12059404     9.67279112
Pd     6.23173228     4.31722396     9.02097873
