83
CIF: Pd-Mo-CeO2-O.cif | data_image0
Ce     1.93596140     1.11772783     0.89035214
Ce     0.00473122     2.25949955     4.06194118
Ce     0.00953015     0.00854515     7.17518441
Ce     5.80789581     1.11772783     0.89035214
Ce     3.82047289     2.22938348     3.95944187
Ce    -1.98892076    10.04956420     7.18340990
Ce     9.67981860     1.11772783     0.89035214
Ce     7.78613272     2.21157237     3.98422911
Ce     1.98027103    10.04602372     7.31660310
Ce     0.00000000     4.47091133     0.89035214
Ce    -1.94424225     5.58946355     4.07142884
Ce    -1.83435951     3.41644467     7.30158892
Ce     3.87193441     4.47091133     0.89035214
Ce     1.94390428     5.59044020     4.07253925
Ce     1.91237113     3.43309815     7.30602953
Ce     7.74385721     4.47091133     0.89035214
Ce     5.79940995     5.58914631     4.00299243
Ce    -1.93596721     7.82410489     0.89035214
Ce    -3.88444202     8.93124331     4.03680696
Ce    -3.78213492     6.77928487     7.31114446
Ce     1.93596721     7.82410489     0.89035214
Ce     0.00748133     8.96324547     4.06804170
Ce     0.01677727     6.75790194     7.22081986
Ce     5.80789000     7.82410489     0.89035214
Ce     3.87703553     8.92821340     4.10364159
Ce     3.80223324     6.64880226     7.40019527
Mo     5.78260114     2.95670582     6.78892505
O      0.00000000     0.00000000     0.09999685
O      1.91838781     1.10382708     3.20896402
O      0.03551860     2.28277225     6.39343520
O      0.00000000     2.23545567     1.68070743
O      0.01233395     0.01232659     4.84997625
O      2.00008394     1.09223620     7.91850058
O      3.87192279     0.00000000     0.09999685
O      5.81040913     1.11270263     3.20432056
O      4.01790561     2.38636162     6.34779353
O      3.87192279     2.23545567     1.68070743
O      3.85287576     0.06430582     4.83787831
O      5.72158912     1.43051839     7.91694467
O      7.74385721     0.00000000     0.09999685
O      9.69347577     1.11766717     3.23079824
O      7.54368398     2.44225862     6.42611134
O      7.74385721     2.23545567     1.68070743
O      7.75220123     0.05731268     4.85224300
O      9.77610588     1.26120355     7.98227148
O     -1.93596140     3.35318350     0.09999685
O     -0.01659953     4.47808206     3.25983211
O     -1.90776494     5.63369546     6.39163417
O     -1.93596721     5.58864923     1.68070743
O      9.64735955     3.33387476     4.89528905
O     -0.02947877     4.50454888     8.05230574
O      1.93596140     3.35318350     0.09999685
O      3.88175996     4.47217494     3.20883757
O      1.85837705     5.59324879     6.34206774
O      1.93595559     5.58864923     1.68070743
O      1.96863603     3.33247670     4.81853404
O      5.80789581     3.35318350     0.09999685
O      7.74409119     4.46860655     3.22641336
O      5.86764343     4.88204902     6.79795344
O      5.80789000     5.58864923     1.68070743
O      5.79529239     3.29884357     4.78111845
O      8.11734573     4.73484996     8.35310001
O     -3.87192860     6.70637706     0.09999685
O     -1.97767616     7.81773085     3.26728376
O     -3.82372013     8.95476982     6.34511902
O     -3.87192860     8.94183273     1.68070743
O      7.62327310     6.63772090     4.94231350
O     -1.95277878     7.90855566     8.03918871
O     -0.00000581     6.70637706     0.09999685
O      1.97081545     7.82552926     3.27695509
O     -0.07379151     9.00174240     6.40465473
O     -0.00000581     8.94183273     1.68070743
O     -0.01277436     6.75319284     4.82721919
O      3.87192860     6.70637706     0.09999685
O      5.81264368     7.81982362     3.22768556
O      3.91572741     8.97475314     6.42156060
O      3.87192860     8.94183273     1.68070743
O      3.99844405     6.62838203     4.91177680
O      5.95932130     7.81980471     7.93680961
O      1.78917434     7.77579691     8.08272025
O      3.45365010     4.43640860     8.29952789
O      6.31573945     4.07526369    10.59014875
Pd     6.18642113     4.35592160     8.84643140
