85
CIF: Pd-Mo-CeO2-O-CO.cif | data_image0
Ce     1.93596140     1.11772783     0.89035214
Ce    -0.01904810     2.24152840     4.01215112
Ce     0.02933372     0.01091416     7.19009459
Ce     5.80789581     1.11772783     0.89035214
Ce     3.81178936     2.18489108     3.94121534
Ce    -1.98178027    10.02347119     7.26439235
Ce     9.67981860     1.11772783     0.89035214
Ce     7.75973358     2.24320454     4.03945641
Ce     2.02315957    10.04884791     7.28277683
Ce     0.00000000     4.47091133     0.89035214
Ce    -1.93080921     5.59654401     4.05443881
Ce    -1.81528318     3.42966353     7.24926430
Ce     3.87193441     4.47091133     0.89035214
Ce     1.96140695     5.59601254     4.06318951
Ce     1.85600420     3.33124298     7.14755873
Ce     7.74385721     4.47091133     0.89035214
Ce     5.82133555     5.60878058     4.03942488
Ce    -1.93596721     7.82410489     0.89035214
Ce    -3.86214330     8.92008688     4.05739308
Ce    -3.75780401     6.70800201     7.31744973
Ce     1.93596721     7.82410489     0.89035214
Ce     0.00902989     8.96625618     4.08768819
Ce     0.06536362     6.75421796     7.22278646
Ce     5.80789000     7.82410489     0.89035214
Ce     3.89102500     8.94841153     4.06959565
Ce     3.92888893     6.72710342     7.30379669
Mo     5.41705621     3.32001857     6.84673510
O      0.00000000     0.00000000     0.09999685
O      1.90793776     1.10356343     3.19834713
O      0.02148218     2.27667069     6.32347560
O      0.00000000     2.23545567     1.68070743
O      0.01103040     0.00781943     4.83731227
O      1.83436243     1.22725581     7.99574831
O      3.87192279     0.00000000     0.09999685
O      5.82351591     1.13892529     3.22358164
O      3.89915874     2.25383713     6.28464955
O      3.87192279     2.23545567     1.68070743
O      3.86185567     0.00395828     4.77858466
O      5.63835350     1.86021791     8.10675360
O      7.74385721     0.00000000     0.09999685
O      9.67709647     1.11874047     3.21898541
O      7.48530303     2.67676960     6.56900841
O      7.74385721     2.23545567     1.68070743
O      7.78178504     0.11744945     4.88337117
O      9.79690056     1.24533802     7.98465116
O     -1.93596140     3.35318350     0.09999685
O     -0.00899132     4.48475385     3.24478790
O     -1.88159240     5.59373826     6.35035077
O     -1.93596721     5.58864923     1.68070743
O      9.64345397     3.31804919     4.85113539
O      0.08080849     4.45507311     8.01848604
O      1.93596140     3.35318350     0.09999685
O      3.88642055     4.47141642     3.21687613
O      1.95783504     5.52233302     6.39363399
O      1.93595559     5.58864923     1.68070743
O      1.93951893     3.33450001     4.79709594
O      5.80789581     3.35318350     0.09999685
O      7.71050993     4.45677608     3.25428727
O      6.02296561     5.17841797     6.54073481
O      5.80789000     5.58864923     1.68070743
O      5.68020694     3.30151453     4.89006744
O      8.41572090     4.76310388     8.56901758
O     -3.87192860     6.70637706     0.09999685
O     -1.93340385     7.80076232     3.25057919
O     -3.86111798     8.93836173     6.39045456
O     -3.87192860     8.94183273     1.68070743
O      7.70511403     6.68649606     4.88793925
O     -1.89182349     7.73525782     8.06199629
O     -0.00000581     6.70637706     0.09999685
O      1.97036777     7.84594314     3.27739861
O      0.01821928     8.99665766     6.42085843
O     -0.00000581     8.94183273     1.68070743
O      0.04073475     6.73687641     4.85539308
O      3.87192860     6.70637706     0.09999685
O      5.81310970     7.81857265     3.23140205
O      3.93136074     8.96377172     6.42369082
O      3.87192860     8.94183273     1.68070743
O      3.97075903     6.67093047     4.88017247
O      5.98104051     7.80748391     8.02433803
O      1.87014573     7.76372545     8.09268685
O      4.09561467     4.20564876     7.84373286
O      6.19344612     3.51195834    11.42376784
O      7.24737148     3.46421990    13.52842084
Pd     7.12011001     3.23471355     8.71003988
C      6.72173883     3.49064741    12.47783151
