84
CIF: CO+O2 — CO2+Olat.cif | data_image0
O      0.39639278     0.38660270     0.79999586
O      2.31505190     1.40748440     3.92487956
O      0.59388814     2.70724081     7.02579256
O      0.39639278     2.59561896     2.36203158
O      0.37196105     0.38892148     5.58922977
O      2.14443384     1.61307874     8.80998101
O      4.22263597     0.38660270     0.79999586
O      6.13925717     1.48100139     3.94198790
O      3.91877363     2.79143982     7.28775987
O      4.22263597     2.59561896     2.36203158
O      4.24039663     0.46067511     5.64984750
O      6.07773064     1.51306841     8.69662114
O      8.04876437     0.38660270     0.79999586
O      9.93608164     1.47683093     3.93639836
O      8.04415813     2.57041518     7.13715852
O      8.04876437     2.59561896     2.36203158
O      8.03484148     0.37884254     5.58965776
O      9.99385324     1.50983023     8.69567424
O     -1.51667142     3.70012710     0.79999586
O      0.32503297     4.85019849     3.92448629
O     -1.46093445     5.89561509     7.16643905
O     -1.51672882     5.90924277     2.36203158
O     -1.52568003     3.67811661     5.59030814
O      0.41991125     4.59967357     8.81049640
O      2.30957177     3.70012710     0.79999586
O      4.29967894     4.84778568     3.92745184
O      2.32689252     5.54764256     7.28778005
O      2.30951437     5.90924277     2.36203158
O      2.31275734     3.70231907     5.17478806
O      6.13570017     3.70012710     0.79999586
O      8.03673546     4.80631592     3.97016060
O      6.14219035     5.91396857     7.12285782
O      6.13564278     5.90924277     2.36203158
O      6.09713454     3.65475937     5.63230199
O      8.07290031     4.80148671     8.73409564
O     -3.42979302     7.01375090     0.79999586
O     -1.50074971     8.12713195     3.98490934
O     -3.41321621     9.27710600     7.16531199
O     -3.42979302     9.22276717     2.36203158
O     -3.40588418     7.02720216     5.61871479
O     -1.52419742     8.11453613     8.76316548
O      0.39645017     7.01375090     0.79999586
O      2.30172172     8.12649582     3.94158431
O      0.38100368     9.21368497     7.15610221
O      0.39645017     9.22276717     2.36203158
O      0.46945339     6.99105786     5.64974636
O      2.29872865     8.05637814     8.69667369
O      4.22257858     7.01375090     0.79999586
O      6.13092263     8.10685269     3.97015150
O      4.19773214     9.23220482     7.13741676
O      4.22257858     9.22276717     2.36203158
O      4.16176965     7.00325856     5.63181874
O      6.14580701     8.14106527     8.73422344
O      3.29378174     4.27067820     9.63631256
O      4.65998305     5.05851121     9.09318586
O      2.91256866     4.23215562    12.16194952
Ce     2.30945698     1.49111083     1.58101372
Ce     0.40978064     2.60312802     4.71287107
Ce     0.39328033     0.41823297     7.93518832
Ce     6.13570017     1.49111083     1.58101372
Ce     4.18767901     2.62267119     4.75730353
Ce     4.18279992     0.44346940     7.96575135
Ce     9.96182858     1.49111083     1.58101372
Ce     8.03650533     2.58972607     4.75365103
Ce     8.02597095     0.37377569     7.91135005
Ce     0.39639278     4.80463523     1.58101372
Ce    -1.51007959     5.90381437     4.77204365
Ce    -1.49107441     3.68112920     7.93541170
Ce     4.22263597     4.80463523     1.58101372
Ce     2.31501211     5.86494297     4.75708024
Ce     8.04876437     4.80463523     1.58101372
Ce     6.13504692     5.90893610     4.77075784
Ce     6.16566879     3.70917864     7.96390132
Ce    -1.51672882     8.11825903     1.58101372
Ce    -3.43077054     9.23114258     4.77180629
Ce    -3.40981816     7.02541846     7.97399274
Ce     2.30951437     8.11825903     1.58101372
Ce     0.39936615     9.22448786     4.77479471
Ce     0.42574539     6.95114931     7.96530690
Ce     6.13564278     8.11825903     1.58101372
Ce     4.21084295     9.21533799     4.75349228
Ce     4.24492153     7.03587792     7.96348839
Pt     2.12785075     3.59444857     8.12727080
C      2.49507802     3.88577644    11.13458743
