82
CIF: O2 — 2Olat.cif | data_image0
O      0.39639278     0.38660270     0.79999586
O      2.31361140     1.40780637     3.91230067
O      0.78532099     2.80036783     7.19141614
O      0.39639278     2.59561896     2.36203158
O      0.37524106     0.45739700     5.63746152
O      2.31916525     1.48722454     8.85947652
O      4.22263597     0.38660270     0.79999586
O      6.15732764     1.47871373     3.94133425
O      3.84898039     2.80171963     7.18916626
O      4.22263597     2.59561896     2.36203158
O      4.25179739     0.45676666     5.63747170
O      6.05822801     1.50720761     8.67952465
O      8.04876437     0.38660270     0.79999586
O      9.94609232     1.47917403     3.94116497
O      8.05523306     2.59391124     7.16830039
O      8.04876437     2.59561896     2.36203158
O      8.05381180     0.38622286     5.60507836
O     10.05331181     1.50610345     8.67892027
O     -1.51667142     3.70012710     0.79999586
O      0.32622318     4.84208068     3.90988825
O     -1.57180665     5.95711274     7.04835079
O     -1.51672882     5.90924277     2.36203158
O     -1.45279904     3.64801831     5.63706842
O     -0.14250563     5.05502283     9.02953713
O      2.30957177     3.70012710     0.79999586
O      4.29723709     4.84021437     3.91139641
O      2.31815169     5.36600744     7.42657773
O      2.30951437     5.90924277     2.36203158
O      2.31238408     3.69090909     5.15302298
O      6.13570017     3.70012710     0.79999586
O      8.05181769     4.78632878     3.98436960
O      6.19920623     5.95548221     7.04825691
O      6.13564278     5.90924277     2.36203158
O      6.08274385     3.64734541     5.63612519
O      8.05490107     4.85186670     8.76598981
O     -3.42979302     7.01375090     0.79999586
O     -1.48014406     8.13376933     3.97710953
O     -3.42415975     9.25726813     7.14084270
O     -3.42979302     9.22276717     2.36203158
O     -3.42704476     7.06672311     5.53767518
O     -1.52745296     8.14832748     8.76174823
O      0.39645017     7.01375090     0.79999586
O      2.31181259     8.12911333     3.94519632
O      0.40766187     9.20955708     7.14281339
O      0.39645017     9.22276717     2.36203158
O      0.49930097     6.96030174     5.65870545
O      2.31541339     8.02678793     8.68761887
O      4.22257858     7.01375090     0.79999586
O      6.10365387     8.13475181     3.97680282
O      4.22359848     9.20804731     7.14385018
O      4.22257858     9.22276717     2.36203158
O      4.12734676     6.96243099     5.65729066
O      6.15920836     8.14844026     8.76199902
O      2.31882812     4.09199972     9.91397195
O      4.77412056     5.05412012     9.03057498
Ce     2.30945698     1.49111083     1.58101372
Ce     0.41724151     2.61638982     4.70905765
Ce     0.38555043     0.35881201     7.96299667
Ce     6.13570017     1.49111083     1.58101372
Ce     4.20896811     2.61633130     4.70917903
Ce     4.24747226     0.35871597     7.96299752
Ce     9.96182858     1.49111083     1.58101372
Ce     8.05251890     2.59520345     4.78547843
Ce     8.05537724     0.35914210     7.91636804
Ce     0.39639278     4.80463523     1.58101372
Ce    -1.50890611     5.91251796     4.76107353
Ce    -1.54344109     3.78303857     8.00831698
Ce     4.22263597     4.80463523     1.58101372
Ce     2.31301196     5.85747663     4.75346312
Ce     8.04876437     4.80463523     1.58101372
Ce     6.13399408     5.91251874     4.76120357
Ce     6.17490260     3.78305190     8.00870161
Ce    -1.51672882     8.11825903     1.58101372
Ce    -3.42664419     9.23649899     4.76508326
Ce    -3.42432919     7.04596606     7.93968397
Ce     2.30951437     8.11825903     1.58101372
Ce     0.41309862     9.21244648     4.77718416
Ce     0.36715485     6.93225307     8.02513667
Ce     6.13564278     8.11825903     1.58101372
Ce     4.21278855     9.21241524     4.77726813
Ce     4.26336879     6.93117052     8.02529313
Pt     2.31699784     3.45018967     8.26359274
