82
CIF: Pt-CeO2-Ov+CO.cif | data_image0
O      0.39638796     0.38660568     0.79999997
O      2.32760786     1.41448787     3.93181423
O      0.51238466     2.66934989     7.04720942
O      0.39638796     2.59562195     2.36203568
O      0.39803235     0.38445776     5.58430017
O      2.20413080     1.66619008     8.81162291
O      4.22263115     0.38660568     0.79999997
O      6.14242176     1.48048698     3.94213221
O      3.98530553     2.76568292     7.24986676
O      4.22263115     2.59562195     2.36203568
O      4.25516470     0.44709819     5.64588887
O      6.11458326     1.36511538     8.77008742
O      8.04875955     0.38660568     0.79999997
O      9.95052348     1.48783474     3.93501851
O      8.10100434     2.55546599     7.14961439
O      8.04875955     2.59562195     2.36203568
O      8.04690219     0.38300157     5.58157931
O     10.02086950     1.51502946     8.74906085
O     -1.51667624     3.70013008     0.79999997
O      0.33760243     4.84872113     3.92034743
O     -1.42569496     5.91559893     7.14730840
O     -1.51673364     5.90924575     2.36203568
O     -1.52264124     3.70292256     5.58171178
O      0.51252301     4.67043569     8.78145099
O      2.30956695     3.70013008     0.79999997
O      4.29566522     4.85067482     3.93646606
O      2.43650519     5.63912944     7.25306145
O      2.30950955     5.90924575     2.36203568
O      2.31471582     3.70770609     5.22191302
O      6.13569535     3.70013008     0.79999997
O      8.04730846     4.82463531     3.95956365
O      6.01393199     5.91889420     7.25972665
O      6.13563796     5.90924575     2.36203568
O      6.14318630     3.67788568     5.58814772
O      8.19316454     4.88746309     8.77849357
O     -3.42979784     7.01375388     0.79999997
O     -1.50969515     8.11990561     3.99396255
O     -3.39977373     9.27771750     7.18896168
O     -3.42979784     9.22277015     2.36203568
O     -3.44615069     7.00104588     5.66385735
O     -1.49613156     8.10900526     8.77462724
O      0.39644535     7.01375388     0.79999997
O      2.31088796     8.13043858     3.93108992
O      0.40708710     9.18543747     7.13223511
O      0.39644535     9.22277015     2.36203568
O      0.49143172     6.98416992     5.63185584
O      2.33797349     8.08484881     8.72301872
O      4.22257376     7.01375388     0.79999997
O      6.15046427     8.10775444     3.96198104
O      4.22294324     9.26369215     7.12376648
O      4.22257376     9.22277015     2.36203568
O      4.19258090     7.05281378     5.60007472
O      6.13191498     8.17910917     8.77142925
O      3.41246971     4.28127121    10.76932281
Ce     2.30945216     1.49111381     1.58101783
Ce     0.41774270     2.60782684     4.72944539
Ce     0.42382253     0.47128773     7.94919723
Ce     6.13569535     1.49111381     1.58101783
Ce     4.20111350     2.62297943     4.76545002
Ce     4.22487923     0.40367243     7.96638336
Ce     9.96182376     1.49111381     1.58101783
Ce     8.04552471     2.59933690     4.75374751
Ce     8.04105283     0.38822389     7.93133093
Ce     0.39638796     4.80463821     1.58101783
Ce    -1.50569297     5.90381114     4.76992636
Ce    -1.44727152     3.69625822     7.93895901
Ce     4.22263115     4.80463821     1.58101783
Ce     2.32431414     5.87011241     4.74300492
Ce     8.04875955     4.80463821     1.58101783
Ce     6.13963632     5.90370526     4.78548759
Ce     6.22378336     3.64464617     7.98547886
Ce    -1.51673364     8.11826202     1.58101783
Ce    -3.42615341     9.23128788     4.77982339
Ce    -3.39442741     7.02019389     8.00383441
Ce     2.30950955     8.11826202     1.58101783
Ce     0.41259287     9.22624724     4.76660946
Ce     0.44264980     6.96393505     7.94688456
Ce     6.13563796     8.11826202     1.58101783
Ce     4.22564868     9.23892079     4.72620602
Ce     4.25529247     7.16660660     7.89141846
Pt     2.26670886     3.66508958     8.13197099
C      3.39383322     4.33533891     9.59348431
