82
CIF: Pt-CeO2-Ov+O2.cif | data_image0
O      0.39639278     0.38660270     0.79999586
O      2.32187285     1.40844543     3.92497472
O      0.58212596     2.69746793     7.03941432
O      0.39639278     2.59561896     2.36203158
O      0.38326595     0.39088566     5.58470881
O      2.18024279     1.62301509     8.80335129
O      4.22263597     0.38660270     0.79999586
O      6.14494284     1.48220070     3.94197627
O      3.95231211     2.79296050     7.26340027
O      4.22263597     2.59561896     2.36203158
O      4.24880064     0.45556909     5.64646524
O      6.10128176     1.50835086     8.69426693
O      8.04876437     0.38660270     0.79999586
O      9.94358817     1.47989883     3.93517283
O      8.06546064     2.57411325     7.13260943
O      8.04876437     2.59561896     2.36203158
O      8.04458213     0.38123948     5.58681910
O     10.00621345     1.51176043     8.70221752
O     -1.51667142     3.70012710     0.79999586
O      0.33108201     4.85312884     3.92326193
O     -1.44647441     5.89821844     7.16891406
O     -1.51672882     5.90924277     2.36203158
O     -1.51485116     3.68545054     5.58728899
O      0.45830867     4.61754599     8.80513054
O      2.30957177     3.70012710     0.79999586
O      4.30633849     4.84786589     3.93090135
O      2.36149595     5.56536731     7.27185451
O      2.30951437     5.90924277     2.36203158
O      2.31789613     3.70289289     5.17514459
O      6.13570017     3.70012710     0.79999586
O      8.04379599     4.81047062     3.96826384
O      6.13874565     5.90644474     7.14785594
O      6.13564278     5.90924277     2.36203158
O      6.11666294     3.65639258     5.62694886
O      8.08907642     4.80111384     8.74051933
O     -3.42979302     7.01375090     0.79999586
O     -1.49854068     8.12526685     3.98424461
O     -3.40530427     9.27973198     7.16431244
O     -3.42979302     9.22276717     2.36203158
O     -3.40462659     7.02319731     5.62645211
O     -1.51699454     8.11810396     8.76342228
O      0.39645017     7.01375090     0.79999586
O      2.30826881     8.12783879     3.94113952
O      0.39303195     9.21328373     7.15450138
O      0.39645017     9.22276717     2.36203158
O      0.47784688     6.99256481     5.64855776
O      2.31258198     8.06926420     8.69685899
O      4.22257858     7.01375090     0.79999586
O      6.14001184     8.10646691     3.96844612
O      4.21417264     9.23919281     7.13200922
O      4.22257858     9.22276717     2.36203158
O      4.17813275     7.01303581     5.62477633
O      6.15594062     8.14450879     8.74083068
O      3.39800845     4.28773116     9.54180702
O      4.55091973     4.98778077     9.06300980
Ce     2.30945698     1.49111083     1.58101372
Ce     0.41665497     2.60563506     4.71920533
Ce     0.41292775     0.43461704     7.93354036
Ce     6.13570017     1.49111083     1.58101372
Ce     4.19501103     2.62141234     4.75725731
Ce     4.19259182     0.44407153     7.96439975
Ce     9.96182858     1.49111083     1.58101372
Ce     8.04732824     2.59197615     4.74851814
Ce     8.04003528     0.37728725     7.90910290
Ce     0.39639278     4.80463523     1.58101372
Ce    -1.50245499     5.90623277     4.77144619
Ce    -1.45825063     3.68482749     7.93499075
Ce     4.22263597     4.80463523     1.58101372
Ce     2.32286871     5.86699479     4.75528230
Ce     8.04876437     4.80463523     1.58101372
Ce     6.14278383     5.90924333     4.77481640
Ce     6.20255174     3.69129881     7.95058024
Ce    -1.51672882     8.11825903     1.58101372
Ce    -3.42439914     9.23152045     4.77093810
Ce    -3.40039064     7.02686005     7.97712769
Ce     2.30951437     8.11825903     1.58101372
Ce     0.40641959     9.22517991     4.77491672
Ce     0.44018706     6.94984621     7.96592876
Ce     6.13564278     8.11825903     1.58101372
Ce     4.22020999     9.21993316     4.74776944
Ce     4.25193542     7.06432184     7.94785416
Pt     2.17980001     3.61399451     8.11192679
