90
CIF: H+OH.cif | data_image0
O      3.53452275     0.12102692     0.20998505
O      5.44011351     1.22682318     3.33836934
O      3.90772508     2.35136590     6.78182973
O      3.53452275     2.33005633     1.77199829
O      3.48925159     0.18426666     4.99222662
O      5.64296526     2.73493115     8.83905777
O      7.36067392     0.12102692     0.20998505
O      9.29182207     1.22246822     3.34619927
O      7.12000991     2.46974041     6.66363054
O      7.36067392     2.33005633     1.77199829
O      7.35983120     0.18789532     4.98727476
O      9.38356983     1.33090085     8.23114287
O     11.18683658     0.12102692     0.20998505
O      1.60717411     1.21566119     3.32805999
O     -0.27052366     2.33393846     6.53486287
O     -0.29162842     2.33005633     1.77199829
O     11.19788067     0.11145973     4.97584527
O      1.67346520     1.07016806     8.17260920
O      1.62144716     3.43457104     0.20998505
O      3.52569094     4.54637686     3.32072591
O      1.59125847     5.65183489     6.52451483
O      1.62144142     5.64361039     1.77199829
O      1.72856974     3.37177135     5.01015364
O      3.11654674     4.83757572     8.93615968
O      5.44759834     3.43457104     0.20998505
O      7.37619946     4.52821431     3.32961991
O      5.42411786     5.16617409     6.93832628
O      5.44759260     5.64361039     1.77199829
O      5.42650872     3.46015044     4.90572957
O      7.84296608     4.59453710     8.74488376
O      9.27376099     3.43457104     0.20998505
O     -0.28829691     4.54161433     3.42725290
O     -2.16785484     5.61145052     6.55048500
O     -2.20470975     5.64361039     1.77199829
O      9.22073778     3.37939074     5.03263282
O     -0.34240582     4.60206588     8.28525569
O     -0.29163416     6.74812510     0.20998505
O      1.63772148     7.85288935     3.40486136
O     -0.35913259     9.12050640     6.62217569
O     -0.29163416     8.95715451     1.77199829
O     -0.30313407     6.82556807     5.02438462
O      1.47851330     7.84191790     8.31746352
O      3.53451701     6.74812510     0.20998505
O      5.44553702     7.86221185     3.32452100
O      3.52587798     9.01196393     6.54040819
O      3.53451701     8.95715451     1.77199829
O      3.64803045     6.70529790     5.02700654
O      5.45833529     7.97952514     8.24185357
O      7.36067966     6.74812510     0.20998505
O     -2.22634714     7.84907238     3.39540252
O     -4.09951571     8.91435214     6.48749732
O     -4.11778534     8.95715451     1.77199829
O      7.25322306     6.66359478     5.02613729
O     -2.14253333     7.90631902     8.28345262
Ce     5.44759834     1.22554163     0.99100308
Ce     3.50172969     2.32622180     4.09371176
Ce    -2.35031963     9.91419584     7.33327910
Ce     9.27376099     1.22554163     0.99100308
Ce     7.39211223     2.31576364     4.10853040
Ce     7.45288859     0.10024386     7.46902048
Ce     1.62144716     1.22554163     0.99100308
Ce    -0.27605405     2.33241832     4.19774529
Ce    11.19056954     0.09819024     7.36489398
Ce     3.53452275     4.53908574     0.99100308
Ce     1.64031599     5.64461268     4.23699378
Ce     1.59810079     3.45163858     7.52720247
Ce     7.36068540     4.53908574     0.99100308
Ce     5.44519477     5.66951984     4.08742683
Ce    -0.29162842     4.53908574     0.99100308
Ce    -2.21996172     5.64050503     4.22555253
Ce     9.42309728     3.45138568     7.44424469
Ce     1.62144142     7.85263980     0.99100308
Ce    -0.28756745     8.98386237     4.20754563
Ce    -0.27649930     6.76899476     7.41007169
Ce     5.44760408     7.85263980     0.99100308
Ce     3.53256845     8.95481191     4.19809828
Ce     3.46830755     6.82020409     7.53447699
Ce    -2.20470975     7.85263980     0.99100308
Ce    -4.13494718     8.93251990     4.15791541
Ce     7.39724497     6.73677194     7.56939424
Os     5.48067915     3.35444703     6.93739699
C      1.04093554     2.97034793    10.93158241
C      2.22761174     3.47925499    10.67515586
C      2.83886806     4.77707474    10.32372171
H      0.88224733     1.89655163    11.06814751
H      0.14722404     3.61227909    11.00121177
H      4.78344575     2.85695707     9.29626657
H      7.14311057     4.03520107     9.15085436
H      3.75828584     4.94219642    10.92130569
H      2.12187154     5.58269663    10.62006003
