85
CIF: Ti-Sc-CeO2-O-CO.cif | data_image0
Ce     1.93038582     1.11050507     0.88387043
Ce    -0.01952892     2.22331609     4.04239343
Ce    -5.62130296     9.97947202     7.14097529
Ce     5.81181033     1.12175166     0.90127712
Ce     3.85652101     2.22584889     4.03598819
Ce     3.87205176     0.02253511     7.28167805
Ce     9.66901012     1.12377363     0.90450652
Ce     7.71244377     2.24606581     4.10500856
Ce     1.93072666     9.96882663     7.19897606
Ce    -0.00709724     4.47602159     0.89067279
Ce    -1.95063744     5.58094127     4.04604943
Ce    -1.91459841     3.38013784     7.19318562
Ce     3.86254305     4.47635356     0.87798423
Ce     1.92249361     5.58995513     4.03544201
Ce     1.96574950     3.37194995     7.20151032
Ce     7.74213807     4.46545905     0.90125422
Ce     5.80858663     5.61249216     4.02702322
Ce    -1.94645625     7.83004003     0.90010904
Ce    -3.83895452     8.94537867     4.00176214
Ce    -3.85335636     6.76808057     7.19322332
Ce     1.92815559     7.82745473     0.89060408
Ce    -0.00743314     8.94915011     4.06782172
Ce     0.01231260     6.67905725     7.22745695
Ce     5.81127600     7.83258510     0.88371011
Ce     3.87963162     8.95428554     4.04633656
Ce     3.88500363     6.65748181     7.21631333
Sc     5.59846921     3.48850291     6.85628888
Ti     7.24949002     2.49342660     9.17630174
O     11.61334069     0.00154917     0.10141687
O      1.92517427     1.12447521     3.21301498
O     -0.11578320     2.08439009     6.47986018
O     -0.00785227     2.23805103     1.69392277
O     -5.74765644    10.02474781     4.82992859
O      1.87006625     1.16895018     8.04876154
O     -1.93899312    10.05733740     0.10496691
O      5.80240981     1.12226186     3.25387051
O      3.95861513     2.28751405     6.39290658
O      3.86763657     2.23577757     1.68132582
O      3.86650830     0.00347721     4.81320855
O      5.88613863     1.56887256     8.49797129
O      7.73821774     0.00761509     0.10924988
O      9.69184281     1.10282319     3.25645588
O      7.55606989     2.32307005     6.39836629
O      7.74357843     2.23531483     1.71563532
O      1.95168875    10.03339371     4.81664001
O      8.77366479     1.62211937     8.89136471
O      9.67032270     3.35425987     0.10911246
O      0.01072893     4.47855948     3.23652674
O     -2.05449254     5.57160165     6.45515135
O     -1.94403436     5.59119430     1.70564938
O     -1.92754246     3.35398056     4.80095512
O      0.12354719     4.51919355     8.00105792
O      1.92738314     3.35244915     0.09928684
O      3.82396419     4.50153196     3.23097061
O      1.96097212     5.57628809     6.33263893
O      1.92862022     5.59252216     1.67404250
O      1.88495260     3.30137948     4.89294928
O      5.81155478     3.35101064     0.10766953
O      7.73174370     4.48846856     3.24910662
O      5.90293438     5.51653123     6.41675057
O      5.80528807     5.59217007     1.68114259
O      5.73511638     3.41272531     4.77476336
O      7.36278531     4.13063080     8.49665702
O     -3.87155109     6.71022987     0.10512724
O     -1.92804685     7.81644298     3.23305664
O     -3.83070578     8.91870382     6.40112912
O     -3.87509971     8.94378428     1.69355631
O     -3.87620638     6.74238642     4.83982001
O     -1.96766416     7.67914597     8.10059150
O     -0.01209783     6.71325780     0.10434852
O      1.93532545     7.80032097     3.25040639
O     -0.00449494     8.93530058     6.47071115
O     -0.00628994     8.94736548     1.70514550
O     -0.04210599     6.69450564     4.89082013
O      1.98224787     7.65097876     8.03663245
O      3.86815347     6.71410280     0.09951587
O      5.80215929     7.83033716     3.21252932
O      3.97899783     9.07945380     6.52647368
O      3.86556896     8.94715423     1.69389986
O      3.91264852     6.75910626     4.90679007
O      5.89713121     7.79707161     8.02594281
O      3.88163698     4.49865806     7.91235133
O      6.97678233     2.63728746    11.37334100
O      7.07047641     2.59371247    13.71660706
C      7.02849143     2.61284499    12.55125047
