82
CIF: Os-Mo-CeO2.cif | data_image0
Ce     1.93596140     1.11772783     0.89035214
Ce     0.02522776     2.24287131     4.01897042
Ce    11.60931838     0.00701643     7.19626181
Ce     5.80789581     1.11772783     0.89035214
Ce     3.87157867     2.22890353     3.99447315
Ce    -2.07639682     9.93383641     7.18448435
Ce     9.67981860     1.11772783     0.89035214
Ce     7.78751753     2.22069323     4.06575683
Ce     7.81188000     0.04134941     7.29546838
Ce     0.00000000     4.47091133     0.89035214
Ce    -1.95721557     5.60239463     4.06947168
Ce    -1.86689315     3.27098461     7.16116412
Ce     3.87193441     4.47091133     0.89035214
Ce     1.94868302     5.59153472     4.08667342
Ce     1.80914519     3.34841446     7.29946033
Ce     7.74385721     4.47091133     0.89035214
Ce     5.80716151     5.62035112     4.01008665
Ce    -1.93596721     7.82410489     0.89035214
Ce    -3.89308304     8.94178719     3.99940373
Ce    -3.87139833     6.80082436     7.26139826
Ce     1.93596721     7.82410489     0.89035214
Ce    -0.00430334     8.96381271     4.07825412
Ce    -0.00889611     6.70821862     7.25591852
Ce     5.80789000     7.82410489     0.89035214
Ce     3.85494023     8.94359121     4.04908941
Ce     3.79442222     6.83655393     7.28511096
Mo     5.33636389     3.68268818     6.99860632
O      0.00000000     0.00000000     0.09999685
O      1.94168547     1.12583560     3.19362961
O     -0.03122311     2.22067777     6.33386774
O      0.00000000     2.23545567     1.68070743
O     -5.78636107    10.05261863     4.81033814
O      1.95201706     0.99174888     7.97140413
O      3.87192279     0.00000000     0.09999685
O      5.79366864     1.16071847     3.25439532
O      4.33537542     2.10745839     6.71993833
O      3.87192279     2.23545567     1.68070743
O      3.81035174     0.05825881     4.85610052
O      6.61739286     1.51282014     9.07798674
O      7.74385721     0.00000000     0.09999685
O      9.68948221     1.12220055     3.24077533
O      7.94947417     2.21603876     6.25911017
O      7.74385721     2.23545567     1.68070743
O      1.90587719    10.00928811     4.78198588
O      9.88424419     1.18352579     8.10286907
O     -1.93596140     3.35318350     0.09999685
O      0.05404004     4.49579238     3.25748456
O     -2.10988803     5.54110292     6.47040790
O     -1.93596721     5.58864923     1.68070743
O     -1.86226514     3.41274087     4.77389238
O     -0.11687738     4.50240476     8.03322386
O      1.93596140     3.35318350     0.09999685
O      3.88647787     4.46859038     3.22086444
O      1.85190079     5.60972826     6.37326129
O      1.93595559     5.58864923     1.68070743
O      2.06251028     3.27533591     4.89777786
O      5.80789581     3.35318350     0.09999685
O      7.70586172     4.46399877     3.25610446
O      5.93414457     5.44622200     6.51719806
O      5.80789000     5.58864923     1.68070743
O      5.70428310     3.42385532     5.01042981
O      7.84916413     4.75939200     8.84829292
O     -3.87192860     6.70637706     0.09999685
O     -1.94869189     7.84094868     3.24084146
O     -3.86283385     8.90282179     6.34422145
O     -3.87192860     8.94183273     1.68070743
O      7.69358458     6.71804715     4.84761233
O     -2.01304102     7.82974163     8.06324895
O     -0.00000581     6.70637706     0.09999685
O      1.91968316     7.78800295     3.25621841
O     -0.11214540     9.08883236     6.50504169
O     -0.00000581     8.94183273     1.68070743
O     -0.08178904     6.76091436     4.91815019
O      3.87192860     6.70637706     0.09999685
O      5.80136238     7.82366365     3.20668598
O      3.89599806     9.01703410     6.39912038
O      3.87192860     8.94183273     1.68070743
O      3.92707383     6.69653384     4.85854530
O      5.92797984     7.88721685     8.02196694
O      3.95418059     4.43245315     7.91727496
O      1.76090033     7.75979055     8.09264009
Os     6.87471368     3.25129356     8.81787577
