    86
 Tv_1:  11.598200   0.000000   0.000000 Tv_2:  -5.799100  10.044336   0.000000 Tv_3:   0.000000   0.000000  22.891600
Ce      2.14531905      1.20773094      3.19108904
Ce      0.30666221      2.39253066      9.64562747
Ce      0.23663228      0.08301644      6.43972756
Ce      6.01134706      1.20773094      3.19108904
Ce      4.07280072      0.09485871      6.38968652
Ce      9.87749105      1.20773094      3.19108904
Ce      7.95168533      2.29718983      9.64951904
Ce      7.95830790      0.08731541      6.42125404
Ce      0.21230505      4.55580941      3.19108904
Ce     -1.74341243      5.72279048      9.58919967
Ce     -1.70920934      3.43284262      6.42455043
Ce      4.07833306      4.55580941      3.19108904
Ce      2.16212485      3.49052724      6.46000952
Ce      7.94447705      4.55580941      3.19108904
Ce      6.03943790      5.57223593      9.67202148
Ce      6.02068941      3.43738265      6.41598897
Ce     -1.72076694      7.90398831      3.19108904
Ce     -3.65105537      9.03044049      9.64935880
Ce     -3.67877507      6.77835977      6.40390221
Ce      2.14526106      7.90398831      3.19108904
Ce      0.14573718      9.01204931      9.58542256
Ce      0.18395905      6.80230547      6.39685160
Ce      6.01140505      7.90398831      3.19108904
Ce      4.06810924      8.98312162      9.67101425
Ce      4.04936655      6.76077214      6.44327576
Zr      4.15717182      2.18344777      9.46842359
O       0.21230505      2.32375710      2.40201559
O       2.34034859      1.35852656     10.30556940
O       2.14788806      1.22742788      5.60709140
O       0.31670625      2.36571229      7.32288549
O       0.23042144      0.12450959      8.88198658
O       0.21230505      0.09170479      3.98039141
O       4.07833306      2.32375710      2.40201559
O       5.90226019      1.20474777     10.29188023
O       6.00684696      1.24162053      5.58564197
O       4.06064580      2.28896352      7.34003130
O       4.05793762      0.09253847      8.77348040
O       4.07833306      0.09170479      3.98039141
O       7.94436106      2.32375710      2.40201559
O       9.89850119      1.19138881     10.50330704
O       9.91753383      1.18666797      5.64364928
O       7.96557997      2.31169385      7.24374923
O       7.98529111      0.08352870      8.87079259
O       7.94436106      0.09170479      3.98039141
O      -1.72076694      5.67193600      2.40201559
O       0.38441654      4.77396234     10.07679075
O       0.21497844      4.53677539      5.59644680
O      -1.79540136      5.59375089      7.17475395
O      -1.68391366      3.40682779      8.86843476
O      -1.72070895      3.43978325      3.98039141
O       2.14526106      5.67193600      2.40201559
O       4.71255163      3.76016743     10.89095340
O       4.06385850      4.54990334      5.62547335
O       2.06675285      5.72499019      7.26023118
O       2.49084683      3.67937079      8.98721927
O       2.14531905      3.43978325      3.98039141
O       6.01128907      5.67193600      2.40201559
O       7.95660876      4.53602206     10.43792864
O       7.92057315      4.53690597      5.58371907
O       5.99513278      5.68750473      7.25299744
O       5.99062108      3.41262337      8.75420567
O       6.01134706      3.43978325      3.98039141
O      -3.65378095      9.02001447      2.40201559
O      -1.82831125      7.95948327     10.54405409
O      -1.74238599      7.90786543      5.59633234
O      -3.67793420      9.02133028      7.23381427
O      -3.67160738      6.79193972      8.81724914
O      -3.65378095      6.78796216      3.98039141
O       0.21224706      9.02001447      2.40201559
O       2.01123806      7.66172898     10.09270042
O       2.17234866      7.91490651      5.59372270
O       0.24798111      9.11065456      7.16209489
O      -0.22486590      7.03007083      8.61452113
O       0.21224706      6.78796216      3.98039141
O       4.07827507      9.02001447      2.40201559
O       5.95907977      7.86265587     10.43142742
O       5.99129957      7.90478182      5.59910223
O       4.10989176      8.92893243      7.32961562
O       3.99649036      6.44075960      9.01995426
O       4.07827507      6.78796216      3.98039141
Pt      2.20065407      5.63878970      9.59130570
H       4.11380035      3.93900683     11.63449546
H       1.64621371      6.11352519     12.06092018
H       2.32944628      4.46118172     11.92146456
H       3.42222868      5.92042283     11.89967175
C       2.44386832      5.51010167     11.61176410
