81
CIF: Cu-Sc-CeO2-Ov.cif | data_image0
Ce     1.93038582     1.11050507     0.88387043
Ce    -0.00309084     2.23942233     4.03119292
Ce    -5.77934466    10.04292888     7.18779156
Ce     5.81181033     1.12175166     0.90127712
Ce     3.84771470     2.24288524     4.02432768
Ce     3.85941615     0.00350286     7.23592733
Ce     9.66901012     1.12377363     0.90450652
Ce     7.77050289     2.21978666     4.01316553
Ce     7.74015910     0.01738307     7.23557527
Ce    -0.00709724     4.47602159     0.89067279
Ce    -1.95422109     5.58395393     4.06465925
Ce     9.66212971     3.34686572     7.23539986
Ce     3.86254305     4.47635356     0.87798423
Ce     1.93276341     5.59016995     4.07881908
Ce     1.80781542     3.28478172     7.19374525
Ce     7.74213807     4.46545905     0.90125422
Ce     5.78918493     5.60614637     4.02401943
Ce    -1.94645625     7.83004003     0.90010904
Ce    -3.88026551     8.94676359     4.04889457
Ce     7.73447945     6.71619930     7.23514734
Ce     1.92815559     7.82745473     0.89060408
Ce    -0.00514225     8.95969795     4.06452524
Ce    -0.01528997     6.71487743     7.24433911
Ce     5.81127600     7.83258510     0.88371011
Ce     3.86666985     8.94233335     4.03104335
Ce     3.86705432     6.85139967     7.19328937
Sc     5.88350421     3.31102648     6.66722733
Cu     7.01972844     2.65126419     8.87164299
O     11.61334069     0.00154917     0.10141687
O      1.92917616     1.10815230     3.21152601
O     -0.04056941     2.18217704     6.40317641
O     -0.00785227     2.23805103     1.69392277
O     -5.79034483    10.04926788     4.84206685
O      1.97195704     0.97429150     8.00950807
O     -1.93899312    10.05733740     0.10496691
O      5.79419163     1.09199877     3.23017003
O      4.05979561     2.40228918     6.54336719
O      3.86763657     2.23577757     1.68132582
O      3.84045272     0.08684688     4.89451050
O      6.06696309     1.11831592     8.33149413
O      7.73821774     0.00761509     0.10924988
O      9.69223667     1.11044178     3.22965971
O      7.65765477     2.28421076     6.28683089
O      7.74357843     2.23531483     1.71563532
O      1.93741829    10.03846985     4.83796868
O      9.63898665     1.14115095     8.00857202
O      9.67032270     3.35425987     0.10911246
O     -0.00046793     4.49680991     3.24440963
O     -2.05579321     5.59142525     6.42081042
O     -1.94403436     5.59119430     1.70564938
O     -1.91750153     3.36210665     4.83828320
O     -0.13095097     4.54232380     8.01963986
O      1.92738314     3.35244915     0.09928684
O      3.83895004     4.48990148     3.22492176
O      1.99106323     5.55641421     6.47106628
O      1.92862022     5.59252216     1.67404250
O      1.92718970     3.31502236     4.81262051
O      5.81155478     3.35101064     0.10766953
O      7.75908525     4.49551393     3.23006548
O      5.75755618     5.34427132     6.54154895
O      5.80528807     5.59217007     1.68114259
O      5.80542941     3.35480366     4.66207913
O      7.86893654     4.24339186     8.32901017
O     -3.87155109     6.71022987     0.10512724
O     -1.94850096     7.83147217     3.28352049
O     -3.82962432     8.91749284     6.37084937
O     -3.87509971     8.94378428     1.69355631
O      7.65331801     6.69057101     4.89388166
O     -1.95515234     7.83505565     8.01626122
O     -0.01209783     6.71325780     0.10434852
O      1.91298761     7.81118976     3.24411253
O     -0.06243664     9.04346877     6.42056251
O     -0.00628994     8.94736548     1.70514550
O     -0.00562191     6.70925831     4.92390265
O      1.80857846     7.90094196     8.01972632
O      3.86815347     6.71410280     0.09951587
O      5.81259942     7.83470348     3.21135744
O      3.89764214     9.00311163     6.40315362
O      3.86556896     8.94715423     1.69389986
O      3.89956670     6.73292471     4.81227133
O      5.95001549     7.86469206     8.00927054
