85
CIF: Cu-Sc-CeO2-O-CO.cif | data_image0
Ce     1.93038582     1.11050507     0.88387043
Ce    -0.00332169     2.23638500     4.04380795
Ce    -5.79470201    10.05033731     7.19354952
Ce     5.81181033     1.12175166     0.90127712
Ce     3.85888675     2.22269647     4.01848434
Ce    -1.93928973    10.05507469     7.22616898
Ce     9.66901012     1.12377363     0.90450652
Ce     7.73728324     2.24001514     4.08123367
Ce     7.75999755     0.01417547     7.21080371
Ce    -0.00709724     4.47602159     0.89067279
Ce    -1.94492047     5.59289847     4.05855640
Ce     9.68358057     3.33700321     7.20789169
Ce     3.86254305     4.47635356     0.87798423
Ce     1.93251032     5.59126612     4.03382564
Ce     1.94341863     3.35395239     7.17889839
Ce     7.74213807     4.46545905     0.90125422
Ce     5.81211571     5.60441235     4.02036879
Ce    -1.94645625     7.83004003     0.90010904
Ce    -3.87058346     8.93919302     4.05150393
Ce     7.74582333     6.69983895     7.22985097
Ce     1.92815559     7.82745473     0.89060408
Ce    -0.00769010     8.94888075     4.05929504
Ce     0.01022864     6.70307430     7.21711070
Ce     5.81127600     7.83258510     0.88371011
Ce     3.86914379     8.94480303     4.04486564
Ce     3.87492488     6.69864849     7.17944647
Sc     5.51435847     3.51434633     6.83339199
Cu     7.01541066     2.67593884     8.74277835
O     11.61334069     0.00154917     0.10141687
O      1.92733213     1.11377016     3.22643165
O      0.02271895     2.21614735     6.40224007
O     -0.00785227     2.23805103     1.69392277
O     -5.79590036    10.05211104     4.86271949
O      1.97108552     1.11175299     7.98850237
O     -1.93899312    10.05733740     0.10496691
O      5.79478366     1.11226589     3.25238096
O      3.95782395     2.19677107     6.40556574
O      3.86763657     2.23577757     1.68132582
O     -1.95757938    10.04696048     4.86452714
O      6.05030811     1.11096426     8.28479730
O      7.73821774     0.00761509     0.10924988
O      9.68511506     1.11452218     3.25336977
O      7.70207933     2.26658028     6.31952382
O      7.74357843     2.23531483     1.71563532
O      1.93702491    10.03033324     4.85187858
O      9.69103037     1.11357583     7.98077543
O      9.67032270     3.35425987     0.10911246
O      0.00925974     4.48540754     3.24109859
O     -1.99787350     5.57721415     6.44500489
O     -1.94403436     5.59119430     1.70564938
O     -1.90692701     3.36800557     4.84893929
O      0.04071488     4.48359427     7.97190860
O      1.92738314     3.35244915     0.09928684
O      3.84046855     4.48923515     3.20697435
O      1.92190647     5.59709090     6.36190432
O      1.92862022     5.59252216     1.67404250
O      1.95289040     3.33758244     4.85953230
O      5.81155478     3.35101064     0.10766953
O      7.74131169     4.48423633     3.25260543
O      5.88288592     5.52557039     6.40752829
O      5.80528807     5.59217007     1.68114259
O      5.72608657     3.39737022     4.78491480
O      7.88990275     4.29328762     8.28810628
O     -3.87155109     6.71022987     0.10512724
O     -1.93814749     7.82500847     3.24093036
O     -3.85797872     8.93174288     6.43450693
O     -3.87509971     8.94378428     1.69355631
O     -3.87329638     6.72807022     4.86572067
O     -1.93817552     7.82448811     8.01089894
O     -0.01209783     6.71325780     0.10434852
O      1.92886585     7.81039102     3.24143912
O     -0.02262637     9.00827851     6.45041580
O     -0.00628994     8.94736548     1.70514550
O     -0.02973637     6.72658486     4.89021631
O      1.94453964     7.78366539     7.97216428
O      3.86815347     6.71410280     0.09951587
O      5.80655657     7.83263737     3.22670503
O      3.89891731     8.93331882     6.40384687
O      3.86556896     8.94715423     1.69389986
O      3.89477631     6.69996230     4.86093524
O      5.82817200     7.79156185     7.98767306
O      3.88087300     4.46216326     7.81977613
O      7.44374376     2.45507944    11.57327177
O      7.14811655     2.67813380    13.89696914
C      7.29507160     2.56700288    12.73580437
