84
CIF: Cu-Sc-CeO2-CO.cif | data_image0
Ce     1.93038582     1.11050507     0.88387043
Ce    -0.00261733     2.23813562     4.04368885
Ce     0.00012413     0.02413890     7.19919952
Ce     5.81181033     1.12175166     0.90127712
Ce     3.88477865     2.24381964     4.05282553
Ce     3.90947606     0.06573510     7.21409344
Ce     9.66901012     1.12377363     0.90450652
Ce     7.74179849     2.22468868     4.05448628
Ce     1.94351362    10.04634707     7.17576799
Ce    -0.00709724     4.47602159     0.89067279
Ce    -1.95816466     5.58803905     4.06155247
Ce     9.60334439     3.27638829     7.18529063
Ce     3.86254305     4.47635356     0.87798423
Ce     1.92567880     5.58434317     4.03672383
Ce     1.94926322     3.36624780     7.18377329
Ce     7.74213807     4.46545905     0.90125422
Ce     5.80905334     5.59922989     4.02902994
Ce    -1.94645625     7.83004003     0.90010904
Ce    -3.87309841     8.96535335     4.03916292
Ce    -3.90168723     6.81134262     7.17930896
Ce     1.92815559     7.82745473     0.89060408
Ce    -0.01443829     8.93784904     4.05355756
Ce    -0.02373095     6.68247401     7.22473928
Ce     5.81127600     7.83258510     0.88371011
Ce     3.86658872     8.93514883     4.03723851
Ce     3.85770014     6.70340771     7.18247827
Sc     5.63342073     3.59029442     6.95405848
Cu     6.80027691     2.51564265     9.30238082
O     11.61334069     0.00154917     0.10141687
O      1.93549269     1.12462674     3.23049690
O     -0.02561607     2.22160460     6.40788887
O     -0.00785227     2.23805103     1.69392277
O      0.00388115     0.00197690     4.85509065
O      1.96614030     1.15313856     7.97969150
O     -1.93899312    10.05733740     0.10496691
O      5.79469161     1.12506341     3.25136382
O      3.94680396     2.24659461     6.41241860
O      3.86763657     2.23577757     1.68132582
O      3.86379065     0.01140538     4.86799559
O      5.95651656     1.15217350     8.12459326
O      7.73821774     0.00761509     0.10924988
O      9.68499129     1.11622206     3.24776625
O      7.85543500     2.10130180     6.26394399
O      7.74357843     2.23531483     1.71563532
O      1.92104590     9.98133143     4.80238858
O      9.67659507     1.11328853     8.04592588
O      9.67032270     3.35425987     0.10911246
O      0.00732486     4.48314885     3.23551846
O     -2.09543714     5.53446017     6.50580117
O     -1.94403436     5.59119430     1.70564938
O     -1.91269695     3.38753937     4.83809797
O      0.00402309     4.49138145     7.96529049
O      1.92738314     3.35244915     0.09928684
O      3.85754705     4.47878365     3.22698773
O      1.91693160     5.59301564     6.37038504
O      1.92862022     5.59252216     1.67404250
O      1.93911489     3.33863121     4.86644581
O      3.90673887     4.49891968     7.86128323
O      5.81155478     3.35101064     0.10766953
O      7.73857006     4.48786860     3.24464775
O      5.85800899     5.60785699     6.39596689
O      5.80528807     5.59217007     1.68114259
O      5.79786262     3.40297263     4.86098961
O      7.43389899     3.96372576     8.08750631
O     -3.87155109     6.71022987     0.10512724
O     -1.94303656     7.83200860     3.23898177
O     -3.86858618     8.97400734     6.41477404
O     -3.87509971     8.94378428     1.69355631
O     -3.87047988     6.75400531     4.85366138
O     -1.95280315     7.84599395     7.98621461
O     -0.01209783     6.71325780     0.10434852
O      1.91512043     7.78583962     3.23152449
O     -0.01715940     8.98500066     6.43082293
O     -0.00628994     8.94736548     1.70514550
O     -0.06377068     6.69525322     4.90645364
O      1.92648282     7.77976734     7.97348138
O      3.86815347     6.71410280     0.09951587
O      5.80507966     7.83181566     3.22595991
O      3.88627525     8.95056890     6.39961681
O      3.86556896     8.94715423     1.69389986
O      3.87370515     6.70536531     4.85458252
O      5.82390008     7.85227033     7.99437273
O      6.59035137     2.78608505    12.22307173
C      6.73560021     2.62207786    11.08786006
