81
CIF: Rh-Cu-CeO2-Ov.cif | data_image0
Ce     1.93038582     1.11050507     0.88387043
Ce     0.00464251     2.23459116     4.03035989
Ce    -5.76701467    10.04544901     7.21479397
Ce     5.81181033     1.12175166     0.90127712
Ce     3.87541885     2.23830815     4.04086977
Ce    -1.93629870    10.04986138     7.21543644
Ce     9.66901012     1.12377363     0.90450652
Ce     7.71886148     2.25113047     4.05331646
Ce     1.99927092    10.02141624     7.24137839
Ce    -0.00709724     4.47602159     0.89067279
Ce    -1.94119188     5.57740359     4.05854850
Ce    -1.86380373     3.34502580     7.22914096
Ce     3.86254305     4.47635356     0.87798423
Ce     1.94361466     5.57668959     4.05764023
Ce     1.86116106     3.26297272     7.21558371
Ce     7.74213807     4.46545905     0.90125422
Ce     5.80207538     5.57635611     4.01646821
Ce    -1.94645625     7.83004003     0.90010904
Ce    -3.87460980     8.93907582     4.04911859
Ce     7.74615073     6.69198348     7.21118836
Ce     1.92815559     7.82745473     0.89060408
Ce     0.00736795     8.94811558     4.06687533
Ce    -0.00927494     6.70355801     7.23018163
Ce     5.81127600     7.83258510     0.88371011
Ce     3.87447313     8.96446489     4.00325881
Ce     3.89003233     6.86349133     7.11413958
Cu     5.02902173     3.78392945     6.58709092
Rh     6.84865472     2.75894528     8.08372624
O     11.61334069     0.00154917     0.10141687
O      1.93774321     1.10386709     3.22599363
O     -0.01232043     2.20116684     6.39643328
O     -0.00785227     2.23805103     1.69392277
O     -5.78847619    10.05149438     4.84328346
O      1.96436297     0.95398037     8.04134745
O     -1.93899312    10.05733740     0.10496691
O      5.80321286     1.07908089     3.23904294
O      3.92639423     2.25949462     6.46992827
O      3.86763657     2.23577757     1.68132582
O      3.86803605     0.01829026     4.88289735
O      5.95472513     1.03600658     8.22608323
O      7.73821774     0.00761509     0.10924988
O      9.67985361     1.12177848     3.23476185
O      7.79687165     2.21235466     6.45261111
O      7.74357843     2.23531483     1.71563532
O      7.75022216     0.00286270     4.86791731
O      9.77757600     1.04505414     8.03255054
O      9.67032270     3.35425987     0.10911246
O     -0.00582644     4.48607739     3.23760969
O     -1.98145243     5.59409187     6.40081321
O     -1.94403436     5.59119430     1.70564938
O     -1.93243487     3.35046728     4.86464386
O     -0.09333998     4.55192426     8.03263575
O      1.92738314     3.35244915     0.09928684
O      3.83763044     4.49931534     3.21681538
O      2.07930114     5.58446333     6.51391523
O      1.92862022     5.59252216     1.67404250
O      1.92309608     3.34779975     4.80817155
O      5.81155478     3.35101064     0.10766953
O      7.77488888     4.49447154     3.22759397
O      5.67559804     5.54376652     6.51102274
O      5.80528807     5.59217007     1.68114259
O      5.81770979     3.36381158     4.63452489
O      7.86252865     4.42369121     8.18862231
O     -3.87155109     6.71022987     0.10512724
O     -1.93681324     7.81501367     3.27831164
O     -3.83665248     8.89224397     6.38822672
O     -3.87509971     8.94378428     1.69355631
O      7.67926416     6.67282118     4.89331557
O     -1.93444978     7.79831771     8.01049146
O     -0.01209783     6.71325780     0.10434852
O      1.92238047     7.82384092     3.23713201
O      0.00038498     8.96111392     6.44276693
O     -0.00628994     8.94736548     1.70514550
O      0.03692223     6.68245555     4.91981823
O      1.98366919     7.85455666     8.02446796
O      3.86815347     6.71410280     0.09951587
O      5.81463226     7.83169842     3.21469828
O      3.90095464     8.95268543     6.36567986
O      3.86556896     8.94715423     1.69389986
O      3.87985284     6.74643893     4.81684869
O      5.83291827     7.82991513     7.99259667
