81
CIF: W-Rh-CeO2-Ov.cif | data_image0
Ce     1.93038582     1.11050507     0.88387043
Ce    -0.00803885     2.23119377     4.03912187
Ce     5.80485107    10.04446398     7.25370314
Ce     5.81181033     1.12175166     0.90127712
Ce     3.84270879     2.20029555     3.99919012
Ce    -2.04189996     9.95093009     7.21304138
Ce     9.66901012     1.12377363     0.90450652
Ce     7.74163162     2.24217596     4.02004066
Ce     2.04077892     9.93542685     7.34175998
Ce    -0.00709724     4.47602159     0.89067279
Ce    -1.94244437     5.57723233     4.11409728
Ce    -1.73928836     3.34866301     7.35169479
Ce     3.86254305     4.47635356     0.87798423
Ce     1.96215380     5.57565806     4.06969138
Ce     1.87615314     3.24267020     7.21948618
Ce     7.74213807     4.46545905     0.90125422
Ce     5.81873725     5.62461812     4.00348541
Ce    -1.94645625     7.83004003     0.90010904
Ce    -3.87759775     8.92289799     4.03645201
Ce    -3.87502076     6.76663650     7.29787568
Ce     1.92815559     7.82745473     0.89060408
Ce     0.00878546     8.95515810     4.09527581
Ce     0.02113489     6.69507225     7.27600229
Ce     5.81127600     7.83258510     0.88371011
Ce     3.86477383     8.96822685     4.01894007
Ce     3.90198541     6.84353617     7.16089347
Rh     4.89117203     3.83513272     6.62124286
W      6.51320938     2.95012266     7.98865664
O     11.61334069     0.00154917     0.10141687
O      1.92599912     1.10504243     3.21257758
O      0.07255259     2.22266344     6.39835367
O     -0.00785227     2.23805103     1.69392277
O     11.61250045     0.00413753     4.83387185
O      1.93686131     0.98958990     8.08886650
O     -1.93899312    10.05733740     0.10496691
O      5.80177251     1.11476133     3.24010264
O      3.88652056     2.11231979     6.47275421
O      3.86763657     2.23577757     1.68132582
O     -1.96628729    10.04016879     4.83647323
O      6.04610273     1.40283558     8.78444519
O      7.73821774     0.00761509     0.10924988
O      9.67371435     1.12905800     3.21680429
O      7.58501389     2.34656156     6.64090124
O      7.74357843     2.23531483     1.71563532
O      7.75601693     0.08659326     4.87062895
O      9.83586481     1.03344766     8.08498787
O      9.67032270     3.35425987     0.10911246
O     -0.01090596     4.47976816     3.27228603
O     -1.93975256     5.58125773     6.48216366
O     -1.94403436     5.59119430     1.70564938
O      9.62810760     3.29144771     4.88628356
O      0.12741852     4.57809413     8.11312067
O      1.92738314     3.35244915     0.09928684
O      3.85182967     4.48032856     3.21075228
O      2.16025484     5.49477342     6.45330578
O      1.92862022     5.59252216     1.67404250
O      1.95634658     3.31907331     4.81977421
O      5.81155478     3.35101064     0.10766953
O      7.75022683     4.46458015     3.23938584
O      5.75984787     5.63548143     6.46515927
O      5.80528807     5.59217007     1.68114259
O      5.75808946     3.38509793     4.77022005
O      7.59425906     4.17184279     8.76440911
O     -3.87155109     6.71022987     0.10512724
O     -1.90779900     7.80348765     3.27189500
O     -3.86917456     8.93189685     6.39989131
O     -3.87509971     8.94378428     1.69355631
O      7.72587619     6.69825531     4.82709067
O     -1.84408863     7.88839567     8.10173073
O     -0.01209783     6.71325780     0.10434852
O      1.91896872     7.83748273     3.25429951
O     -0.04162972     9.04606520     6.48083487
O     -0.00628994     8.94736548     1.70514550
O      0.05645520     6.70259376     4.95508897
O      1.95182444     7.69230587     8.06442688
O      3.86815347     6.71410280     0.09951587
O      5.80901927     7.83965656     3.20835744
O      3.89036850     8.91096831     6.35089358
O      3.86556896     8.94715423     1.69389986
O      3.89381763     6.73651880     4.79795007
O      5.69521583     7.91875513     8.09068475
