84
CIF: CO+Olatt—CO2.cif | data_image0
Ce     1.93038582     1.11050507     0.88387043
Ce    -0.00464227     2.23151848     4.03601626
Ce    -5.77644417    10.04204123     7.21663607
Ce     5.81181033     1.12175166     0.90127712
Ce     3.85537310     2.22508620     4.01084616
Ce    -1.90140320    10.05145075     7.20628418
Ce     9.66901012     1.12377363     0.90450652
Ce     7.72491964     2.24661542     4.09762250
Ce     1.99426907    10.00637681     7.23615895
Ce    -0.00709724     4.47602159     0.89067279
Ce    -1.92990536     5.57942006     4.05838416
Ce    -1.86017950     3.33012312     7.23611996
Ce     3.86254305     4.47635356     0.87798423
Ce     1.94651352     5.58287392     4.04967289
Ce     1.91126902     3.29652910     7.20040363
Ce     7.74213807     4.46545905     0.90125422
Ce     5.80893428     5.60871698     4.01094592
Ce    -1.94645625     7.83004003     0.90010904
Ce    -3.86220791     8.93665133     4.05863808
Ce    -3.84659686     6.68208975     7.20608545
Ce     1.92815559     7.82745473     0.89060408
Ce     0.01132712     8.94168179     4.05821483
Ce     0.02001369     6.69546365     7.21021022
Ce     5.81127600     7.83258510     0.88371011
Ce     3.87329027     8.94822342     4.03609847
Ce     3.90927538     6.75714879     7.20037180
Cu     4.95280776     3.84745503     6.47022532
Pt     6.61530704     2.88925941     8.10316470
O     11.61334069     0.00154917     0.10141687
O      1.93263149     1.10749378     3.22752167
O      0.02870779     2.22301300     6.39798143
O     -0.00785227     2.23805103     1.69392277
O     -5.79509121    10.05251396     4.85739828
O      1.96338687     1.11286257     7.99026368
O     -1.93899312    10.05733740     0.10496691
O      5.81115140     1.11011224     3.24614085
O      3.81863705     2.25731420     6.35572347
O      3.86763657     2.23577757     1.68132582
O     -1.92655252    10.05691631     4.86477334
O      5.83996238     0.98780150     8.06267894
O      7.73821774     0.00761509     0.10924988
O      9.67403308     1.12123531     3.24840982
O      7.83456816     2.18316940     6.53910377
O      7.74357843     2.23531483     1.71563532
O      7.75708088     0.01615676     4.87994658
O      9.79566726     1.05153212     8.02931972
O      9.67032270     3.35425987     0.10911246
O     -0.00981782     4.47218507     3.23385090
O     -1.89750239     5.57502925     6.40625122
O     -1.94403436     5.59119430     1.70564938
O      9.67262336     3.33411401     4.88000884
O      0.03789512     4.44506721     8.00193517
O      1.92738314     3.35244915     0.09928684
O      3.84922903     4.48433526     3.21157942
O      2.02669747     5.53685916     6.46211234
O      1.92862022     5.59252216     1.67404250
O      1.90730366     3.35814636     4.83227828
O      4.03807285     4.37649129     8.14874393
O      5.81155478     3.35101064     0.10766953
O      7.75212505     4.47217433     3.24611103
O      5.76304768     5.62476298     6.35562680
O      5.80528807     5.59217007     1.68114259
O      5.78123587     3.36890019     4.76620447
O      7.87434472     4.50931138     8.06218331
O     -3.87155109     6.71022987     0.10512724
O     -1.92700289     7.81924165     3.25713580
O     -3.84192482     8.92556369     6.41630826
O     -3.87509971     8.94378428     1.69355631
O     -3.86449848     6.70049219     4.86472228
O     -1.89844643     7.80323289     7.98442810
O     -0.01209783     6.71325780     0.10434852
O      1.93016226     7.83220108     3.23363177
O      0.03146966     8.91675532     6.40669578
O     -0.00628994     8.94736548     1.70514550
O      0.03750390     6.68537856     4.88049367
O      1.97762138     7.80522216     8.00199580
O      3.86815347     6.71410280     0.09951587
O      5.81535670     7.83250219     3.22732937
O      3.89735564     8.92417752     6.39810153
O      3.86556896     8.94715423     1.69389986
O      3.85367379     6.72935827     4.83231657
O      5.82668278     7.80408181     7.98987658
O      4.95416805     3.87560019    10.38565274
C      5.27104684     3.67453812     9.26549081
