84
CIF: Pt-Cu-CeO2-Ov-CO2.cif | data_image0
Ce     1.93038582     1.11050507     0.88387043
Ce    -0.00800084     2.23048950     4.02679295
Ce    -5.77930504    10.04385178     7.21947602
Ce     5.81181033     1.12175166     0.90127712
Ce     3.85539355     2.22199383     4.01047846
Ce    -1.89161357    10.05194430     7.21573981
Ce     9.66901012     1.12377363     0.90450652
Ce     7.73280982     2.24211867     4.09538291
Ce     1.98379940    10.03247392     7.23250410
Ce    -0.00709724     4.47602159     0.89067279
Ce    -1.92840873     5.57697446     4.05951627
Ce    -1.88782048     3.32632834     7.23240154
Ce     3.86254305     4.47635356     0.87798423
Ce     1.95113473     5.58032123     4.04859488
Ce     1.86895224     3.26753438     7.18310415
Ce     7.74213807     4.46545905     0.90125422
Ce     5.81162541     5.61031820     4.01063378
Ce    -1.94645625     7.83004003     0.90010904
Ce    -3.86113287     8.93612865     4.06603705
Ce    -3.84191659     6.67393706     7.21548008
Ce     1.92815559     7.82745473     0.89060408
Ce     0.01426552     8.94176352     4.05941988
Ce     0.01952157     6.69596305     7.22086249
Ce     5.81127600     7.83258510     0.88371011
Ce     3.87258389     8.95174702     4.02693056
Ce     3.91338942     6.80823882     7.18339690
Cu     4.99180634     3.82483852     6.47355875
Pt     6.61991867     2.88662205     8.12254995
O     11.61334069     0.00154917     0.10141687
O      1.93481760     1.10676310     3.22609795
O      0.01425426     2.21625092     6.39074940
O     -0.00785227     2.23805103     1.69392277
O     -5.78966241    10.04944612     4.85410919
O      1.94940735     1.11382049     7.98742720
O     -1.93899312    10.05733740     0.10496691
O      5.80790008     1.10763710     3.24586517
O      3.80683746     2.28079889     6.36429386
O      3.86763657     2.23577757     1.68132582
O      3.88112486     0.00572601     4.87149546
O      5.82183660     0.99533175     8.07140251
O      7.73821774     0.00761509     0.10924988
O      9.67557181     1.12043167     3.24596041
O      7.87566031     2.15955524     6.48035365
O      7.74357843     2.23531483     1.71563532
O      1.94260375    10.05812397     4.86307176
O      9.79471419     1.05224014     8.03766339
O      9.67032270     3.35425987     0.10911246
O     -0.00469880     4.47762782     3.22751812
O     -1.90246922     5.57642198     6.40593262
O     -1.94403436     5.59119430     1.70564938
O     -1.93122152     3.34877557     4.86324349
O      0.03159634     4.44018389     7.98660704
O      1.92738314     3.35244915     0.09928684
O      3.84627389     4.48607379     3.21463390
O      2.09287474     5.49870859     6.50496087
O      1.92862022     5.59252216     1.67404250
O      1.89346302     3.35375572     4.82900782
O      4.18841668     4.29123367     8.28809770
O      5.81155478     3.35101064     0.10766953
O      7.75266076     4.47630084     3.24589179
O      5.73697353     5.62333199     6.36416545
O      5.80528807     5.59217007     1.68114259
O      5.78154146     3.36871820     4.75302082
O      7.85970837     4.52215296     8.07077514
O     -3.87155109     6.71022987     0.10512724
O     -1.92214599     7.81651805     3.26663499
O     -3.83522051     8.92188115     6.42397004
O     -3.87509971     8.94378428     1.69355631
O      7.74401187     6.69659382     4.87150972
O     -1.88295063     7.79444178     7.98825611
O     -0.01209783     6.71325780     0.10434852
O      1.92809692     7.82504374     3.22731195
O      0.02802603     8.92074714     6.40638339
O     -0.00628994     8.94736548     1.70514550
O      0.06132769     6.67181185     4.90243740
O      1.97884322     7.81323790     7.98663323
O      3.86815347     6.71410280     0.09951587
O      5.81710116     7.83102921     3.22593315
O      3.89613546     8.94028183     6.39093550
O      3.86556896     8.94715423     1.69389986
O      3.85066203     6.74367864     4.82913996
O      5.81905649     7.81605772     7.98688957
O      4.98002393     3.86607005    10.36880347
C      5.14775322     3.74806065     9.17298627
