85
CIF: Pt-Cu-CeO2-O-CO.cif | data_image0
Ce     1.93038582     1.11050507     0.88387043
Ce    -0.00419553     2.23095376     4.03787966
Ce    -5.76852071    10.03626443     7.21273361
Ce     5.81181033     1.12175166     0.90127712
Ce     3.86213080     2.23557377     4.02778039
Ce     3.89324407     0.00572910     7.21182646
Ce     9.66901012     1.12377363     0.90450652
Ce     7.71477196     2.25181486     4.07773231
Ce     1.99746152     9.96922871     7.23683767
Ce    -0.00709724     4.47602159     0.89067279
Ce    -1.94310121     5.58595442     4.05415700
Ce    -1.82748129     3.34394653     7.23685244
Ce     3.86254305     4.47635356     0.87798423
Ce     1.92881725     5.59231539     4.03484467
Ce     1.92759338     3.35228082     7.19050051
Ce     7.74213807     4.46545905     0.90125422
Ce     5.80250898     5.59654082     4.02773655
Ce    -1.94645625     7.83004003     0.90010904
Ce    -3.87073217     8.94079692     4.05302810
Ce     7.74895781     6.68430862     7.21186572
Ce     1.92815559     7.82745473     0.89060408
Ce    -0.00157579     8.94866793     4.05398286
Ce    -0.00931365     6.71101727     7.18672245
Ce     5.81127600     7.83258510     0.88371011
Ce     3.87342267     8.94710547     4.03796411
Ce     3.86797975     6.71316962     7.19046242
Cu     4.98840329     3.82574088     6.59165941
Pt     6.84729940     2.75187571     8.17548666
O     11.61334069     0.00154917     0.10141687
O      1.93063516     1.11200253     3.23045288
O      0.03918356     2.23378756     6.39222500
O     -0.00785227     2.23805103     1.69392277
O     -5.80202112    10.05564192     4.85744953
O      1.96969411     1.09806600     7.99883354
O     -1.93899312    10.05733740     0.10496691
O      5.80926161     1.11872979     3.24550616
O      3.87260550     2.24245331     6.40795418
O      3.86763657     2.23577757     1.68132582
O      3.87349701     0.00934036     4.86874059
O      5.91589947     0.93877858     8.15725477
O      7.73821774     0.00761509     0.10924988
O      9.67259688     1.12157842     3.24420581
O      7.75472362     2.22851179     6.52618699
O      7.74357843     2.23531483     1.71563532
O      7.75790601     0.02834071     4.88499113
O      9.79088369     1.05306032     8.00104420
O      9.67032270     3.35425987     0.10911246
O     -0.01401302     4.46624733     3.23999655
O     -1.91656671     5.58179033     6.40290687
O     -1.94403436     5.59119430     1.70564938
O      9.66166309     3.32612152     4.88510730
O      0.02789866     4.46243072     8.02024890
O      1.92738314     3.35244915     0.09928684
O      3.85430745     4.48082425     3.20881015
O      1.88862927     5.61536669     6.35768979
O      1.92862022     5.59252216     1.67404250
O      1.93689471     3.35596705     4.83802723
O      5.81155478     3.35101064     0.10766953
O      7.74321933     4.46867542     3.24536165
O      5.80157327     5.58372972     6.40796226
O      5.80528807     5.59217007     1.68114259
O      5.78200574     3.36772532     4.80348294
O      7.95251712     4.46642729     8.15748037
O     -3.87155109     6.71022987     0.10512724
O     -1.94912474     7.83144724     3.24564731
O     -3.84536126     8.92591385     6.40709922
O     -3.87509971     8.94378428     1.69355631
O      7.73607810     6.69967325     4.86879057
O     -1.92579641     7.81755095     7.99600073
O     -0.01209783     6.71325780     0.10434852
O      1.93267157     7.83791933     3.23988692
O      0.01509662     8.92739465     6.40269760
O     -0.00628994     8.94736548     1.70514550
O     -0.02183015     6.71835579     4.83335588
O      1.95662798     7.80313676     8.02026632
O      3.86815347     6.71410280     0.09951587
O      5.80997983     7.83113058     3.23029203
O      3.89247889     8.90780265     6.39229834
O      3.86556896     8.94715423     1.69389986
O      3.86954291     6.70350186     4.83795120
O      5.84131437     7.80376890     7.99894758
O      3.74515053     4.54345602     7.96286701
O      5.90259047     3.29661851    10.04183855
O      6.04502078     3.22602227    12.38723351
C      5.99484300     3.24966457    11.21778947
