87
CIF: 2-NH2+H+NO-NH2NO+H_ts.cif | data_image0
Ce     5.79818242    10.03757649     8.76684100
Ce     1.93728729     1.09754550     5.60421544
Ce     0.00000000     2.23543938     2.47426506
Ce    -1.88394560    10.05599446     8.79450970
Ce     5.80554250     1.11480673     5.60667491
Ce     3.87189458     2.23543938     2.47426506
Ce     7.69160360     0.01963253     8.80195131
Ce     9.67380184     1.10606308     5.61496485
Ce     7.74390532     2.23543938     2.47426506
Ce     9.67674952     3.28454079     8.75300377
Ce    -0.00049805     4.45267397     5.62936407
Ce    -1.93600537     5.58869904     2.47426506
Ce     1.91096353     3.22036823     8.73510259
Ce     3.86007431     4.48009004     5.62202668
Ce     1.93588921     5.58869904     2.47426506
Ce     5.79778483     3.38237466     8.73517793
Ce     7.74794786     4.48281249     5.61398048
Ce     5.80789995     5.58869904     2.47426506
Ce    -3.89815717     6.75225458     8.75187757
Ce    -1.93594122     7.82638651     5.63275676
Ce    -3.87195266     8.94185811     2.47426506
Ce     1.93966007     7.82928059     5.63166428
Ce    -0.00005808     8.94185811     2.47426506
Ce     3.91953936     6.78302370     8.73842273
Ce     5.80810644     7.83155185     5.58887181
Ce     3.87195266     8.94185811     2.47426506
Cu     0.02829738     6.67696071     8.21255498
O      5.80201389    10.05763006     6.41264128
O     -0.00652704     2.18717455     9.55878220
O      1.93594729     1.11771969     3.26466483
O     -0.00354517     2.22617147     4.80642132
O      0.00000000     0.00000000     1.68386529
O      1.92318757     1.07543456     7.96667098
O     -1.94117524    10.03263642     6.42941131
O      3.86242645     2.24323916     9.48843997
O      5.80795803     1.11771969     3.26466483
O      3.87083387     2.23540751     4.82117665
O      3.87189458     0.00000000     1.68386529
O      5.80725680     1.16582496     7.87839913
O      1.93943552    10.03080273     6.43454823
O      7.73415616     2.25771604     9.49678757
O      9.67985261     1.11771969     3.26466483
O      7.74163767     2.23833552     4.82630936
O      7.74390532     0.00000000     1.68386529
O      9.67811303     1.10250861     7.96825838
O     -1.91138126     3.33972514     6.43163388
O     -2.47665097     5.26813152    10.06278246
O      0.00000000     4.47087876     3.26466483
O     -1.94616619     5.57599198     4.81718497
O      9.67985261     3.35315907     1.68386529
O      0.01505242     4.50879120     8.07498079
O      1.91080668     3.31662589     6.42304605
O      2.44912558     5.27586734    10.14452549
O      3.87201074     4.47087876     3.26466483
O      1.94857381     5.57288289     4.82061992
O      1.93594729     3.35315907     1.68386529
O      3.77305671     4.52150789     7.96184267
O      5.79212301     3.40319440     6.43562195
O      5.79092484     5.61131062     9.47650247
O      7.74390532     4.47087876     3.26466483
O      5.80620270     5.59676617     4.80990608
O      5.80795803     3.35315907     1.68386529
O      7.79501977     4.50493829     7.93218542
O     -3.87606950     6.73545140     6.41551018
O     -3.88644246     8.90192821     9.56367768
O     -1.93600537     7.82413842     3.26466483
O     -3.87423610     8.94353219     4.80293044
O      7.74384724     6.70641873     1.68386529
O     -1.88536168     7.76417828     8.02139834
O      0.00783207     6.67967825     6.33003522
O     -0.00078739     9.54732784     9.84236810
O      1.93600537     7.82413842     3.26466483
O      0.00141509     8.94835525     4.81351558
O     -0.00005808     6.70641873     1.68386529
O      1.89573802     7.75451736     8.03579780
O      3.88077563     6.73634469     6.41796025
O      3.90007886     8.93188579     9.54913720
O      5.80789995     7.82413842     3.26466483
O      3.87183882     8.94487202     4.80311371
O      3.87195266     6.70641873     1.68386529
O      5.80685886     7.84571286     7.94353960
O      1.75481245     5.23786180    12.19562015
N      2.32336757     5.88071518    11.33755157
N     -0.01780194     6.90130866    10.03332291
H     -0.08415008     6.21083640    10.78006680
H     -2.02058657     5.57398103    10.86452426
H      0.00073794     7.91086460    10.32249963
