87
CIF: 4-NHNO+2H-N2+OH+2H_fs.cif | data_image0
Ce     5.79366400    10.03207955     8.76321301
Ce     1.93480626     1.11079132     5.60089360
Ce     0.00000000     2.23543938     2.47426506
Ce     3.83639539     0.03314497     8.76137251
Ce     5.80492275     1.11916050     5.61061085
Ce     3.87189458     2.23543938     2.47426506
Ce     7.78546124     0.05002692     8.75398449
Ce     9.67981403     1.11579547     5.59295274
Ce     7.74390532     2.23543938     2.47426506
Ce    -1.89541313     3.29150762     8.74838335
Ce    -0.00006841     4.45057702     5.67930261
Ce    -1.93600537     5.58869904     2.47426506
Ce     1.88716201     3.27692229     8.77424601
Ce     3.86236495     4.49175081     5.65036150
Ce     1.93588921     5.58869904     2.47426506
Ce     5.81450514     3.34819343     8.74912119
Ce     7.75205395     4.47438847     5.61819769
Ce     5.80789995     5.58869904     2.47426506
Ce     7.70298050     6.68333210     8.77871535
Ce    -1.94900733     7.82643189     5.59573850
Ce    -3.87195266     8.94185811     2.47426506
Ce     1.96614777     7.81466805     5.61076884
Ce    -0.00005808     8.94185811     2.47426506
Ce     3.88852963     6.67270977     8.97834230
Ce     5.78695642     7.81330191     5.63774790
Ce     3.87195266     8.94185811     2.47426506
Cu     0.01235296     7.65634265     8.14192026
O      5.80194293    10.02591251     6.41746314
O     -0.01032234     2.12392027     9.61563681
O      1.93594729     1.11771969     3.26466483
O      0.00765876     2.22740492     4.81899620
O      0.00000000     0.00000000     1.68386529
O      1.91442743     1.08439471     7.94530419
O     -1.94512497    10.03397789     6.43761151
O      3.86156870     2.17402392     9.54709606
O      5.80795803     1.11771969     3.26466483
O      3.88119768     2.22543187     4.81808208
O      3.87189458     0.00000000     1.68386529
O      5.80707631     1.13932966     7.94275046
O      1.94519140    10.03566665     6.43242880
O      7.75061923     2.20843783     9.53923922
O      9.67985261     1.11771969     3.26466483
O      7.72517787     2.22628527     4.80923279
O      7.74390532     0.00000000     1.68386529
O      9.69463176     1.14371201     7.91389494
O      9.65732130     3.34010133     6.36194597
O     -2.25678344     5.37578726     9.94528492
O      0.00000000     4.47087876     3.26466483
O     -1.91795096     5.61271013     4.83036214
O     -1.93594729     3.35315907     1.68386529
O     -0.03136821     4.26828090     7.95677587
O      1.95911264     3.33745581     6.40779744
O      2.02740634     5.20566355     9.94086493
O      3.87201074     4.47087876     3.26466483
O      1.91176454     5.59747021     4.83130835
O      1.93594729     3.35315907     1.68386529
O      3.84447350     4.48658485     8.00086807
O      5.80639589     3.37494425     6.43324196
O      5.91483643     5.51158110     9.51171064
O      7.74390532     4.47087876     3.26466483
O      5.81322475     5.59757663     4.82781261
O      5.80795803     3.35315907     1.68386529
O      7.81095795     4.46714773     7.94149890
O     -3.86227737     6.74339328     6.45530007
O     -3.84963893     8.90239771     9.52328531
O     -1.93600537     7.82413842     3.26466483
O     -3.87090878     8.93740048     4.80589835
O     -3.87195266     6.70641873     1.68386529
O     -1.83389237     7.76740947     8.02912614
O      0.01152534     6.74561461     6.50139052
O     -0.00355110     8.95276981     9.47617118
O      1.93600537     7.82413842     3.26466483
O     -0.00322066     8.93615624     4.81471229
O     -0.00005808     6.70641873     1.68386529
O      1.85667116     7.77626356     8.05293767
O      3.84952346     6.73105972     6.42391468
O      3.85948896     9.04730714     9.48041216
O      5.80789995     7.82413842     3.26466483
O      3.87142023     8.94177230     4.80150063
O      3.87195266     6.70641873     1.68386529
O      5.77804144     7.77800065     8.02647044
O      3.77988853     6.64220740    11.16452531
H     -1.46114967     5.82006873    10.29617952
H      4.33943434     7.14690139    11.77706297
H      2.31760693     5.47100719    10.84177631
N     -4.78525135     9.56712319    13.56878870
N      6.25817626     9.23196577    12.67041099
