85
CIF: 6-OH+2H-H2O+H_fs.cif | data_image0
Ce     5.78550283    10.05827412     8.77970233
Ce     1.94116329     1.10625764     5.62046218
Ce     0.00000000     2.23543938     2.47426506
Ce    -1.90211738    10.03990904     8.81130326
Ce     5.80449882     1.11681111     5.61270178
Ce     3.87189458     2.23543938     2.47426506
Ce     7.64738120     0.02916417     8.82514203
Ce     9.67154828     1.10808792     5.63046940
Ce     7.74390532     2.23543938     2.47426506
Ce     9.62738429     3.29439476     8.77959568
Ce    -0.00940887     4.44514430     5.59436143
Ce    -1.93600537     5.58869904     2.47426506
Ce     1.95483981     3.26970330     8.76246277
Ce     3.87484573     4.48302839     5.61826204
Ce     1.93588921     5.58869904     2.47426506
Ce     5.80513309     3.37830272     8.74870734
Ce     7.74932448     4.48100319     5.62350532
Ce     5.80789995     5.58869904     2.47426506
Ce    -3.88526150     6.78851048     8.77098283
Ce    -1.94586279     7.83389789     5.69455948
Ce    -3.87195266     8.94185811     2.47426506
Ce     1.94901164     7.83516814     5.60571423
Ce    -0.00005808     8.94185811     2.47426506
Ce     3.94695853     6.72014629     8.80477293
Ce     5.80419722     7.82791191     5.60555223
Ce     3.87195266     8.94185811     2.47426506
Cu     0.80604749     6.20339766     8.13506373
O     11.60116402     0.00903910     6.42636391
O     -0.02547346     2.24088713     9.52700867
O      1.93594729     1.11771969     3.26466483
O      0.00034652     2.23049088     4.80727636
O      0.00000000     0.00000000     1.68386529
O      1.93455725     1.09127303     7.97168841
O      3.88384778     0.00563412     6.41465716
O      3.85447572     2.27340724     9.55605497
O      5.80795803     1.11771969     3.26466483
O      3.86724306     2.24542871     4.81792266
O      3.87189458     0.00000000     1.68386529
O      5.79835931     1.19964714     7.88899623
O      1.93156075    10.00591309     6.45287331
O      7.72246176     2.26196518     9.56718076
O      9.67985261     1.11771969     3.26466483
O      7.74921997     2.22876472     4.82770284
O      7.74390532     0.00000000     1.68386529
O      9.64035828     1.12539062     7.97531616
O     -1.90700247     3.34164515     6.43715138
O     -2.28567265     5.38021502     9.95770271
O      0.00000000     4.47087876     3.26466483
O     -1.91394527     5.59707605     4.83535782
O     -1.93594729     3.35315907     1.68386529
O     -0.02524905     4.55270981     8.00741501
O      1.91691678     3.34378366     6.44446881
O      1.83720044     5.52247685     9.51221236
O      3.87201074     4.47087876     3.26466483
O      1.93078606     5.58340569     4.81324370
O      1.93594729     3.35315907     1.68386529
O      3.86589532     4.48900500     7.97126986
O      5.81192849     3.40089573     6.40884849
O      5.82503002     5.60556909     9.51275377
O      7.74390532     4.47087876     3.26466483
O      5.80168300     5.59669383     4.80208042
O      5.80795803     3.35315907     1.68386529
O      7.78629692     4.47940820     7.96034804
O      7.71694965     6.70008383     6.40991026
O     -3.95733403     8.95072384     9.62680754
O     -1.93600537     7.82413842     3.26466483
O     -3.87106553     8.94327930     4.82646378
O     -3.87195266     6.70641873     1.68386529
O     -2.07113524     7.87633085     7.99003599
O      0.04620820     6.68359471     6.48919178
O     -0.00176123     9.44535163     9.76291345
O      1.93600537     7.82413842     3.26466483
O      0.00085974     8.91349936     4.82656667
O     -0.00005808     6.70641873     1.68386529
O      1.87911580     7.71330582     8.05096720
O      3.87084312     6.72739195     6.41806112
O      3.85762399     8.96349426     9.55150547
O      5.80789995     7.82413842     3.26466483
O      3.86959212     8.94821773     4.80412257
O      3.87195266     6.70641873     1.68386529
O      5.79780300     7.84784525     7.96044022
O      3.26010668     6.75699255    11.31699653
H     -1.49643634     5.81315365    10.33388606
H      3.15648152     7.72451319    11.41571871
H      2.38521073     6.39717459    11.00497973
