83
CIF: NO.cif | data_image0
Ce    -5.79666346    10.05407930     8.74203842
Ce     1.94320754     1.10794071     5.61819231
Ce     0.00000000     2.23543938     2.47426506
Ce    -1.86490084    10.04897992     8.82041200
Ce     5.80154881     1.11220941     5.61240815
Ce     3.87189458     2.23543938     2.47426506
Ce     7.67766390     0.04920628     8.84253246
Ce     9.67916416     1.12007076     5.65610466
Ce     7.74390532     2.23543938     2.47426506
Ce     9.62046242     3.39660830     8.83810565
Ce     0.01237741     4.44517714     5.61526568
Ce    -1.93600537     5.58869904     2.47426506
Ce     1.94360285     3.26131988     8.76936041
Ce     3.86412155     4.48084842     5.62314492
Ce     1.93588921     5.58869904     2.47426506
Ce     5.79090624     3.37086812     8.73785232
Ce     7.74954815     4.48270023     5.61245560
Ce     5.80789995     5.58869904     2.47426506
Ce    -3.82479918     6.65932815     8.81539650
Ce    -1.95480676     7.83994791     5.60686678
Ce    -3.87195266     8.94185811     2.47426506
Ce     1.96445136     7.82941423     5.62155925
Ce    -0.00005808     8.94185811     2.47426506
Ce     3.94088205     6.74614177     8.79512715
Ce     5.81645255     7.82504909     5.62455167
Ce     3.87195266     8.94185811     2.47426506
Cu    -0.05178237     6.71655112     8.16466453
O     11.61381446     0.00290824     6.43416324
O      0.03077066     2.26347996     9.48957496
O      1.93594729     1.11771969     3.26466483
O     -0.00758690     2.22211213     4.81161106
O      0.00000000     0.00000000     1.68386529
O      1.94276658     1.10328468     7.96401620
O     -1.94170616    10.01433119     6.44140961
O      3.87024737     2.24553537     9.52720256
O      5.80795803     1.11771969     3.26466483
O      3.86080489     2.22441884     4.81735711
O      3.87189458     0.00000000     1.68386529
O      5.80913359     1.19019897     7.87525494
O      1.94542411     9.97185426     6.48782949
O      7.71103955     2.26495196     9.55578009
O      9.67985261     1.11771969     3.26466483
O      7.76118843     2.22701298     4.85614392
O      7.74390532     0.00000000     1.68386529
O      9.67047137     1.13879624     7.98410526
O     -1.84863518     3.39648450     6.48307409
O     -2.33101028     5.33694471     9.73744574
O      0.00000000     4.47087876     3.26466483
O     -1.94556345     5.57697812     4.80021525
O     -1.93594729     3.35315907     1.68386529
O      0.19138785     4.76135650     8.09759769
O      1.90240724     3.32405336     6.42713332
O      2.37160053     5.25445049    10.24478724
O      3.87201074     4.47087876     3.26466483
O      1.95317264     5.58002752     4.81479104
O      1.93594729     3.35315907     1.68386529
O      3.79075880     4.51486802     7.96636687
O      5.75839461     3.38662646     6.38962133
O      5.81645713     5.57837811     9.50701023
O      7.74390532     4.47087876     3.26466483
O      5.81483009     5.60832146     4.82048275
O      5.80795803     3.35315907     1.68386529
O      7.69578716     4.43595621     7.87331281
O     -3.82937648     6.74184714     6.44682900
O     -3.81506435     8.91297581     9.49746227
O     -1.93600537     7.82413842     3.26466483
O     -3.88169964     8.94834243     4.80613930
O     -3.87195266     6.70641873     1.68386529
O     -1.70954738     7.71240295     8.03408222
O     -0.00680165     6.70839351     6.23987059
O      0.02433988     9.44513224     9.75784483
O      1.93600537     7.82413842     3.26466483
O      0.00844481     8.95792271     4.80265768
O     -0.00005808     6.70641873     1.68386529
O      1.75782380     7.51941362     8.09803352
O      3.87731303     6.75314591     6.42964344
O      3.84864601     8.92623565     9.47071489
O      5.80789995     7.82413842     3.26466483
O      3.87992203     8.95791829     4.81446749
O      3.87195266     6.70641873     1.68386529
O      5.82243145     7.83165273     7.97087351
O      2.97339146     5.60857114    12.32158877
N      3.09458795     5.91982171    11.15866155
