85
CIF: 1-NH3-NH2+H_ts.cif | data_image0
Ce     0.03349327     0.01031277     8.76205716
Ce     1.92561625     1.15208221     5.60869198
Ce     0.00000000     2.23543938     2.47426506
Ce     3.85669900     0.02700961     8.92743127
Ce     5.84376791     1.00653260     5.64333534
Ce     3.87189458     2.23543938     2.47426506
Ce     2.02585773    10.00784884     8.77965743
Ce     9.71625272     1.15230625     5.56465736
Ce     7.74390532     2.23543938     2.47426506
Ce     9.67536813     3.32531988     8.70699975
Ce    -0.05233965     4.63120409     5.55695557
Ce    -1.93600537     5.58869904     2.47426506
Ce     1.84498169     3.41598643     8.55474525
Ce     3.99245053     4.38840868     5.53982705
Ce     1.93588921     5.58869904     2.47426506
Ce     5.83281592     3.16740450     8.76076853
Ce     7.82451644     4.44371897     5.65378133
Ce     5.80789995     5.58869904     2.47426506
Ce     7.68251034     6.69441147     8.66060903
Ce    -1.93032366     7.90842539     5.72893181
Ce    -3.87195266     8.94185811     2.47426506
Ce     0.11848226     6.77399047     9.01620081
Ce     1.92701858     7.81552063     5.61581651
Ce    -0.00005808     8.94185811     2.47426506
Ce     3.90818347     6.59779370     8.61998775
Ce     5.79894604     7.89492580     5.53762926
Ce     3.87195266     8.94185811     2.47426506
O     -0.03440180     0.06083651     6.38484079
O      0.01655095     2.29514427     9.47870307
O      1.93594729     1.11771969     3.26466483
O     -0.00263958     2.26255129     4.76833231
O      0.00000000     0.00000000     1.68386529
O      1.89372275     1.17186941     7.85582933
O     -1.91004536    10.03793356     6.56890001
O      3.84459411     2.24193798     9.45308313
O      5.80795803     1.11771969     3.26466483
O      3.90876506     2.17614794     4.85587734
O      3.87189458     0.00000000     1.68386529
O      5.85723840     1.02912032     7.96043381
O      1.96732800    10.01203283     6.40831568
O      7.76571029     2.13424503     9.56942994
O      9.67985261     1.11771969     3.26466483
O      7.75243065     2.19699482     4.79262292
O      7.74390532     0.00000000     1.68386529
O      9.69523507     1.14901796     7.90479468
O     -1.86937358     3.36478288     6.34086632
O     -1.90331881     5.51544397     9.98425029
O      0.00000000     4.47087876     3.26466483
O     -1.96605814     5.69228191     4.82116894
O      9.67985261     3.35315907     1.68386529
O     -0.11722902     4.60074394     7.96450002
O      1.82789690     3.44156393     6.24758796
O      2.00336275     5.55790744     9.50761225
O      3.87201074     4.47087876     3.26466483
O      1.96470018     5.62706921     4.82568448
O      1.93594729     3.35315907     1.68386529
O      3.81635230     4.40911031     7.79500357
O      5.90726076     3.27506321     6.45062504
O      5.72376269     5.44538747     9.36888258
O      7.74390532     4.47087876     3.26466483
O      5.84592018     5.58753715     4.82935533
O      5.80795803     3.35315907     1.68386529
O      7.88517626     4.34674650     7.95951759
O      7.73642122     6.67012247     6.37418498
O     -3.83192320     9.13595590     9.53602847
O     -1.93600537     7.82413842     3.26466483
O     -3.86128283     8.96589865     4.88533062
O      7.74384724     6.70641873     1.68386529
O     -1.85531935     7.75408939     8.12114499
O     -0.01718841     6.76860038     6.53395735
O      0.02096155     8.95717262     9.66983307
O      1.93600537     7.82413842     3.26466483
O     -0.02060383     8.89546035     4.85406658
O     -0.00005808     6.70641873     1.68386529
O      1.90949452     7.79072500     7.96818796
O      3.90717211     6.74466001     6.33926237
O      3.82368898     8.92182227     9.50181276
O      5.80789995     7.82413842     3.26466483
O      3.85206401     8.97013635     4.81131455
O      3.87195266     6.70641873     1.68386529
O      5.79971787     7.92359965     7.95405182
N      0.70311774     6.28151245    11.35667302
H     -1.66202329     5.60781167    10.94788621
H      1.40465273     7.00844788    11.64371490
H      0.99849253     5.41933032    11.77872135
