87
CIF: 2-NH2+H+NO-NH2NO+H_ts.cif | data_image0
Ce    -5.78570711    10.05392930     8.79553700
Ce     1.93473698     1.11039999     5.59853211
Ce     0.00000000     2.23543938     2.47426506
Ce     3.87875269     0.01687375     8.78100036
Ce     5.81080862     1.11973428     5.62132226
Ce     3.87189458     2.23543938     2.47426506
Ce     7.74119205     0.00135168     8.79421291
Ce     9.68618075     1.10387873     5.60389224
Ce     7.74390532     2.23543938     2.47426506
Ce     9.68150013     3.23932248     8.74286724
Ce    -0.00393406     4.47732918     5.62882801
Ce    -1.93600537     5.58869904     2.47426506
Ce     1.92935311     3.27029468     8.72168255
Ce     3.87003421     4.48212194     5.61249646
Ce     1.93588921     5.58869904     2.47426506
Ce     5.80045957     3.36768101     8.76957067
Ce     7.75218817     4.48488321     5.63626956
Ce     5.80789995     5.58869904     2.47426506
Ce     7.69758835     6.75274799     8.83507064
Ce    -1.93684047     7.82341000     5.63583893
Ce    -3.87195266     8.94185811     2.47426506
Ce     0.00944131     6.79488455     8.78350500
Ce     1.93698654     7.82492754     5.61545197
Ce    -0.00005808     8.94185811     2.47426506
Ce     3.94718362     6.75815269     8.74626006
Ce     5.82620939     7.82610308     5.60544297
Ce     3.87195266     8.94185811     2.47426506
O      0.00843097     0.00560433     6.41619608
O      0.00983066     2.21556618     9.59105332
O      1.93594729     1.11771969     3.26466483
O     -0.00089783     2.23275343     4.80246827
O      0.00000000     0.00000000     1.68386529
O      1.93525328     1.13561113     7.94304203
O      3.87744850     0.00648058     6.43089226
O      3.85673809     2.25612614     9.54244800
O      5.80795803     1.11771969     3.26466483
O      3.87909439     2.24166670     4.81909524
O      3.87189458     0.00000000     1.68386529
O      5.81445122     1.15719065     7.96157103
O      1.93519802    10.05229921     6.43904045
O      7.77444164     2.20795944     9.58709402
O      9.67985261     1.11771969     3.26466483
O      7.73955746     2.23545001     4.82326692
O      7.74390532     0.00000000     1.68386529
O      9.69252230     1.08961445     7.97607798
O      9.69608398     3.32043509     6.42245013
O     -1.87911558     5.47660385    10.04228299
O      0.00000000     4.47087876     3.26466483
O     -1.93429837     5.57706012     4.82296461
O      9.67985261     3.35315907     1.68386529
O     -0.01494508     4.45034970     8.01481351
O      1.91719102     3.34463462     6.41393062
O      1.97863160     5.57111132     9.87785570
O      3.87201074     4.47087876     3.26466483
O      1.94449587     5.58745688     4.81603941
O      1.93594729     3.35315907     1.68386529
O      3.77589484     4.50079276     7.96877219
O      5.80682950     3.39416829     6.45587396
O      5.68881934     5.52153810     9.57926682
O      7.74390532     4.47087876     3.26466483
O      5.80618250     5.58257040     4.80311038
O      5.80795803     3.35315907     1.68386529
O      7.82906780     4.43855435     8.01552160
O      7.73239252     6.70545348     6.39125209
O     -3.88157250     9.10720446     9.63052885
O     -1.93600537     7.82413842     3.26466483
O     -3.86426899     8.95033049     4.80535499
O      7.74384724     6.70641873     1.68386529
O     -1.94504130     7.85214468     7.99932626
O      0.00918134     6.71604724     6.37451915
O      0.03839353     9.08953312     9.62242489
O      1.93600537     7.82413842     3.26466483
O      0.00415198     8.95607206     4.81395102
O     -0.00005808     6.70641873     1.68386529
O      2.00907298     7.79706903     7.99234097
O      3.90185088     6.71193639     6.40767790
O      3.89210670     8.93312536     9.61898820
O      5.80789995     7.82413842     3.26466483
O      3.87095475     8.94461322     4.80710171
O      3.87195266     6.70641873     1.68386529
O      5.78489354     7.86307624     7.97495235
O      3.74427369     4.66902479    12.97393176
N      1.92534334     5.25757335    11.62415874
N      2.64772675     4.27955598    12.66833091
H     -2.00566595     5.42445272    11.00559094
H      2.05808419     6.23538217    11.96207058
H      0.93071978     4.95548826    11.68026944
