87
CIF: 3-NH2NO+H-NHNO+2H_fs.cif | data_image0
Ce    -5.79698990    10.05696254     8.77649152
Ce     1.93083813     1.12251616     5.61344124
Ce     0.00000000     2.23543938     2.47426506
Ce     3.85859523     0.01443543     8.78125220
Ce     5.80832853     1.11188180     5.62480116
Ce     3.87189458     2.23543938     2.47426506
Ce     1.94949730    10.05514996     8.77203122
Ce     9.68460639     1.10635625     5.59920835
Ce     7.74390532     2.23543938     2.47426506
Ce     9.66409999     3.24640792     8.74109528
Ce     0.00662384     4.47451755     5.63378404
Ce    -1.93600537     5.58869904     2.47426506
Ce     1.92563891     3.28409335     8.81182934
Ce     3.85799800     4.47555296     5.63260029
Ce     1.93588921     5.58869904     2.47426506
Ce     5.79811575     3.35007568     8.77453564
Ce     7.74708453     4.48500843     5.63733535
Ce     5.80789995     5.58869904     2.47426506
Ce     7.69199943     6.74098707     8.84963643
Ce    -1.94570560     7.81969140     5.62475644
Ce    -3.87195266     8.94185811     2.47426506
Ce     0.03355076     6.81188464     8.73182579
Ce     1.94665768     7.82644928     5.60010830
Ce    -0.00005808     8.94185811     2.47426506
Ce     3.93297702     6.73534718     8.76736879
Ce     5.82200497     7.81983830     5.61303711
Ce     3.87195266     8.94185811     2.47426506
O      0.00901449     0.00663481     6.41798538
O     -0.09343040     2.20827562     9.47851780
O      1.93594729     1.11771969     3.26466483
O     -0.00301356     2.23438997     4.80206441
O      0.00000000     0.00000000     1.68386529
O      1.93344580     1.14478983     7.96394352
O     -1.94506503    10.04512980     6.44742298
O      3.94381178     2.21954701     9.48055683
O      5.80795803     1.11771969     3.26466483
O      3.87672339     2.23479968     4.82820301
O      3.87189458     0.00000000     1.68386529
O      5.84152064     1.09718970     7.95517557
O      1.93699204    10.03171829     6.41487422
O      7.76441488     2.19392775     9.57809679
O      9.67985261     1.11771969     3.26466483
O      7.73773531     2.24049660     4.83228741
O      7.74390532     0.00000000     1.68386529
O      9.65025299     1.07971173     7.93748869
O     -1.89945547     3.33525205     6.42979813
O     -1.85338510     5.54884604     9.97038593
O      0.00000000     4.47087876     3.26466483
O     -1.92913735     5.58222920     4.82664042
O     -1.93594729     3.35315907     1.68386529
O     -0.00120527     4.56800057     8.04352808
O      1.90049411     3.34896086     6.41854295
O      1.94120679     5.74568446     9.83590728
O      3.87201074     4.47087876     3.26466483
O      1.93849686     5.58953695     4.81674436
O      1.93594729     3.35315907     1.68386529
O      3.75847866     4.50950071     7.98828368
O      5.79312487     3.38174551     6.46489415
O      5.68748808     5.51998264     9.58204221
O      7.74390532     4.47087876     3.26466483
O      5.80523214     5.57656278     4.81372632
O      5.80795803     3.35315907     1.68386529
O      7.82173663     4.43354985     8.00598011
O      7.73668129     6.70959147     6.39334946
O     -3.85915646     9.07921124     9.57150193
O     -1.93600537     7.82413842     3.26466483
O     -3.86522330     8.94894859     4.80839366
O     -3.87195266     6.70641873     1.68386529
O     -1.87905244     7.77879811     8.00593810
O      0.01718002     6.72795443     6.40728688
O      0.03320416     8.93069199     9.57263440
O      1.93600537     7.82413842     3.26466483
O     -0.00643226     8.94897797     4.81051028
O     -0.00005808     6.70641873     1.68386529
O      1.95493986     7.78119205     7.97293490
O      3.88926843     6.71257541     6.41399296
O      3.87118430     8.94651749     9.57510885
O      5.80789995     7.82413842     3.26466483
O      3.87729973     8.94223343     4.80399643
O      3.87195266     6.70641873     1.68386529
O      5.77388080     7.85700945     7.97153344
O      1.92210766     2.10229539    11.93403251
H     -1.75672390     5.49917384    10.93831219
H      1.89796300     4.14010524    13.06774271
H      1.92541847     5.42441247    10.81292957
N      1.88268069     4.33904684    12.04829645
N      1.90278316     3.23665608    11.38985207
