87
CIF: 5-NHNO+2H-N2O+3H_fs.cif | data_image0
Ce     5.81115767    10.04736625     8.79106111
Ce     1.93530396     1.12144813     5.64017795
Ce     0.00000000     2.23543938     2.47426506
Ce    -1.96633124    10.00742140     8.84413431
Ce     5.79676982     1.11150562     5.64325224
Ce     3.87189458     2.23543938     2.47426506
Ce     1.94769677    10.04233224     8.77953236
Ce     9.68429112     1.10805177     5.60298572
Ce     7.74390532     2.23543938     2.47426506
Ce     9.66842258     3.23672465     8.77134185
Ce     0.00002621     4.47388968     5.62303641
Ce    -1.93600537     5.58869904     2.47426506
Ce     1.85326143     3.33394703     8.80186332
Ce     3.86339195     4.46942080     5.62992916
Ce     1.93588921     5.58869904     2.47426506
Ce     5.89664116     3.40481361     8.75170451
Ce     7.75800576     4.48804050     5.62351068
Ce     5.80789995     5.58869904     2.47426506
Ce     7.68052230     6.75301238     8.87163869
Ce    -1.94896180     7.82911474     5.62203728
Ce    -3.87195266     8.94185811     2.47426506
Ce     0.01257714     6.81278141     8.72194457
Ce     1.93901964     7.81932499     5.59442865
Ce    -0.00005808     8.94185811     2.47426506
Ce     3.95968934     6.72738032     8.72996660
Ce     5.82615637     7.82056088     5.60164409
Ce     3.87195266     8.94185811     2.47426506
O      0.00267351     0.00036880     6.41732655
O     -0.16667060     2.18936253     9.63917711
O      1.93594729     1.11771969     3.26466483
O     -0.01106288     2.23149334     4.80444149
O      0.00000000     0.00000000     1.68386529
O      1.92391422     1.14088223     7.97869071
O     -1.92891290    10.02679513     6.40791732
O      3.96216542     2.29887586     9.99313994
O      5.80795803     1.11771969     3.26466483
O      3.88244250     2.24007116     4.83702179
O      3.87189458     0.00000000     1.68386529
O      5.80624036     1.20238670     8.01238713
O      1.90639557    10.02339789     6.45677139
O      7.77696869     2.21171678     9.61364043
O      9.67985261     1.11771969     3.26466483
O      7.74405115     2.22913131     4.83136360
O      7.74390532     0.00000000     1.68386529
O      9.64842855     1.08101011     7.94864482
O     -1.90432954     3.33022795     6.43590653
O     -1.86362257     5.54515756    10.02355183
O      0.00000000     4.47087876     3.26466483
O     -1.93008937     5.58054084     4.81767743
O     -1.93594729     3.35315907     1.68386529
O     -0.06690791     4.59910058     8.05315307
O      1.89315789     3.37953923     6.38803052
O      1.94958092     5.69819499     9.98599360
O      3.87201074     4.47087876     3.26466483
O      1.93394966     5.59800634     4.80610749
O      1.93594729     3.35315907     1.68386529
O      3.85874762     4.47372193     7.99930323
O      5.83259508     3.39610505     6.44435775
O      5.71096404     5.52067344     9.63319530
O      7.74390532     4.47087876     3.26466483
O      5.81098123     5.58014461     4.80125776
O      5.80795803     3.35315907     1.68386529
O      7.82550745     4.44383178     8.02321137
O      7.73703353     6.70931554     6.39008797
O     -4.04805284     9.02919235     9.69403816
O     -1.93600537     7.82413842     3.26466483
O     -3.87363024     8.94783555     4.80589957
O     -3.87195266     6.70641873     1.68386529
O     -1.89110891     7.73120722     8.03490596
O      0.00803560     6.73749397     6.39633768
O      0.14864009     8.86787286     9.61760108
O      1.93600537     7.82413842     3.26466483
O      0.00644908     8.94762961     4.80198197
O     -0.00005808     6.70641873     1.68386529
O      1.96849200     7.71136915     7.96881851
O      3.88914166     6.69494555     6.40135119
O      3.83890328     8.91233730     9.57784129
O      5.80789995     7.82413842     3.26466483
O      3.86503569     8.94531401     4.80814254
O      3.87195266     6.70641873     1.68386529
O      5.75724572     7.83188657     7.95192857
O     -0.78510420     3.54917432    12.57394742
H     -1.82496217     5.47324917    10.99348181
H      3.93359726     2.38257217    10.96211180
H      2.01822762     5.78224576    10.95245585
N      1.49280272     3.19919196    12.18487751
N      0.37823799     3.36496779    12.37665793
