85
CIF: 6-3H+O-2H+OH_is.cif | data_image0
Ce     5.80513714    10.04321381     8.77306960
Ce     1.93549421     1.12728319     5.62991819
Ce     0.00000000     2.23543938     2.47426506
Ce    -1.94732187     9.99661966     8.78077690
Ce     5.80268292     1.11200422     5.62677088
Ce     3.87189458     2.23543938     2.47426506
Ce     1.93905686    10.05026845     8.76077046
Ce     9.68098319     1.10732808     5.59611063
Ce     7.74390532     2.23543938     2.47426506
Ce     9.65477084     3.23280018     8.74747039
Ce     0.00544552     4.47117388     5.62712076
Ce    -1.93600537     5.58869904     2.47426506
Ce     1.82691279     3.31799773     8.86464954
Ce     3.85532328     4.46497099     5.65114974
Ce     1.93588921     5.58869904     2.47426506
Ce     5.85243657     3.38045144     8.77855447
Ce     7.74769523     4.48209178     5.62913618
Ce     5.80789995     5.58869904     2.47426506
Ce     7.69499742     6.73264272     8.85954943
Ce    -1.94664920     7.81313624     5.61695337
Ce    -3.87195266     8.94185811     2.47426506
Ce     0.03959639     6.80774255     8.74383226
Ce     1.94061975     7.82160625     5.60015306
Ce    -0.00005808     8.94185811     2.47426506
Ce     3.92892898     6.72692630     8.77765154
Ce     5.82394958     7.81214171     5.61530829
Ce     3.87195266     8.94185811     2.47426506
O      0.02461782     0.01426616     6.43642636
O     -0.17432518     2.13228977     9.51354558
O      1.93594729     1.11771969     3.26466483
O     -0.00999192     2.22572530     4.80158640
O      0.00000000     0.00000000     1.68386529
O      2.00744475     1.15230009     8.01434816
O     -1.94410726    10.02012002     6.44171247
O      4.18937175     2.04510319     9.89725555
O      5.80795803     1.11771969     3.26466483
O      3.87895074     2.23081682     4.83859357
O      3.87189458     0.00000000     1.68386529
O      5.78392012     1.12930346     7.96563316
O      1.91087778    10.04149886     6.41501835
O      7.76141730     2.19433530     9.57061092
O      9.67985261     1.11771969     3.26466483
O      7.74067358     2.23802158     4.82610293
O      7.74390532     0.00000000     1.68386529
O      9.62529973     1.06500688     7.91907819
O     -1.90202674     3.33206030     6.43061561
O     -1.86930794     5.55177608     9.98728265
O      0.00000000     4.47087876     3.26466483
O     -1.93010244     5.57903353     4.82127940
O     -1.93594729     3.35315907     1.68386529
O     -0.04150595     4.57252485     8.07542896
O      1.88252666     3.36023117     6.38333054
O      1.94208798     5.97774103     9.89559357
O      3.87201074     4.47087876     3.26466483
O      1.93993613     5.59516167     4.81440484
O      1.93594729     3.35315907     1.68386529
O      3.80664779     4.43036887     8.03171732
O      5.81708290     3.38425309     6.45905420
O      5.71225462     5.51553279     9.59416585
O      7.74390532     4.47087876     3.26466483
O      5.80276465     5.57916022     4.81519316
O      5.80795803     3.35315907     1.68386529
O      7.82441193     4.43514508     8.01253390
O      7.73725162     6.70402497     6.39329008
O     -3.85271173     9.06536478     9.60834570
O     -1.93600537     7.82413842     3.26466483
O     -3.87130513     8.94694221     4.81093230
O     -3.87195266     6.70641873     1.68386529
O     -1.88623564     7.76637943     8.01154099
O      0.01577788     6.71920226     6.41029485
O      0.02481911     8.93052122     9.56093751
O      1.93600537     7.82413842     3.26466483
O     -0.00752133     8.94287682     4.80743971
O     -0.00005808     6.70641873     1.68386529
O      1.95220702     7.80695669     7.95447722
O      3.88366552     6.68677950     6.43608603
O      3.87178153     8.94425891     9.56409063
O      5.80789995     7.82413842     3.26466483
O      3.87949131     8.93687578     4.81681822
O      3.87195266     6.70641873     1.68386529
O      5.77678586     7.84857633     7.97488928
O      2.28298658     3.60499736    10.78712012
H     -1.77689905     5.50579443    10.95561593
H      3.60140329     2.53943566    10.55683928
H      2.07448982     5.18218657    10.53331967
