83
CIF: NO.cif | data_image0
Ce     5.80147204    10.05512316     8.77006477
Ce     1.93897548     1.10344017     5.59243286
Ce     0.00000000     2.23543938     2.47426506
Ce    -1.94414924    10.04938013     8.79030939
Ce     5.80539012     1.11234461     5.62727034
Ce     3.87189458     2.23543938     2.47426506
Ce     7.75886324     0.01311473     8.78148715
Ce     9.68894019     1.11495833     5.61539960
Ce     7.74390532     2.23543938     2.47426506
Ce    -1.91914225     3.35410855     8.75921710
Ce     0.01367529     4.47466572     5.62375391
Ce    -1.93600537     5.58869904     2.47426506
Ce     1.95240069     3.21143203     8.73696425
Ce     3.87061000     4.47941706     5.64529826
Ce     1.93588921     5.58869904     2.47426506
Ce     5.83367332     3.34907673     8.78077010
Ce     7.74984183     4.47402441     5.61552352
Ce     5.80789995     5.58869904     2.47426506
Ce     7.74262576     6.69263131     8.76914191
Ce    -1.94332607     7.82782456     5.59275497
Ce    -3.87195266     8.94185811     2.47426506
Ce    -0.11098556     6.78178435     8.73780018
Ce     1.94584868     7.81281266     5.64627426
Ce    -0.00005808     8.94185811     2.47426506
Ce     3.96403860     6.75073971     8.86494069
Ce     5.79763233     7.81429173     5.62066657
Ce     3.87195266     8.94185811     2.47426506
O      5.80284435    10.05816790     6.41564095
O      0.01544221     2.21497181     9.53518759
O      1.93594729     1.11771969     3.26466483
O      0.00120183     2.23292347     4.80463466
O      0.00000000     0.00000000     1.68386529
O      1.93851253     1.08762449     7.94995104
O     -1.92981223    10.05898937     6.41940526
O      3.84599091     2.18197187     9.58162703
O      5.80795803     1.11771969     3.26466483
O      3.88069191     2.23438180     4.81547747
O      3.87189458     0.00000000     1.68386529
O      5.81873499     1.11918445     7.98021966
O      1.94263110    10.02799398     6.45318599
O      7.76476481     2.23916916     9.56144199
O      9.67985261     1.11771969     3.26466483
O      7.74714475     2.23430826     4.83662153
O      7.74390532     0.00000000     1.68386529
O      9.67603676     1.16031945     7.93619569
O     -1.87773423     3.38274919     6.43818113
O     -1.93768015     5.60127140     9.52966373
O      0.00000000     4.47087876     3.26466483
O     -1.93437405     5.58701014     4.80429527
O     -1.93594729     3.35315907     1.68386529
O      0.12050954     4.53123766     8.03013772
O      1.93187220     3.31337212     6.41218959
O      1.74761083     5.48323807    10.10498337
O      3.87201074     4.47087876     3.26466483
O      1.93059171     5.58399184     4.83215539
O      1.93594729     3.35315907     1.68386529
O      3.78425253     4.43940365     8.04391876
O      5.78690605     3.36840913     6.45146585
O      5.96166521     5.49762259     9.58118103
O      7.74390532     4.47087876     3.26466483
O      5.81275506     5.57692022     4.81369343
O      5.80795803     3.35315907     1.68386529
O      7.78315337     4.43521146     7.93714707
O      7.74488363     6.69507324     6.41612334
O     -3.85363503     8.94773142     9.58069654
O     -1.93600537     7.82413842     3.26466483
O     -3.87218504     8.93755400     4.80701225
O     -3.87195266     6.70641873     1.68386529
O     -1.95808339     7.83446689     7.95092584
O     -0.03403972     6.71472171     6.41512963
O     -0.05595608     8.93972512     9.58131327
O      1.93600537     7.82413842     3.26466483
O      0.00658876     8.94432451     4.81596513
O     -0.00005808     6.70641873     1.68386529
O      1.86888220     7.75462370     8.04495523
O      3.88402203     6.70909484     6.39546863
O      3.87470544     9.10882108     9.57996832
O      5.80789995     7.82413842     3.26466483
O      3.86492750     8.94741560     4.81406790
O      3.87195266     6.70641873     1.68386529
O      5.86080245     7.84725274     7.97868844
O      2.09808656     5.78636839    12.24333537
N      2.53228309     5.95276880    11.13258167
