87
CIF: 6-OH+2H-H2O_is.cif | data_image0
Ce     0.01154305     0.01330303     8.73907316
Ce     1.92487515     1.10981807     5.61608264
Ce     0.00000000     2.23543938     2.47426506
Ce    -1.90741491     9.99685763     8.76484362
Ce     5.80252606     1.10359185     5.62623501
Ce     3.87189458     2.23543938     2.47426506
Ce     1.96680504    10.02159306     8.73691961
Ce     9.68634655     1.12321355     5.60073040
Ce     7.74390532     2.23543938     2.47426506
Ce     9.65150625     3.32615246     8.74037456
Ce    -0.01920611     4.50945653     5.64075321
Ce    -1.93600537     5.58869904     2.47426506
Ce     1.93061843     3.32281219     8.77500961
Ce     3.85894124     4.49221553     5.64483517
Ce     1.93588921     5.58869904     2.47426506
Ce     5.79921085     3.33540371     8.78279718
Ce     7.74109497     4.46828970     5.61172112
Ce     5.80789995     5.58869904     2.47426506
Ce     7.71312221     6.69042761     8.76066739
Ce    -1.91528672     7.80155531     5.60938737
Ce    -3.87195266     8.94185811     2.47426506
Ce     1.96364405     7.81718569     5.62189306
Ce    -0.00005808     8.94185811     2.47426506
Ce     3.93777977     6.77078178     8.86322308
Ce     5.81116527     7.81529162     5.60893224
Ce     3.87195266     8.94185811     2.47426506
Rh     0.00179857     6.82299511     8.59621241
O     -5.79787683    10.05727065     6.42026100
O      0.02438806     2.29872024     9.48984142
O      1.93594729     1.11771969     3.26466483
O      0.01714867     2.23038160     4.81172257
O      0.00000000     0.00000000     1.68386529
O      1.95276052     1.10828206     7.96896018
O     -1.94347044     9.98452702     6.47475283
O      3.85787835     2.21276967     9.55449709
O      5.80795803     1.11771969     3.26466483
O      3.85310445     2.22874019     4.85445048
O      3.87189458     0.00000000     1.68386529
O      5.79505803     1.08190890     7.98877842
O      7.74379634     0.00459316     6.42172252
O      7.72575204     2.21439072     9.51642936
O      9.67985261     1.11771969     3.26466483
O      7.71941934     2.23929999     4.82303928
O      7.74390532     0.00000000     1.68386529
O      9.69251517     1.12918804     7.93629566
O     -1.92059224     3.32902907     6.39428769
O     -2.43509557     5.29224847    10.09947912
O      0.00000000     4.47087876     3.26466483
O     -1.95568622     5.58322180     4.81478245
O     -1.93594729     3.35315907     1.68386529
O     -0.24204682     4.74909709     8.00572143
O      1.86765697     3.37636018     6.50443814
O      1.49687308     5.66595574     9.59389588
O      3.87201074     4.47087876     3.26466483
O      1.95857643     5.56292242     4.81414333
O      1.93594729     3.35315907     1.68386529
O      3.77670453     4.51455859     8.07227328
O      5.77463910     3.36344135     6.47992728
O      5.90317861     5.54655947     9.47627941
O      7.74390532     4.47087876     3.26466483
O      5.81861750     5.56558428     4.81105297
O      5.80795803     3.35315907     1.68386529
O      7.81046640     4.47071091     7.93162063
O     -3.88220998     6.72813002     6.42415236
O     -3.80143707     8.91055040     9.51833796
O     -1.93600537     7.82413842     3.26466483
O     -3.86848712     8.95091982     4.80670951
O     -3.87195266     6.70641873     1.68386529
O     -1.82461862     7.57530803     8.02272773
O      0.04072617     6.74886744     6.28231266
O      0.03070211     8.76169946     9.40395889
O      1.93600537     7.82413842     3.26466483
O     -0.00253428     8.97947680     4.80197107
O     -0.00005808     6.70641873     1.68386529
O      2.06446641     7.81834876     7.95499371
O      3.92197867     6.68751992     6.38035540
O      3.94617435     9.08065747     9.55516233
O      5.80789995     7.82413842     3.26466483
O      3.88508755     8.95123725     4.80829816
O      3.87195266     6.70641873     1.68386529
O      5.81175373     7.84690466     7.99213638
O      3.44531785     6.47747545    11.00892908
H     -1.76270137     5.64807589    10.70792243
H      3.88173953     6.83894674    11.79784016
H      1.88894545     6.05457680    10.42701083
N      5.88664328     8.19393003    14.31881597
N      5.30679517     7.73242867    13.48322531
