83
CIF: CH+H.cif | data_image0
O     -0.00101584     0.09961518     0.10145935
O      1.90304041     1.20491012     3.23684482
O     -0.00000941     2.33862601     6.52498051
O     -0.00101584     2.30864459     1.66347260
O      0.00320419     0.12797913     4.87901618
O      3.82513533     0.09961518     0.10145935
O      5.73739057     1.20208840     3.22568291
O      3.88688607     2.26470639     6.51399597
O      3.82513533     2.30864459     1.66347260
O      3.79772644     0.11064873     4.85122786
O      5.76193421     1.02099400     8.46236159
O      7.65129798     0.09961518     0.10145935
O      9.57272395     1.20538127     3.23610676
O      7.58733898     2.23100870     6.48445349
O      7.65129798     2.30864459     1.66347260
O      7.67038230     0.09148080     4.84275309
O      9.55415499     1.05432237     8.17005186
O     -1.91409143     3.41315929     0.10145935
O     -0.00266783     4.52657736     3.27375274
O     -1.70638504     5.61598083     6.54757421
O     -1.91409717     5.62219864     1.66347260
O     -1.95619229     3.40210451     4.85860531
O      1.91205974     3.41315929     0.10145935
O      3.81680089     4.52766648     3.23936899
O      1.71281630     5.55538042     6.69784383
O      1.91205400     5.62219864     1.66347260
O      1.94659865     3.40517088     4.85106154
O      3.65783687     4.61278771     8.84515796
O      5.73822240     3.41315929     0.10145935
O      7.65987566     4.53439887     3.23995460
O      5.70439371     5.64138435     6.47263716
O      5.73821666     5.62219864     1.66347260
O      5.74248810     3.41445240     4.81304130
O      7.68899906     4.69561405     8.18200790
O     -3.82717276     6.72671335     0.10145935
O     -1.91810399     7.82402788     3.24441906
O     -3.83232585     8.91772941     6.39346449
O     -3.82717276     8.93574276     1.66347260
O     -3.77753254     6.67550029     4.92558369
O     -1.90501488     7.90200129     8.09026431
O     -0.00102158     6.72671335     0.10145935
O      1.91001578     7.83387258     3.21742483
O     -0.02140322     9.07156299     6.40805710
O     -0.00102158     8.93574276     1.66347260
O      0.03380164     6.80652665     4.86606021
O      1.79601405     7.97948443     8.13161159
O      3.82514107     6.72671335     0.10145935
O      5.74155111     7.81469120     3.27481386
O      3.84656050     8.95619339     6.40724821
O      3.82514107     8.93574276     1.66347260
O      3.73826961     6.70193546     4.88486269
O      5.83634918     7.90990476     8.14869321
O      1.92441890     1.04074320     8.16317772
Ce     1.91205974     1.20412988     0.88247738
Ce    -0.00673455     2.30299422     4.07060854
Ce     0.00267819     0.06670905     7.29000882
Ce     5.73822240     1.20412988     0.88247738
Ce     3.84012214     2.31689537     4.04845591
Ce     3.72909374     0.06607744     7.23702835
Ce     9.56437357     1.20412988     0.88247738
Ce     7.64181944     2.31663335     4.03973226
Ce     7.74237818     0.08002495     7.24964042
Ce    -0.00101584     4.51767400     0.88247738
Ce    -1.90854427     5.61640178     4.07990435
Ce     9.43891173     3.33207045     7.25767101
Ce     3.82514681     4.51767400     0.88247738
Ce     1.91196085     5.62349363     4.06265066
Ce     1.96711628     3.26204844     7.20749691
Ce     7.65129798     4.51767400     0.88247738
Ce     5.72936859     5.60430807     4.09758601
Ce     5.81488726     3.45836451     7.37700277
Ce    -1.91409717     7.83122806     0.88247738
Ce    -3.83092097     8.93386059     4.04539361
Ce    -3.83899665     6.72153424     7.29176005
Ce     1.91206548     7.83122806     0.88247738
Ce     0.00113812     8.96803710     4.01090901
Ce    -0.00551821     6.96755654     7.16560575
Ce     5.73821666     7.83122806     0.88247738
Ce     3.82321331     8.93189991     4.04381193
Ce     3.80581175     6.81914842     7.31969873
C      4.40819931     3.89052060     9.59626725
H      5.70822973     1.11914369     9.42991845
H      4.06570007     3.95888606    10.67355715
