84
CIF: CO+O2.cif | data_image0
O     -0.00101584     0.09961518     0.10145935
O      1.91065981     1.20710394     3.24342200
O      0.00105842     2.31654526     6.43027852
O     -0.00101584     2.30864459     1.66347260
O     -0.00495494     0.10240475     4.86829573
O      3.82513533     0.09961518     0.10145935
O      5.73745936     1.19856943     3.25633903
O      3.85189686     2.27556872     6.48328704
O      3.82513533     2.30864459     1.66347260
O      3.80341210     0.09033974     4.87524198
O      7.65129798     0.09961518     0.10145935
O      9.56282088     1.20683955     3.24376189
O      7.62561382     2.27757963     6.47223998
O      7.65129798     2.30864459     1.66347260
O      7.66675300     0.08750314     4.88213979
O      9.60177896     1.17996972     8.05382668
O     -1.91409143     3.41315929     0.10145935
O     -0.00067791     4.51706728     3.25722147
O     -1.88526157     5.63196060     6.41341091
O     -1.91409717     5.62219864     1.66347260
O     -1.92969871     3.40488284     4.89195854
O      1.91205974     3.41315929     0.10145935
O      3.82166295     4.51433596     3.24470023
O      1.88924158     5.62876288     6.41775470
O      1.91205400     5.62219864     1.66347260
O      1.92995199     3.40462597     4.89007781
O      4.42979295     4.10932670    11.42780924
O      5.73822240     3.41315929     0.10145935
O      7.65439609     4.51332187     3.24498909
O      5.73073614     5.61705004     6.45025987
O      5.73821666     5.62219864     1.66347260
O      5.73756627     3.41463320     4.87305383
O      7.71694370     4.56791415     8.02482297
O     -3.82717276     6.72671335     0.10145935
O     -1.91621121     7.83040396     3.24285084
O     -3.85056569     8.92168963     6.41489679
O     -3.82717276     8.93574276     1.66347260
O     -3.83265416     6.71645936     4.87300251
O     -1.94244107     7.82867790     8.04960398
O     -0.00102158     6.72671335     0.10145935
O      1.91302630     7.83120495     3.24106018
O     -0.00874811     8.98145142     6.46386912
O     -0.00102158     8.93574276     1.66347260
O      0.00173511     6.75438753     4.87848102
O      1.93005474     7.82487430     8.05296500
O      3.82514107     6.72671335     0.10145935
O      5.73687535     7.82691873     3.23909091
O      3.83616574     8.92448016     6.42176466
O      3.82514107     8.93574276     1.66347260
O      3.82636688     6.72045411     4.87347393
O      5.72914870     7.82898265     8.06094477
O      1.89176488     1.17491664     8.05803195
O     -0.00254391     4.52469142     8.05926136
O      3.76094745     4.54171911     8.04798100
O      6.11693666     2.07668841     9.11425377
O      5.72882709     1.00532731     8.22660307
Ce     1.91205974     1.20412988     0.88247738
Ce    -0.00234411     2.30577843     4.05881976
Ce    -0.00712811     0.09187101     7.25132509
Ce     5.73822240     1.20412988     0.88247738
Ce     3.83159890     2.30944979     4.07220700
Ce     3.72913632     0.05541927     7.22527760
Ce     9.56437357     1.20412988     0.88247738
Ce     7.64473445     2.30734015     4.07382891
Ce     7.73025150     0.06759442     7.25144582
Ce    -0.00101584     4.51767400     0.88247738
Ce    -1.91594978     5.62332630     4.05742437
Ce    -1.91363024     3.41982171     7.25351988
Ce     3.82514681     4.51767400     0.88247738
Ce     1.91362261     5.62456679     4.05607689
Ce     1.90471396     3.41908479     7.24749166
Ce     7.65129798     4.51767400     0.88247738
Ce     5.73774088     5.60881326     4.05866069
Ce     5.74458701     3.44886295     7.32162964
Ce    -1.91409717     7.83122806     0.88247738
Ce    -3.83580855     8.93102756     4.03672335
Ce    -3.83133769     6.71466749     7.24718733
Ce     1.91206548     7.83122806     0.88247738
Ce    -0.00014952     8.93997588     4.06615468
Ce    -0.00327952     6.73582818     7.24342872
Ce     5.73821666     7.83122806     0.88247738
Ce     3.82740287     8.93346138     4.04161993
Ce     3.82330726     6.71788308     7.24542927
C      5.18685746     4.39015700    10.61651784
