84
CIF: CO2+O.cif | data_image0
O     -0.00101584     0.09961518     0.10145935
O      1.91272304     1.20432240     3.24647451
O      0.00303879     2.30720353     6.43706949
O     -0.00101584     2.30864459     1.66347260
O      0.00056815     0.09866194     4.88107531
O      3.82513533     0.09961518     0.10145935
O      5.73860207     1.20448450     3.24682330
O      3.83187288     2.31763119     6.44803439
O      3.82513533     2.30864459     1.66347260
O      3.82658179     0.10339296     4.88451741
O      7.65129798     0.09961518     0.10145935
O      9.56597038     1.20393211     3.24663219
O      7.65154510     2.30915787     6.44633452
O      7.65129798     2.30864459     1.66347260
O      7.65387168     0.10087391     4.88275186
O      9.57101958     1.20058096     8.06371720
O     -1.91409143     3.41315929     0.10145935
O     -0.00006728     4.51836217     3.24619719
O     -1.90443571     5.62468379     6.43234925
O     -1.91409717     5.62219864     1.66347260
O     -1.91307196     3.41147302     4.88268995
O      1.91205974     3.41315929     0.10145935
O      3.82717150     4.51680843     3.24842692
O      1.91396543     5.62101516     6.43404619
O      1.91205400     5.62219864     1.66347260
O      1.91451083     3.41136713     4.88192953
O      3.83875702     4.71674905    11.32994250
O      5.73822240     3.41315929     0.10145935
O      7.65172387     4.51770372     3.24761894
O      5.73476602     5.61171630     6.44600141
O      5.73821666     5.62219864     1.66347260
O      5.74319221     3.41172336     4.88520392
O      7.67176529     4.52933468     8.05217664
O     -3.82717276     6.72671335     0.10145935
O     -1.91521101     7.83198546     3.24853788
O     -3.82627277     8.93728644     6.43767223
O     -3.82717276     8.93574276     1.66347260
O     -3.82888494     6.72431727     4.88355372
O     -1.91262155     7.83235443     8.06399508
O     -0.00102158     6.72671335     0.10145935
O      1.91518756     7.83213274     3.24575502
O      0.00147738     8.92733613     6.43354788
O     -0.00102158     8.93574276     1.66347260
O      0.00284972     6.72505253     4.87682240
O      1.91618528     7.83215206     8.06295978
O      3.82514107     6.72671335     0.10145935
O      5.73956794     7.83026199     3.24742795
O      3.82980810     8.93566078     6.43787773
O      3.82514107     8.93574276     1.66347260
O      3.82855769     6.72641217     4.88132770
O      5.73994022     7.82735351     8.07010331
O      1.91634911     1.20535399     8.06826540
O      0.00241464     4.51683239     8.06432069
O      3.81041506     4.52954505     8.08650095
O      5.59475134     3.54777246    10.28840321
O      5.73989322     1.18537165     8.05269949
Ce     1.91205974     1.20412988     0.88247738
Ce     0.00099154     2.30723021     4.05816566
Ce     0.00186486     0.09889939     7.25532048
Ce     5.73822240     1.20412988     0.88247738
Ce     3.82934596     2.31044607     4.06282135
Ce     3.82852537     0.09831889     7.25185560
Ce     9.56437357     1.20412988     0.88247738
Ce     7.65150849     2.30957999     4.06165283
Ce     7.65525193     0.09677046     7.25282315
Ce    -0.00101584     4.51767400     0.88247738
Ce    -1.91187729     5.62171374     4.05844123
Ce    -1.90825103     3.41382754     7.25236678
Ce     3.82514681     4.51767400     0.88247738
Ce     1.91390827     5.62190883     4.05795389
Ce     1.91154309     3.41413008     7.25211796
Ce     7.65129798     4.51767400     0.88247738
Ce     5.73978038     5.61878647     4.06296340
Ce     5.74776177     3.40871556     7.27534975
Ce    -1.91409717     7.83122806     0.88247738
Ce    -3.82686270     8.93608422     4.05891723
Ce    -3.82234207     6.72612556     7.25045279
Ce     1.91206548     7.83122806     0.88247738
Ce     0.00106983     8.93550077     4.05898049
Ce     0.00195900     6.72685884     7.25103487
Ce     5.73821666     7.83122806     0.88247738
Ce     3.82802027     8.93556675     4.05813018
Ce     3.82530423     6.72897495     7.25193029
C      4.70460751     4.13840643    10.78960765
