90
CIF: CH2CHCH2→CH2CCH2+H.cif | data_image0
O      0.05061169     0.14316448     0.07685406
O      1.96602330     1.23601707     3.27034883
O      0.02313572     2.33165670     6.49878442
O      0.05263626     2.35066871     1.71567002
O      0.04676742     0.12843786     4.87376917
O      1.97512489     1.11073686     8.48573869
O      3.87157303     0.14088418     0.07931628
O      5.78715610     1.22867738     3.26598521
O      3.88031152     2.22099763     6.54665170
O      3.87546318     2.34653048     1.72332997
O      3.87868253     0.09722617     4.88197634
O      5.84317181     1.09001580     8.44597946
O      7.69458107     0.14035472     0.07720610
O      9.61260503     1.25395919     3.24879121
O      7.69593684     2.28458344     6.47568966
O      7.69197616     2.34974058     1.70752482
O      7.72045213     0.11856622     4.87733669
O      9.53381146     1.24970588     8.16412473
O     -1.86630593     3.44305520     0.07762080
O      0.03883945     4.56358729     3.27432637
O     -1.86542855     5.69372891     6.41432870
O     -1.86832479     5.65354265     1.69501032
O     -1.87760134     3.44953768     4.91602525
O     -0.05451628     4.66545703     8.12772507
O      1.96266132     3.44403168     0.07958115
O      3.87116259     4.55931177     3.26431793
O      2.02189620     5.70281644     6.47870950
O      1.95670491     5.65130699     1.70240899
O      1.97042479     3.45173430     4.88435981
O      3.88100153     4.72575093     8.49906814
O      5.78076725     3.44413407     0.07534993
O      7.70319866     4.56204706     3.26290438
O      5.72272008     5.67678484     6.46196511
O      5.78464920     5.65136604     1.69704081
O      5.77916990     3.44564439     4.87411085
O      7.80262950     4.63543083     8.11496320
O     -3.78199119     6.76217942     0.07130491
O     -1.86608604     7.85310832     3.25319255
O     -3.76090069     9.01242893     6.48862098
O     -3.77646618     8.97147542     1.69954176
O     -3.80611022     6.77769562     4.91364962
O     -1.84361604     7.87696793     8.07962259
O      0.04602721     6.75981524     0.07444825
O      1.96044985     7.86529035     3.23074784
O      0.07390987     9.03870418     6.47717026
O      0.04257793     8.96908503     1.69640999
O      0.07052540     6.78471489     4.91588976
O      1.99484498     7.89918130     8.11112823
O      3.87012678     6.76065300     0.07378454
O      5.79003837     7.86391331     3.22963795
O      3.88204107     8.98526697     6.44715839
O      3.87477556     8.97738933     1.68474888
O      3.87560917     6.79729287     4.86934874
O      5.77645774     7.79832493     8.12634379
Ce     1.96205296     1.24411285     0.89612208
Ce     0.05021566     2.34315515     4.10296008
Ce     0.00168009     0.12175292     7.33169196
Ce     5.78221173     1.24275544     0.88962356
Ce     3.87412893     2.34065367     4.11010870
Ce     3.87736457     0.03584929     7.21163437
Ce     9.61342613     1.24862085     0.88302913
Ce     7.69430459     2.34371657     4.08513821
Ce     7.79227493     0.11814756     7.26509144
Ce     0.04749602     4.55010015     0.89637540
Ce    -1.86903128     5.66166784     4.07631636
Ce    -1.87018923     3.47786591     7.28269894
Ce     3.87124423     4.54798964     0.89245746
Ce     1.96916822     5.65887559     4.08095496
Ce     1.90392514     3.47794755     7.30707631
Ce     7.69513767     4.55084078     0.88965957
Ce     5.77700863     5.65426693     4.07571524
Ce     5.83547666     3.46879329     7.30561338
Ce    -1.86800957     7.86466589     0.88352022
Ce    -3.79313834     8.97247244     4.06714639
Ce    -3.79073096     6.75365804     7.26636441
Ce     1.95751674     7.86417851     0.87299851
Ce     0.06350161     8.96904732     4.05735194
Ce     0.05968983     6.76283681     7.26564038
Ce     5.78793040     7.86581758     0.87173674
Ce     3.88471227     8.98339174     4.03471647
Ce     3.88966410     6.85492823     7.24303978
C      3.64517501     4.47174045     9.88738719
C      3.65430475     3.00703162    10.19045361
C      4.46723472     2.38282108    11.03922683
H      2.67601474     4.91445781    10.20135444
H      4.43018680     4.97777391    10.49868671
H      2.33810947     1.55034124     9.30573661
H      5.69684599     1.25249850     9.39816564
H      4.41356950     1.30935931    11.25321592
H      5.23751856     2.93870846    11.60487568
