89
CIF: CH2CO+Olat.cif | data_image0
O     -0.00101584     0.09961518     0.10145935
O      1.91110866     1.19709113     3.23628759
O      0.00565466     2.32029942     6.51212685
O     -0.00101584     2.30864459     1.66347260
O      0.07935389     0.08968722     4.93651094
O      3.82513533     0.09961518     0.10145935
O      5.73715711     1.20132380     3.23734450
O      3.83593277     2.36837628     6.50918766
O      3.82513533     2.30864459     1.66347260
O      3.80828092     0.16987985     4.88910688
O      5.72395336     1.18254761     8.15371752
O      7.65129798     0.09961518     0.10145935
O      9.58293677     1.18288937     3.25164446
O      7.62636784     2.26312294     6.44360161
O      7.65129798     2.30864459     1.66347260
O      7.63408583     0.07735704     4.88314202
O      9.57152631     1.04464183     8.12444967
O     -1.91409143     3.41315929     0.10145935
O      0.00201240     4.51178418     3.24934430
O     -1.94957576     5.65900169     6.37474093
O     -1.91409717     5.62219864     1.66347260
O     -1.92195757     3.38661641     4.83925823
O     -0.32373251     4.82750132     8.72393678
O      1.91205974     3.41315929     0.10145935
O      3.82797599     4.52277335     3.24130653
O      2.03395913     5.57254020     6.56010857
O      1.91205400     5.62219864     1.66347260
O      1.91280903     3.40456587     4.85135686
O      3.89053702     4.58656153     8.69323465
O      5.73822240     3.41315929     0.10145935
O      7.64429615     4.51855766     3.23988871
O      5.61390390     5.59508318     6.47983122
O      5.73821666     5.62219864     1.66347260
O      5.75316166     3.40540263     4.85996910
O      7.55865213     4.59965308     8.14660962
O     -3.82717276     6.72671335     0.10145935
O     -1.92364872     7.84190708     3.27634683
O     -3.64522687     8.82973012     6.53937908
O     -3.82717276     8.93574276     1.66347260
O      7.57591303     6.70914472     4.88297276
O     -1.90199253     7.27492270     8.65290312
O     -0.00102158     6.72671335     0.10145935
O      1.92189393     7.84461045     3.22606119
O     -0.10018498     8.99156078     6.48149130
O     -0.00102158     8.93574276     1.66347260
O      0.05971371     6.73366152     4.82516837
O      2.04105480     7.94298471     8.09417681
O      3.82514107     6.72671335     0.10145935
O      5.73986748     7.84466664     3.23949327
O      3.86098717     8.96110830     6.37772103
O      3.82514107     8.93574276     1.66347260
O      3.80947241     6.75353444     4.85435434
O      5.72841973     7.84235083     8.07139803
O     -0.53428561     4.78619645    10.98100901
O      1.94612975     1.07482148     8.15251245
Ce     1.91205974     1.20412988     0.88247738
Ce     0.00919423     2.31434773     4.08017313
Ce     0.01697985     0.09327989     7.29267553
Ce     5.73822240     1.20412988     0.88247738
Ce     3.81638650     2.32250578     4.04147578
Ce     3.84458524     0.22828880     7.25246398
Ce     9.56437357     1.20412988     0.88247738
Ce     7.66059728     2.30227251     4.04360368
Ce     7.67497121     0.10321075     7.28440025
Ce    -0.00101584     4.51767400     0.88247738
Ce    -1.91708398     5.60671032     4.07732139
Ce     9.49644074     3.37776323     7.30882319
Ce     3.82514681     4.51767400     0.88247738
Ce     1.91527877     5.61407484     4.05919965
Ce     1.89547369     3.33044682     7.31667638
Ce     7.65129798     4.51767400     0.88247738
Ce     5.72839567     5.61948648     4.04765400
Ce     5.82594895     3.36271643     7.23507524
Ce    -1.91409717     7.83122806     0.88247738
Ce    -3.81433333     8.93142768     4.07617205
Ce     7.60216088     6.63777270     7.24922611
Ce     1.91206548     7.83122806     0.88247738
Ce     0.00204039     8.94468228     4.05387082
Ce     0.06953597     6.78428640     7.20409413
Ce     5.73821666     7.83122806     0.88247738
Ce     3.83009372     8.94238098     4.02846642
Ce     3.82954101     6.87527021     7.19996339
C     -1.60959159     6.63648805     9.89421273
C     -0.76057884     5.31434673     9.90078621
C      4.59094178     4.28808485     9.74292572
H     -2.53621098     6.35749195    10.42797418
H     -1.06414886     7.32240232    10.56902724
H      4.40628109     3.34354893    10.27545706
H      5.31271455     5.01251397    10.14630773
