90
CIF: CH2CCH2+H.cif | data_image0
O      0.00261135     0.00382715     0.19995339
O      1.92522252     1.11943149     3.31686722
O      0.28056879     2.37861419     6.60230191
O      0.00261135     2.21285656     1.76196664
O      0.02567566     0.07107301     4.96655295
O      2.05875785     0.55365938     8.80673346
O      3.82876252     0.00382715     0.19995339
O      5.74577779     1.09970857     3.30781680
O      3.11250886     2.64044675     7.19586103
O      3.82876252     2.21285656     1.76196664
O      3.84892805     0.19319466     5.07461392
O      5.63561148     1.01124335     8.16102881
O      7.65492518     0.00382715     0.19995339
O      9.55248205     1.10547436     3.33488278
O      7.65472749     2.21830174     6.52848488
O      7.65492518     2.21285656     1.76196664
O      7.63437883     0.01148912     4.96366656
O      9.51837992     1.24221209     8.21330154
O     -1.91046424     3.31737126     0.19995339
O      0.01095014     4.40491278     3.33945444
O     -1.86394194     5.42714910     6.55893284
O     -1.91046998     5.52641062     1.76196664
O     -1.86362824     3.24681200     5.00206837
O      0.24387033     4.22020530     8.38374001
O      1.91568694     3.31737126     0.19995339
O      3.81981369     4.42671784     3.32010942
O      1.96208534     5.19502226     6.64699993
O      1.91568120     5.52641062     1.76196664
O      1.92684858     3.31999834     4.93389958
O      4.34006256     4.78052328     8.95036561
O      5.74184959     3.31737126     0.19995339
O      7.64036717     4.39558281     3.40687450
O      5.79139124     5.51040410     6.50595109
O      5.74184385     5.52641062     1.76196664
O      5.59421130     3.21941967     5.03664704
O      7.77465757     4.42749827     8.28998270
O     -3.82354556     6.63092532     0.19995339
O     -1.89524141     7.76993075     3.39843600
O     -3.73154290     8.84384027     6.51177464
O     -3.82354556     8.83995473     1.76196664
O     -3.77932944     6.62591124     4.98536884
O     -1.94236398     7.72097211     8.26278623
O      0.00260561     6.63092532     0.19995339
O      1.91159262     7.75571336     3.32964020
O     -0.01555745     8.82592019     6.49893935
O      0.00260561     8.83995473     1.76196664
O      0.07634174     6.59113683     4.97684099
O      1.92383602     7.89201086     8.25481579
O      3.82876826     6.63092532     0.19995339
O      5.75345143     7.73457265     3.39295870
O      3.82175536     8.91299902     6.51772092
O      3.82876826     8.83995473     1.76196664
O      3.76755861     6.61910755     4.97421586
O      5.91634761     7.68478728     8.25576803
Ce     1.91568694     1.10834185     0.98097142
Ce    -0.03653367     2.17091314     4.09726860
Ce    -5.69771496     9.91805882     7.49494248
Ce     5.74184959     1.10834185     0.98097142
Ce     3.86782331     2.20268473     4.04539548
Ce    -1.87259880     9.79839264     7.46883930
Ce     9.56800076     1.10834185     0.98097142
Ce     7.63294411     2.20812855     4.19336569
Ce     1.91098041     9.93309123     7.35492675
Ce     0.00261135     4.42188597     0.98097142
Ce    -1.89190426     5.51490530     4.21024297
Ce     9.47689965     3.28321800     7.39184784
Ce     3.82877400     4.42188597     0.98097142
Ce     1.92779356     5.59151655     4.09531768
Ce     7.65492518     4.42188597     0.98097142
Ce     5.73579691     5.52357051     4.22417598
Ce     5.76313610     3.35529586     7.54736887
Ce    -1.91046998     7.73544003     0.98097142
Ce    -3.81765628     8.85352583     4.20327613
Ce    -3.81017742     6.61513922     7.40018526
Ce     1.91569268     7.73544003     0.98097142
Ce     0.00314348     8.84375087     4.18623367
Ce     0.03976071     6.66067551     7.47112398
Ce     5.74184385     7.73544003     0.98097142
Ce     3.84338848     8.84234659     4.20595570
Ce     3.90628093     6.71292791     7.48587842
V      1.71229615     3.44603993     6.72892784
C      3.98721797     4.72546321    10.30685274
C      3.02576206     3.65244746    10.65356866
C      3.04272453     2.51881389    11.32424977
H      3.57257969     5.69701625    10.65984854
H      4.89071529     4.55361158    10.94562834
H      0.62752665     4.02051512     9.26034608
H      2.24171215     1.38033176     9.29293518
H      2.15699284     1.89870404    11.49303701
H      3.98160396     2.13614244    11.75994525
