85
CIF: 7-2H+OH-H2O_fs.cif | data_image0
Ce    -5.80134063    10.05675340     8.77094975
Ce     1.93190261     1.12371910     5.62056129
Ce     0.00000000     2.23543938     2.47426506
Ce     3.87592312     0.01405158     8.78851336
Ce     5.80997844     1.11486039     5.62242746
Ce     3.87189458     2.23543938     2.47426506
Ce     1.94913851    10.05541930     8.77707236
Ce     9.67996732     1.10946014     5.59727209
Ce     7.74390532     2.23543938     2.47426506
Ce     9.65613938     3.24640071     8.73950629
Ce    -0.00723974     4.47703248     5.61586598
Ce    -1.93600537     5.58869904     2.47426506
Ce     1.86684020     3.36844183     8.77526779
Ce     3.86018128     4.47025870     5.62325347
Ce     1.93588921     5.58869904     2.47426506
Ce     5.79699459     3.34574065     8.77787360
Ce     7.74341021     4.48165280     5.63678936
Ce     5.80789995     5.58869904     2.47426506
Ce     7.68353806     6.74172573     8.84824126
Ce    -1.94275599     7.81932524     5.64075645
Ce    -3.87195266     8.94185811     2.47426506
Ce     0.08560573     6.78502351     8.74898000
Ce     1.94249120     7.82964232     5.59647209
Ce    -0.00005808     8.94185811     2.47426506
Ce     3.87469306     6.70644736     8.76614967
Ce     5.82096844     7.81682280     5.62274363
Ce     3.87195266     8.94185811     2.47426506
O      0.02010688     0.00982137     6.42923775
O     -0.05985957     2.21858859     9.52063384
O      1.93594729     1.11771969     3.26466483
O     -0.00535933     2.23052659     4.80024427
O      0.00000000     0.00000000     1.68386529
O      1.96126912     1.19593076     7.97382474
O     -1.94855307    10.04106282     6.45084370
O      3.97366144     2.19191264     9.64976979
O      5.80795803     1.11771969     3.26466483
O      3.87125128     2.23430817     4.83055235
O      3.87189458     0.00000000     1.68386529
O      5.81212712     1.11285585     7.96002206
O      7.74083575     0.00161099     6.40826686
O      7.76725349     2.19623273     9.58275350
O      9.67985261     1.11771969     3.26466483
O      7.73723257     2.24039196     4.81651623
O      7.74390532     0.00000000     1.68386529
O      9.66725432     1.08830505     7.94519962
O      9.69205049     3.32791254     6.41605156
O     -1.85539377     5.53764194     9.97734405
O      0.00000000     4.47087876     3.26466483
O     -1.93243394     5.58805338     4.82543643
O     -1.93594729     3.35315907     1.68386529
O     -0.06216178     4.52074898     8.01920411
O      1.88126983     3.37597457     6.40528111
O      1.92851128     5.68085337     9.58884961
O      3.87201074     4.47087876     3.26466483
O      1.93721094     5.59426520     4.80220432
O      1.93594729     3.35315907     1.68386529
O      3.79499449     4.41790833     7.97272779
O      5.81247055     3.37458937     6.44847890
O      5.66073560     5.50156344     9.59821760
O      7.74390532     4.47087876     3.26466483
O      5.80396185     5.58144816     4.81426903
O      5.80795803     3.35315907     1.68386529
O      7.81764869     4.43876607     8.01367909
O      7.73640169     6.71268202     6.40281658
O     -3.86652751     9.10127252     9.58677431
O     -1.93600537     7.82413842     3.26466483
O     -3.86687284     8.94783733     4.81289726
O     -3.87195266     6.70641873     1.68386529
O     -1.86496346     7.77632950     8.02217456
O      0.03000404     6.71428429     6.41498245
O      0.05098723     8.94656828     9.59058958
O      1.93600537     7.82413842     3.26466483
O     -0.00766797     8.94558082     4.81481283
O     -0.00005808     6.70641873     1.68386529
O      1.95669081     7.84767631     7.94495918
O      3.87320774     6.68728539     6.42476623
O      3.86321508     8.95078622     9.58371429
O      5.80789995     7.82413842     3.26466483
O      3.88016871     8.93834008     4.81262733
O      3.87195266     6.70641873     1.68386529
O      5.75869939     7.85189572     7.97599366
O      2.37479645     3.46098868    11.31934722
H     -1.78287635     5.48957026    10.94712330
H      3.22012984     2.99794931    11.04619461
H      2.54962771     4.42395016    11.32825695
