84
CIF: Mo-Ti-CeO2-Ov-CO2.cif | data_image0
Ce     1.93038582     1.11050507     0.88387043
Ce     0.00535125     2.22792536     4.05704546
Ce    -5.76725660    10.03563602     7.26369232
Ce     5.81181033     1.12175166     0.90127712
Ce     3.80896676     2.19290686     3.96888828
Ce    -2.01260178     9.99936454     7.34295699
Ce     9.66901012     1.12377363     0.90450652
Ce     7.78774276     2.20960321     4.01755688
Ce     2.03555583     9.88361333     7.25677246
Ce    -0.00709724     4.47602159     0.89067279
Ce    -1.96185079     5.58382926     4.10129102
Ce    -1.73439761     3.35231413     7.25779354
Ce     3.86254305     4.47635356     0.87798423
Ce     1.94784118     5.58144028     4.11643328
Ce     1.87726640     3.30711523     7.34054205
Ce     7.74213807     4.46545905     0.90125422
Ce     5.81326993     5.66451491     3.96857387
Ce    -1.94645625     7.83004003     0.90010904
Ce    -3.86644540     8.93868878     4.08252925
Ce    -3.85894036     6.80245618     7.34217165
Ce     1.92815559     7.82745473     0.89060408
Ce    -0.00978283     8.96608626     4.10104973
Ce    -0.01207628     6.71222249     7.28635078
Ce     5.81127600     7.83258510     0.88371011
Ce     3.88080731     8.94022134     4.05743042
Ce     3.88222096     6.77939032     7.34026088
Ti     5.62784595     3.45674188     6.51491285
Mo     6.81528364     2.76560136     8.92877120
O     11.61334069     0.00154917     0.10141687
O      1.91942272     1.10085010     3.21674983
O      0.01429963     2.22955392     6.42951555
O     -0.00785227     2.23805103     1.69392277
O     -5.78787105    10.04696923     4.88306149
O      1.82402481     1.03728683     8.13280052
O     -1.93899312    10.05733740     0.10496691
O      5.73840006     1.06878170     3.23394494
O      4.12203220     2.44512297     6.64912511
O      3.86763657     2.23577757     1.68132582
O      3.84508000     0.07401791     4.89604659
O      6.53602160     1.00584584     9.06663453
O      7.73821774     0.00761509     0.10924988
O      9.75763531     1.07235579     3.22772711
O      7.24949785     2.51790907     6.92521673
O      7.74357843     2.23531483     1.71563532
O      7.77996881     0.00933958     4.94750428
O      9.60937921     1.15840975     7.92971211
O      9.67032270     3.35425987     0.10911246
O     -0.00165918     4.48137926     3.29082401
O     -2.00019628     5.48168581     6.49626528
O     -1.94403436     5.59119430     1.70564938
O      9.68891589     3.31637057     4.94776641
O     -0.06741872     4.49302214     8.13049107
O      1.92738314     3.35244915     0.09928684
O      3.85123682     4.48304642     3.22061734
O      1.95593649     5.57687219     6.47623487
O      1.92862022     5.59252216     1.67404250
O      1.98913301     3.29380425     4.86011702
O      3.96192258     4.41222679     8.97584147
O      5.81155478     3.35101064     0.10766953
O      7.75139442     4.55517905     3.23341247
O      5.75063249     5.26572685     6.65221828
O      5.80528807     5.59217007     1.68114259
O      5.77070524     3.37491216     4.71458631
O      8.19781197     3.88681981     9.07046692
O     -3.87155109     6.71022987     0.10512724
O     -1.94376630     7.82835127     3.29445826
O     -3.85762599     8.93347368     6.41891636
O     -3.87509971     8.94378428     1.69355631
O      7.66603132     6.69209941     4.89638799
O     -1.80374154     7.74666839     8.12079720
O     -0.01209783     6.71325780     0.10434852
O      1.92553742     7.81954299     3.29061340
O      0.05865145     9.04900091     6.49470120
O     -0.00628994     8.94736548     1.70514550
O     -0.03447746     6.72530229     4.94855655
O      1.88085436     7.86981541     8.12968736
O      3.86815347     6.71410280     0.09951587
O      5.81443324     7.84636678     3.21633165
O      3.88336107     8.93135388     6.43097549
O      3.86556896     8.94715423     1.69389986
O      3.95046630     6.69033154     4.86075833
O      5.82129699     7.96054810     8.13213400
O      5.48865988     3.51919496    10.46394761
C      5.00501932     3.80801423     9.31590608
