83
CIF: Mo-Ti-CeO2-Ov-O2.cif | data_image0
Ce     1.93038582     1.11050507     0.88387043
Ce     0.00114973     2.23147583     4.05496068
Ce     5.81805501    10.04168633     7.20875507
Ce     5.81181033     1.12175166     0.90127712
Ce     3.84987828     2.20717525     4.02809850
Ce    -2.05870385     9.97387302     7.31295669
Ce     9.66901012     1.12377363     0.90450652
Ce     7.73695065     2.23917104     4.02170128
Ce     2.05176211     9.76397054     7.27834769
Ce    -0.00709724     4.47602159     0.89067279
Ce    -1.96604189     5.58520803     4.08872463
Ce    -1.64007287     3.37103898     7.28113526
Ce     3.86254305     4.47635356     0.87798423
Ce     1.94103663     5.57477372     4.08420336
Ce     1.98041140     3.31456182     7.33751860
Ce     7.74213807     4.46545905     0.90125422
Ce     5.82056833     5.62438433     3.99801965
Ce    -1.94645625     7.83004003     0.90010904
Ce    -3.86828738     8.93890984     4.04670946
Ce    -3.89184108     6.79972614     7.26933194
Ce     1.92815559     7.82745473     0.89060408
Ce    -0.02338184     8.96254775     4.09403878
Ce    -0.02915828     6.69710779     7.27423904
Ce     5.81127600     7.83258510     0.88371011
Ce     3.86513911     8.95460044     4.02816826
Ce     3.90426098     6.70100226     7.20668691
Ti     5.31578392     3.68589016     6.81049182
Mo     7.30495562     2.55097393     9.42367192
O     11.61334069     0.00154917     0.10141687
O      1.92167241     1.11239136     3.23464916
O      0.04351740     2.24681924     6.41555974
O     -0.00785227     2.23805103     1.69392277
O     11.60743224     0.00268356     4.87531197
O      1.76406461     1.00128775     8.12381189
O     -1.93899312    10.05733740     0.10496691
O      5.73326220     1.08431127     3.24662678
O      4.12421340     2.23794097     6.56863108
O      3.86763657     2.23577757     1.68132582
O     -1.96580027    10.05448126     4.87648275
O      7.13072664     0.76780872     9.36665646
O      7.73821774     0.00761509     0.10924988
O      9.73515915     1.08443925     3.22754764
O      6.90807847     3.07274485     7.65675711
O      7.74357843     2.23531483     1.71563532
O      7.74844989     0.03145451     4.98563331
O      9.54807124     1.15135837     7.68891095
O      9.67032270     3.35425987     0.10911246
O     -0.00952093     4.47291225     3.28735323
O     -2.01229749     5.46467196     6.53796106
O     -1.94403436     5.59119430     1.70564938
O      9.66439032     3.31887827     4.97732247
O      0.01333292     4.52080681     8.11525751
O      1.92738314     3.35244915     0.09928684
O      3.87031351     4.47287928     3.21767137
O      1.94419698     5.64216124     6.40324679
O      1.92862022     5.59252216     1.67404250
O      2.00845735     3.32080637     4.86553209
O      5.81155478     3.35101064     0.10766953
O      7.73607464     4.53961072     3.23482180
O      5.82389652     5.50670823     6.40334970
O      5.80528807     5.59217007     1.68114259
O      5.72670798     3.41075409     4.93372458
O      8.93131471     3.23492528     9.59433465
O     -3.87155109     6.71022987     0.10512724
O     -1.92796398     7.82790898     3.25463302
O     -3.92527021     8.92708777     6.41170357
O     -3.87509971     8.94378428     1.69355631
O     -3.86715003     6.72492964     4.83773158
O     -1.82421756     7.72410260     8.10325086
O     -0.01209783     6.71325780     0.10434852
O      1.91439522     7.83419784     3.28400709
O      0.06650082     9.01717640     6.55789469
O     -0.00628994     8.94736548     1.70514550
O     -0.07336022     6.73096878     4.94182436
O      2.01406952     7.73841123     8.10467931
O      3.86815347     6.71410280     0.09951587
O      5.79910157     7.84379161     3.22783692
O      3.87536869     8.84836572     6.37923614
O      3.86556896     8.94715423     1.69389986
O      3.90438175     6.68231815     4.84264532
O      5.67339029     7.86133896     8.05924610
O      4.05332072     4.49050531     7.93023565
O      6.23699598     3.22764981    10.57347399
