86
CIF: 5-NHNO+2H-N2O+3H_fs.cif | data_image0
Ce    -0.00486657     0.02650839     8.79517013
Ce     1.91804605     1.12640568     5.61753161
Ce     0.00000000     2.23543938     2.47426506
Ce     3.81905218     0.06161654     8.82462493
Ce     5.79261967     1.10915337     5.64951237
Ce     3.87189458     2.23543938     2.47426506
Ce     7.76960196     0.04708320     8.83250791
Ce     9.67726055     1.12841797     5.63528677
Ce     7.74390532     2.23543938     2.47426506
Ce     9.55370309     3.21261200     8.94057626
Ce    -0.01462538     4.44554377     5.50500881
Ce    -1.93600537     5.58869904     2.47426506
Ce     1.94513598     3.22368371     8.86548028
Ce     3.84946279     4.49180857     5.67980200
Ce     1.93588921     5.58869904     2.47426506
Ce     5.77243505     3.38452451     8.81962209
Ce     7.75160578     4.48789730     5.68603485
Ce     5.80789995     5.58869904     2.47426506
Ce     7.73620876     6.71313514     8.91168894
Ce    -1.96836753     7.83925694     5.59505198
Ce    -3.87195266     8.94185811     2.47426506
Ce     1.97326001     7.84494544     5.57521235
Ce    -0.00005808     8.94185811     2.47426506
Ce     4.00120154     6.78774610     8.82468241
Ce     5.82199059     7.83416380     5.64033615
Ce     3.87195266     8.94185811     2.47426506
Fe     0.02431329     6.98946383     8.22729087
O     -0.01030113     0.02468642     6.40407007
O     -0.02589296     2.09904860     9.62346768
O      1.93594729     1.11771969     3.26466483
O     -0.01093244     2.22752785     4.77060977
O      0.00000000     0.00000000     1.68386529
O      1.95177710     1.10982997     7.91998658
O     -1.96593602    10.01209851     6.41489197
O      3.92130476     2.19383745     9.64479689
O      5.80795803     1.11771969     3.26466483
O      3.83824153     2.25363745     4.85242048
O      3.87189458     0.00000000     1.68386529
O      5.78659446     1.03903519     7.94485060
O      1.93070793     9.98887273     6.43140665
O      7.61377023     2.13959842     9.66720212
O      9.67985261     1.11771969     3.26466483
O      7.75876497     2.25029376     4.87265672
O      7.74390532     0.00000000     1.68386529
O      9.61502779     1.07569292     7.92750390
O     -1.78222605     3.42857555     6.50216226
O     -2.15923511     5.34261013    10.27895547
O      0.00000000     4.47087876     3.26466483
O     -1.94584387     5.59223690     4.78914764
O     -1.93594729     3.35315907     1.68386529
O      0.13573969     5.16879334     8.96309645
O      1.77589984     3.42445468     6.47117603
O      3.87201074     4.47087876     3.26466483
O      1.95176752     5.59734978     4.78728529
O      1.93594729     3.35315907     1.68386529
O      3.79817523     4.51184834     8.01175903
O      5.76818875     3.34927584     6.45832629
O      5.80174060     5.45939385     9.69604774
O      7.74390532     4.47087876     3.26466483
O      5.81126971     5.59437330     4.86327714
O      5.80795803     3.35315907     1.68386529
O      7.72826737     4.44959921     7.97073421
O     -3.80279088     6.75633611     6.43831290
O     -3.81205594     9.09852687     9.64127784
O     -1.93600537     7.82413842     3.26466483
O     -3.88214887     8.94968297     4.79870244
O     -3.87195266     6.70641873     1.68386529
O     -1.65438891     7.81256844     8.15274030
O      0.02061712     6.64045244     6.35421597
O     -0.02065084     9.44366390    10.11335176
O      1.93600537     7.82413842     3.26466483
O     -0.00331591     8.93087256     4.81253624
O     -0.00005808     6.70641873     1.68386529
O      1.71878465     7.78289638     8.21967727
O      3.83920498     6.77609764     6.41319129
O      3.84893389     9.09688219     9.65527339
O      5.80789995     7.82413842     3.26466483
O      3.87557984     8.95839311     4.79723252
O      3.87195266     6.70641873     1.68386529
O      5.83664234     7.88465269     7.99189152
O      2.31313042     5.65583655    11.03627571
N      0.43724866     6.84381293    11.79807661
N      1.34978696     6.26543323    11.42737777
H     -2.00010249     5.57940880    11.20488186
H     -0.06314818     9.13247678    11.03368891
H     -0.63638507     5.25009350     9.62360438
