86
CIF: 3-NH2NO+H-NHNO+2H_ts.cif | data_image0
Ce    -5.77361344    10.05156790     8.78583095
Ce     1.93912641     1.09745468     5.60017712
Ce     0.00000000     2.23543938     2.47426506
Ce    -1.87215209     9.96777696     8.76122148
Ce     5.80144305     1.10516901     5.61560557
Ce     3.87189458     2.23543938     2.47426506
Ce     1.91369816    10.03801507     8.76569986
Ce     9.68110455     1.12413344     5.63424538
Ce     7.74390532     2.23543938     2.47426506
Ce     9.64128526     3.27199604     8.84246126
Ce    -0.00715489     4.44365993     5.61986117
Ce    -1.93600537     5.58869904     2.47426506
Ce     1.95766594     3.17472312     8.75788514
Ce     3.86041061     4.48054173     5.63518619
Ce     1.93588921     5.58869904     2.47426506
Ce     5.79846386     3.33737982     8.79722458
Ce     7.74792501     4.47069232     5.63652738
Ce     5.80789995     5.58869904     2.47426506
Ce    -3.88152760     6.74739462     8.75092043
Ce    -1.94675209     7.81494891     5.62278456
Ce    -3.87195266     8.94185811     2.47426506
Ce     1.98393308     7.83651490     5.63157499
Ce    -0.00005808     8.94185811     2.47426506
Ce     4.02090184     6.83455037     8.76502118
Ce     5.82396047     7.82279366     5.57677747
Ce     3.87195266     8.94185811     2.47426506
Pd     0.12161038     6.53098494     8.41573702
O      0.01157092     0.01289528     6.40752073
O      0.14482616     2.15274248     9.58878795
O      1.93594729     1.11771969     3.26466483
O      0.00831078     2.23639720     4.80330784
O      0.00000000     0.00000000     1.68386529
O      1.98814427     1.06137444     7.94499734
O     -1.92672860    10.00620263     6.41461239
O      3.87918041     2.20316034     9.56290123
O      5.80795803     1.11771969     3.26466483
O      3.87181010     2.23384436     4.82289949
O      3.87189458     0.00000000     1.68386529
O      5.78944237     1.12971644     7.91920042
O      1.92378972    10.05858644     6.40426479
O      7.58445068     2.19606864     9.60492544
O      9.67985261     1.11771969     3.26466483
O      7.72386905     2.24790375     4.83419251
O      7.74390532     0.00000000     1.68386529
O      9.67090820     1.05328459     7.98488039
O     -1.91021647     3.33959135     6.41039409
O     -2.30110935     5.42708273    10.35164748
O      0.00000000     4.47087876     3.26466483
O     -1.92383515     5.57991660     4.82108068
O      9.67985261     3.35315907     1.68386529
O      0.01847742     4.54507029     8.05226764
O      1.92563300     3.31385823     6.44944963
O      3.87201074     4.47087876     3.26466483
O      1.94336280     5.57536655     4.83163077
O      1.93594729     3.35315907     1.68386529
O      3.69067025     4.56915774     8.14393900
O      5.74957456     3.39979347     6.49234067
O      5.83560674     5.64715649     9.56322563
O      7.74390532     4.47087876     3.26466483
O      5.81592926     5.56303621     4.79107885
O      5.80795803     3.35315907     1.68386529
O      7.76162120     4.52833136     7.98563607
O      7.72555629     6.70699051     6.37481760
O     -3.84745830     8.91725717     9.59645068
O     -1.93600537     7.82413842     3.26466483
O     -3.86649182     8.94304815     4.79702622
O      7.74384724     6.70641873     1.68386529
O     -2.00259411     7.72991953     7.98100111
O      0.03334987     6.69793079     6.42104345
O      0.04472053     9.04493889     9.51255150
O      1.93600537     7.82413842     3.26466483
O      0.00979610     8.92536436     4.80885650
O     -0.00005808     6.70641873     1.68386529
O      2.15992708     7.85671906     7.96156661
O      3.95214418     6.67806729     6.39038217
O      4.02753429     8.95337812     9.64443116
O      5.80789995     7.82413842     3.26466483
O      3.87639537     8.94472643     4.81391291
O      3.87195266     6.70641873     1.68386529
O      5.85916672     7.85617281     7.93408372
O      2.32681263     6.34372224    10.67349006
N      0.13060759     6.38672136    10.46341326
N      1.29892757     5.67405735    10.32721220
H     -2.78267879     5.22617913    11.17629385
H      0.26181480     7.36650470    10.79675261
H     -0.84440243     5.87779830    10.58449884
