86
CIF: 4-NHNO+2H-N2+OH+2H_is.cif | data_image0
Ce     5.80361909    10.05409818     8.78386853
Ce     1.93224241     1.10118575     5.58411747
Ce     0.00000000     2.23543938     2.47426506
Ce    -1.96648083     9.98823043     8.74414955
Ce     5.80053458     1.11329417     5.61782619
Ce     3.87189458     2.23543938     2.47426506
Ce     7.74468913     0.07774064     8.78127497
Ce     9.67630758     1.13692616     5.63324680
Ce     7.74390532     2.23543938     2.47426506
Ce     9.64266908     3.34350714     8.88353893
Ce    -0.01075218     4.43964226     5.62625625
Ce    -1.93600537     5.58869904     2.47426506
Ce     1.94028080     3.14022224     8.77539784
Ce     3.84137954     4.48177306     5.64349015
Ce     1.93588921     5.58869904     2.47426506
Ce     5.77670269     3.35789173     8.78192195
Ce     7.74813424     4.47737402     5.63998248
Ce     5.80789995     5.58869904     2.47426506
Ce    -3.87950121     6.75749298     8.76030491
Ce    -1.93639285     7.81713291     5.65103776
Ce    -3.87195266     8.94185811     2.47426506
Ce     1.95631285     7.85215597     5.60180511
Ce    -0.00005808     8.94185811     2.47426506
Ce     4.00208887     6.80692303     8.76422372
Ce     5.81383800     7.83253368     5.58567114
Ce     3.87195266     8.94185811     2.47426506
Pd     0.65028631     6.37788114     8.25317423
O     11.60106674     0.00857870     6.40338458
O      0.13249436     2.11096156     9.62023440
O      1.93594729     1.11771969     3.26466483
O      0.00701497     2.23464696     4.80063275
O      0.00000000     0.00000000     1.68386529
O      1.93767010     1.04656267     7.92977563
O     -1.93965771    10.04788298     6.38931055
O      3.86268260     2.15315904     9.48661506
O      5.80795803     1.11771969     3.26466483
O      3.86759612     2.24929217     4.81583819
O      3.87189458     0.00000000     1.68386529
O      5.79726362     1.05004656     7.93651516
O      7.76038406     0.01079454     6.40648583
O      7.56677066     2.20622847     9.59233144
O      9.67985261     1.11771969     3.26466483
O      7.71729551     2.25178411     4.82736547
O      7.74390532     0.00000000     1.68386529
O      9.66591863     1.08395868     8.00445507
O     -1.92146118     3.34753068     6.40081004
O     -2.44202696     5.45969168    10.18140262
O      0.00000000     4.47087876     3.26466483
O     -1.92584777     5.59140962     4.82870063
O     -1.93594729     3.35315907     1.68386529
O     -0.00252508     4.48057965     8.09021954
O      1.92012745     3.31416188     6.44525010
O      3.87201074     4.47087876     3.26466483
O      1.96176466     5.57335331     4.81450389
O      1.93594729     3.35315907     1.68386529
O      3.73389405     4.53682930     8.09932459
O      5.74621266     3.37059062     6.48941526
O      5.78700621     5.65286099     9.54017315
O      7.74390532     4.47087876     3.26466483
O      5.78547652     5.58203170     4.82457153
O      5.80795803     3.35315907     1.68386529
O      7.72400816     4.53102577     7.95881891
O      7.73553030     6.71807153     6.38917407
O     -3.89618624     8.93411647     9.60795624
O     -1.93600537     7.82413842     3.26466483
O     -3.87396154     8.93942868     4.80218684
O     -3.87195266     6.70641873     1.68386529
O     -2.01477682     7.84812821     7.98416957
O      0.06491543     6.68213619     6.35974734
O     -0.01532134     9.32729770     9.97826262
O      1.93600537     7.82413842     3.26466483
O      0.00930272     8.93577771     4.81899900
O     -0.00005808     6.70641873     1.68386529
O      1.90956853     7.93848394     8.07242308
O      3.87009888     6.73696238     6.45047772
O      3.94266291     8.92559207     9.60327836
O      5.80789995     7.82413842     3.26466483
O      3.87245825     8.93985626     4.80124633
O      3.87195266     6.70641873     1.68386529
O      5.83537486     7.85523639     7.93753391
O      2.36326203     4.56333904    11.11705733
N      0.97293776     6.02217415    10.20821649
N      2.19820061     5.63637973    10.44148146
H     -2.47104276     5.58887077    11.14549991
H      0.04580879     8.39778131    10.27410854
H      0.28044488     5.39391144    10.66680244
