85
CIF: 1-NH3-NH2+H_ts.cif | data_image0
Ce    11.60156200     0.00507314     8.75780641
Ce     1.93717491     1.09293896     5.62487147
Ce     0.00000000     2.23543938     2.47426506
Ce     3.94368723     0.01665796     8.83429756
Ce     5.80900146     1.12661356     5.61383412
Ce     3.87189458     2.23543938     2.47426506
Ce     7.64790241     0.08901612     8.85872544
Ce     9.65838952     1.12583990     5.63896402
Ce     7.74390532     2.23543938     2.47426506
Ce     9.58272652     3.35662654     8.84033324
Ce    -0.02519685     4.44046350     5.60100097
Ce    -1.93600537     5.58869904     2.47426506
Ce     1.91868704     3.28746552     8.74394554
Ce     3.86074541     4.48444412     5.61791916
Ce     1.93588921     5.58869904     2.47426506
Ce     5.77024171     3.39716984     8.75437684
Ce     7.74521774     4.47832671     5.61949125
Ce     5.80789995     5.58869904     2.47426506
Ce    -3.85079299     6.68527576     8.81757237
Ce    -1.89834305     7.80992469     5.66106358
Ce    -3.87195266     8.94185811     2.47426506
Ce     1.94446502     7.86587377     5.60361581
Ce    -0.00005808     8.94185811     2.47426506
Ce     3.91365700     6.76239618     8.74761728
Ce     5.82500838     7.84103836     5.61868919
Ce     3.87195266     8.94185811     2.47426506
Pd     0.24831236     6.55426189     8.38684455
O     11.59778004     0.01107910     6.44042351
O      0.03206580     2.23430727     9.54742647
O      1.93594729     1.11771969     3.26466483
O      0.00442243     2.22145996     4.81006221
O      0.00000000     0.00000000     1.68386529
O      1.92862077     1.10435804     7.96158536
O     -1.94236100     9.99563915     6.46362971
O      3.82136998     2.28747515     9.55090948
O      5.80795803     1.11771969     3.26466483
O      3.84738794     2.23417782     4.84441761
O      3.87189458     0.00000000     1.68386529
O      5.79786767     1.19519575     7.89853172
O      7.75873761     0.02019361     6.41521581
O      7.67481373     2.29571454     9.60329871
O      9.67985261     1.11771969     3.26466483
O      7.73404720     2.24377703     4.80526588
O      7.74390532     0.00000000     1.68386529
O      9.65295935     1.13284218     8.02953808
O      9.66571591     3.32658728     6.41725177
O     -2.37964085     5.39093327     9.96661965
O      0.00000000     4.47087876     3.26466483
O     -1.93371252     5.58793308     4.82249015
O      9.67985261     3.35315907     1.68386529
O     -0.29386971     4.59954016     8.06879114
O      1.86206199     3.36780515     6.47254483
O      1.90412660     5.60679991     9.13205903
O      3.87201074     4.47087876     3.26466483
O      1.98148636     5.56116636     4.78291617
O      1.93594729     3.35315907     1.68386529
O      3.90809899     4.46052292     7.93565050
O      5.81023400     3.38491089     6.38735545
O      5.75954300     5.63037114     9.55327092
O      7.74390532     4.47087876     3.26466483
O      5.79854559     5.62542652     4.83772031
O      5.80795803     3.35315907     1.68386529
O      7.71928622     4.48220965     7.93797823
O     -3.81931981     6.75316065     6.46538245
O     -3.78800501     8.88135626     9.48860091
O     -1.93600537     7.82413842     3.26466483
O     -3.87430072     8.94349368     4.82196603
O      7.74384724     6.70641873     1.68386529
O     -1.58405992     7.61729433     8.02938129
O      0.13778128     6.62978198     6.29691362
O     -0.05850530     9.56325009     9.91125379
O      1.93600537     7.82413842     3.26466483
O      0.00186071     8.94467132     4.81880160
O     -0.00005808     6.70641873     1.68386529
O      1.64340474     8.01525387     8.08219550
O      3.81402016     6.77036728     6.47598906
O      3.89286171     8.90380431     9.53986454
O      5.80789995     7.82413842     3.26466483
O      3.88634058     8.94470279     4.80751395
O      3.87195266     6.70641873     1.68386529
O      5.81830736     7.83748040     7.95335692
N     -0.23171597     6.66504908    10.32325452
H     -0.24322910     7.69514877    10.48587115
H      0.53482727     6.24656479    10.86226468
H     -1.35338697     6.01402883    10.25226422
