87
CIF: 2-NH2+H+NO-NH2NO+H_fs.cif | data_image0
Ce     5.80086702    10.05616569     8.79209730
Ce     1.94364065     1.10642098     5.61966683
Ce     0.00000000     2.23543938     2.47426506
Ce    -1.88654063    10.01995956     8.81044811
Ce     5.80475887     1.12056238     5.61250894
Ce     3.87189458     2.23543938     2.47426506
Ce     7.65682415     0.04138307     8.83607097
Ce     9.66907829     1.11110236     5.63421378
Ce     7.74390532     2.23543938     2.47426506
Ce     9.62671674     3.28530065     8.78816208
Ce    -0.00968208     4.43998187     5.59270729
Ce    -1.93600537     5.58869904     2.47426506
Ce     1.97418651     3.24000561     8.77549394
Ce     3.86403066     4.48907940     5.62900030
Ce     1.93588921     5.58869904     2.47426506
Ce     5.80442559     3.38085702     8.74664028
Ce     7.74688051     4.48087418     5.62267395
Ce     5.80789995     5.58869904     2.47426506
Ce    -3.86497178     6.78459746     8.77012214
Ce    -1.94547716     7.83212196     5.68214711
Ce    -3.87195266     8.94185811     2.47426506
Ce     1.95216415     7.84194573     5.59967861
Ce    -0.00005808     8.94185811     2.47426506
Ce     3.98235673     6.74230936     8.81337322
Ce     5.80775830     7.82800511     5.60566457
Ce     3.87195266     8.94185811     2.47426506
Pd     0.85241219     6.19059353     8.18100081
O     11.60279541     0.01040201     6.43031721
O      0.00056936     2.21291106     9.56343106
O      1.93594729     1.11771969     3.26466483
O     -0.00018426     2.23498869     4.80774351
O      0.00000000     0.00000000     1.68386529
O      1.94652677     1.09135511     7.97524228
O      3.88564172     0.00190882     6.41309193
O      3.85819348     2.26786819     9.56552170
O      5.80795803     1.11771969     3.26466483
O      3.86537962     2.24697859     4.81818406
O      3.87189458     0.00000000     1.68386529
O      5.80483767     1.19975205     7.89373342
O      1.93354455    10.02352893     6.44365296
O      7.71953930     2.26786797     9.57925111
O      9.67985261     1.11771969     3.26466483
O      7.74686876     2.23169325     4.82355131
O      7.74390532     0.00000000     1.68386529
O      9.64685951     1.13093801     7.98577892
O     -1.91906030     3.34082197     6.43094342
O     -2.27281304     5.38447784     9.96388087
O      0.00000000     4.47087876     3.26466483
O     -1.91896303     5.58593595     4.82757204
O     -1.93594729     3.35315907     1.68386529
O     -0.05840772     4.45919092     8.04006164
O      1.91780140     3.33935155     6.44546644
O      1.91024503     5.48791347     9.68374143
O      3.87201074     4.47087876     3.26466483
O      1.93298681     5.58504005     4.81198217
O      1.93594729     3.35315907     1.68386529
O      3.86284467     4.48935510     7.98143815
O      5.80723093     3.40420712     6.41331957
O      5.82268149     5.60907176     9.52310559
O      7.74390532     4.47087876     3.26466483
O      5.79729194     5.59970867     4.80382274
O      5.80795803     3.35315907     1.68386529
O      7.78414663     4.48044600     7.96627380
O      7.72316136     6.69924945     6.40520004
O     -3.92965423     8.94644754     9.62115220
O     -1.93600537     7.82413842     3.26466483
O     -3.87485360     8.94598613     4.82233695
O     -3.87195266     6.70641873     1.68386529
O     -2.05733879     7.86501436     7.98601429
O      0.01310746     6.69645569     6.43712995
O      0.00025916     9.44465279     9.77139976
O      1.93600537     7.82413842     3.26466483
O      0.00744530     8.92428571     4.82069733
O     -0.00005808     6.70641873     1.68386529
O      1.92148114     7.81716998     8.06398219
O      3.87437521     6.73381220     6.43128035
O      3.89370724     8.95054107     9.52406742
O      5.80789995     7.82413842     3.26466483
O      3.86771466     8.94597910     4.80495441
O      3.87195266     6.70641873     1.68386529
O      5.82245878     7.84050974     7.96039782
O      4.44916686     7.37287352    12.43870691
N      2.46174498     6.58323766    12.00457068
N      3.67084764     6.89263329    11.60768627
H      1.89828000     6.12616801    11.23714186
H      2.20297107     6.74248711    12.98546050
H     -1.46847308     5.84229917    10.27316229
