87
CIF: 2-NH2+H+NO-NH2NO+H_ts.cif | data_image0
Ce     0.09821442     0.07422281     8.78126901
Ce     1.94393377     1.11552254     5.60298970
Ce     0.00000000     2.23543938     2.47426506
Ce    -1.90549643    10.03735206     8.80457279
Ce     5.80648840     1.11932633     5.58770214
Ce     3.87189458     2.23543938     2.47426506
Ce     7.58280137     0.07446136     8.79459266
Ce     9.67494845     1.10337326     5.63548698
Ce     7.74390532     2.23543938     2.47426506
Ce     9.65239076     3.29249254     8.78378236
Ce    -0.00405961     4.45602202     5.61861714
Ce    -1.93600537     5.58869904     2.47426506
Ce     1.97678265     3.29873570     8.77664149
Ce     3.86633959     4.47490106     5.59229747
Ce     1.93588921     5.58869904     2.47426506
Ce     5.81750924     3.36378975     8.73989314
Ce     7.74293948     4.47756561     5.62183196
Ce     5.80789995     5.58869904     2.47426506
Ce    -3.89674832     6.78517785     8.77438307
Ce    -1.94460063     7.83300225     5.68720563
Ce    -3.87195266     8.94185811     2.47426506
Ce     1.93889102     7.83703831     5.61768599
Ce    -0.00005808     8.94185811     2.47426506
Ce     3.91338948     6.57423892     8.75728997
Ce     5.79667897     7.83197317     5.61905091
Ce     3.87195266     8.94185811     2.47426506
Pd     0.91055486     6.20073178     8.14844741
O      0.01629514     0.01756580     6.43072292
O      0.01731040     2.21470011     9.55798601
O      1.93594729     1.11771969     3.26466483
O     -0.00698957     2.23757070     4.81178526
O      0.00000000     0.00000000     1.68386529
O      1.96362327     1.11046927     7.96542658
O      3.88420555     0.00218054     6.40928895
O      3.87618577     2.26924404     9.55088826
O      5.80795803     1.11771969     3.26466483
O      3.86807901     2.24252539     4.80638406
O      3.87189458     0.00000000     1.68386529
O      5.78756851     1.18649659     7.88717107
O      1.91574975    10.05512706     6.42866479
O      7.71757888     2.26875797     9.53691092
O      9.67985261     1.11771969     3.26466483
O      7.75723389     2.23543725     4.81147837
O      7.74390532     0.00000000     1.68386529
O      9.66806994     1.01457443     8.05117665
O      9.68672926     3.29428987     6.46121626
O     -2.31689289     5.37105075     9.96513398
O      0.00000000     4.47087876     3.26466483
O     -1.93770486     5.58334332     4.85221699
O      9.67985261     3.35315907     1.68386529
O     -0.05662559     4.45828620     8.03162546
O      1.92185989     3.34257084     6.42795277
O      2.06632630     5.45190935     9.64330203
O      3.87201074     4.47087876     3.26466483
O      1.93068946     5.58682716     4.80705983
O      1.93594729     3.35315907     1.68386529
O      3.90048993     4.44462468     7.92692362
O      5.82909274     3.38588184     6.39587846
O      5.79853235     5.57463398     9.52518137
O      7.74390532     4.47087876     3.26466483
O      5.80611854     5.59819876     4.79801584
O      5.80795803     3.35315907     1.68386529
O      7.79277816     4.49761996     7.96252676
O      7.66922992     6.72112157     6.44208149
O     -3.93066245     8.98381307     9.62665531
O     -1.93600537     7.82413842     3.26466483
O     -3.87769684     8.94048822     4.82172323
O      7.74384724     6.70641873     1.68386529
O     -2.09863402     7.86916577     7.99781362
O      0.00675733     6.73987346     6.42105852
O     -0.01705708     9.43057263     9.76359224
O      1.93600537     7.82413842     3.26466483
O      0.00425674     8.93491492     4.81299545
O     -0.00005808     6.70641873     1.68386529
O      2.04656721     7.87082918     8.08536470
O      3.88556337     6.69171584     6.41497764
O      3.86866135     9.11511897    10.01523795
O      5.80789995     7.82413842     3.26466483
O      3.86913069     8.94414611     4.82738990
O      3.87195266     6.70641873     1.68386529
O      5.70353498     7.89464900     8.05862925
O      4.62298721     8.49961948    11.99591033
N      1.84986207     7.76734105    11.73441469
N      3.92661439     8.18802711    11.06237579
H      1.86008428     6.77568219    11.42367094
H      1.18703994     8.20420614    11.05375264
H     -1.55441315     5.79845675    10.39777250
