87
CIF: 6-OH+2H-H2O+H_is.cif | data_image0
Ce    -5.78396569    10.05751642     8.76940493
Ce     1.95053457     1.10739807     5.61290547
Ce     0.00000000     2.23543938     2.47426506
Ce    -1.86910393    10.01505468     8.80460586
Ce     5.79921287     1.12126148     5.61553574
Ce     3.87189458     2.23543938     2.47426506
Ce     7.67744453     0.04283859     8.83713739
Ce     9.67144196     1.10524359     5.62434095
Ce     7.74390532     2.23543938     2.47426506
Ce     9.62724616     3.27176018     8.77269764
Ce    -0.01354836     4.44136661     5.57473244
Ce    -1.93600537     5.58869904     2.47426506
Ce     1.96508109     3.20418095     8.79595985
Ce     3.85395980     4.50665167     5.65438898
Ce     1.93588921     5.58869904     2.47426506
Ce     5.80571792     3.39301369     8.76533931
Ce     7.74623735     4.47999472     5.62119593
Ce     5.80789995     5.58869904     2.47426506
Ce    -3.80524085     6.77254432     8.76856018
Ce    -1.92910141     7.83036590     5.67202950
Ce    -3.87195266     8.94185811     2.47426506
Ce     1.95451864     7.83352817     5.59817466
Ce    -0.00005808     8.94185811     2.47426506
Ce     4.06970844     6.78576579     8.89342587
Ce     5.81389219     7.82492638     5.60643609
Ce     3.87195266     8.94185811     2.47426506
Pd     0.71958327     6.17212757     8.25221537
O     11.60683254     0.00977405     6.41445613
O      0.01237519     2.18775469     9.53229395
O      1.93594729     1.11771969     3.26466483
O      0.01022453     2.23279818     4.80309831
O      0.00000000     0.00000000     1.68386529
O      1.96360732     1.06975525     7.95749881
O      3.90076082     0.00276273     6.41019726
O      3.87239117     2.24201218     9.55085207
O      5.80795803     1.11771969     3.26466483
O      3.86609361     2.25637003     4.82377412
O      3.87189458     0.00000000     1.68386529
O      5.82951802     1.21573297     7.88902010
O      1.93740421     9.98138822     6.46885600
O      7.73800492     2.24879594     9.58520679
O      9.67985261     1.11771969     3.26466483
O      7.72382716     2.22366428     4.82951175
O      7.74390532     0.00000000     1.68386529
O      9.64431469     1.14010851     7.95965546
O      9.68815316     3.32466934     6.38820131
O     -2.25231154     5.34039829     9.97315110
O      0.00000000     4.47087876     3.26466483
O     -1.91468695     5.58677440     4.81896677
O     -1.93594729     3.35315907     1.68386529
O     -0.10521893     4.45066768     7.95816733
O      1.92493728     3.34744392     6.46676375
O      1.37886300     5.25430259     9.93474498
O      3.87201074     4.47087876     3.26466483
O      1.94304017     5.58097057     4.81043637
O      1.93594729     3.35315907     1.68386529
O      3.80011718     4.54956692     8.09943012
O      5.76934120     3.43773947     6.44969570
O      5.94097141     5.59773354     9.50906594
O      7.74390532     4.47087876     3.26466483
O      5.79387170     5.60137986     4.81023849
O      5.80795803     3.35315907     1.68386529
O      7.82041861     4.45534098     7.94828278
O      7.74262943     6.69189590     6.39923822
O     -3.88025190     8.93551501     9.62242962
O     -1.93600537     7.82413842     3.26466483
O     -3.86817638     8.94361573     4.82405909
O     -3.87195266     6.70641873     1.68386529
O     -2.00945088     7.85568088     7.97215563
O      0.05067416     6.71403719     6.42114802
O      0.03462446     9.44469953     9.75294965
O      1.93600537     7.82413842     3.26466483
O      0.01305129     8.93096437     4.81234644
O     -0.00005808     6.70641873     1.68386529
O      1.91341608     7.68825586     8.16707486
O      3.86907840     6.74874222     6.43034071
O      3.94670400     9.01635460     9.51779310
O      5.80789995     7.82413842     3.26466483
O      3.87142059     8.94251761     4.79985374
O      3.87195266     6.70641873     1.68386529
O      5.87292018     7.85010193     7.96352780
O      3.30405852     6.50953757    10.98788628
H     -1.46379842     5.70737650    10.42068846
H      3.28004978     7.17688996    11.69608361
H      2.00680487     5.81925588    10.52539868
N      6.50986616     8.14470705    12.82667119
N      5.39348262     8.20095273    12.85353767
