81
CIF: Nb-Y-CeO2-Ov.cif | data_image0
Ce     1.93596140     1.11772783     0.89035214
Ce    -0.00191463     2.21389532     4.03937797
Ce    -5.66324349     9.97623507     7.30687378
Ce     5.80789581     1.11772783     0.89035214
Ce     3.85398155     2.21325375     4.01826039
Ce    -2.03005819    10.01331470     7.26662795
Ce     9.67981860     1.11772783     0.89035214
Ce     7.77291886     2.21873251     3.99733810
Ce     1.91019069     9.82017695     7.22577184
Ce     0.00000000     4.47091133     0.89035214
Ce    -1.94754299     5.58912462     4.05248236
Ce    -1.74156079     3.49232081     7.22706838
Ce     3.87193441     4.47091133     0.89035214
Ce     1.94948434     5.58072995     4.09004275
Ce     1.83665368     3.26298475     7.22263980
Ce     7.74385721     4.47091133     0.89035214
Ce     5.81862857     5.61617194     4.01794551
Ce    -1.93596721     7.82410489     0.89035214
Ce    -3.88002418     8.94722060     4.01881800
Ce    -3.87838567     6.81370447     7.26466650
Ce     1.93596721     7.82410489     0.89035214
Ce    -0.00624495     8.95151095     4.05218744
Ce    -0.00260771     6.70717486     7.29346593
Ce     5.80789000     7.82410489     0.89035214
Ce     3.88947628     8.95449517     4.03914711
Ce     3.90054126     6.83808442     7.22194981
Y      5.72622335     3.40414368     6.87850824
O      0.00000000     0.00000000     0.09999685
O      1.94079603     1.10581482     3.20956350
O     -0.04213846     2.16438666     6.52291657
O      0.00000000     2.23545567     1.68070743
O     -5.76375360    10.03375138     4.83286726
O      2.10474266     0.98345095     8.18385973
O      3.87192279     0.00000000     0.09999685
O      5.73051189     1.05884031     3.22187401
O      3.96172998     2.28165557     6.57969844
O      3.87192279     2.23545567     1.68070743
O      3.82865809     0.04419107     4.89391228
O      5.93547108     1.43955255     8.87721346
O      7.74385721     0.00000000     0.09999685
O      9.75682064     1.07385378     3.22104405
O      7.64532078     2.29060751     7.03118821
O      7.74385721     2.23545567     1.68070743
O      1.92729630    10.00888009     4.88300627
O      9.12442561     1.44493198     9.07189509
O     -1.93596140     3.35318350     0.09999685
O      0.00359244     4.49197816     3.25684839
O     -2.06312719     5.63719763     6.50454077
O     -1.93596721     5.58864923     1.68070743
O     -1.89653510     3.38603519     4.88367944
O      0.03092415     4.64829460     8.14330518
O      1.93596140     3.35318350     0.09999685
O      3.86122834     4.47739598     3.25554014
O      2.07884045     5.50608814     6.44414731
O      1.93595559     5.58864923     1.68070743
O      1.91947854     3.27602176     4.83170871
O      5.80789581     3.35318350     0.09999685
O      7.75620432     4.56722346     3.22204189
O      5.81433986     5.49245640     6.57342443
O      5.80789000     5.58864923     1.68070743
O      5.80062086     3.35761560     4.79116380
O      7.50156365     4.19232312     8.87740470
O     -3.87192860     6.70637706     0.09999685
O     -1.92927702     7.82099691     3.26508427
O     -3.81193776     8.90837017     6.40920388
O     -3.87192860     8.94183273     1.68070743
O      7.68619998     6.72343476     4.89213311
O     -1.97373530     7.84635257     8.12382527
O     -0.00000581     6.70637706     0.09999685
O      1.91891944     7.81030894     3.25685268
O     -0.10617432     9.02553182     6.50238831
O     -0.00000581     8.94183273     1.68070743
O      0.00517288     6.70244160     4.95280371
O      3.87192860     6.70637706     0.09999685
O      5.82082732     7.82614252     3.20952154
O      3.91213518     9.01434774     6.52342236
O      3.87192860     8.94183273     1.68070743
O      3.92927549     6.75997044     4.83102172
O      6.00850162     7.74584521     8.18324879
O      1.79715721     7.70719122     8.14302567
Nb     7.52682964     2.35569981     9.05332303
