84
CIF: CO+O2 — CO2+Olat.cif | data_VESTA_phase_1
O      0.42559408     0.48189399     0.54486488
O      2.34452954     1.50141931     3.66857135
O      0.62385074     2.80023777     6.83851390
O      0.42594418     2.69139734     2.10578290
O      0.40622412     0.50337578     5.34550155
O      2.29165957     1.74051237     8.52023422
O      4.25161344     0.48323598     0.54445430
O      6.17873881     1.58124291     3.68554207
O      4.01956409     2.81364773     6.90039770
O      4.25213571     2.69186455     2.10655845
O      4.28305879     0.52002641     5.35702065
O      6.12669529     1.59305243     8.42568635
O      8.07824690     0.48216238     0.54420339
O      9.97432292     1.57861857     3.68077476
O      8.08173063     2.67667521     6.89506014
O      8.07832725     2.69139734     2.10555480
O      8.07519362     0.48021401     5.33510014
O     10.04699331     1.62454448     8.44528022
O     -1.48735533     3.79603470     0.54383843
O      0.35304422     4.94315850     3.66681498
O     -1.43169035     5.98245582     6.90735478
O     -1.48716020     6.00538895     2.10443711
O     -1.47568170     3.76635186     5.35070225
O      0.54365620     4.78261664     8.51099613
O      2.33950770     3.79655162     0.54470521
O      4.32850791     4.94449055     3.67904119
O      2.38209293     5.72883944     6.91187118
O      2.33966266     6.00520008     2.10756209
O      2.33806714     3.79371853     4.92212326
O      6.16457434     3.79676037     0.54470521
O      8.07383342     4.90545353     3.71619884
O      6.07163866     5.96616306     6.98762353
O      6.16499330     6.00530943     2.10810953
O      6.15372716     3.76838969     5.36895033
O      8.10174339     4.90102993     8.47422624
O     -3.40133208     7.11018536     0.54438587
O     -1.48951329     8.20639303     3.72543694
O     -3.36936445     9.37950175     6.89271070
O     -3.40087294     9.31840637     2.10690060
O     -3.41903192     7.09463815     5.39741734
O     -1.49789260     8.19667106     8.49541683
O      0.42647793     7.11007602     0.54420339
O      2.33976596     8.22497215     3.68830209
O      0.42682228     9.30434032     6.89364591
O      0.42623688     9.31853560     2.10550918
O      0.47846979     7.09282895     5.36945216
O      2.33687338     8.16292247     8.44101474
O      4.25212424     7.10971815     0.54545795
O      6.16972245     8.20677078     3.71540049
O      4.23774168     9.33452020     6.89975902
O      4.25225050     9.31787952     2.10785862
O      4.22430609     7.12642842     5.37392293
O      6.21129757     8.27774718     8.43875654
O      3.94409869     4.77892865     8.58793460
O      4.73907664     4.33068384     9.72684294
O      4.71857030     6.64571738    10.36148838
Ce     2.33873864     1.58715761     1.32574588
Ce     0.44905614     2.70353490     4.46421049
Ce     0.46156196     0.54331740     7.68549857
Ce     6.16501626     1.58733654     1.32508439
Ce     4.22738233     2.70805791     4.49041929
Ce     4.22533342     0.52072225     7.68855512
Ce     9.99124223     1.58639218     1.32497034
Ce     8.07533136     2.68958814     4.50202963
Ce     8.07070553     0.48303716     7.65577701
Ce     0.42633445     4.90081123     1.32474224
Ce    -1.48364204     5.99559739     4.51503139
Ce    -1.43221836     3.79081585     7.69247846
Ce     4.25222180     4.90102993     1.32697763
Ce     2.34874789     5.97095446     4.49712546
Ce     8.07774759     4.90090070     1.32490191
Ce     6.15455361     6.00207871     4.53430593
Ce     6.18390987     3.76818094     7.71937157
Ce    -1.48759638     8.21466367     1.32414917
Ce    -3.39957013     9.32108042     4.51414180
Ce    -3.38393067     7.11553345     7.73584046
Ce     2.33945030     8.21402747     1.32633894
Ce     0.43123577     9.31665682     4.51300129
Ce     0.46080438     7.04070006     7.69158887
Ce     6.16471208     8.21395789     1.32697763
Ce     4.24972523     9.31722343     4.50196120
Ce     4.25347870     7.17600256     7.73855487
Pd     2.27821251     3.73790165     7.75392887
C      5.14749315     5.60416352    10.75893158
