82
CIF: O2 — 2Olat.cif | data_image0
O      0.42319404     0.48660511     0.54999780
O      2.33900923     1.50223981     3.66713899
O      0.65231264     2.87139321     6.84843775
O      0.42319404     2.69562137     2.11203351
O      0.40638312     0.53299420     5.36739220
O      2.19147826     1.73579189     8.52698158
O      4.24943723     0.48660511     0.54999780
O      6.17369011     1.58685571     3.69411735
O      3.95371659     2.86804346     6.95853437
O      4.24943723     2.69562137     2.11203351
O      4.27087114     0.54783376     5.38499407
O      6.15945457     1.52184476     8.38847007
O      8.07556564     0.48660511     0.54999780
O      9.97312717     1.58517536     3.68801769
O      8.06999888     2.70651021     6.91117742
O      8.07556564     2.69562137     2.11203351
O      8.07350425     0.48958050     5.34208573
O     10.04526724     1.62591394     8.44190235
O     -1.48987016     3.80012951     0.54999780
O      0.34589919     4.94039932     3.66927796
O     -1.43988504     5.98247033     6.93544683
O     -1.48992755     6.00924518     2.11203351
O     -1.47024823     3.76147729     5.37190672
O      0.51499676     4.72810218     8.57498287
O      2.33637303     3.80012951     0.54999780
O      4.32804529     4.94480390     3.67353192
O      2.29610826     5.68432753     6.92636206
O      2.33631564     6.00924518     2.11203351
O      2.33834742     3.78975733     4.91064504
O      6.16250143     3.80012951     0.54999780
O      8.07135466     4.90100255     3.73083622
O      6.17988303     6.01784791     6.88258766
O      6.16244404     6.00924518     2.11203351
O      6.11646528     3.76216944     5.39526497
O      8.07280673     4.92188428     8.53514778
O     -3.40299176     7.11375331     0.54999780
O     -1.48245594     8.22564766     3.72268532
O     -3.38067399     9.37096035     6.91593104
O     -3.40299176     9.32276957     2.11203351
O     -3.37125551     7.12320640     5.37105567
O     -1.48802282     8.22383182     8.51300140
O      0.42325143     7.11375331     0.54999780
O      2.33551906     8.23436780     3.69353318
O      0.41123782     9.28151188     6.87162526
O      0.42325143     9.32276957     2.11203351
O      0.46719422     7.09138307     5.36322024
O      2.31736824     8.15776160     8.44246506
O      4.24937984     7.11375331     0.54999780
O      6.16522879     8.22091009     3.73078555
O      4.24766075     9.32424582     6.89318861
O      4.24937984     9.32276957     2.11203351
O      4.19826707     7.10689594     5.36633918
O      6.19622816     8.25317043     8.50962114
O      4.38046251     3.28877936     9.36456071
O      4.34284189     5.15545728     8.66799005
Ce     2.33625824     1.59111324     1.33101565
Ce     0.44713686     2.71032317     4.45089692
Ce     0.43789163     0.51138446     7.70593822
Ce     6.16250143     1.59111324     1.33101565
Ce     4.22729970     2.71840396     4.49310175
Ce     4.23664440     0.51824943     7.71121880
Ce     9.98862984     1.59111324     1.33101565
Ce     8.06574880     2.69886300     4.53143389
Ce     8.06038887     0.47769741     7.65453188
Ce     0.42319404     4.90463764     1.33101565
Ce    -1.48233510     6.00313818     4.52516577
Ce    -1.48409092     3.79795588     7.72096345
Ce     4.24943723     4.90463764     1.33101565
Ce     2.33954560     5.96895145     4.50215879
Ce     8.07556564     4.90463764     1.33101565
Ce     6.16176411     6.00693755     4.53054770
Ce     6.12376375     3.83728912     7.77046438
Ce    -1.48992755     8.21826144     1.33101565
Ce    -3.39720827     9.33048166     4.52209711
Ce    -3.38642857     7.12715668     7.73530946
Ce     2.33631564     8.21826144     1.33101565
Ce     0.42654996     9.32080302     4.51408613
Ce     0.46290978     7.05410717     7.69588781
Ce     6.16244404     8.21826144     1.33101565
Ce     4.24698850     9.32304162     4.50711022
Ce     4.26497891     7.12418325     7.70756623
Pd     2.19137473     3.72523279     7.80146890
