82
CIF: Pd-CeO2-Ov+CO.cif | data_image0
O      0.40489123     0.41830271     0.54999875
O      2.33415919     1.46336410     3.67883849
O      0.20224828     2.51315800     6.74269488
O      0.40489123     2.62731897     2.11203447
O      0.42053686     0.35742498     5.29421563
O      2.28084444     1.70725728     8.40977185
O      4.23113442     0.41830271     0.54999875
O      6.13880095     1.51437530     3.69537982
O      4.16909487     2.90158594     6.99365553
O      4.23113442     2.62731897     2.11203447
O      4.24009651     0.50771416     5.41091397
O      6.12763324     1.54419630     8.49620505
O      8.05726283     0.41830271     0.54999875
O      9.95735294     1.51687190     3.68747896
O      8.07541197     2.60326823     6.87754647
O      8.05726283     2.62731897     2.11203447
O      8.04701208     0.41540521     5.33487148
O      9.93616993     1.50779726     8.56160217
O     -1.50817297     3.73182711     0.54999875
O      0.35753180     4.88046080     3.67961380
O     -1.47311152     5.94120643     6.92749901
O     -1.50823036     5.94094278     2.11203447
O     -1.55836896     3.77838024     5.29367491
O      0.54078408     4.71996926     8.40113356
O      2.31807022     3.73182711     0.54999875
O      4.28025517     4.86651635     3.69570397
O      2.51241624     5.76214674     6.98052209
O      2.31801283     5.94094278     2.11203447
O      2.29566233     3.72025066     5.06502985
O      6.14419862     3.73182711     0.54999875
O      8.04284648     4.86214160     3.68886755
O      6.00777954     5.86699133     7.00108998
O      6.14414123     5.94094278     2.11203447
O      6.17519356     3.71468221     5.33719022
O      8.06044843     4.82932375     8.49751274
O     -3.42129457     7.04545091     0.54999875
O     -1.49922332     8.15835846     3.75158682
O     -3.40515682     9.29451330     6.93058413
O     -3.42129457     9.25446718     2.11203447
O     -3.45941293     7.02839102     5.41179136
O     -1.52753066     8.14324185     8.53208036
O      0.40494862     7.04545091     0.54999875
O      2.30589044     8.15357048     3.69400853
O      0.38968688     9.24889425     6.91479224
O      0.40494862     9.25446718     2.11203447
O      0.47886264     7.01479484     5.40447589
O      2.32787269     8.12917484     8.49127770
O      4.23107703     7.04545091     0.54999875
O      6.15877012     8.12653883     3.68652124
O      4.22049578     9.29078941     6.87734742
O      4.23107703     9.25446718     2.11203447
O      4.22894440     7.08690099     5.33373908
O      6.14087832     8.16595816     8.49754627
O      3.40917836     4.49913635    10.51089805
Ce     2.31795543     1.52281084     1.33101661
Ce     0.40926055     2.63066222     4.49385502
Ce     0.40504563     0.50042305     7.68015859
Ce     6.14419862     1.52281084     1.33101661
Ce     4.19506594     2.66087874     4.51470505
Ce     4.18896924     0.48628174     7.71697316
Ce     9.97032703     1.52281084     1.33101661
Ce     8.05771978     2.62771556     4.47798357
Ce     8.04730327     0.41627214     7.70056549
Ce     0.40489123     4.83633524     1.33101661
Ce    -1.50714122     5.93790892     4.52232335
Ce    -1.44385851     3.69639889     7.67815574
Ce     4.23113442     4.83633524     1.33101661
Ce     2.32514052     5.89781466     4.51195624
Ce     8.05726283     4.83633524     1.33101661
Ce     6.14324456     5.94242816     4.51346015
Ce     6.25013130     3.68288274     7.65807149
Ce    -1.50823036     8.14995904     1.33101661
Ce    -3.42414182     9.26153953     4.52414417
Ce    -3.40021547     7.06415028     7.74663245
Ce     2.31801283     8.14995904     1.33101661
Ce     0.41565785     9.26340328     4.53564677
Ce     0.43622198     6.98207456     7.71174349
Ce     6.14414123     8.14995904     1.33101661
Ce     4.22982811     9.25915323     4.47692749
Ce     4.23949176     7.17216452     7.65253010
Pd     2.42439347     3.80222384     7.84694249
C      3.74051408     4.60352216     9.39289720
