82
CIF: Pd-CeO2+O.cif | data_image0
O      0.42319508     0.48660586     0.54999716
O      2.34559602     1.50504285     3.66700738
O      0.63994077     2.87777774     6.86203862
O      0.42319508     2.69562213     2.11203287
O      0.41615158     0.52933976     5.36435941
O      2.18745997     1.74619378     8.52174908
O      4.24943827     0.48660586     0.54999716
O      6.17378418     1.58598508     3.69313119
O      3.96565206     2.85986480     6.99761651
O      4.24943827     2.69562213     2.11203287
O      4.26756372     0.55824726     5.40013040
O      6.30711662     1.51090595     8.40496772
O      8.07556667     0.48660586     0.54999716
O      9.97676051     1.58580381     3.69376255
O      8.09690919     2.72827613     6.88792155
O      8.07556667     2.69562213     2.11203287
O      8.08257778     0.48478460     5.33726289
O     10.05767417     1.63546141     8.44295628
O     -1.48986913     3.80013026     0.54999716
O      0.35750916     4.94398920     3.67201520
O     -1.45755724     5.99307589     6.93661705
O     -1.48992652     6.00924593     2.11203287
O     -1.46284246     3.78158108     5.35680034
O      0.56363413     4.82577542     8.53832672
O      2.33637406     3.80013026     0.54999716
O      4.32980326     4.94199908     3.66723128
O      2.29050167     5.73468618     6.86195167
O      2.33631667     6.00924593     2.11203287
O      2.36249908     3.78653142     4.93263999
O      6.16250247     3.80013026     0.54999716
O      8.06565777     4.90258076     3.73273435
O      6.13974779     5.97806196     6.92452501
O      6.16244508     6.00924593     2.11203287
O      6.11003547     3.75270589     5.40103679
O      8.05566219     4.91294112     8.54178408
O     -3.40299072     7.11375407     0.54999716
O     -1.49172351     8.23010669     3.73167173
O     -3.38448723     9.36511640     6.92598108
O     -3.40299072     9.32277033     2.11203287
O     -3.40213856     7.11636471     5.38455569
O     -1.50371910     8.23516965     8.54122151
O      0.42325247     7.11375407     0.54999716
O      2.33633352     8.23304259     3.69407205
O      0.40914817     9.29115811     6.88816002
O      0.42325247     9.32277033     2.11203287
O      0.45436465     7.10237617     5.35649890
O      2.33643721     8.13977702     8.44267553
O      4.24938087     7.11375407     0.54999716
O      6.16647748     8.21757457     3.72636717
O      4.26466629     9.31677559     6.89479145
O      4.24938087     9.32277033     2.11203287
O      4.21079408     7.10198899     5.36439284
O      6.19351915     8.20422546     8.51664472
O      4.70154265     2.43352911     9.19788075
O      4.05192685     4.95886342     8.51886278
Ce     2.33625928     1.59111400     1.33101501
Ce     0.45555073     2.71383329     4.47957696
Ce     0.46604585     0.53917826     7.71206463
Ce     6.16250247     1.59111400     1.33101501
Ce     4.23382004     2.70641778     4.47139770
Ce     4.21947399     0.49295528     7.75828310
Ce     9.98863087     1.59111400     1.33101501
Ce     8.07512700     2.69833348     4.52919281
Ce     8.13732114     0.45395859     7.64192728
Ce     0.42319508     4.90463839     1.33101501
Ce    -1.48729060     6.00948568     4.52673985
Ce    -1.44455180     3.80572697     7.69932256
Ce     4.24943827     4.90463839     1.33101501
Ce     2.33822740     5.97442108     4.48018401
Ce     8.07556667     4.90463839     1.33101501
Ce     6.15801568     6.00445967     4.53191226
Ce     6.14180687     3.82825100     7.75921786
Ce    -1.48992652     8.21826220     1.33101501
Ce    -3.39930851     9.33189941     4.53192690
Ce    -3.41546163     7.12408920     7.75404920
Ce     2.33631667     8.21826220     1.33101501
Ce     0.42244535     9.32401151     4.52854202
Ce     0.44531797     7.07446755     7.69876938
Ce     6.16244508     8.21826220     1.33101501
Ce     4.25427872     9.32174136     4.50652195
Ce     4.22941284     7.05575891     7.71122158
Pd     2.27795784     3.83514611     7.77924112
