84
CIF: Pd-CeO2+CO2.cif | data_image0
O      0.42319508     0.48660586     0.54999716
O      2.34656371     1.50023334     3.67551635
O      0.67584628     2.82677327     6.87714280
O      0.42319508     2.69562213     2.11203287
O      0.41315602     0.51787486     5.36936636
O      2.35879802     1.74371407     8.53164448
O      4.24943827     0.48660586     0.54999716
O      6.18118820     1.58227478     3.69390979
O      4.02536569     2.83647460     6.87927517
O      4.24943827     2.69562213     2.11203287
O      4.28286409     0.51778021     5.37489949
O      6.10345770     1.63663496     8.46575030
O      8.07556667     0.48660586     0.54999716
O      9.98118636     1.58204376     3.69366752
O      8.08657874     2.67330048     6.90781729
O      8.07556667     2.69562213     2.11203287
O      8.08456017     0.48302518     5.34278014
O     10.07421754     1.62497194     8.45466036
O     -1.48986913     3.80013026     0.54999716
O      0.35208888     4.94964339     3.67498105
O     -1.42410306     5.98440256     6.91932224
O     -1.48992652     6.00924593     2.11203287
O     -1.45896573     3.76429129     5.37064048
O      0.57873189     4.82716257     8.53034265
O      2.33637406     3.80013026     0.54999716
O      4.33515829     4.94621000     3.67534280
O      2.35617422     5.72930635     6.87857296
O      2.33631667     6.00924593     2.11203287
O      2.34519272     3.79900070     4.90867638
O      6.16250247     3.80013026     0.54999716
O      8.08199989     4.90308164     3.72490359
O      6.12227622     5.97510347     6.93322366
O      6.16244508     6.00924593     2.11203287
O      6.15604319     3.76515756     5.37434659
O      8.10773094     4.90475983     8.48496686
O     -3.40299072     7.11375407     0.54999716
O     -1.48612632     8.21578153     3.72857069
O     -3.38640775     9.37094699     6.91951974
O     -3.40299072     9.32277033     2.11203287
O     -3.39884825     7.10675603     5.39086160
O     -1.48929250     8.20734171     8.50653726
O      0.42325247     7.11375407     0.54999716
O      2.34207777     8.23182682     3.69186698
O      0.45239367     9.32816206     6.91546114
O      0.42325247     9.32277033     2.11203287
O      0.47721089     7.11372746     5.37403585
O      2.35675269     8.13004728     8.46521201
O      4.24938087     7.11375407     0.54999716
O      6.17008924     8.21530511     3.72434016
O      4.24643169     9.32368343     6.90636390
O      4.24938087     9.32277033     2.11203287
O      4.22112212     7.11106122     5.37041770
O      6.18624851     8.21914572     8.49532826
O      4.08875827     4.80396913     8.54896839
O      5.74463151     5.46150429    10.85909287
O      3.74795407     4.64356084    11.79956939
Ce     2.33625928     1.59111400     1.33101501
Ce     0.45816345     2.70852554     4.48458614
Ce     0.47364784     0.53060297     7.70351972
Ce     6.16250247     1.59111400     1.33101501
Ce     4.23078043     2.70978455     4.48432400
Ce     4.22959191     0.53043259     7.70717266
Ce     9.98863087     1.59111400     1.33101501
Ce     8.08360019     2.68987094     4.52007640
Ce     8.09230937     0.48370263     7.66263914
Ce     0.42319508     4.90463839     1.33101501
Ce    -1.47800329     6.00607837     4.52588138
Ce    -1.41179611     3.80235988     7.70204069
Ce     4.24943827     4.90463839     1.33101501
Ce     2.34454295     5.97543423     4.48219805
Ce     8.07556667     4.90463839     1.33101501
Ce     6.16752543     6.00431173     4.52460342
Ce     6.12918129     3.79953774     7.70661925
Ce    -1.48992652     8.21826220     1.33101501
Ce    -3.39493069     9.32423703     4.52498421
Ce    -3.38676725     7.10942975     7.74883057
Ce     2.33631667     8.21826220     1.33101501
Ce     0.43342889     9.32181066     4.52225915
Ce     0.46396474     7.05596595     7.70797834
Ce     6.16244508     8.21826220     1.33101501
Ce     4.25433244     9.32191545     4.51869896
Ce     4.23915756     7.06569628     7.70051107
Pd     2.35598730     3.79903877     7.76229880
C      4.73290090     5.04753921    11.30631721
