83
CIF: Co-Sc-CeO2-O.cif | data_image0
Ce     1.93038582     1.11050507     0.88387043
Ce    -0.00859317     2.22444586     4.02847795
Ce     0.03821723     0.00033286     7.19662412
Ce     5.81181033     1.12175166     0.90127712
Ce     3.85497842     2.21459725     4.02518857
Ce    -1.92404310    10.05697185     7.30889522
Ce     9.66901012     1.12377363     0.90450652
Ce     7.71294850     2.24141161     4.07598787
Ce     2.01440960     9.94207740     7.21948136
Ce    -0.00709724     4.47602159     0.89067279
Ce    -1.95411630     5.58502226     4.05525874
Ce    -1.85370467     3.31986936     7.20819703
Ce     3.86254305     4.47635356     0.87798423
Ce     1.93185732     5.58431738     4.04059036
Ce     1.93812528     3.34518476     7.17742964
Ce     7.74213807     4.46545905     0.90125422
Ce     5.81108643     5.61327099     4.00951501
Ce    -1.94645625     7.83004003     0.90010904
Ce    -3.85355012     8.94901546     4.05180162
Ce    -3.85575699     6.75896693     7.20533336
Ce     1.92815559     7.82745473     0.89060408
Ce    -0.01396584     8.94584016     4.07636734
Ce    -0.00508321     6.67915904     7.20687504
Ce     5.81127600     7.83258510     0.88371011
Ce     3.88124959     8.94414970     4.03696953
Ce     3.89268514     6.68693036     7.19555163
Sc     5.46104806     3.56755059     6.80222800
Co     7.04760709     2.60494602     8.61776058
O     11.61334069     0.00154917     0.10141687
O      1.92513838     1.11617281     3.22013798
O      0.01169349     2.24259005     6.34496302
O     -0.00785227     2.23805103     1.69392277
O     -5.79683189    10.05635944     4.84484089
O      1.82969315     1.19303904     8.00191850
O     -1.93899312    10.05733740     0.10496691
O      5.81695130     1.11435328     3.24959602
O      3.95062962     2.25701581     6.39502917
O      3.86763657     2.23577757     1.68132582
O     -1.93547596    10.04808335     4.82492757
O      6.19943503     1.01333498     8.39230783
O      7.73821774     0.00761509     0.10924988
O      9.67251995     1.11376327     3.23301849
O      7.50589471     2.33844643     6.66775800
O      7.74357843     2.23531483     1.71563532
O      7.77448887     0.06303853     4.89217166
O      9.71904098     1.08941672     7.93408303
O      9.67032270     3.35425987     0.10911246
O     -0.01850032     4.46320077     3.25213795
O     -2.00798861     5.52357055     6.41499706
O     -1.94403436     5.59119430     1.70564938
O      9.61206607     3.29076004     4.87988941
O      0.02695688     4.46007743     7.97392076
O      1.92738314     3.35244915     0.09928684
O      3.84704579     4.48551635     3.20623935
O      1.90104671     5.60018809     6.35035442
O      1.92862022     5.59252216     1.67404250
O      1.95053034     3.33935577     4.83791634
O      5.81155478     3.35101064     0.10766953
O      7.74299407     4.47410036     3.24232186
O      5.90643177     5.53484221     6.40385328
O      5.80528807     5.59217007     1.68114259
O      5.76126363     3.39160725     4.76652526
O      7.94490158     4.16706925     8.35472591
O     -3.87155109     6.71022987     0.10512724
O     -1.93545222     7.81882641     3.23621117
O     -3.87682004     8.91694915     6.42439938
O     -3.87509971     8.94378428     1.69355631
O     -3.86598406     6.72912469     4.84455077
O     -1.93744690     7.67316857     8.01913123
O     -0.01209783     6.71325780     0.10434852
O      1.93232943     7.83209036     3.26330055
O      0.06632179     8.92923359     6.43711828
O     -0.00628994     8.94736548     1.70514550
O     -0.04881993     6.70181450     4.86562955
O      1.99646716     7.75791008     8.00661412
O      3.86815347     6.71410280     0.09951587
O      5.80522136     7.83377809     3.22141902
O      3.91239040     8.89582066     6.37784827
O      3.86556896     8.94715423     1.69389986
O      3.89985922     6.68174708     4.85088967
O      5.84006425     7.79486367     7.99102697
O      3.86241707     4.50163607     7.81874048
O      6.42379038     2.95940707    10.08682212
