84
CIF: 1-NH3-NH2+H_is.cif | data_image0
Ce     5.80995148    10.03648377     8.79916563
Ce     1.93039156     1.08301045     5.56886672
Ce     0.00000000     2.23543938     2.47426506
Ce    -1.96180641    10.05384416     8.78659155
Ce     5.79608713     1.12133300     5.62318948
Ce     3.87189458     2.23543938     2.47426506
Ce     7.79752317     0.09662449     8.77244430
Ce     9.68792488     1.12724130     5.61120610
Ce     7.74390532     2.23543938     2.47426506
Ce     9.66740267     3.36366064     8.78402538
Ce     0.00093155     4.46885690     5.68702932
Ce    -1.93600537     5.58869904     2.47426506
Ce     1.87595011     3.13615925     8.67921017
Ce     3.84882829     4.48663116     5.64037402
Ce     1.93588921     5.58869904     2.47426506
Ce     5.78434869     3.35585100     8.77686555
Ce     7.74146434     4.48100087     5.61323423
Ce     5.80789995     5.58869904     2.47426506
Ce     7.78525818     6.61207629     8.82920625
Ce    -1.92633010     7.80878898     5.62341811
Ce    -3.87195266     8.94185811     2.47426506
Ce     1.96010311     7.83034177     5.61936130
Ce    -0.00005808     8.94185811     2.47426506
Ce     4.00366233     6.79459068     8.79655468
Ce     5.82197467     7.82245624     5.62239672
Ce     3.87195266     8.94185811     2.47426506
Mn     0.05171921     7.53123589     8.31904152
O      5.79754866    10.04287793     6.40633261
O      0.04933418     2.12608829     9.64189701
O      1.93594729     1.11771969     3.26466483
O     -0.00013873     2.23245329     4.81210760
O      0.00000000     0.00000000     1.68386529
O      1.91771766     1.06081176     7.91734783
O     -1.93956064    10.01561217     6.44210680
O      3.82454383     2.14993388     9.57924429
O      5.80795803     1.11771969     3.26466483
O      3.87576645     2.21542628     4.80528908
O      3.87189458     0.00000000     1.68386529
O      5.80665297     1.18227241     7.93170880
O      1.95116448    10.04809982     6.44211709
O      7.72044574     2.22655056     9.57735560
O      9.67985261     1.11771969     3.26466483
O      7.71971909     2.24077521     4.83209174
O      7.74390532     0.00000000     1.68386529
O      9.69935454     1.16485381     7.94355887
O     -1.92645275     3.37556372     6.40030461
O     -2.33910222     5.29194052     9.80889424
O      0.00000000     4.47087876     3.26466483
O     -1.90550995     5.60631357     4.82812890
O     -1.93594729     3.35315907     1.68386529
O      0.06912137     4.30906145     8.01780538
O      1.95488096     3.29368551     6.37658842
O      3.87201074     4.47087876     3.26466483
O      1.92097487     5.59628222     4.84314669
O      1.93594729     3.35315907     1.68386529
O      3.66009274     4.49216085     8.13248382
O      5.71215718     3.40595523     6.44812088
O      5.90656015     5.48800449     9.59354899
O      7.74390532     4.47087876     3.26466483
O      5.81406545     5.59639497     4.81427275
O      5.80795803     3.35315907     1.68386529
O      7.71699799     4.41156615     7.88517992
O     -3.82706322     6.71752723     6.44772809
O     -3.81696090     8.94064495     9.58321831
O     -1.93600537     7.82413842     3.26466483
O     -3.86332294     8.92821918     4.80150279
O     -3.87195266     6.70641873     1.68386529
O     -1.82059936     7.75098410     8.07611494
O      0.03110119     6.75393263     6.51850503
O      0.02872786     9.07140005     9.48451418
O      1.93600537     7.82413842     3.26466483
O      0.00862017     8.93814858     4.81962292
O     -0.00005808     6.70641873     1.68386529
O      1.89329679     7.80772785     8.07036717
O      3.89166246     6.72209881     6.40446937
O      3.90506434     9.10317038     9.61636837
O      5.80789995     7.82413842     3.26466483
O      3.87050550     8.94483783     4.80619736
O      3.87195266     6.70641873     1.68386529
O      5.87714874     7.83267077     7.98795646
N      0.12272767     6.39524370    10.21313557
H      0.79929886     5.66239060    10.43541364
H     -0.83802494     5.94983746    10.22788521
H      0.18097090     7.11511942    10.93898701
