84
CIF: 6-OH+2H-H2O_is.cif | data_image0
Ce     0.01481648     0.01606729     8.77702724
Ce     1.92443093     1.14266433     5.60997760
Ce     0.00000000     2.23543938     2.47426506
Ce     3.75772281     0.09736727     8.76707103
Ce     5.80608180     1.09594930     5.62453850
Ce     3.87189458     2.23543938     2.47426506
Ce     7.86393110     0.04810194     8.74181765
Ce     9.69394541     1.11683439     5.58409700
Ce     7.74390532     2.23543938     2.47426506
Ce    -1.90321237     3.30171686     8.76680572
Ce    -0.00643109     4.46295894     5.68767544
Ce    -1.93600537     5.58869904     2.47426506
Ce     1.87411178     3.39623191     8.84905656
Ce     3.85958129     4.46740760     5.63567966
Ce     1.93588921     5.58869904     2.47426506
Ce     5.80887705     3.33430753     8.78432290
Ce     7.75025611     4.46886946     5.64566022
Ce     5.80789995     5.58869904     2.47426506
Ce     7.74637395     6.69115595     8.88968959
Ce    -1.97804327     7.82942015     5.59955187
Ce    -3.87195266     8.94185811     2.47426506
Ce     1.98165312     7.82529124     5.58161080
Ce    -0.00005808     8.94185811     2.47426506
Ce     3.97525721     6.69005316     8.78377806
Ce     5.83007643     7.82083924     5.63281113
Ce     3.87195266     8.94185811     2.47426506
Mn     0.02659189     7.38766133     8.21022510
O     -5.79925540    10.05423786     6.40997030
O     -0.12812926     2.14024342     9.63672633
O      1.93594729     1.11771969     3.26466483
O     -0.00438000     2.23484064     4.80864738
O      0.00000000     0.00000000     1.68386529
O      1.91275580     1.13590300     7.95380415
O     -1.97282746    10.04933121     6.43598351
O      3.99249502     2.17684120     9.59262168
O      5.80795803     1.11771969     3.26466483
O      3.88330582     2.22869597     4.81965326
O      3.87189458     0.00000000     1.68386529
O      5.82777145     0.95190755     8.00258687
O      1.97051380    10.02276099     6.42742946
O      7.74867681     2.14326268     9.55962422
O      9.67985261     1.11771969     3.26466483
O      7.72989756     2.22171570     4.81737920
O      7.74390532     0.00000000     1.68386529
O      9.69521938     1.09691688     7.92317983
O      9.67847379     3.32628923     6.38990247
O     -2.26850591     5.23176902    10.13510804
O      0.00000000     4.47087876     3.26466483
O     -1.91842844     5.60192568     4.83733125
O     -1.93594729     3.35315907     1.68386529
O     -0.10776747     4.50060047     8.01554907
O      1.91609420     3.37391197     6.38376094
O      3.87201074     4.47087876     3.26466483
O      1.92570723     5.61664337     4.82884122
O      1.93594729     3.35315907     1.68386529
O      3.86890434     4.52570551     7.94203710
O      5.80304504     3.29989734     6.46973879
O      5.72236758     5.51250790     9.61482422
O      7.74390532     4.47087876     3.26466483
O      5.81040941     5.57256316     4.83842181
O      5.80795803     3.35315907     1.68386529
O      7.77653820     4.41592117     7.97952017
O     -3.84810284     6.72839057     6.41928538
O     -3.83666030     9.09668983     9.62321292
O     -1.93600537     7.82413842     3.26466483
O     -3.87244706     8.94639350     4.79959055
O     -3.87195266     6.70641873     1.68386529
O     -1.77951014     7.80532348     8.05317637
O      0.00931152     6.78787246     6.45457239
O      0.05378644     8.72832539     9.75168695
O      1.93600537     7.82413842     3.26466483
O     -0.00196585     8.94616789     4.81422531
O     -0.00005808     6.70641873     1.68386529
O      1.86189072     7.73374285     8.02818528
O      3.87920276     6.74703953     6.42832670
O      3.85212935     8.95667726     9.56914636
O      5.80789995     7.82413842     3.26466483
O      3.88431120     8.93985235     4.79298494
O      3.87195266     6.70641873     1.68386529
O      5.80007847     7.84992013     8.00447863
O      2.37662948     5.52176116    10.15042741
H      0.18492048     8.30147468    10.61709763
H     -1.56083309     5.51787996    10.73702396
H      2.47348288     5.53014472    11.11839261
