89
CIF: CH2COCH2→CH2+CH2CO.cif | data_image0
O      0.00260992     0.00383004     0.19994992
O      1.91879222     1.09450985     3.32933492
O      0.03389347     2.35577075     6.54286251
O      0.00261004     2.21286003     1.76197005
O     -0.00293024     0.05229766     4.99281499
O      1.87738638     1.16259670     8.04066431
O      3.82876002     0.00383004     0.19994992
O      5.74261757     1.08955621     3.33790975
O      3.75073773     2.40371227     6.64377735
O      3.82876002     2.21286003     1.76197005
O      3.83649014     0.07648547     5.01941790
O      5.72869152     0.96500516     8.17989863
O      7.65492998     0.00383004     0.19994992
O      9.55753402     1.09895361     3.33291272
O      7.68688213     2.19856265     6.54064595
O      7.65492998     2.21286003     1.76197005
O      1.90436111     9.93740922     4.97135922
O      9.59206373     1.08755915     8.14886285
O     -1.91046008     3.31737005     0.19994992
O     -0.00199189     4.42754393     3.32171627
O     -1.94593403     5.59753402     6.44660295
O     -1.91046995     5.52640997     1.76197005
O     -1.91195289     3.31992340     4.95216672
O      1.91569002     3.31737005     0.19994992
O      3.82928067     4.42572262     3.33682333
O      2.08619084     5.11542074     6.92063517
O      1.91568004     5.52640997     1.76197005
O      1.90183526     3.28649040     4.91139810
O      4.52865732     5.01655607     9.07929897
O      5.74185000     3.31737005     0.19994992
O      7.65484426     4.43563050     3.34540315
O      5.68834134     5.57057783     6.53798510
O      5.74184001     5.52640997     1.76197005
O      5.74576814     3.30403352     4.94018198
O      7.75728765     4.54547665     8.21216313
O     -3.82354999     6.63093003     0.19994992
O     -1.88476991     7.74172178     3.38815907
O     -3.81023999     8.84293448     6.52442805
O     -3.82354993     8.83994997     1.76197005
O      7.62062056     6.64853542     4.95493846
O     -1.91768064     7.75078135     8.19873967
O      0.00260998     6.63093003     0.19994992
O      1.90582868     7.73458715     3.32672309
O     -0.03122955     8.79982226     6.50127232
O      0.00261004     8.83994997     1.76197005
O      0.13469317     6.54970673     5.05956093
O      1.90744309     7.74239636     8.10301789
O      3.82876995     6.63093003     0.19994992
O      5.71904974     7.74822147     3.36349675
O      3.83485435     8.85575304     6.49973244
O      3.82877001     8.83994997     1.76197005
O      3.73576822     6.61952164     4.99677062
O      5.75307384     7.82970062     8.18876531
O     -0.35683083     4.59028980     8.29670947
O      2.08712543     3.48450638     9.56921421
Ce     1.91568997     1.10833996     0.98097002
Ce    -0.02127848     2.21628861     4.11616618
Ce    11.45571181     0.02172391     7.35444507
Ce     5.74185005     1.10833996     0.98097002
Ce     3.85172695     2.22202491     4.14502374
Ce    -1.88839854     9.92285351     7.35817975
Ce     9.56800004     1.10833996     0.98097002
Ce     7.64740590     2.22477862     4.16250295
Ce     1.90367109     9.93757519     7.33155685
Ce     0.00261004     4.42189001     0.98097002
Ce    -1.91328847     5.52515526     4.15785213
Ce    -1.93596749     3.38844823     7.37782715
Ce     3.82877001     4.42189001     0.98097002
Ce     1.92108164     5.49910791     4.13268390
Ce     7.65492998     4.42189001     0.98097002
Ce     5.73509637     5.52439761     4.18151537
Ce     5.82488799     3.31088031     7.43410701
Ce    -1.91046995     7.73543995     0.98097002
Ce    -3.82936994     8.85427437     4.16952719
Ce    -3.83402989     6.65535476     7.35338680
Ce     1.91569002     7.73543995     0.98097002
Ce     0.01548171     8.82937854     4.17294666
Ce    -0.04205981     6.58278140     7.42554937
Ce     5.74184001     7.73543995     0.98097002
Ce     3.81442463     8.84114020     4.14303748
Ce     3.84648225     6.72880788     7.35327644
Sn     1.86788701     3.08309713     7.09950949
C      1.21310490     5.47200621    10.80345391
C      1.83682819     4.48864312    10.18424979
C      4.21611124     5.18235421    10.31398437
H      0.11852723     5.45137720    10.75712489
H      1.72560129     6.27346872    11.32543224
H      4.35092349     4.36189770    11.03477403
H      4.01446025     6.19528754    10.69964196
