90
CIF: H2O.cif | data_image0
O      0.00261135     0.00382715     0.19995339
O      1.90292675     1.11576504     3.34469833
O      0.04604810     2.27708366     6.49786207
O      0.00261135     2.21285656     1.76196664
O     11.45581848     0.01975205     4.97975773
O      1.76662735     1.44028784     8.33215100
O      3.82876252     0.00382715     0.19995339
O      5.74962372     1.10308829     3.32638954
O      3.77431630     2.44211757     6.61057396
O      3.82876252     2.21285656     1.76196664
O      3.81577446     0.08461830     4.97785953
O      5.86949406     1.19953266     8.20298090
O      7.65492518     0.00382715     0.19995339
O      9.56298573     1.08635918     3.33315649
O      7.69211212     2.20248609     6.50798300
O      7.65492518     2.21285656     1.76196664
O      1.91984169     9.93524713     4.96200256
O      9.58188546     0.93787192     8.20131681
O     -1.91046424     3.31737126     0.19995339
O     -0.00102503     4.43733126     3.32336572
O     -1.76448254     5.52576930     6.62992256
O     -1.91046998     5.52641062     1.76196664
O     -1.91147650     3.32970629     4.91798770
O      0.01446824     3.22803450     9.42052668
O      1.91568694     3.31737126     0.19995339
O      3.84480420     4.41643886     3.31963829
O      1.64575894     5.03828115     7.29211984
O      1.91568120     5.52641062     1.76196664
O      1.91743434     3.35750886     4.93787022
O      4.35911541     4.42492442     8.79103363
O      5.74184959     3.31737126     0.19995339
O      7.64903249     4.45297184     3.35832936
O      5.73807798     5.49131099     6.53406281
O      5.74184385     5.52641062     1.76196664
O      5.75424204     3.28428670     4.96030086
O      7.61629899     4.49772742     8.23634286
O     -3.82354556     6.63092532     0.19995339
O     -1.89227869     7.73210498     3.39149611
O     -3.86307204     8.89493539     6.56834278
O     -3.82354556     8.83995473     1.76196664
O     -3.78055450     6.62930873     5.04301493
O     -1.91174468     7.68370458     8.26545034
O      0.00260561     6.63092532     0.19995339
O      1.91267618     7.74192593     3.31530157
O     -0.02741819     8.87772052     6.49951753
O      0.00260561     8.83995473     1.76196664
O      0.12249789     6.61479209     5.03535459
O      1.76920687     7.81913717     8.17382865
O      3.82876826     6.63092532     0.19995339
O      5.72773791     7.70950761     3.40440163
O      3.83743687     8.80079852     6.51932610
O      3.82876826     8.83995473     1.76196664
O      3.68084707     6.52977984     5.04558345
O      5.83709979     7.77412362     8.26040535
Ce     1.91568694     1.10834185     0.98097142
Ce    -0.03441238     2.20873294     4.12042442
Ce     5.68633566     9.87964531     7.35554777
Ce     5.74184959     1.10834185     0.98097142
Ce     3.85069474     2.21472532     4.13276234
Ce     3.82283120     0.08147483     7.48197036
Ce     9.56800076     1.10834185     0.98097142
Ce     7.66978342     2.22254691     4.14264052
Ce     7.66341305     0.01165457     7.33604249
Ce     0.00261135     4.42188597     0.98097142
Ce    -1.89865535     5.51790729     4.20118479
Ce     9.53880143     3.25684632     7.44956220
Ce     3.82877400     4.42188597     0.98097142
Ce     1.92022901     5.52766150     4.07020927
Ce     7.65492518     4.42188597     0.98097142
Ce     5.73558728     5.51622182     4.20611636
Ce     5.86858718     3.31730116     7.37408312
Ce    -1.91046998     7.73544003     0.98097142
Ce    -3.81809537     8.85863866     4.20458714
Ce    -3.82024603     6.64364303     7.41072529
Ce     1.91569268     7.73544003     0.98097142
Ce    -0.00074784     8.86344655     4.15676277
Ce    -0.03763177     6.81135497     7.34942775
Ce     5.74184385     7.73544003     0.98097142
Ce     3.81514839     8.81009808     4.18316622
Ce     3.81690324     6.60478243     7.53848538
Sn     1.87513141     3.05736301     7.03729538
C      3.42675912     6.84833750    10.90253876
C      3.22514428     5.61191914    10.49395088
C      4.04073025     4.42097396    10.16450625
H      2.62811050     7.59470103    10.93076921
H      4.42827806     7.18713479    11.21751891
H      0.53038423     3.89306297     9.91147673
H      0.65525384     2.45818133     9.24747952
H      3.51796543     3.48555650    10.45193298
H      4.96837021     4.46565265    10.78588711
