84
CIF: Mn-CeO2+CO2.cif | data_image0
O      0.55978923     0.45000431     0.59999690
O      2.46917520     1.56488167     3.74975610
O      1.13710858     3.01109185     7.12152698
O      0.55978923     2.65902057     2.16203261
O      0.55112476     0.56536182     5.45732787
O      2.47003595     0.92708110     8.87268022
O      4.38603242     0.45000431     0.59999690
O      6.32640920     1.54574916     3.73823630
O      4.11366513     2.58714526     6.92494176
O      4.38603242     2.65902057     2.16203261
O      4.39540437     0.43115217     5.35868929
O      6.26394117     1.59848325     8.52698331
O      8.21216082     0.45000431     0.59999690
O     10.13649476     1.56246547     3.75272196
O      8.19583099     2.65148360     6.93366988
O      8.21216082     2.65902057     2.16203261
O      8.20868733     0.44747324     5.39451908
O     10.23563874     1.62032857     8.46780810
O     -1.35327498     3.76352871     0.59999690
O      0.56562161     4.86282519     3.75061052
O     -1.42330038     5.99044226     6.84656919
O     -1.35333237     5.97264438     2.16203261
O     -1.26403250     3.70019379     5.45919838
O      2.47296821     3.76352871     0.59999690
O      4.40363978     4.87828177     3.71700999
O      2.26831711     5.78261823     6.92916325
O      2.47291082     5.97264438     2.16203261
O      2.59205851     3.83657919     5.30823808
O      4.12255397     4.72017827     8.23937663
O      6.29909662     3.76352871     0.59999690
O      8.21525404     4.82795358     3.77077305
O      6.23088286     5.92866079     6.92911488
O      6.29903923     5.97264438     2.16203261
O      6.25548618     3.70883322     5.40608712
O      8.13430987     4.84899039     8.54887047
O     -3.26639657     7.07715251     0.59999690
O     -1.37477517     8.17010931     3.74375706
O     -3.29797769     9.21037512     6.84236857
O     -3.26639657     9.28616878     2.16203261
O     -3.32604862     7.04071860     5.33520466
O     -1.44816593     8.13533941     8.56376010
O      0.55984662     7.07715251     0.59999690
O      2.48096499     8.21112475     3.73691254
O      0.54636729     9.28327057     6.97840068
O      0.55984662     9.28616878     2.16203261
O      0.55060406     7.10138805     5.35727956
O      2.51209858     8.15257335     8.49953266
O      4.38597502     7.07715251     0.59999690
O      6.26659020     8.20448982     3.77038290
O      4.38379336     9.28292466     6.92698538
O      4.38597502     9.28616878     2.16203261
O      4.31975066     7.06731280     5.40439030
O      6.24055344     8.11587338     8.55279578
O      0.00567148     5.19065622     8.89201813
O      0.66958336     7.36812882    10.89269576
O     -0.69810804     5.82960586    12.03199922
Ce     2.47285343     1.55451244     1.38101475
Ce     0.59270567     2.68053831     4.60692517
Ce     0.64435204     0.42204824     7.85687293
Ce     6.29909662     1.55451244     1.38101475
Ce     4.42027175     2.60714866     4.51929491
Ce     4.29679574     0.38450895     7.81607053
Ce    10.12522502     1.55451244     1.38101475
Ce     8.24142566     2.64949490     4.58087489
Ce     8.21807431     0.45394124     7.72180927
Ce     0.55978923     4.86803684     1.38101475
Ce    -1.36145020     5.96872006     4.55986989
Ce    -1.32761622     3.85361304     7.85570731
Ce     4.38603242     4.86803684     1.38101475
Ce     2.44367196     6.03268105     4.51925811
Ce     8.21216082     4.86803684     1.38101475
Ce     6.27480622     5.95686310     4.55699156
Ce     6.26349877     3.69939304     7.72334412
Ce    -1.35333237     8.18166064     1.38101475
Ce    -3.27671258     9.28139237     4.55723117
Ce    -3.33038471     7.03801223     7.73564774
Ce     2.47291082     8.18166064     1.38101475
Ce     0.54052912     9.27575146     4.58104960
Ce     0.46318336     7.05190119     7.83186986
Ce     6.29903923     8.18166064     1.38101475
Ce     4.39417985     9.31875990     4.57972185
Ce     4.31969497     7.08048259     7.71823501
Mn     2.78465671     3.95105995     7.15190337
C     -0.01842039     6.58413040    11.44596739
