85
CIF: 1-NH3-NH2+H_ts.cif | data_image0
Ce     0.00515513     0.01405290     8.94477272
Ce     1.92159999     1.10344421     5.60264490
Ce     0.00000000     2.23543938     2.47426506
Ce    -2.00917959    10.04224896     8.73253300
Ce     5.80600144     1.11989846     5.62657935
Ce     3.87189458     2.23543938     2.47426506
Ce     7.81155170     0.03879617     8.75996343
Ce     9.68569623     1.10618626     5.60236328
Ce     7.74390532     2.23543938     2.47426506
Ce    -1.87570954     3.31038796     8.71790282
Ce     0.00413772     4.43789898     5.61377552
Ce    -1.93600537     5.58869904     2.47426506
Ce     1.87282800     3.26061861     8.72852474
Ce     3.87481836     4.46316440     5.61379904
Ce     1.93588921     5.58869904     2.47426506
Ce     5.80853320     3.33249083     8.82560900
Ce     7.73939936     4.46920163     5.62988216
Ce     5.80789995     5.58869904     2.47426506
Ce    -3.88063049     6.77139361     8.72638728
Ce    -1.95892597     7.84710872     5.61577737
Ce    -3.87195266     8.94185811     2.47426506
Ce     1.97734325     7.84529906     5.66255756
Ce    -0.00005808     8.94185811     2.47426506
Ce     3.92696217     6.66307332     8.78627710
Ce     5.79536088     7.83289372     5.61935249
Ce     3.87195266     8.94185811     2.47426506
V     -0.09636436     6.76233912     8.69714415
O      5.80705452    10.04695048     6.37304166
O      0.01569156     2.35841347     9.70085809
O      1.93594729     1.11771969     3.26466483
O      0.00251830     2.24969031     4.80696810
O      0.00000000     0.00000000     1.68386529
O      1.94273796     1.12485973     7.97313183
O      3.87623207     0.06929881     6.37906056
O      3.85797332     2.21144408     9.57115414
O      5.80795803     1.11771969     3.26466483
O      3.90368894     2.25074075     4.78921003
O      3.87189458     0.00000000     1.68386529
O      5.80242263     1.01486515     8.07464681
O      7.71781238     0.07608884     6.38760214
O      7.73522977     2.24585139     9.56152707
O      9.67985261     1.11771969     3.26466483
O      7.70553854     2.25581448     4.79254407
O      7.74390532     0.00000000     1.68386529
O      9.66626865     1.12968248     7.98054623
O      9.61461611     3.31752287     6.36004770
O     -1.49708886     5.88503713     9.31420700
O      0.00000000     4.47087876     3.26466483
O     -1.88496793     5.62467649     4.86053958
O      9.67985261     3.35315907     1.68386529
O     -0.00617777     4.11180109     7.79690046
O      2.00859915     3.32057677     6.37581277
O      1.30100391     5.93990769     9.24901814
O      3.87201074     4.47087876     3.26466483
O      1.87719060     5.62078317     4.85454077
O      1.93594729     3.35315907     1.68386529
O      3.74660733     4.50547960     8.09180824
O      5.80004950     3.35866447     6.52914606
O      5.88853117     5.51002984     9.53733663
O      7.74390532     4.47087876     3.26466483
O      5.81460603     5.54591902     4.79136848
O      5.80795803     3.35315907     1.68386529
O      7.88252711     4.52057700     8.04039424
O      7.66698841     6.67671482     6.40086809
O     -3.76357423     8.88510455     9.68146334
O     -1.93600537     7.82413842     3.26466483
O     -3.85929467     8.92921867     4.80858374
O      7.74384724     6.70641873     1.68386529
O     -2.19341934     7.97023463     7.81511443
O      0.03347061     6.74754094     6.83111456
O     -0.00262698     8.41158836     9.29661964
O      1.93600537     7.82413842     3.26466483
O      0.00426101     8.88145918     4.85358300
O     -0.00005808     6.70641873     1.68386529
O      2.42647475     8.09747755     7.87925921
O      3.92754645     6.62529189     6.34138509
O      3.74506205     9.19244915    10.04284950
O      5.80789995     7.82413842     3.26466483
O      3.85053817     8.93016562     4.81922930
O      3.87195266     6.70641873     1.68386529
O      5.77407832     7.80650416     8.04334530
N      3.49510545     6.93906464    11.13661934
H      2.54171148     6.73984297    11.45694067
H      3.62429458     8.29755595    10.73924474
H      4.15433582     6.60770828    11.84527507
