87
CIF: 4-NHNO+2H-N2+OH+2H_is.cif | data_image0
Ce     0.05655211     0.06474309     8.76870725
Ce     1.93271237     1.12557929     5.58643629
Ce     0.00000000     2.23543938     2.47426506
Ce     3.82918915     0.03096660     8.74957264
Ce     5.82071335     1.10111853     5.62924005
Ce     3.87189458     2.23543938     2.47426506
Ce     1.95369276    10.04265701     8.83969861
Ce     9.68018944     1.11109009     5.62532195
Ce     7.74390532     2.23543938     2.47426506
Ce    -1.89549836     3.36795597     8.73080086
Ce     0.00979008     4.48054547     5.66749070
Ce    -1.93600537     5.58869904     2.47426506
Ce     1.92537075     3.30354373     8.76896254
Ce     3.87613069     4.46771469     5.62092817
Ce     1.93588921     5.58869904     2.47426506
Ce     5.85071230     3.31392965     8.77480135
Ce     7.74193111     4.47610953     5.61333804
Ce     5.80789995     5.58869904     2.47426506
Ce     7.65989700     6.72252168     8.74433186
Ce    -1.95402354     7.85055647     5.54916954
Ce    -3.87195266     8.94185811     2.47426506
Ce     1.97357391     7.82577805     5.71350650
Ce    -0.00005808     8.94185811     2.47426506
Ce     3.90534577     6.60093947     8.86475501
Ce     5.78247522     7.81652937     5.61660026
Ce     3.87195266     8.94185811     2.47426506
Ti    -0.59272104     6.92012039     8.52667835
O     -5.78369261    10.04273914     6.41180977
O      0.04314108     2.25331690     9.55901452
O      1.93594729     1.11771969     3.26466483
O     -0.00036668     2.24493275     4.81899771
O      0.00000000     0.00000000     1.68386529
O      1.95195220     1.11756056     7.93721342
O      3.86883745     0.01036393     6.40894166
O      3.84567114     2.17686302     9.56870543
O      5.80795803     1.11771969     3.26466483
O      3.88218175     2.23533917     4.80862762
O      3.87189458     0.00000000     1.68386529
O      5.76009183     1.07624891     8.03263093
O      7.72963257     0.00595293     6.40362133
O      7.77675656     2.40461053     9.55230660
O      9.67985261     1.11771969     3.26466483
O      7.74574078     2.24438331     4.81685005
O      7.74390532     0.00000000     1.68386529
O      9.74084299     1.13704106     7.95373548
O     -1.92252914     3.35978853     6.42287627
O     -1.83858988     5.83755613     9.42779276
O      0.00000000     4.47087876     3.26466483
O     -1.91685658     5.61533802     4.83750726
O     -1.93594729     3.35315907     1.68386529
O      0.02213872     4.49710343     7.98868071
O      1.93946321     3.34540630     6.41471587
O      2.10645311     5.29813147     9.92859069
O      3.87201074     4.47087876     3.26466483
O      1.88736735     5.61466642     4.86469830
O      1.93594729     3.35315907     1.68386529
O      3.84744949     4.46552129     7.99658619
O      5.82113311     3.33696630     6.45616788
O      5.90839779     5.49662573     9.56066040
O      7.74390532     4.47087876     3.26466483
O      5.82282903     5.55716260     4.79039727
O      5.80795803     3.35315907     1.68386529
O      7.80655250     4.52384063     7.93878553
O      7.66760955     6.72706814     6.41221568
O     -3.86709820     8.97937815     9.54532142
O     -1.93600537     7.82413842     3.26466483
O     -3.86861272     8.94583733     4.78833045
O     -3.87195266     6.70641873     1.68386529
O     -2.09185304     7.84728040     7.86240594
O     -0.06368593     6.80554279     6.63708576
O     -0.16860309     8.47938771     9.37851183
O      1.93600537     7.82413842     3.26466483
O     -0.00354931     8.91609197     4.81967747
O     -0.00005808     6.70641873     1.68386529
O      2.26173259     7.81331530     8.01692377
O      3.93419472     6.64361239     6.35636117
O      4.03673123     9.37047901     9.99532235
O      5.80789995     7.82413842     3.26466483
O      3.86727697     8.93952671     4.83192495
O      3.87195266     6.70641873     1.68386529
O      5.72322084     7.84742078     8.06657148
O      3.90599892     7.07958663    11.12968003
N      4.98216666     5.62956504    12.46728090
N      4.03112450     6.41559595    12.36160280
H      4.03679972     8.72990770    10.75902957
H      5.53107529     5.59560380    11.56906979
H      1.97050053     5.59527776    10.84616546
