85
CIF: 6-OH+2H-H2O_fs.cif | data_image0
Ce    11.61290443     0.00239780     8.77722933
Ce     1.93068278     1.12590289     5.59876137
Ce     0.00000000     2.23543938     2.47426506
Ce     3.81738743     0.04595882     8.75417172
Ce     5.81692620     1.10600263     5.64345650
Ce     3.87189458     2.23543938     2.47426506
Ce     1.97225335    10.00399749     8.83536053
Ce     9.67912274     1.10421974     5.62569034
Ce     7.74390532     2.23543938     2.47426506
Ce    -1.88123613     3.34557581     8.73964707
Ce     0.00815302     4.47127809     5.66782717
Ce    -1.93600537     5.58869904     2.47426506
Ce     1.92096147     3.29975834     8.77763892
Ce     3.87705605     4.46719215     5.62971337
Ce     1.93588921     5.58869904     2.47426506
Ce     5.85214837     3.34193377     8.78886432
Ce     7.74824059     4.47436518     5.61705924
Ce     5.80789995     5.58869904     2.47426506
Ce     7.68282946     6.72630211     8.73414255
Ce    -1.95847011     7.84180873     5.54578164
Ce    -3.87195266     8.94185811     2.47426506
Ce     1.94625925     7.81561024     5.69575727
Ce    -0.00005808     8.94185811     2.47426506
Ce     3.89378535     6.69120906     8.79284368
Ce     5.79309295     7.81766292     5.59999833
Ce     3.87195266     8.94185811     2.47426506
Ti    -0.55422325     6.98800796     8.52327841
O      5.81245040    10.04362871     6.41084589
O      0.01578879     2.23273783     9.60125040
O      1.93594729     1.11771969     3.26466483
O     -0.00357585     2.24424805     4.82305943
O      0.00000000     0.00000000     1.68386529
O      1.92626352     1.10691203     7.95760788
O      3.86514836     0.02591946     6.40973443
O      3.83669884     2.20004161     9.58225967
O      5.80795803     1.11771969     3.26466483
O      3.88925132     2.23984040     4.81175727
O      3.87189458     0.00000000     1.68386529
O      5.76057778     1.09464154     8.04278510
O      1.92935551    10.03814605     6.42892618
O      7.77619650     2.39777932     9.57923401
O      9.67985261     1.11771969     3.26466483
O      7.74498347     2.23318656     4.82520055
O      7.74390532     0.00000000     1.68386529
O      9.72548696     1.15103068     7.96458559
O     -1.92897559     3.36412243     6.42959848
O     -1.76187013     5.87201355     9.40426741
O      0.00000000     4.47087876     3.26466483
O     -1.91427203     5.59978827     4.81975447
O     -1.93594729     3.35315907     1.68386529
O      0.06067537     4.43266801     7.98820886
O      1.95640739     3.33517156     6.41441331
O      2.23202520     5.31526800     9.97695039
O      3.87201074     4.47087876     3.26466483
O      1.88832151     5.60901124     4.86473291
O      1.93594729     3.35315907     1.68386529
O      3.86434256     4.48592706     7.98285466
O      5.83097783     3.34271071     6.46503943
O      5.88574759     5.57349833     9.60751461
O      7.74390532     4.47087876     3.26466483
O      5.81295079     5.56099960     4.80051040
O      5.80795803     3.35315907     1.68386529
O      7.79930626     4.52732142     7.97194220
O      7.71354479     6.70602512     6.38375560
O     -3.88428777     8.94156444     9.56807192
O     -1.93600537     7.82413842     3.26466483
O     -3.87216215     8.94983767     4.79053024
O     -3.87195266     6.70641873     1.68386529
O     -2.07515407     7.88619670     7.85852922
O     -0.10619093     6.77522602     6.61068603
O     -0.20384005     8.55394130     9.41966954
O      1.93600537     7.82413842     3.26466483
O     -0.00372673     8.92083655     4.82361396
O     -0.00005808     6.70641873     1.68386529
O      2.06358168     7.69020147     8.02370401
O      3.90599505     6.68231485     6.37865784
O      4.05168134     8.97270280     9.68681124
O      5.80789995     7.82413842     3.26466483
O      3.86086730     8.93910779     4.82226486
O      3.87195266     6.70641873     1.68386529
O      5.79821055     7.79834166     7.95981038
O      4.19164126     6.99477930    11.42743707
H      4.30491383     7.94151737    11.12282425
H      5.07051286     6.56230604    11.36383618
H      2.12680327     5.56109919    10.91260463
