85
CIF: Y-Sc-CeO2-O-CO.cif | data_image0
Ce     1.93038582     1.11050507     0.88387043
Ce     0.01522196     2.21302312     4.04373839
Ce    -5.70526773     9.99139740     7.28468456
Ce     5.81181033     1.12175166     0.90127712
Ce     3.88098815     2.23441599     4.04648666
Ce     3.87541724     0.01589382     7.21768851
Ce     9.66901012     1.12377363     0.90450652
Ce     7.73998977     2.23878610     4.05704012
Ce     1.91250492     9.99873185     7.09654094
Ce    -0.00709724     4.47602159     0.89067279
Ce    -1.95565498     5.60343092     4.05170140
Ce    -1.87137305     3.36286973     7.11246568
Ce     3.86254305     4.47635356     0.87798423
Ce     1.92625175     5.59558508     4.05101247
Ce     1.98570960     3.35396305     7.22305683
Ce     7.74213807     4.46545905     0.90125422
Ce     5.80973324     5.60381749     4.03003017
Ce    -1.94645625     7.83004003     0.90010904
Ce    -3.87733229     8.93813280     4.06321369
Ce     7.68659843     6.69488232     7.28683278
Ce     1.92815559     7.82745473     0.89060408
Ce    -0.02084991     8.94214619     4.02481192
Ce    -0.02119745     6.71413272     7.23606929
Ce     5.81127600     7.83258510     0.88371011
Ce     3.88511361     8.94941834     4.04021514
Ce     3.86312017     6.71372534     7.21431477
Sc     5.56524877     3.59926224     6.92675928
Y      7.34045201     2.36523080     9.40465211
O     11.61334069     0.00154917     0.10141687
O      1.94034604     1.12929493     3.22751479
O     -0.08258289     2.20542382     6.48418949
O     -0.00785227     2.23805103     1.69392277
O     -5.77558770    10.04277289     4.82799156
O      2.10631266     1.20829140     8.07995177
O     -1.93899312    10.05733740     0.10496691
O      5.79178376     1.12388455     3.24081804
O      4.00289297     2.23150617     6.42094135
O      3.86763657     2.23577757     1.68132582
O      3.85198616     0.00722409     4.85645364
O      6.01338466     1.16662682     8.35573921
O      7.73821774     0.00761509     0.10924988
O      9.69162207     1.11920334     3.25080255
O      7.86186715     2.14921837     6.30659934
O      7.74357843     2.23531483     1.71563532
O      1.91722249    10.00871638     4.77956499
O      9.07064292     1.51504146     8.61970946
O      9.67032270     3.35425987     0.10911246
O      0.02480326     4.48357887     3.24524838
O     -1.98767603     5.51100152     6.47965634
O     -1.94403436     5.59119430     1.70564938
O     -1.89328160     3.37859654     4.81236201
O      0.00397480     4.46461265     8.03325032
O      1.92738314     3.35244915     0.09928684
O      3.84343392     4.48493959     3.24221351
O      1.92084660     5.58283319     6.40965698
O      1.92862022     5.59252216     1.67404250
O      1.93456791     3.31414569     4.90910284
O      5.81155478     3.35101064     0.10766953
O      7.74357107     4.47569605     3.23986541
O      5.75936245     5.54271212     6.35422154
O      5.80528807     5.59217007     1.68114259
O      5.80034409     3.37851663     4.84112785
O      7.37235393     4.09274223     8.25983414
O     -3.87155109     6.71022987     0.10512724
O     -1.93604871     7.82815601     3.23612058
O     -3.80766584     8.94857026     6.47044115
O     -3.87509971     8.94378428     1.69355631
O     -3.87483791     6.71741790     4.82740439
O     -1.77427700     7.88131464     8.08421639
O     -0.01209783     6.71325780     0.10434852
O      1.91726363     7.79406219     3.22711411
O     -0.01300943     9.04172422     6.40284031
O     -0.00628994     8.94736548     1.70514550
O     -0.04047086     6.72364148     4.90287001
O      1.89254483     7.83319152     7.99335237
O      3.86815347     6.71410280     0.09951587
O      5.79760120     7.82453014     3.22361151
O      3.83562955     9.06232695     6.45486554
O      3.86556896     8.94715423     1.69389986
O      3.85691066     6.75825917     4.87311883
O      5.63650223     7.71148538     8.11618899
O      3.89134431     4.45090557     7.94444358
O      7.16289513     2.56036048    11.99555497
O      6.82855332     2.76423230    14.31188334
C      6.99326109     2.66342780    13.15998954
