84
CIF: Fe-Cu-CeO2-Ov-CO2.cif | data_image0
Ce     1.93038582     1.11050507     0.88387043
Ce     0.00649522     2.23082474     4.03950246
Ce    -5.75576456    10.03013764     7.20803525
Ce     5.81181033     1.12175166     0.90127712
Ce     3.84787730     2.21795146     4.01219706
Ce    -1.95383007    10.02592582     7.18666346
Ce     9.66901012     1.12377363     0.90450652
Ce     7.74443257     2.23559757     4.08320539
Ce     2.01475741    10.00347792     7.23716842
Ce    -0.00709724     4.47602159     0.89067279
Ce    -1.93926670     5.57870413     4.06149940
Ce    -1.84736704     3.31452953     7.23812825
Ce     3.86254305     4.47635356     0.87798423
Ce     1.95391157     5.57864572     4.08760170
Ce     1.87670457     3.28180705     7.25581453
Ce     7.74213807     4.46545905     0.90125422
Ce     5.81090055     5.61881032     4.01195859
Ce    -1.94645625     7.83004003     0.90010904
Ce    -3.86519951     8.93843750     4.02316980
Ce    -3.85219607     6.73999293     7.18750556
Ce     1.92815559     7.82745473     0.89060408
Ce     0.00711770     8.94972151     4.06119893
Ce     0.01569616     6.69778429     7.23902395
Ce     5.81127600     7.83258510     0.88371011
Ce     3.87971851     8.93887591     4.03975559
Ce     3.90395363     6.79432843     7.25506077
Cu     5.10906541     3.75664286     6.49283157
Fe     6.77042891     2.79782410     8.16385996
O     11.61334069     0.00154917     0.10141687
O      1.93039370     1.10696728     3.20992454
O     -0.00106644     2.18610766     6.40705683
O     -0.00785227     2.23805103     1.69392277
O     -5.78260444    10.04624589     4.84180546
O      1.99093964     0.94634609     8.01423114
O     -1.93899312    10.05733740     0.10496691
O      5.81670031     1.11060013     3.24652404
O      3.97884964     2.21269083     6.41599915
O      3.86763657     2.23577757     1.68132582
O      3.86109921     0.00443582     4.83857295
O      6.11983264     1.13932810     8.36596824
O      7.73821774     0.00761509     0.10924988
O      9.67730221     1.11950480     3.24621258
O      7.73543376     2.24088166     6.53926668
O      7.74357843     2.23531483     1.71563532
O      7.76436403     0.01624050     4.87666242
O      9.73960831     1.08390221     8.03723867
O      9.67032270     3.35425987     0.10911246
O     -0.00707450     4.48364849     3.25507013
O     -2.02370625     5.55410912     6.43714237
O     -1.94403436     5.59119430     1.70564938
O      9.67615882     3.32796777     4.87704594
O     -0.09506273     4.52019169     8.04048039
O      1.92738314     3.35244915     0.09928684
O      3.85669899     4.48007129     3.21909624
O      1.98805661     5.55952712     6.46415193
O      1.92862022     5.59252216     1.67404250
O      1.94053383     3.32310189     4.81746430
O      4.29835978     4.22393979     8.33886191
O      5.81155478     3.35101064     0.10766953
O      7.75453061     4.46709703     3.24634012
O      5.87875687     5.50876571     6.41659889
O      5.80528807     5.59217007     1.68114259
O      5.78945228     3.36447476     4.75025724
O      7.88046964     4.19078520     8.36611770
O     -3.87155109     6.71022987     0.10512724
O     -1.91983785     7.81469510     3.24868946
O     -3.81364804     8.90869103     6.35440538
O     -3.87509971     8.94378428     1.69355631
O      7.73446201     6.71359923     4.83905665
O     -1.92590602     7.81907629     7.98161521
O     -0.01209783     6.71325780     0.10434852
O      1.92116467     7.82414596     3.25480718
O     -0.01335533     9.03568767     6.43634079
O     -0.00628994     8.94736548     1.70514550
O     -0.00244328     6.70770825     4.92559479
O      1.84795867     7.88370538     8.03899450
O      3.86815347     6.71410280     0.09951587
O      5.81502575     7.83489485     3.21015451
O      3.91673367     8.96846538     6.40645114
O      3.86556896     8.94715423     1.69389986
O      3.89993486     6.71859879     4.81748397
O      5.98438476     7.86376301     8.01554968
O      5.26783787     3.66558051    10.33057090
C      5.21925968     3.69288771     9.12090600
