84
CIF: Fe-Cu-CeO2-CO.cif | data_image0
Ce     1.93038582     1.11050507     0.88387043
Ce     0.00708213     2.22941705     4.03212869
Ce    -5.76271898    10.03296428     7.21025399
Ce     5.81181033     1.12175166     0.90127712
Ce     3.88037467     2.24523667     4.03282268
Ce     3.85855857     0.01120154     7.19728230
Ce     9.66901012     1.12377363     0.90450652
Ce     7.71847646     2.24952484     4.08432074
Ce     2.03223962     9.98313206     7.20531849
Ce    -0.00709724     4.47602159     0.89067279
Ce    -1.94929150     5.58745390     4.05617706
Ce    -1.82253976     3.30666031     7.20548670
Ce     3.86254305     4.47635356     0.87798423
Ce     1.92987179     5.59174604     4.03325943
Ce     1.92880987     3.37540320     7.20273019
Ce     7.74213807     4.46545905     0.90125422
Ce     5.80325525     5.57599269     4.03282646
Ce    -1.94645625     7.83004003     0.90010904
Ce    -3.87621173     8.94398266     4.03894972
Ce     7.72676980     6.71236460     7.19706594
Ce     1.92815559     7.82745473     0.89060408
Ce    -0.00592117     8.95312036     4.05609266
Ce    -0.01944997     6.71669329     7.19195532
Ce     5.81127600     7.83258510     0.88371011
Ce     3.88038406     8.93793266     4.03224350
Ce     3.84843333     6.70047154     7.20263463
Cu     5.00943746     3.81379540     6.67940771
Fe     6.83228808     2.76084211     8.07733426
O     11.61334069     0.00154917     0.10141687
O      1.93169477     1.11544288     3.22559895
O      0.04316195     2.22042693     6.38835479
O     -0.00785227     2.23805103     1.69392277
O     -5.79511349    10.05192183     4.85290910
O      1.96914514     1.08168337     7.99157362
O     -1.93899312    10.05733740     0.10496691
O      5.80885878     1.09723617     3.24650756
O      3.92036315     2.23386657     6.45961046
O      3.86763657     2.23577757     1.68132582
O      3.86152062     0.01543671     4.87217483
O      6.08164601     1.10134247     8.19704174
O      7.73821774     0.00761509     0.10924988
O      9.68070517     1.11677519     3.24616056
O      7.79516645     2.20539423     6.51914890
O      7.74357843     2.23531483     1.71563532
O      7.76036423     0.00230162     4.86917682
O      9.79437259     1.05068325     8.00809267
O      9.67032270     3.35425987     0.10911246
O     -0.00403691     4.47622295     3.24341495
O     -1.97682395     5.56504356     6.44120487
O     -1.94403436     5.59119430     1.70564938
O      9.68556115     3.33694378     4.86917760
O      0.01651713     4.46965821     7.99257692
O      1.92738314     3.35244915     0.09928684
O      3.84192577     4.48793635     3.20571164
O      1.86409376     5.62956000     6.33224949
O      1.92862022     5.59252216     1.67404250
O      1.95610482     3.34718325     4.85355789
O      3.62175095     4.61478656     8.02011380
O      5.81155478     3.35101064     0.10766953
O      7.76159994     4.47961605     3.24631178
O      5.83336272     5.54669849     6.45971919
O      5.80528807     5.59217007     1.68114259
O      5.79064085     3.36268208     4.72194818
O      7.89379600     4.23997979     8.19887779
O     -3.87155109     6.71022987     0.10512724
O     -1.95282069     7.83374447     3.24491364
O     -3.84310767     8.92484961     6.40058238
O     -3.87509971     8.94378428     1.69355631
O      7.72493246     6.70738776     4.87191175
O     -1.94576921     7.82935844     7.98834972
O     -0.01209783     6.71325780     0.10434852
O      1.92884502     7.82421436     3.24361991
O     -0.00036321     8.98767098     6.44109103
O     -0.00628994     8.94736548     1.70514550
O     -0.05306477     6.73617879     4.86236957
O      1.94464050     7.80914541     7.99266324
O      3.86815347     6.71410280     0.09951587
O      5.80758055     7.82859902     3.22538356
O      3.90602171     8.91096734     6.38820378
O      3.86556896     8.94715423     1.69389986
O      3.88692987     6.69118277     4.85360001
O      5.85524723     7.81307235     7.99162072
O      5.43985188     3.54767571    10.60263160
C      5.95109337     3.26200688     9.60748981
