80
CIF: Ag-CeO2-Ov.cif | data_image0
O      0.55978923     0.45000431     0.59999690
O      2.45784880     1.50742793     3.73473376
O      0.55602309     2.85850312     7.09281703
O      0.55978923     2.65902057     2.16203261
O      0.55579424     0.52473092     5.44869673
O      2.46998398     1.49563183     8.56398839
O      4.38603242     0.45000431     0.59999690
O      6.30574259     1.55066588     3.73552793
O      4.50951022     2.58870253     6.84331936
O      4.38603242     2.65902057     2.16203261
O      4.37268676     0.41132277     5.34898118
O      6.31491645     1.54580953     8.59836754
O      8.21216082     0.45000431     0.59999690
O     10.13369164     1.54653960     3.74386834
O      8.17636123     2.62884210     6.90049010
O      8.21216082     2.65902057     2.16203261
O      8.22682029     0.44163837     5.37189171
O     10.08305364     1.55594531     8.57698847
O     -1.35327498     3.76352871     0.59999690
O      0.51812806     4.89276077     3.74495063
O     -1.15776031     5.86088299     7.12456654
O     -1.35333237     5.97264438     2.16203261
O     -1.38747257     3.74841758     5.37733813
O      2.47296821     3.76352871     0.59999690
O      4.42008856     4.90578778     3.73485007
O      2.29994722     5.87938082     7.09437993
O      2.47291082     5.97264438     2.16203261
O      2.47393121     3.76359711     5.16434619
O      4.43643961     4.90173345     8.56432061
O      6.29909662     3.76352871     0.59999690
O      8.22370825     4.88194166     3.73354411
O      6.30296477     5.99620591     6.93421486
O      6.29903923     5.97264438     2.16203261
O      6.32568006     3.79474838     5.34920600
O      8.19485307     4.84536310     8.54336738
O     -3.26639657     7.07715251     0.59999690
O     -1.35859874     8.16508414     3.73446176
O     -3.28375978     9.27116154     6.93393837
O     -3.26639657     9.28616878     2.16203261
O     -3.18331082     7.02923163     5.44799177
O     -1.34108683     8.20886713     8.54569806
O      0.55984662     7.07715251     0.59999690
O      2.48352648     8.17868202     3.74393174
O      0.56814093     9.33200684     6.90190708
O      0.55984662     9.28616878     2.16203261
O      0.55635680     7.11480383     5.37951273
O      2.45128608     8.22362798     8.57770242
O      4.38597502     7.07715251     0.59999690
O      6.29882340     8.18134191     3.80116330
O      4.40614683     9.27699174     6.96164521
O      4.38597502     9.28616878     2.16203261
O      4.31822515     7.04486041     5.44907963
O      6.33282584     8.16233781     8.59397357
Ce     2.47285343     1.55451244     1.38101475
Ce     0.59075805     2.68090078     4.57515048
Ce     0.59470940     0.47138667     7.78131475
Ce     6.29909662     1.55451244     1.38101475
Ce     4.37149977     2.66793766     4.55914847
Ce     4.36769638     0.51306683     7.73559593
Ce    10.12522502     1.55451244     1.38101475
Ce     8.20392842     2.65195062     4.51689890
Ce     8.20985546     0.45267224     7.75940784
Ce     0.55978923     4.86803684     1.38101475
Ce    -1.34134705     5.96597427     4.55516277
Ce    -1.49029551     3.66298725     7.68282381
Ce     4.38603242     4.86803684     1.38101475
Ce     2.46908900     5.93602101     4.57538264
Ce     8.21216082     4.86803684     1.38101475
Ce     6.30163708     5.96520394     4.56971778
Ce     6.23544985     3.74924642     7.73641022
Ce    -1.35333237     8.18166064     1.38101475
Ce    -3.25877677     9.28794737     4.56968470
Ce    -3.26877856     7.07878671     7.78188054
Ce     2.47291082     8.18166064     1.38101475
Ce     0.56246808     9.29650905     4.51775873
Ce     0.57867826     7.24821329     7.68539223
Ce     6.29903923     8.18166064     1.38101475
Ce     4.37952514     9.29054563     4.58427142
Ce     4.38562418     7.03778501     7.78067811
Ag     2.47582470     3.76221208     7.86442674
