84
CIF: Ag-CeO2+CO2.cif | data_image0
O      0.55978923     0.45000431     0.59999690
O      2.46790882     1.48914939     3.72557333
O      0.72848051     2.85121993     7.04219063
O      0.55978923     2.65902057     2.16203261
O      0.53626889     0.51895585     5.43554219
O      2.55602217     1.70661665     8.55134568
O      4.38603242     0.45000431     0.59999690
O      6.31300018     1.54211399     3.74485610
O      4.41160507     2.63558923     6.88058957
O      4.38603242     2.65902057     2.16203261
O      4.39042459     0.43912044     5.38838086
O      6.30249292     1.54186878     8.55930636
O      8.21216082     0.45000431     0.59999690
O     10.11769940     1.54761805     3.74484835
O      8.20186500     2.65710601     6.95993737
O      8.21216082     2.65902057     2.16203261
O      8.20961749     0.44806136     5.39828844
O     10.16913339     1.53893514     8.48849500
O     -1.35327498     3.76352871     0.59999690
O      0.50270460     4.89551918     3.73408174
O     -1.41091793     5.99235772     6.90391535
O     -1.35333237     5.97264438     2.16203261
O     -1.32968563     3.72850369     5.42692213
O      2.47296821     3.76352871     0.59999690
O      4.43793184     4.89601084     3.72399387
O      2.38760085     5.71773630     7.03790573
O      2.47291082     5.97264438     2.16203261
O      2.49209661     3.74692185     5.08964703
O      4.28724757     4.70565254     8.55014410
O      6.29909662     3.76352871     0.59999690
O      8.21519113     4.87184611     3.76592365
O      6.23049198     5.95932197     6.96871106
O      6.29903923     5.97264438     2.16203261
O      6.30698039     3.75455508     5.38982967
O      8.15831592     4.90555584     8.57036022
O     -3.26639657     7.07715251     0.59999690
O     -1.35905185     8.17042562     3.76648280
O     -3.29188996     9.33537773     6.96964808
O     -3.26639657     9.28616878     2.16203261
O     -3.31503070     7.09818847     5.40288212
O     -1.40342301     8.19510312     8.57273388
O      0.55984662     7.07715251     0.59999690
O      2.47067504     8.18643312     3.74483391
O      0.55269127     9.28552104     6.94997452
O      0.55984662     9.28616878     2.16203261
O      0.59511085     7.06111533     5.42334914
O      2.47938919     8.12716822     8.51573641
O      4.38597502     7.07715251     0.59999690
O      6.27216382     8.19363355     3.77412921
O      4.38593472     9.26366835     6.93146192
O      4.38597502     9.28616878     2.16203261
O      4.30890307     7.04848517     5.43098885
O      6.27052612     8.18922927     8.56649542
O     -1.46083243     3.58261319    10.86362572
O      0.20195761     5.07354198     8.80919101
O     -0.43870992     5.35811277    12.02067676
Ce     2.47285343     1.55451244     1.38101475
Ce     0.58441779     2.68918244     4.55977570
Ce     0.56196091     0.49486206     7.75057505
Ce     6.29909662     1.55451244     1.38101475
Ce     4.37593944     2.65919937     4.51784264
Ce     4.39960036     0.45169173     7.75018087
Ce    10.12522502     1.55451244     1.38101475
Ce     8.22319851     2.65850270     4.56845290
Ce     8.21869307     0.43383611     7.73156514
Ce     0.55978923     4.86803684     1.38101475
Ce    -1.36319340     5.97093269     4.57265995
Ce    -1.36447705     3.82086156     7.82125718
Ce     4.38603242     4.86803684     1.38101475
Ce     2.45602929     5.92677348     4.55698972
Ce     8.21216082     4.86803684     1.38101475
Ce     6.28353625     5.96929541     4.56906863
Ce     6.29513813     3.73996178     7.75040509
Ce    -1.35333237     8.18166064     1.38101475
Ce    -3.27588874     9.29264613     4.56852260
Ce    -3.31847721     7.09779851     7.76919644
Ce     2.47291082     8.18166064     1.38101475
Ce     0.56084008     9.27041260     4.56587121
Ce     0.49261808     7.03860983     7.80488510
Ce     6.29903923     8.18166064     1.38101475
Ce     4.36906145     9.28948821     4.56557072
Ce     4.33280241     7.03444011     7.75212300
Ag     2.50512714     3.73472041     7.83836048
C     -0.93710061     4.47932433    11.42522441
