83
CIF: Ag-CeO2+CO.cif | data_image0
O      0.55978923     0.45000431     0.59999690
O      2.47119981     1.49097143     3.72415213
O      0.73049204     2.82754324     7.01827075
O      0.55978923     2.65902057     2.16203261
O      0.54097333     0.51468420     5.42613893
O      2.54452216     1.69965953     8.54815599
O      4.38603242     0.45000431     0.59999690
O      6.31385181     1.54261009     3.74436207
O      4.41171162     2.63830965     6.87918759
O      4.38603242     2.65902057     2.16203261
O      4.39413920     0.43592022     5.38567329
O      6.30776768     1.54416580     8.55792589
O      8.21216082     0.45000431     0.59999690
O     10.11781977     1.54834751     3.74254893
O      8.19997037     2.65085527     6.94095494
O      8.21216082     2.65902057     2.16203261
O      8.21019729     0.44351748     5.39357842
O     10.16483896     1.56345012     8.51099811
O     -1.35327498     3.76352871     0.59999690
O      0.50388221     4.89654442     3.73260075
O     -1.39296555     5.99506788     6.91741409
O     -1.35333237     5.97264438     2.16203261
O     -1.32836762     3.73207440     5.41878283
O      0.27554022     4.98294821     8.75943145
O      2.47296821     3.76352871     0.59999690
O      4.43769940     4.89993362     3.72369190
O      2.39169312     5.72952748     7.03247427
O      2.47291082     5.97264438     2.16203261
O      2.49162423     3.75100836     5.08816462
O      4.28758874     4.72803953     8.54868383
O      6.29909662     3.76352871     0.59999690
O      8.21825860     4.87341611     3.76323352
O      6.24322686     5.95779754     6.96774909
O      6.29903923     5.97264438     2.16203261
O      6.30847505     3.75992406     5.38314158
O      8.17450473     4.88370682     8.56654571
O     -3.26639657     7.07715251     0.59999690
O     -1.35753333     8.17050001     3.76382719
O     -3.29133940     9.33729764     6.96473135
O     -3.26639657     9.28616878     2.16203261
O     -3.30518259     7.09563414     5.40528562
O     -1.41486700     8.19899349     8.56548368
O      0.55984662     7.07715251     0.59999690
O      2.47413724     8.18631881     3.74247384
O      0.55584670     9.28114241     6.95670000
O      0.55984662     9.28616878     2.16203261
O      0.59625875     7.06476175     5.41755873
O      2.50133154     8.13564727     8.50556414
O      4.38597502     7.07715251     0.59999690
O      6.27669766     8.19139043     3.77163169
O      4.39640005     9.28180426     6.93260373
O      4.38597502     9.28616878     2.16203261
O      4.31606510     7.05443342     5.43114610
O      6.27930172     8.18795190     8.56559844
O      0.54623126     6.59216159    11.77019315
Ce     2.47285343     1.55451244     1.38101475
Ce     0.58990459     2.68719501     4.55174965
Ce     0.56901173     0.49922003     7.74899805
Ce     6.29909662     1.55451244     1.38101475
Ce     4.37791472     2.66125109     4.52247722
Ce     4.39820308     0.45953696     7.74138244
Ce    10.12522502     1.55451244     1.38101475
Ce     8.22065229     2.65724791     4.55953498
Ce     8.22107811     0.43977708     7.72700159
Ce     0.55978923     4.86803684     1.38101475
Ce    -1.35709303     5.97495407     4.57234240
Ce    -1.36301370     3.80992889     7.78578204
Ce     4.38603242     4.86803684     1.38101475
Ce     2.45739727     5.92945791     4.55514120
Ce     8.21216082     4.86803684     1.38101475
Ce     6.28729946     5.96985963     4.56455930
Ce     6.29144891     3.73713709     7.74304763
Ce    -1.35333237     8.18166064     1.38101475
Ce    -3.27282930     9.29304916     4.56602518
Ce    -3.31077324     7.09563326     7.76773808
Ce     2.47291082     8.18166064     1.38101475
Ce     0.56337284     9.26891005     4.56573865
Ce     0.50739396     7.04586562     7.82305001
Ce     6.29903923     8.18166064     1.38101475
Ce     4.37310658     9.29060776     4.56412527
Ce     4.34728460     7.03657070     7.74787416
Ag     2.49659512     3.74138105     7.83644425
C      0.54520731     6.91017859    10.67230564
