83
CIF: Ti-Cr-CeO2-O.cif | data_image0
Ce     1.93038582     1.11050507     0.88387043
Ce    -0.01154288     2.23875693     4.03852635
Ce     0.03353844     0.00495783     7.20773982
Ce     5.81181033     1.12175166     0.90127712
Ce     3.84201285     2.21739495     3.97954988
Ce     3.95855804     0.01885116     7.26327514
Ce     9.66901012     1.12377363     0.90450652
Ce     7.77608105     2.23259142     4.11754030
Ce     1.98963648    10.05082807     7.19771486
Ce    -0.00709724     4.47602159     0.89067279
Ce    -1.95315698     5.57266093     4.08690903
Ce     9.68854219     3.24704445     7.30922994
Ce     3.86254305     4.47635356     0.87798423
Ce     1.94440951     5.59187416     4.06884241
Ce     1.79335832     3.32976068     7.20858361
Ce     7.74213807     4.46545905     0.90125422
Ce     5.80485746     5.62980056     4.00404916
Ce    -1.94645625     7.83004003     0.90010904
Ce    -3.86681030     8.95935795     4.04784433
Ce    -3.75383940     6.88136749     7.24608959
Ce     1.92815559     7.82745473     0.89060408
Ce    -0.00809885     8.95357256     4.05335874
Ce     0.00719149     6.69791605     7.23230940
Ce     5.81127600     7.83258510     0.88371011
Ce     3.87955334     8.92632685     4.05002226
Ce     3.80447062     6.83304704     7.30491211
Cr     5.08114622     3.78503087     6.63304105
Ti     6.49986535     2.79301853     8.75249612
O     11.61334069     0.00154917     0.10141687
O      1.92716801     1.12181724     3.21221848
O     -0.01040832     2.20544499     6.41262656
O     -0.00785227     2.23805103     1.69392277
O      0.04869117     0.00648183     4.87929646
O      2.00140871     1.16466090     7.95621829
O     -1.93899312    10.05733740     0.10496691
O      5.80638641     1.15597309     3.26104181
O      4.12017510     2.25209244     6.51365011
O      3.86763657     2.23577757     1.68132582
O      3.86278062     0.06539832     4.87807954
O      6.06191869     0.93782618     8.34340687
O      7.73821774     0.00761509     0.10924988
O      9.68519411     1.12542824     3.27050794
O      7.84415636     2.14168912     6.40769278
O      7.74357843     2.23531483     1.71563532
O      1.92716833    10.02205232     4.82088336
O      9.78714165     1.02739992     8.07520079
O      9.67032270     3.35425987     0.10911246
O      0.01780704     4.47840417     3.26204783
O     -2.02272531     5.57196647     6.55299572
O     -1.94403436     5.59119430     1.70564938
O     -1.89954076     3.37707166     4.87522355
O      0.03962291     4.42960083     8.04731911
O      1.92738314     3.35244915     0.09928684
O      3.78251541     4.43790807     3.21166571
O      1.83680011     5.55832676     6.41068428
O      1.92862022     5.59252216     1.67404250
O      1.95750606     3.28175523     4.91795462
O      5.81155478     3.35101064     0.10766953
O      7.79034443     4.42646362     3.27555685
O      6.16132777     5.10154657     6.78299917
O      5.80528807     5.59217007     1.68114259
O      5.67255462     3.37938599     4.93696118
O      8.12570756     3.76117556     8.70673333
O     -3.87155109     6.71022987     0.10512724
O     -1.95224040     7.83238630     3.26041916
O     -3.75638856     8.99607375     6.44446183
O     -3.87509971     8.94378428     1.69355631
O     -3.87130663     6.76428066     4.96068293
O     -1.88223396     7.89192008     8.06816810
O     -0.01209783     6.71325780     0.10434852
O      1.92045793     7.79595251     3.24758732
O     -0.03290326     9.00366900     6.40250717
O     -0.00628994     8.94736548     1.70514550
O     -0.05886619     6.71675186     4.90552768
O      1.82755925     7.85476716     8.01926512
O      3.86815347     6.71410280     0.09951587
O      5.81746638     7.91156973     3.21657019
O      3.90702048     9.01307939     6.39540997
O      3.86556896     8.94715423     1.69389986
O      3.85946630     6.72430256     4.91701948
O      5.96204354     7.83210306     7.93794541
O      3.88043622     4.40702764     7.69998577
O      5.56179518     3.31909401    10.00040832
