81
CIF: Pd-Y-CeO2-Ov.cif | data_image0
Ce     1.93596140     1.11772783     0.89035214
Ce     0.00617029     2.23328070     4.01467430
Ce    -5.77502381    10.04051272     7.19703037
Ce     5.80789581     1.11772783     0.89035214
Ce     3.86933181     2.24292751     4.04048993
Ce    -1.96915530    10.05763866     7.20151601
Ce     9.67981860     1.11772783     0.89035214
Ce     7.77438072     2.21771921     3.98977813
Ce     7.78214958     0.00035540     7.21093117
Ce     0.00000000     4.47091133     0.89035214
Ce    -1.94474742     5.57875147     4.05181883
Ce     9.69676663     3.31667006     7.21199216
Ce     3.87193441     4.47091133     0.89035214
Ce     1.94346299     5.58355454     4.07708945
Ce     1.80147048     3.27281352     7.19195564
Ce     7.74385721     4.47091133     0.89035214
Ce     5.80046709     5.58735861     4.03893263
Ce    -1.93596721     7.82410489     0.89035214
Ce    -3.87530313     8.94316930     4.02151346
Ce    -3.88619178     6.73881185     7.20338693
Ce     1.93596721     7.82410489     0.89035214
Ce     0.00351442     8.95370168     4.05149975
Ce    -0.01569685     6.71406277     7.23277827
Ce     5.80789000     7.82410489     0.89035214
Ce     3.87574507     8.93572435     4.01574098
Ce     3.87677863     6.86176085     7.19189180
Y      5.96378154     3.26366488     6.90156798
O      0.00000000     0.00000000     0.09999685
O      1.93947424     1.11054106     3.21288822
O     -0.03607411     2.17828026     6.38433299
O      0.00000000     2.23545567     1.68070743
O     -5.78594581    10.04484554     4.82536766
O      1.95637920     0.95621037     8.02999451
O      3.87192279     0.00000000     0.09999685
O      5.80693366     1.09067894     3.22401044
O      3.97756083     2.32036912     6.52723588
O      3.87192279     2.23545567     1.68070743
O      3.85232786     0.05702332     4.86569404
O      6.04826180     1.17317175     8.26067904
O      7.74385721     0.00000000     0.09999685
O      9.69325028     1.10942291     3.21564325
O      7.78459810     2.21065361     6.28808382
O      7.74385721     2.23545567     1.68070743
O      1.94336854    10.02501541     4.82087497
O      9.70801320     1.09948864     8.02835741
O     -1.93596140     3.35318350     0.09999685
O      0.00482985     4.49536660     3.23790191
O     -2.05332490     5.57209954     6.42203712
O     -1.93596721     5.58864923     1.68070743
O     -1.90214711     3.36287063     4.82169804
O     -0.13810187     4.52248676     8.02383737
O      1.93596140     3.35318350     0.09999685
O      3.85889101     4.47795485     3.23975702
O      1.99469585     5.55678560     6.48656362
O      1.93595559     5.58864923     1.68070743
O      1.92922198     3.32355635     4.80459618
O      5.80789581     3.35318350     0.09999685
O      7.76756152     4.48537809     3.22311937
O      5.78573769     5.45831678     6.53902873
O      5.80789000     5.58864923     1.68070743
O      5.83316206     3.34151357     4.70924032
O      7.81692825     4.23094699     8.26245865
O     -3.87192860     6.70637706     0.09999685
O     -1.93318582     7.82187404     3.26176282
O     -3.82695872     8.91435239     6.35421123
O     -3.87192860     8.94183273     1.68070743
O      7.68349733     6.69304057     4.86727711
O     -1.94639640     7.82832617     7.99997577
O     -0.00000581     6.70637706     0.09999685
O      1.91727093     7.80646564     3.23849217
O     -0.04552490     9.05067734     6.42036233
O     -0.00000581     8.94183273     1.68070743
O     -0.00122032     6.70596104     4.92618267
O      3.87192860     6.70637706     0.09999685
O      5.81613301     7.82416289     3.21207559
O      3.89835384     8.99713650     6.38572563
O      3.87192860     8.94183273     1.68070743
O      3.89912112     6.72490390     4.80458391
O      5.95330739     7.89420782     8.03432082
O      1.81430423     7.91241989     8.02142428
Pd     7.11477644     2.59638330     9.33373766
