85
CIF: Pd-Y-CeO2-O-CO.cif | data_image0
Ce     1.93596140     1.11772783     0.89035214
Ce     0.00241190     2.23495781     4.03933488
Ce    -5.79674390    10.05564573     7.19329839
Ce     5.80789581     1.11772783     0.89035214
Ce     3.87532988     2.23136528     4.03415943
Ce     3.84510026     0.00406703     7.20075069
Ce     9.67981860     1.11772783     0.89035214
Ce     7.74466087     2.23173168     4.04507245
Ce     1.97340767    10.05811231     7.18462439
Ce     0.00000000     4.47091133     0.89035214
Ce    -1.94565311     5.58807835     4.04806104
Ce     9.67932506     3.31436025     7.19388137
Ce     3.87193441     4.47091133     0.89035214
Ce     1.93442160     5.58774103     4.03307898
Ce     1.94712963     3.36823544     7.18528685
Ce     7.74385721     4.47091133     0.89035214
Ce     5.81342627     5.58940042     4.03039891
Ce    -1.93596721     7.82410489     0.89035214
Ce    -3.86985849     8.94264388     4.02769223
Ce    -3.88742649     6.73887861     7.20038344
Ce     1.93596721     7.82410489     0.89035214
Ce    -0.00553306     8.94573353     4.04640837
Ce    -0.00664349     6.70471122     7.20637895
Ce     5.80789000     7.82410489     0.89035214
Ce     3.87445336     8.93704700     4.03597713
Ce     3.86464942     6.68825763     7.18458018
Y      5.72328155     3.41913681     7.02320388
O      0.00000000     0.00000000     0.09999685
O      1.93463824     1.11800626     3.22853339
O      0.01435536     2.22484081     6.39645181
O      0.00000000     2.23545567     1.68070743
O     -5.79793608    10.05467708     4.85001895
O      1.95301292     1.10265760     7.99712604
O      3.87192279     0.00000000     0.09999685
O      5.80424646     1.10105759     3.23861117
O      3.91211669     2.18157347     6.40927581
O      3.87192279     2.23545567     1.68070743
O     -1.95017726    10.04413770     4.84877818
O      5.98798382     1.14618381     8.22498866
O      7.74385721     0.00000000     0.09999685
O      9.68747156     1.11288260     3.23669156
O      7.74129603     2.21867491     6.31825820
O      7.74385721     2.23545567     1.68070743
O      1.94236957    10.02433092     4.83522101
O      9.71576660     1.09274703     7.98948797
O     -1.93596140     3.35318350     0.09999685
O      0.00564296     4.48022813     3.24022203
O     -2.01943301     5.56301419     6.45145881
O     -1.93596721     5.58864923     1.68070743
O     -1.91272790     3.36168235     4.84302016
O      0.01336958     4.48556721     7.97188959
O      1.93596140     3.35318350     0.09999685
O      3.85453250     4.48078119     3.22163972
O      1.90645170     5.60513381     6.35936391
O      1.93595559     5.58864923     1.68070743
O      1.95293721     3.34549334     4.85632767
O      5.80789581     3.35318350     0.09999685
O      7.75622709     4.48190654     3.23739331
O      5.87666219     5.58945198     6.40734762
O      5.80789000     5.58864923     1.68070743
O      5.78134185     3.37248217     4.77311497
O      7.77709995     4.24746749     8.21501807
O     -3.87192860     6.70637706     0.09999685
O     -1.93472377     7.82335994     3.22604356
O     -3.86160120     8.93707475     6.40906988
O     -3.87192860     8.94183273     1.68070743
O     -3.86401402     6.72883016     4.84732336
O     -1.94714090     7.83208374     7.99593720
O     -0.00000581     6.70637706     0.09999685
O      1.92895528     7.80904619     3.23835337
O     -0.01702080     9.01486121     6.44202656
O     -0.00000581     8.94183273     1.68070743
O     -0.04233110     6.72463115     4.88613776
O      3.87192860     6.70637706     0.09999685
O      5.80798479     7.82599474     3.22781607
O      3.89129127     8.93028856     6.39280115
O      3.87192860     8.94183273     1.68070743
O      3.88635205     6.69380288     4.85412099
O      5.83189402     7.82210064     7.99946745
O      1.93214717     7.80232507     7.97236663
O      3.81275173     4.50971652     7.90982604
O      8.12606106     3.48248919    11.53408715
O      7.47380665     2.95894911    13.73522378
Pd     7.09083134     2.53701474     9.29239027
C      7.80063241     3.22162147    12.63862725
