84
CIF: Ru-Sc-CeO2-Ov-CO2.cif | data_image0
Ce     1.93038582     1.11050507     0.88387043
Ce     0.00000899     2.22796846     4.05111975
Ce    -5.75784382    10.03064943     7.23117394
Ce     5.81181033     1.12175166     0.90127712
Ce     3.83774437     2.21367891     4.00464103
Ce    -1.97649154    10.01404099     7.23020564
Ce     9.66901012     1.12377363     0.90450652
Ce     7.75139040     2.23072499     4.06337882
Ce     1.98992024     9.94436861     7.26155789
Ce    -0.00709724     4.47602159     0.89067279
Ce    -1.94929006     5.58165785     4.06927258
Ce    -1.81198935     3.36092903     7.26420732
Ce     3.86254305     4.47635356     0.87798423
Ce     1.95225371     5.57853910     4.08840745
Ce     1.89559741     3.27464767     7.26399901
Ce     7.74213807     4.46545905     0.90125422
Ce     5.80966058     5.62941866     4.00456341
Ce    -1.94645625     7.83004003     0.90010904
Ce    -3.86882662     8.94056485     4.03681374
Ce    -3.85262586     6.77011079     7.22764134
Ce     1.92815559     7.82745473     0.89060408
Ce    -0.00123291     8.95570835     4.06844798
Ce     0.01177703     6.69810314     7.25047700
Ce     5.81127600     7.83258510     0.88371011
Ce     3.87871883     8.94459912     4.05122917
Ce     3.92007552     6.77892041     7.26503288
Sc     5.62314116     3.46008394     6.64893599
Ru     6.96928322     2.67403597     8.75557933
O     11.61334069     0.00154917     0.10141687
O      1.92180808     1.09991198     3.21993568
O      0.01251936     2.17286702     6.47637034
O     -0.00785227     2.23805103     1.69392277
O     -5.77554899    10.04093540     4.89389380
O      1.98600211     0.94246072     8.06605562
O     -1.93899312    10.05733740     0.10496691
O      5.73785356     1.04884200     3.24211139
O      4.01375609     2.25171971     6.49567627
O      3.86763657     2.23577757     1.68132582
O      3.83502105     0.01359536     4.89282138
O      6.12500620     0.96761992     8.61044875
O      7.73821774     0.00761509     0.10924988
O      9.75432886     1.07453632     3.24371229
O      7.43509562     2.41090823     6.77932160
O      7.74357843     2.23531483     1.71563532
O      1.96135920    10.02527219     4.96020985
O      9.60149800     1.16007637     8.02403527
O      9.67032270     3.35425987     0.10911246
O     -0.00810313     4.48369767     3.26727648
O     -2.03653793     5.57512701     6.47752680
O     -1.94403436     5.59119430     1.70564938
O     -1.89450791     3.34790149     4.96142296
O     -0.07545384     4.53141438     8.06115992
O      1.92738314     3.35244915     0.09928684
O      3.82615002     4.49712132     3.21334909
O      2.01217276     5.54389957     6.48531608
O      1.92862022     5.59252216     1.67404250
O      1.93940544     3.30709313     4.84007222
O      4.35383892     4.19120442     8.70352716
O      5.81155478     3.35101064     0.10766953
O      7.76833691     4.56595270     3.24203704
O      5.86747404     5.45759670     6.49786607
O      5.80528807     5.59217007     1.68114259
O      5.72755224     3.39999819     4.68408573
O      8.03370772     4.24862928     8.62458911
O     -3.87155109     6.71022987     0.10512724
O     -1.92766142     7.81942961     3.27188179
O     -3.83120372     8.91926173     6.40157401
O     -3.87509971     8.94378428     1.69355631
O      7.71345443     6.73302702     4.89213925
O     -1.93937117     7.82709559     8.02474727
O     -0.01209783     6.71325780     0.10434852
O      1.92033688     7.82321370     3.26785266
O     -0.03750713     9.03019548     6.47409044
O     -0.00628994     8.94736548     1.70514550
O     -0.00103667     6.70434326     4.95117859
O      1.84618134     7.85697759     8.06127012
O      3.86815347     6.71410280     0.09951587
O      5.81620391     7.84559574     3.21970300
O      3.93207438     8.96037798     6.47457417
O      3.86556896     8.94715423     1.69389986
O      3.91420676     6.72457405     4.84046946
O      5.98406045     7.86996459     8.06654654
O      5.65106632     3.42995037    10.49618323
C      5.30703558     3.63526655     9.32041409
