83
CIF: Ru-Sc-CeO2-O.cif | data_image0
Ce     1.93038582     1.11050507     0.88387043
Ce     0.00152540     2.23226581     4.02807745
Ce    -5.79201164    10.05567418     7.18395429
Ce     5.81181033     1.12175166     0.90127712
Ce     3.86709271     2.22246183     4.00704988
Ce    -2.01139929    10.03327452     7.16011949
Ce     9.66901012     1.12377363     0.90450652
Ce     7.73191806     2.24795482     4.10130454
Ce     2.01270946    10.04621150     7.19050232
Ce    -0.00709724     4.47602159     0.89067279
Ce    -1.95054026     5.59181920     4.06519425
Ce    -1.85514131     3.29870935     7.20056150
Ce     3.86254305     4.47635356     0.87798423
Ce     1.94753055     5.59393407     4.05942992
Ce     1.95754196     3.35111029     7.18160524
Ce     7.74213807     4.46545905     0.90125422
Ce     5.80555849     5.59814045     4.03746976
Ce    -1.94645625     7.83004003     0.90010904
Ce    -3.87825945     8.94261783     4.00358319
Ce    -3.88184904     6.79737365     7.18479033
Ce     1.92815559     7.82745473     0.89060408
Ce    -0.00979519     8.95757552     4.05654092
Ce     0.00539112     6.71634436     7.22783393
Ce     5.81127600     7.83258510     0.88371011
Ce     3.87770083     8.93502017     4.04910049
Ce     3.88768664     6.67867370     7.27621098
Sc     5.51700549     3.47554282     6.85048276
Ru     6.76591169     2.84655351     9.27466768
O     11.61334069     0.00154917     0.10141687
O      1.92367390     1.12200216     3.20661219
O      0.03137541     2.21912132     6.37781670
O     -0.00785227     2.23805103     1.69392277
O     -5.79308662    10.05581065     4.83445368
O      1.95936155     1.09732913     7.96470089
O     -1.93899312    10.05733740     0.10496691
O      5.80963715     1.11247479     3.25066444
O      4.01589669     2.10732610     6.38782164
O      3.86763657     2.23577757     1.68132582
O     -1.96926237    10.02980638     4.80229436
O      6.20241449     1.24989695     8.53568742
O      7.73821774     0.00761509     0.10924988
O      9.68066502     1.12011245     3.24994969
O      7.65076129     2.30388085     6.41812240
O      7.74357843     2.23531483     1.71563532
O      7.75568108     0.00024383     4.86076849
O      9.72016325     1.11840548     7.97394833
O      9.67032270     3.35425987     0.10911246
O      0.00681852     4.49006227     3.26069673
O     -2.06068503     5.53165726     6.48836263
O     -1.94403436     5.59119430     1.70564938
O     -1.91869443     3.34611368     4.86291200
O      0.00757235     4.45851734     7.97813534
O      1.92738314     3.35244915     0.09928684
O      3.84101455     4.48390187     3.20390295
O      1.85306734     5.58860833     6.36601299
O      1.92862022     5.59252216     1.67404250
O      1.98041442     3.32571843     4.86170000
O      5.81155478     3.35101064     0.10766953
O      7.75047727     4.48022626     3.26144430
O      5.99941858     5.45979332     6.48200729
O      5.80528807     5.59217007     1.68114259
O      5.73429078     3.39040359     4.77203219
O      7.98640397     4.05774894     8.62251066
O     -3.87155109     6.71022987     0.10512724
O     -1.93591053     7.81294492     3.22350591
O     -3.84983508     8.95269557     6.36264750
O     -3.87509971     8.94378428     1.69355631
O     -3.87359350     6.74263995     4.84139008
O     -1.94893922     7.84791301     7.97209661
O     -0.01209783     6.71325780     0.10434852
O      1.92339276     7.81356302     3.25872381
O     -0.03167323     9.12338925     6.45912006
O     -0.00628994     8.94736548     1.70514550
O     -0.07033815     6.75861665     4.91966840
O      1.81413467     7.88478355     7.98886025
O      3.86815347     6.71410280     0.09951587
O      5.80604008     7.82921455     3.21469085
O      3.89805721     8.98236018     6.39373147
O      3.86556896     8.94715423     1.69389986
O      3.91869136     6.68171927     4.84647050
O      5.95509929     7.89732823     8.01107688
O      3.84800181     4.31766477     7.79331544
O      5.89806685     3.37083831    10.64181638
