82
CIF: NO.cif | data_image0
Ce     5.79627176    10.04101313     8.75667670
Ce     1.94595575     1.12841231     5.59225367
Ce     0.00000000     2.23543938     2.47426506
Ce    -1.99219473    10.03084583     8.74068952
Ce     5.84136322     1.09621558     5.62313610
Ce     3.87189458     2.23543938     2.47426506
Ce     2.00017237    10.02352957     8.72392517
Ce     9.70604185     1.09277435     5.59234076
Ce     7.74390532     2.23543938     2.47426506
Ce    -1.88251025     3.28982930     8.71609942
Ce     0.01702536     4.45592237     5.64203511
Ce    -1.93600537     5.58869904     2.47426506
Ce     1.96908337     3.22246789     8.76949876
Ce     3.88574712     4.45173434     5.64079770
Ce     1.93588921     5.58869904     2.47426506
Ce     5.86829920     3.30589193     8.78531859
Ce     7.77583436     4.46961245     5.63377731
Ce     5.80789995     5.58869904     2.47426506
Ce    -3.89031501     6.78219022     8.73566490
Ce    -1.99596491     7.87208064     5.58946985
Ce    -3.87195266     8.94185811     2.47426506
Ce     1.95139302     7.79907162     5.63960471
Ce    -0.00005808     8.94185811     2.47426506
Ce     3.95947729     6.69464462     8.79408658
Ce     5.78969971     7.80315574     5.60023081
Ce     3.87195266     8.94185811     2.47426506
Ru    -0.00686085     6.70254703     8.57078460
O      5.80313216    10.05895446     6.39035714
O     -0.12165011     2.17533053     9.52757824
O      1.93594729     1.11771969     3.26466483
O     -0.00790186     2.23847587     4.78299260
O      0.00000000     0.00000000     1.68386529
O      1.94043472     1.01476145     7.95142301
O      3.91320943     0.10508945     6.36009180
O      4.02851329     2.08747868     9.58062134
O      5.80795803     1.11771969     3.26466483
O      3.92291693     2.26736900     4.79685350
O      3.87189458     0.00000000     1.68386529
O      5.87728284     0.95741304     8.01101404
O      1.97637098     9.97960848     6.42859721
O      7.80254325     2.19159295     9.52653674
O      9.67985261     1.11771969     3.26466483
O      7.78097185     2.22419929     4.82705621
O      7.74390532     0.00000000     1.68386529
O      9.66282458     1.10745651     7.90516650
O     -1.85828416     3.34797449     6.43826896
O     -1.57933765     6.01032373     9.35423837
O      0.00000000     4.47087876     3.26466483
O     -1.89542485     5.60916585     4.83220070
O     -1.93594729     3.35315907     1.68386529
O      0.12319638     4.62682089     8.00179126
O      1.93269761     3.30350740     6.35225307
O      3.87201074     4.47087876     3.26466483
O      1.89284860     5.60519613     4.85028039
O      1.93594729     3.35315907     1.68386529
O      3.89878772     4.42046143     7.98634408
O      5.89224661     3.32102470     6.48253399
O      5.97682021     5.48374074     9.56572026
O      7.74390532     4.47087876     3.26466483
O      5.80353457     5.54753475     4.80342861
O      5.80795803     3.35315907     1.68386529
O      7.91677429     4.49818283     8.01794815
O      7.67377548     6.63936319     6.36418415
O     -3.97095432     8.95650189     9.68078284
O     -1.93600537     7.82413842     3.26466483
O     -3.88305566     8.94770494     4.80030838
O     -3.87195266     6.70641873     1.68386529
O     -2.34819015     8.07565630     7.77662166
O     -0.12572841     6.76877983     6.63655983
O     -0.15345739     8.41301104     9.37130913
O      1.93600537     7.82413842     3.26466483
O      0.00189607     8.89458886     4.82391743
O     -0.00005808     6.70641873     1.68386529
O      1.84760698     7.58602889     7.99402894
O      3.89401018     6.70000880     6.37931937
O      3.80785017     9.03130210     9.54234586
O      5.80789995     7.82413842     3.26466483
O      3.87178727     8.92037795     4.79688822
O      3.87195266     6.70641873     1.68386529
O      5.84664539     7.84578391     7.95792329
O      1.53627026     5.57436474    11.57296141
N      1.90646552     5.50610687    10.41630527
