85
CIF: Fe-Y-CeO2-O-CO.cif | data_image0
Ce     1.93596140     1.11772783     0.89035214
Ce     0.00651893     2.21957865     4.02956405
Ce    -5.68405769     9.96332764     7.16590070
Ce     5.80789581     1.11772783     0.89035214
Ce     3.87686337     2.22325322     4.03437890
Ce    -2.03910019     9.99286370     7.13974928
Ce     9.67981860     1.11772783     0.89035214
Ce     7.74151020     2.24164133     4.05820179
Ce     7.71656767     0.00035551     7.25410640
Ce     0.00000000     4.47091133     0.89035214
Ce    -1.93976942     5.60000689     4.02523668
Ce    -1.86813258     3.40793696     7.13166067
Ce     3.87193441     4.47091133     0.89035214
Ce     1.94019886     5.59685916     4.05694040
Ce     1.96560751     3.35163455     7.21288111
Ce     7.74385721     4.47091133     0.89035214
Ce     5.80268179     5.59250417     4.05733330
Ce    -1.93596721     7.82410489     0.89035214
Ce    -3.87450252     8.92258790     3.97230242
Ce     7.72625560     6.73379811     7.21301893
Ce     1.93596721     7.82410489     0.89035214
Ce     0.00364982     8.95499291     4.04205860
Ce     0.00894845     6.71665169     7.22638267
Ce     5.80789000     7.82410489     0.89035214
Ce     3.86487473     8.94591256     4.06535483
Ce     3.84538125     6.68093945     7.29414864
Y      5.70153473     3.40398678     7.06738999
O      0.00000000     0.00000000     0.09999685
O      1.92888085     1.12164967     3.20582640
O     -0.10393720     2.11786553     6.48888381
O      0.00000000     2.23545567     1.68070743
O     -5.76644182    10.03671361     4.82686289
O      1.94738166     1.04700546     7.99977521
O      3.87192279     0.00000000     0.09999685
O      5.80242424     1.11213160     3.23966462
O      3.96902981     2.08856577     6.43169387
O      3.87192279     2.23545567     1.68070743
O     -1.98000733    10.02719768     4.79531092
O      6.21055798     1.63615983     8.57747307
O      7.74385721     0.00000000     0.09999685
O      9.69380626     1.11542818     3.24981804
O      7.78110291     2.33694796     6.30405436
O      7.74385721     2.23545567     1.68070743
O      1.93327523    10.02298157     4.81713513
O      9.18190817     1.65448510     8.65150137
O     -1.93596140     3.35318350     0.09999685
O      0.02960908     4.48537161     3.24051842
O     -2.03458472     5.56652985     6.45582975
O     -1.93596721     5.58864923     1.68070743
O     -1.86135300     3.38855258     4.80718691
O     -0.00271394     4.46012949     7.98018335
O      1.93596140     3.35318350     0.09999685
O      3.83735580     4.48226318     3.24342166
O      1.87406672     5.54595015     6.35214731
O      1.93595559     5.58864923     1.68070743
O      1.93423110     3.27680919     4.90431392
O      5.80789581     3.35318350     0.09999685
O      7.75103995     4.47842626     3.24340821
O      5.93691011     5.55463202     6.46382969
O      5.80789000     5.58864923     1.68070743
O      5.75022402     3.37610387     4.79033457
O      7.73294942     4.21692025     8.40900075
O     -3.87192860     6.70637706     0.09999685
O     -1.92928368     7.81202466     3.20640292
O     -3.86093267     8.90969591     6.34983825
O     -3.87192860     8.94183273     1.68070743
O     -3.86546716     6.72155688     4.82954844
O     -2.00057551     7.82748581     8.02036395
O     -0.00000581     6.70637706     0.09999685
O      1.92890666     7.80625281     3.24279491
O     -0.10316927     9.07236338     6.46603750
O     -0.00000581     8.94183273     1.68070743
O     -0.04527196     6.75058775     4.89426879
O      3.87192860     6.70637706     0.09999685
O      5.80094871     7.82064893     3.22061539
O      3.95716264     9.11363605     6.53805475
O      3.87192860     8.94183273     1.68070743
O      3.89379382     6.74566708     4.87212560
O      5.98819160     7.88272753     8.09251731
O      1.75388433     7.73724738     8.06502676
O      3.77140667     4.33261024     7.97645189
O      7.63373410     2.78881243    11.50261530
O      6.94742046     2.24018366    13.68331788
Fe     7.66486173     2.54686293     9.21784974
C      7.28415520     2.50789977    12.59525521
