83
CIF: Fe-Y-CeO2-Ov-O2.cif | data_image0
Ce     1.93596140     1.11772783     0.89035214
Ce     0.00594649     2.22392473     4.01824438
Ce    -5.68301693     9.96477626     7.17337189
Ce     5.80789581     1.11772783     0.89035214
Ce     3.87310320     2.23583803     4.05216507
Ce    -2.04047775    10.00204165     7.15245302
Ce     9.67981860     1.11772783     0.89035214
Ce     7.73910683     2.24102864     4.03840280
Ce     1.90580404    10.05670308     7.25124071
Ce     0.00000000     4.47091133     0.89035214
Ce    -1.94289909     5.60029567     4.02326701
Ce    -1.88185693     3.42911423     7.13177034
Ce     3.87193441     4.47091133     0.89035214
Ce     1.94064224     5.59407291     4.08038790
Ce     1.85025510     3.29119873     7.22679521
Ce     7.74385721     4.47091133     0.89035214
Ce     5.79941336     5.59046301     4.05949076
Ce    -1.93596721     7.82410489     0.89035214
Ce    -3.87840893     8.93030896     3.97418074
Ce    -3.89225878     6.74318910     7.20495185
Ce     1.93596721     7.82410489     0.89035214
Ce     0.00326644     8.95993199     4.04441566
Ce     0.00782188     6.72227118     7.23061493
Ce     5.80789000     7.82410489     0.89035214
Ce     3.86519939     8.95285424     4.04757040
Ce     3.85355737     6.80127877     7.26832741
Y      5.83094901     3.35268711     7.07009505
O      0.00000000     0.00000000     0.09999685
O      1.92959489     1.11841981     3.20250615
O     -0.11005180     2.12235463     6.49794607
O      0.00000000     2.23545567     1.68070743
O     -5.77002106    10.04468873     4.82407921
O      1.92623284     0.97104774     8.02054526
O      3.87192279     0.00000000     0.09999685
O      5.79686578     1.10768549     3.23711419
O      3.99156925     2.14549039     6.50799503
O      3.87192279     2.23545567     1.68070743
O     -1.98626763    10.05865209     4.81499704
O      6.31053117     1.55175970     8.60903876
O      7.74385721     0.00000000     0.09999685
O      9.69191469     1.11755983     3.23742680
O      7.76367053     2.33514549     6.30145937
O      7.74385721     2.23545567     1.68070743
O      1.93501653    10.02978331     4.80490515
O      9.24295445     1.62923817     8.64185904
O     -1.93596140     3.35318350     0.09999685
O      0.02448653     4.49371522     3.24095748
O     -2.06217482     5.58061394     6.42483594
O     -1.93596721     5.58864923     1.68070743
O     -1.86863310     3.38497472     4.80011220
O     -0.09010491     4.51062623     7.98199080
O      1.93596140     3.35318350     0.09999685
O      3.83475392     4.48968766     3.25464884
O      1.92325508     5.54389426     6.38946857
O      1.93595559     5.58864923     1.68070743
O      1.91676248     3.27027912     4.88019852
O      5.80789581     3.35318350     0.09999685
O      7.75346805     4.48287402     3.23685871
O      5.91795957     5.52429236     6.50230941
O      5.80789000     5.58864923     1.68070743
O      5.76336633     3.37142192     4.76305453
O      7.81237973     4.15861769     8.42797615
O     -3.87192860     6.70637706     0.09999685
O     -1.92903186     7.81834774     3.21789502
O     -3.85931472     8.90432607     6.34185854
O     -3.87192860     8.94183273     1.68070743
O      7.72379945     6.72012599     4.82964654
O     -1.99867401     7.82460284     8.00916837
O     -0.00000581     6.70637706     0.09999685
O      1.92611103     7.80593209     3.24555973
O     -0.10811378     9.08474028     6.46017358
O     -0.00000581     8.94183273     1.68070743
O     -0.03362634     6.74573285     4.90796796
O      3.87192860     6.70637706     0.09999685
O      5.80174731     7.82524502     3.21495482
O      3.95293652     9.11637944     6.52594943
O      3.87192860     8.94183273     1.68070743
O      3.90339436     6.76480588     4.86904390
O      5.97304295     7.88903906     8.07466410
O      1.76205253     7.77198311     8.04518506
O      3.65373341     4.50427286     8.26405362
O      4.62938012     3.86285125     9.02527959
Fe     7.72932302     2.49143655     9.23883542
