83
CIF: 1-CO+Olat — CO2.cif | data_image0
O      0.55978923     0.45000431     0.59999690
O      2.41821718     1.55895734     3.75944298
O      0.20219533     2.47033620     6.76039772
O      0.55978923     2.65902057     2.16203261
O      0.57742206     0.36911646     5.33461645
O      2.42231150     2.12924471     8.32172147
O      4.38603242     0.45000431     0.59999690
O      6.33768643     1.52488463     3.74227259
O      4.35025307     3.03633894     6.99566253
O      4.38603242     2.65902057     2.16203261
O      4.40557053     0.45022150     5.47831445
O      6.14498241     1.63377460     8.56587286
O      8.21216082     0.45000431     0.59999690
O     10.10831208     1.54177225     3.73136450
O      8.24566879     2.68070012     6.98098416
O      8.21216082     2.65902057     2.16203261
O      8.22131954     0.43948255     5.37353327
O     10.23309047     1.62140948     8.74522201
O     -1.35327498     3.76352871     0.59999690
O      0.61385128     4.84348898     3.77213445
O     -1.28505989     5.88173700     7.04318933
O     -1.35333237     5.97264438     2.16203261
O     -1.42117965     3.81116958     5.30894238
O      1.16359465     4.44340500     8.42711121
O      2.47296821     3.76352871     0.59999690
O      4.34961537     4.93652816     3.78656893
O      2.77860079     5.76754980     6.92651474
O      2.47291082     5.97264438     2.16203261
O      2.27331744     3.69526120     5.71286965
O      4.07432815     4.67987130     8.82948753
O      6.29909662     3.76352871     0.59999690
O      8.20348780     4.92418223     3.73698332
O      6.25444885     5.95523446     7.07723473
O      6.29903923     5.97264438     2.16203261
O      6.39758812     3.80982771     5.43091202
O      8.25324279     4.87237601     8.62784563
O     -3.26639657     7.07715251     0.59999690
O     -1.34243016     8.18191692     3.78894874
O     -3.26261195     9.41318380     7.04461854
O     -3.26639657     9.28616878     2.16203261
O     -3.24754478     7.09559833     5.49547055
O     -1.42356183     8.24100221     8.64452982
O      0.55984662     7.07715251     0.59999690
O      2.47823846     8.17004024     3.74214046
O      0.53461740     9.27037602     6.98943504
O      0.55984662     9.28616878     2.16203261
O      0.63637608     7.04654278     5.41083551
O      2.65408739     8.05892080     8.65293325
O      4.38597502     7.07715251     0.59999690
O      6.33633291     8.15158364     3.74141340
O      4.45058753     9.32177140     6.94957035
O      4.38597502     9.28616878     2.16203261
O      4.41504454     7.14039456     5.39860919
O      6.34660893     8.23016495     8.60932549
O      4.10121035     3.78805893    10.99618525
Ce     2.47285343     1.55451244     1.38101475
Ce     0.47863548     2.60299649     4.51565828
Ce     0.48622726     0.49991465     7.74169473
Ce     6.29909662     1.55451244     1.38101475
Ce     4.41116356     2.66706145     4.55794990
Ce     4.45136665     0.40828364     7.75634742
Ce    10.12522502     1.55451244     1.38101475
Ce     8.18995296     2.65868980     4.55053586
Ce     8.22734202     0.43873980     7.89060324
Ce     0.55978923     4.86803684     1.38101475
Ce    -1.33194664     5.97429754     4.59339395
Ce    -1.38724261     3.67138369     7.72441175
Ce     4.38603242     4.86803684     1.38101475
Ce     2.49216672     6.01754735     4.54305302
Ce     8.21216082     4.86803684     1.38101475
Ce     6.31282135     5.98010266     4.58109288
Ce     6.43142820     3.77949222     7.82203028
Ce    -1.35333237     8.18166064     1.38101475
Ce    -3.25681823     9.30333122     4.57662795
Ce    -3.22597058     7.10959107     7.82556601
Ce     2.47291082     8.18166064     1.38101475
Ce     0.58754828     9.29742315     4.59493973
Ce     0.63842875     7.07396379     7.83040460
Ce     6.29903923     8.18166064     1.38101475
Ce     4.38731012     9.28392845     4.55215220
Ce     4.45277692     7.20180497     7.77889302
Re     2.63696485     3.81877773     7.55128679
C      4.68925788     4.30670151    10.09695114
