81
CIF: Re-CeO2.cif | data_image0
O      0.55978538     0.45000321     0.60000009
O      2.40493505     1.56337645     3.77214660
O      0.18798869     2.46136570     6.77657659
O      0.55978538     2.65901948     2.16203581
O      0.56641393     0.36235020     5.34675409
O      2.40084453     2.20244871     8.39556376
O      4.38602857     0.45000321     0.60000009
O      6.34103379     1.52347292     3.74266761
O      4.39422470     2.83513424     7.00501251
O      4.38602857     2.65901948     2.16203581
O      4.40045702     0.40493357     5.44835502
O      6.16442362     1.62354539     8.64026901
O      8.21215698     0.45000321     0.60000009
O     10.12193963     1.55009801     3.73848158
O      8.22018957     2.66382291     6.97186245
O      8.21215698     2.65901948     2.16203581
O      8.22315815     0.43493053     5.36767787
O     10.21669891     1.62048590     8.76336705
O     -1.35327882     3.76352761     0.60000009
O      0.62518348     4.83015374     3.79709519
O     -1.31456765     5.86964644     7.06213471
O     -1.35333621     5.97264328     2.16203581
O     -1.42739234     3.80978119     5.32022982
O      1.13634486     4.45883067     8.41344733
O      2.47296437     3.76352761     0.60000009
O      4.34175199     4.93452441     3.79359964
O      2.69500320     5.85465729     6.92130204
O      2.47290698     5.97264328     2.16203581
O      2.34332486     3.68940789     5.83258984
O      3.98644768     4.64226505     8.73259872
O      6.29909277     3.76352761     0.60000009
O      8.20003538     4.92510624     3.73935107
O      6.21791010     5.93869317     7.07808158
O      6.29903538     5.97264328     2.16203581
O      6.38971342     3.80964104     5.42296864
O      8.18840295     4.84359853     8.63367841
O     -3.26640042     7.07715142     0.60000009
O     -1.35868606     8.16807257     3.77309340
O     -3.27927937     9.44494242     7.06555593
O     -3.26640042     9.28616768     2.16203581
O     -3.26080529     7.10057210     5.50780087
O     -1.44841756     8.23464872     8.63597015
O      0.55984277     7.07715142     0.60000009
O      2.47490570     8.16189938     3.74505215
O      0.53657872     9.28495913     6.99222415
O      0.55984277     9.28616768     2.16203581
O      0.59725081     7.05665590     5.39929092
O      2.63730821     8.06090304     8.69504830
O      4.38597118     7.07715142     0.60000009
O      6.33114651     8.15071536     3.74051033
O      4.43238735     9.31002698     6.96204528
O      4.38597118     9.28616768     2.16203581
O      4.41136754     7.13961019     5.39745576
O      6.32690322     8.21340861     8.62135134
Ce     2.47284958     1.55451135     1.38101795
Ce     0.49288819     2.60958612     4.54407067
Ce     0.46341283     0.48632089     7.74299734
Ce     6.29909277     1.55451135     1.38101795
Ce     4.40425218     2.65626799     4.56808343
Ce     4.46026450     0.42519506     7.73717420
Ce    10.12522118     1.55451135     1.38101795
Ce     8.19384717     2.64933119     4.54357093
Ce     8.21755681     0.43068301     7.91636794
Ce     0.55978538     4.86803574     1.38101795
Ce    -1.34262934     5.97318052     4.59467160
Ce    -1.41355285     3.66647591     7.72779547
Ce     4.38602857     4.86803574     1.38101795
Ce     2.48585191     6.01550799     4.56093208
Ce     8.21215698     4.86803574     1.38101795
Ce     6.30185812     5.98314446     4.57858113
Ce     6.38265120     3.73215711     7.75895921
Ce    -1.35333621     8.18165955     1.38101795
Ce    -3.26337977     9.29944314     4.57680939
Ce    -3.24781874     7.10430108     7.83117676
Ce     2.47290698     8.18165955     1.38101795
Ce     0.58189765     9.29111504     4.58520560
Ce     0.62078627     7.07441600     7.81895446
Ce     6.29903538     8.18165955     1.38101795
Ce     4.37956871     9.28641627     4.55309921
Ce     4.41235333     7.18465849     7.77658449
Re     2.70865827     3.87079419     7.68597379
