84
CIF: 1-NH3-NH2+H_is.cif | data_image0
Ce    11.57238343     0.02606703     8.76285640
Ce     1.94094033     1.09814165     5.62495248
Ce     0.00000000     2.23543938     2.47426506
Ce    -1.85533945    10.05502214     8.85533937
Ce     5.79986706     1.10784220     5.61929003
Ce     3.87189458     2.23543938     2.47426506
Ce     7.69763148     0.07115340     8.84244280
Ce     9.67210679     1.12276456     5.63432418
Ce     7.74390532     2.23543938     2.47426506
Ce     9.59589367     3.35913809     8.84307912
Ce     0.00842594     4.41971234     5.59544167
Ce    -1.93600537     5.58869904     2.47426506
Ce     1.93867337     3.18019388     8.78250296
Ce     3.86081959     4.47755145     5.65670649
Ce     1.93588921     5.58869904     2.47426506
Ce     5.78316666     3.36838059     8.77276128
Ce     7.74875360     4.48320820     5.61917380
Ce     5.80789995     5.58869904     2.47426506
Ce    -3.82661251     6.63948079     8.85580725
Ce    -1.95417845     7.83491994     5.61095936
Ce    -3.87195266     8.94185811     2.47426506
Ce     1.98525382     7.84299378     5.59540508
Ce    -0.00005808     8.94185811     2.47426506
Ce     4.02391296     6.79173397     8.78247742
Ce     5.82774692     7.82982672     5.62496738
Ce     3.87195266     8.94185811     2.47426506
Fe     0.04577321     6.68147514     8.10955065
O     11.59663114     0.01080968     6.41759600
O     -0.12606127     2.18918905     9.56761009
O      1.93594729     1.11771969     3.26466483
O     -0.00744969     2.22104224     4.79701570
O      0.00000000     0.00000000     1.68386529
O      1.92620512     1.03787035     7.98072954
O     -1.93980455     9.98924621     6.45551980
O      3.96975931     2.16663688     9.60774013
O      5.80795803     1.11771969     3.26466483
O      3.86371451     2.21539373     4.82803769
O      3.87189458     0.00000000     1.68386529
O      5.82883805     1.15759945     7.88158921
O      1.94464570     9.96706616     6.45889662
O      7.71138676     2.25492695     9.58406293
O      9.67985261     1.11771969     3.26466483
O      7.74896906     2.23263548     4.84860041
O      7.74390532     0.00000000     1.68386529
O      9.62874271     1.14903832     7.93166433
O     -1.85114817     3.39308727     6.45825496
O     -2.36381074     5.29785992     9.86968076
O      0.00000000     4.47087876     3.26466483
O     -1.93005079     5.58764897     4.80541814
O     -1.93594729     3.35315907     1.68386529
O      0.07420488     4.80087069     8.10746738
O      1.88902204     3.31845272     6.39897369
O      3.87201074     4.47087876     3.26466483
O      1.94700513     5.58264148     4.81691176
O      1.93594729     3.35315907     1.68386529
O      3.80657265     4.50957917     8.03885587
O      5.75520334     3.38420648     6.40841175
O      5.91744795     5.53983801     9.60824450
O      7.74390532     4.47087876     3.26466483
O      5.82125951     5.60600549     4.82815232
O      5.80795803     3.35315907     1.68386529
O      7.72087918     4.43417157     7.88159807
O     -3.81230933     6.74531308     6.45517034
O     -3.70614108     8.84693068     9.56134526
O     -1.93600537     7.82413842     3.26466483
O     -3.87256986     8.94253320     4.80663686
O     -3.87195266     6.70641873     1.68386529
O     -1.60876437     7.63524113     8.05021311
O      0.02715280     6.69187692     6.29719292
O      0.03762606     9.45777350     9.86778037
O      1.93600537     7.82413842     3.26466483
O      0.00399696     8.93814300     4.80528442
O     -0.00005808     6.70641873     1.68386529
O      1.68844600     7.59670978     8.10719615
O      3.87912970     6.76490720     6.39887331
O      3.84979549     9.07621191     9.56703278
O      5.80789995     7.82413842     3.26466483
O      3.88060474     8.95601034     4.79667601
O      3.87195266     6.70641873     1.68386529
O      5.87336969     7.87284458     7.98069144
N     -0.07294936     6.74962186    10.09320673
H     -0.98420625     6.23822670    10.27112028
H     -0.08487819     7.79556884    10.26941244
H      0.69332022     6.30746203    10.60511665
