82
CIF: NO.cif | data_image0
Ce     0.02098651     0.02905828     8.77932624
Ce     1.94397604     1.14651864     5.60336491
Ce     0.00000000     2.23543938     2.47426506
Ce    -2.00356527    10.04481012     8.73083989
Ce     5.82119401     1.11063404     5.62828139
Ce     3.87189458     2.23543938     2.47426506
Ce     7.81866677     0.13104404     8.81094780
Ce     9.71112003     1.10498252     5.60843867
Ce     7.74390532     2.23543938     2.47426506
Ce    -1.86432956     3.39820951     8.74001570
Ce     0.00899422     4.51734293     5.65050741
Ce    -1.93600537     5.58869904     2.47426506
Ce     1.96924287     3.32565865     8.80420306
Ce     3.87699640     4.47630534     5.65731814
Ce     1.93588921     5.58869904     2.47426506
Ce     5.85359146     3.32745515     8.80929153
Ce     7.75794148     4.46582583     5.63502966
Ce     5.80789995     5.58869904     2.47426506
Ce    -3.84451634     6.75703068     8.75420465
Ce    -1.94978952     7.84320794     5.60418477
Ce    -3.87195266     8.94185811     2.47426506
Ce     1.91352607     7.78986993     5.55416202
Ce    -0.00005808     8.94185811     2.47426506
Ce     4.03901790     6.66176948     8.89079130
Ce     5.79292885     7.81934503     5.62902505
Ce     3.87195266     8.94185811     2.47426506
Fe    -0.05732156     6.57592379     8.65142097
O     11.59985763     0.00973055     6.42905182
O     -0.09569567     2.21060581     9.57456304
O      1.93594729     1.11771969     3.26466483
O     -0.00044841     2.23584782     4.81034735
O      0.00000000     0.00000000     1.68386529
O      1.94262245     1.09168040     7.95485743
O      3.92275151     0.11263101     6.36545388
O      4.01441802     2.11213741     9.59870739
O      5.80795803     1.11771969     3.26466483
O      3.89844589     2.27406118     4.80679882
O      3.87189458     0.00000000     1.68386529
O      5.89266467     1.04424139     8.02736011
O      1.98336957     9.86968906     6.55223604
O      7.78940648     2.21270937     9.63687284
O      9.67985261     1.11771969     3.26466483
O      7.76303599     2.18158369     4.84574707
O      7.74390532     0.00000000     1.68386529
O      9.65378245     1.19351094     7.93208042
O     -1.88019375     3.36937261     6.41739885
O     -1.72294828     5.94423580     9.32978335
O      0.00000000     4.47087876     3.26466483
O     -1.91613038     5.60138371     4.82082178
O     -1.93594729     3.35315907     1.68386529
O     -0.00517506     4.60505851     8.03162271
O      1.92800841     3.36936510     6.39282160
O      3.87201074     4.47087876     3.26466483
O      1.93018941     5.59902815     4.81481618
O      1.93594729     3.35315907     1.68386529
O      3.96268278     4.44116520     7.99950027
O      5.85854895     3.32296141     6.45706893
O      5.98409003     5.51570758     9.63146741
O      7.74390532     4.47087876     3.26466483
O      5.76202997     5.57647217     4.83031232
O      5.80795803     3.35315907     1.68386529
O      7.84246793     4.44943164     8.01010056
O      7.68100458     6.61722972     6.36502168
O     -3.94359698     9.03615988     9.68984531
O     -1.93600537     7.82413842     3.26466483
O     -3.88247375     8.95022129     4.82431065
O     -3.87195266     6.70641873     1.68386529
O     -2.37153116     8.09001118     7.76415615
O     -0.00251961     6.80355085     6.47978605
O     -0.04766304     8.34743291     9.07887297
O      1.93600537     7.82413842     3.26466483
O      0.01926723     8.95722771     4.79117923
O     -0.00005808     6.70641873     1.68386529
O      1.71304431     6.42906938     8.82328288
O      3.78995971     6.79131980     6.47609375
O      3.76390182     9.01930105     9.47059154
O      5.80789995     7.82413842     3.26466483
O      3.87136192     8.94260012     4.78724022
O      3.87195266     6.70641873     1.68386529
O      5.87680136     7.85501364     7.98409862
O      3.04953904     5.01749453    12.16145473
N      3.05909172     5.08521428    10.97833048
