    85
 Tv_1:  11.598200   0.000000   0.000000 Tv_2:  -5.799100  10.044336   0.000000 Tv_3:   0.000000   0.000000  22.891600
Ce      2.14549170      1.20739566      3.18840351
Ce      0.22293439      2.36619202      9.49326960
Ce      0.22663516      0.08553348      6.35004579
Ce      6.01138229      1.20739713      3.18742656
Ce      4.03364901      2.26053170      9.51627347
Ce      4.08362440      0.11273620      6.32645395
Ce      9.87818175      1.20685768      3.18695180
Ce      7.97596882      2.36772786      9.53345943
Ce      7.93485365      0.08908457      6.35635242
Ce      0.21285633      4.55518387      3.18742160
Ce     -1.65425798      5.71514067      9.46024457
Ce     -1.71655473      3.44343523      6.34011236
Ce      4.07843690      4.55531598      3.18937299
Ce      2.15812093      3.48900633      6.34466914
Ce      7.94436553      4.55555977      3.18810094
Ce      6.15860611      5.69298800      9.42665737
Ce      6.01174068      3.44277187      6.34234451
Ce     -1.72078137      7.90344947      3.18770689
Ce     -3.66151239      9.02862094      9.47922549
Ce     -3.64576592      6.79956649      6.30233715
Ce      2.14628194      7.90242955      3.18919421
Ce      0.19828799      8.90611831      9.46145232
Ce      0.21541717      6.78759921      6.30462492
Ce      6.01162297      7.90288143      3.18931993
Ce      4.04488177      8.98724549      9.51213641
Ce      4.03252288      6.74655005      6.34900224
O       0.21300556      2.32316985      2.39899322
O       2.06922364      1.18477336     10.19381751
O       2.12851487      1.20084274      5.52624715
O       0.28822972      2.35420515      7.21413328
O       0.16415206      0.07480229      8.68144189
O       0.21301035      0.09071481      3.97754309
O       4.07824975      2.32369339      2.39946040
O       6.09054897      1.42301151     10.41568855
O       6.02742872      1.22898683      5.53044042
O       4.05324075      2.29503795      7.12790207
O       4.13271020      0.07097138      8.74171614
O       4.07820994      0.09143008      3.97680283
O       7.94452950      2.32346562      2.39891413
O       9.89160499      1.20950649     10.28510231
O       9.89449652      1.18550160      5.58298115
O       7.94828550      2.32210950      7.19964689
O       7.90094596      0.07322944      8.79889649
O       7.94490288      0.09073189      3.97559840
O      -1.72074770      5.67157179      2.39888944
O       0.32930570      4.71370354     10.15773938
O       0.17441161      4.51788354      5.51185740
O      -1.75998806      5.63041631      7.09900591
O      -1.67403008      3.44911293      8.72686466
O      -1.72045329      3.43929750      3.97570626
O       2.14603769      5.67117653      2.39942667
O       3.33761688      3.79986711     11.55139316
O       4.11792926      4.54192385      5.53560867
O       2.11470663      5.69911928      6.90968257
O       2.31662630      3.67362362      8.78377317
O       2.14580385      3.43927627      3.97827219
O       6.01112298      5.67146803      2.39978833
O       7.99301282      4.59435610     10.24949130
O       7.93329581      4.53819389      5.52527189
O       6.04216057      5.74121356      7.12945614
O       5.95166566      3.54802966      8.66298619
O       6.01109539      3.43958939      3.97728058
O      -3.65393611      9.01938956      2.39950114
O      -1.73935344      7.91185178     10.33831581
O      -1.73186448      7.91975635      5.52386463
O      -3.64032360      9.04620248      7.16382273
O      -3.62215014      6.82020912      8.67261938
O      -3.65404964      6.78724985      3.97819084
O       0.21274750      9.01910882      2.39899230
O       2.09854773      7.68364236     10.14452884
O       2.15770500      7.96026882      5.51043804
O       0.23252189      9.07803971      7.10883827
O       0.00859336      6.91903985      8.54501261
O       0.21298378      6.78697620      3.97709496
O       4.07902407      9.01826616      2.40012423
O       5.97896234      7.88130873     10.22851375
O       6.00598336      7.93353801      5.53430218
O       4.04119338      8.90962274      7.25481936
O       4.01158727      6.37919550      8.86318421
O       4.07907082      6.78657154      3.97916602
O       5.06867354      3.00635309     11.26252511
Pd      2.20073398      5.61444123      9.56940495
C       3.01552791      5.07530037     11.45013726
H       2.09150148      5.31374714     12.01010531
H       3.80906389      5.83819005     11.56306762
