    85
 Tv_1:  11.598200   0.000000   0.000000 Tv_2:  -5.799100  10.044336   0.000000 Tv_3:   0.000000   0.000000  22.891600
Ce      2.14531905      1.20773094      3.19108904
Ce      0.25832853      2.39283025      9.49711061
Ce      0.22745828      0.08549149      6.35772073
Ce      6.01134706      1.20773094      3.19108904
Ce      4.07145461      2.26916777      9.52787615
Ce      4.07943048      0.10407705      6.33432343
Ce      9.87749105      1.20773094      3.19108904
Ce      8.07268252      2.36947293      9.50802329
Ce      7.93949675      0.08473661      6.35875755
Ce      0.21230505      4.55580941      3.19108904
Ce     -1.67878157      5.71620691      9.46302336
Ce     -1.71137989      3.44764631      6.32770425
Ce      4.07833306      4.55580941      3.19108904
Ce      2.16420045      3.48905758      6.34788675
Ce      7.94447705      4.55580941      3.19108904
Ce      6.09708045      5.67901947      9.48348432
Ce      6.01220869      3.43262069      6.35899399
Ce     -1.72076694      7.90398832      3.19108904
Ce     -3.66648794      9.02860158      9.47870584
Ce     -3.66051205      6.78662189      6.32059235
Ce      2.14526106      7.90398832      3.19108904
Ce      0.18863463      8.86708470      9.45943823
Ce      0.20796629      6.78465096      6.29973445
Ce      6.01140505      7.90398832      3.19108904
Ce      4.03462565      8.95919497      9.48904926
Ce      4.03236501      6.74651488      6.35136792
O       0.21230505      2.32375710      2.40201559
O       2.08957540      1.24324706     10.21625136
O       2.13771926      1.20120400      5.53315061
O       0.30137055      2.35684857      7.21687604
O       0.18463133      0.07415995      8.69693825
O       0.21230505      0.09170479      3.98039141
O       4.07833306      2.32375710      2.40201559
O       6.21199152      1.07194824     10.43457353
O       6.02477703      1.23048605      5.54404320
O       4.06090749      2.30545945      7.15732083
O       4.09823129      0.07387999      8.73649884
O       4.07833306      0.09170479      3.98039141
O       7.94436106      2.32375710      2.40201559
O       9.90696853      1.24861182     10.28297009
O       9.89909246      1.19314804      5.58074405
O       7.96416125      2.33490993      7.19695131
O       7.93859910      0.07468633      8.76517797
O       7.94436106      0.09170479      3.98039141
O      -1.72076694      5.67193601      2.40201559
O       0.33081557      4.71263978     10.19553122
O       0.16787525      4.51433965      5.50901543
O      -1.77640285      5.63280761      7.09487961
O      -1.65794707      3.46261617      8.71529022
O      -1.72070895      3.43978325      3.98039141
O       2.14526106      5.67193601      2.40201559
O       4.37117332      4.48156992     10.84279797
O       4.12913063      4.53005309      5.53681304
O       2.11362233      5.68418018      6.86740801
O       2.32728131      3.69033529      8.82716230
O       2.14531905      3.43978325      3.98039141
O       6.01128907      5.67193601      2.40201559
O       7.99384800      4.57221040     10.26665455
O       7.92145871      4.53615913      5.52810500
O       6.02003154      5.68048060      7.17780916
O       5.98339174      3.43510175      8.77641141
O       6.01134706      3.43978325      3.98039141
O      -3.65378095      9.02001447      2.40201559
O      -1.75361348      7.88754173     10.32008259
O      -1.74030877      7.91803828      5.52825856
O      -3.64737438      9.03668059      7.16463553
O      -3.64266940      6.81676334      8.68668588
O      -3.65378095      6.78796216      3.98039141
O       0.21224706      9.02001447      2.40201559
O       2.07116677      7.70871656     10.17715220
O       2.15575499      7.96371686      5.51442992
O       0.22440267      9.06511756      7.11506314
O       0.02544654      6.86575932      8.53898663
O       0.21224706      6.78796216      3.98039141
O       4.07827507      9.02001447      2.40201559
O       5.96039157      7.86888485     10.23548061
O       6.00917465      7.91261934      5.54549040
O       4.06351106      8.93490868      7.22563646
O       3.95714884      6.51360174      8.79809211
O       4.07827507      6.78796216      3.98039141
O       5.21134409      1.56391395     11.35206684
Pd      2.15965669      5.66318552      9.56298670
C       3.25667440      5.07723574     11.24652112
H       2.49311607      4.43102044     11.71685027
H       3.36382275      6.06809478     11.72238581
