    84
 Tv_1:  11.598200   0.000000   0.000000 Tv_2:  -5.799100  10.044336   0.000000 Tv_3:   0.000000   0.000000  22.891600
Ce      2.14531905      1.20773094      3.19108904
Ce      0.26266682      2.34515602      9.49193274
Ce      0.23438360      0.07888929      6.34939812
Ce      6.01134706      1.20773094      3.19108904
Ce      4.18335935      2.35973712      9.55830168
Ce      4.07875921      0.12187619      6.34071397
Ce      9.87749105      1.20773094      3.19108904
Ce      8.00995474      2.28756627      9.50799539
Ce      7.95895223      0.08115158      6.34752382
Ce      0.21230505      4.55580941      3.19108904
Ce     -1.74629780      5.74111846      9.46160742
Ce     -1.70306672      3.43354053      6.34829166
Ce      4.07833306      4.55580941      3.19108904
Ce      2.16483051      3.44019772      6.35765166
Ce      7.94447705      4.55580941      3.19108904
Ce      6.03048967      5.56144613      9.55820316
Ce      6.02859735      3.43039013      6.33296985
Ce     -1.72076694      7.90398832      3.19108904
Ce     -3.66358329      9.02415736      9.49325041
Ce     -3.67980587      6.77218911      6.34071165
Ce      2.14526106      7.90398832      3.19108904
Ce      0.14179626      9.00921283      9.45977688
Ce      0.13260077      6.83438011      6.31673214
Ce      6.01140505      7.90398832      3.19108904
Ce      4.08173115      8.96433578      9.48819962
Ce      4.08742039      6.77070855      6.35581696
O       0.21230505      2.32375710      2.40201559
O       2.10875006      1.27414488     10.20815613
O       2.14028777      1.21689406      5.53376553
O       0.29542130      2.34778753      7.19998782
O       0.18954089      0.10138462      8.68546354
O       0.21230505      0.09170479      3.98039141
O       4.07833306      2.32375710      2.40201559
O       6.06188393      1.18674291     10.28161615
O       6.02864853      1.23713364      5.51861071
O       4.07261145      2.31695699      7.14346408
O       4.07567621      0.08174296      8.69445185
O       4.07833306      0.09170479      3.98039141
O       7.94436106      2.32375710      2.40201559
O       9.91351318      1.18885642     10.30139028
O       9.91713892      1.18543935      5.55805721
O       8.00952315      2.28901988      7.15324875
O       7.98554527      0.04233951      8.73750964
O       7.94436106      0.09170479      3.98039141
O      -1.72076694      5.67193601      2.40201559
O       0.42597710      4.84486096      9.97106137
O       0.24484350      4.56479583      5.54072881
O      -1.79465583      5.59710125      7.08130495
O      -1.65045200      3.43318939      8.74087465
O      -1.72070895      3.43978325      3.98039141
O       2.14526106      5.67193601      2.40201559
O       3.28343498      5.97983588     12.83810820
O       4.03835877      4.57856188      5.56246530
O       2.02221193      5.74366812      7.28259316
O       2.34503133      3.65391517      8.74458348
O       2.14531905      3.43978325      3.98039141
O       6.01128907      5.67193601      2.40201559
O       7.98838774      4.52313925     10.28192581
O       7.92822257      4.52676043      5.51795373
O       6.01497788      5.67953916      7.14215092
O       6.09048647      3.39399043      8.61533227
O       6.01134706      3.43978325      3.98039141
O      -3.65378095      9.02001447      2.40201559
O      -1.84070579      7.97175008     10.39451241
O      -1.74558460      7.91825449      5.53402210
O      -3.66315210      9.02530178      7.14755940
O      -3.64915059      6.79547732      8.69552242
O      -3.65378095      6.78796216      3.98039141
O       0.21224706      9.02001447      2.40201559
O       2.00729139      7.58839062      9.95179828
O       2.15335190      7.87155482      5.53953236
O       0.24102676      9.12122092      7.08013373
O      -0.23429558      7.04542960      8.50127530
O       0.21224706      6.78796216      3.98039141
O       4.07827507      9.02001447      2.40201559
O       5.92852620      7.89725160     10.21782982
O       6.00086797      7.90376497      5.53347934
O       4.09716484      8.93592860      7.19742052
O       3.99552325      6.50665044      8.74122694
O       4.07827507      6.78796216      3.98039141
O       4.57862682      4.26492234     10.58018320
O       2.35785788      3.81813168     12.75121409
Pd      2.16455405      5.66356234      9.26271994
C       2.83594979      4.89405851     12.77573141
