    84
 Tv_1:  11.598200   0.000000   0.000000 Tv_2:  -5.799100  10.044336   0.000000 Tv_3:   0.000000   0.000000  22.891600
Ce      2.14586162      1.20774649      3.18673837
Ce      0.23062535      2.35879283      9.49451812
Ce      0.23248900      0.08326149      6.34471551
Ce      6.01152485      1.20768030      3.18573445
Ce      4.11853431      2.23209439      9.57207523
Ce      4.07902658      0.11462412      6.32267132
Ce      9.87815635      1.20753893      3.18504437
Ce      7.97901996      2.31151186      9.53134309
Ce      7.94244400      0.09026311      6.34459108
Ce      0.21355501      4.55462728      3.18639556
Ce     -1.68398127      5.72716097      9.45158753
Ce     -1.71634986      3.44402198      6.34567184
Ce      4.07883657      4.55499925      3.18789941
Ce      2.16782462      3.47636350      6.36477611
Ce      7.94455564      4.55508503      3.18615903
Ce      6.14550794      5.68754954      9.46563564
Ce      6.00678212      3.43548416      6.35360007
Ce     -1.71990596      7.90311346      3.18421428
Ce     -3.65658610      9.02903047      9.48385073
Ce     -3.65682937      6.78903219      6.30369533
Ce      2.14641769      7.90302175      3.18495877
Ce      0.17973179      8.95984184      9.45918147
Ce      0.19053457      6.80153520      6.30761271
Ce      6.01200340      7.90346639      3.18560505
Ce      4.06203151      8.97917687      9.47428851
Ce      4.05026040      6.75997291      6.34880009
O       0.21337083      2.32353011      2.39771867
O       2.07629989      1.21850975     10.21680820
O       2.13219909      1.21222476      5.52906281
O       0.30540339      2.36645543      7.22125519
O       0.16966770      0.09121912      8.68264111
O       0.21303688      0.09147395      3.97416159
O       4.07847314      2.32397125      2.39821151
O       6.10402532      1.12158952     10.26715802
O       6.02915720      1.23625048      5.51833725
O       4.07435969      2.29770051      7.12583220
O       4.07833688      0.06371831      8.70709584
O       4.07872136      0.09117390      3.97393984
O       7.94441124      2.32371559      2.39715330
O       9.88342612      1.20783176     10.29883858
O       9.89894456      1.20154468      5.58044043
O       7.92854142      2.32852778      7.19940160
O       7.99068800      0.05841410      8.71979969
O       7.94514842      0.09139815      3.97311565
O      -1.72000209      5.67066916      2.39711689
O       0.35442725      4.73416695      9.97060065
O       0.20439227      4.53333131      5.52154177
O      -1.77101645      5.61409947      7.08720334
O      -1.69739729      3.42052805      8.72773875
O      -1.72010189      3.43910948      3.97476177
O       2.14642244      5.67057410      2.39788459
O       4.10189639      4.76578823     11.00687313
O       4.08420506      4.56030753      5.55056347
O       2.07852986      5.70820169      7.08534039
O       2.41206656      3.66818839      8.82025900
O       2.14640220      3.43913516      3.97804205
O       6.01128060      5.67099965      2.39780551
O       7.97693558      4.58607608     10.24955794
O       7.92711222      4.53141983      5.52284303
O       6.03636709      5.70317937      7.14677513
O       5.94725904      3.50759755      8.73712595
O       6.01155516      3.43929645      3.97661535
O      -3.65332927      9.02001350      2.39648676
O      -1.78897652      7.93006101     10.34679224
O      -1.73524619      7.91540549      5.52418470
O      -3.65965039      9.03461559      7.14455411
O      -3.62882329      6.81077804      8.66468076
O      -3.65320399      6.78716241      3.97370507
O       0.21302127      9.01954365      2.39649669
O       2.07620553      7.66800809     10.04100967
O       2.15642175      7.91963247      5.51961492
O       0.23543629      9.10536938      7.09174542
O      -0.08858780      6.97450487      8.52006194
O       0.21372043      6.78651881      3.97362962
O       4.07916296      9.01947379      2.39699953
O       5.98833696      7.87805840     10.21582781
O       6.00805407      7.91191242      5.52581866
O       4.08766385      8.92658542      7.19778473
O       4.02194809      6.51065051      8.77855285
O       4.07937238      6.78685335      3.97537793
O       4.93818189      2.93647581     11.47968671
O       2.16481681      4.96569070     12.28691224
Pd      2.20601442      5.66359053      9.42782682
C       2.93183827      5.04154963     11.37823795
