    82
 Tv_1:  11.598200   0.000000   0.000000 Tv_2:  -5.799100  10.044336   0.000000 Tv_3:   0.000000   0.000000  22.891600
Ce      2.14531905      1.20773094      3.19108904
Ce      0.23537310      2.38502334      9.51026092
Ce      0.22825204      0.08178173      6.36467786
Ce      6.01134706      1.20773094      3.19108904
Ce      4.10063925      2.17856432      9.44801345
Ce      4.07769981      0.08738207      6.30689045
Ce      9.87749105      1.20773094      3.19108904
Ce      7.97297306      2.30645684      9.52802445
Ce      7.94098562      0.08450073      6.35055289
Ce      0.21230505      4.55580941      3.19108904
Ce     -1.65689377      5.70764801      9.46488093
Ce     -1.71668013      3.44545169      6.35053235
Ce      4.07833306      4.55580941      3.19108904
Ce      2.15856544      3.49350429      6.35262236
Ce      7.94447705      4.55580941      3.19108904
Ce      6.14764479      5.72392647      9.44705759
Ce      6.01043007      3.43975185      6.34684904
Ce     -1.72076694      7.90398832      3.19108904
Ce     -3.65753335      9.02117724      9.48908668
Ce     -3.65064250      6.78989050      6.30654978
Ce      2.14526106      7.90398832      3.19108904
Ce      0.21263647      8.94546910      9.46481776
Ce      0.22062312      6.78259201      6.32478418
Ce      6.01140505      7.90398832      3.19108904
Ce      4.03501519      8.96728341      9.51076626
Ce      4.03787725      6.74839763      6.35253094
O       0.21230505      2.32375710      2.40201559
O       2.15905825      1.22624320     10.24504441
O       2.13450596      1.20370369      5.53278139
O       0.30491154      2.36650756      7.23284525
O       0.19470438      0.10072379      8.71690758
O       0.21230505      0.09170479      3.98039141
O       4.07833306      2.32375710      2.40201559
O       6.00924210      1.19030162     10.25764104
O       6.02257883      1.23146752      5.52664860
O       4.07205560      2.28064416      7.15220093
O       4.07163212      0.05088260      8.67702485
O       4.07833306      0.09170479      3.98039141
O       7.94436106      2.32375710      2.40201559
O       9.86082562      1.21603609     10.30625210
O       9.89344446      1.19785191      5.59644228
O       7.90496166      2.34621024      7.21503635
O       7.96839288      0.07549431      8.72281260
O       7.94436106      0.09170479      3.98039141
O      -1.72076694      5.67193601      2.40201559
O       0.29468685      4.64563447     10.15327726
O       0.16846473      4.51066490      5.51841672
O      -1.76326075      5.62405913      7.10717608
O      -1.69502339      3.42592366      8.72335100
O      -1.72070895      3.43978325      3.98039141
O       2.14526106      5.67193601      2.40201559
O       4.22162366      4.44994602     11.32386525
O       4.12930341      4.52591698      5.54029786
O       2.12454286      5.68334979      6.86911325
O       2.39091665      3.66062785      8.83276016
O       2.14531905      3.43978325      3.98039141
O       6.01128907      5.67193601      2.40201559
O       7.95775487      4.56542171     10.25790072
O       7.92920167      4.53362294      5.52635198
O       6.04513352      5.69790435      7.15183884
O       5.87530811      3.51772112      8.79524726
O       6.01134706      3.43978325      3.98039141
O      -3.65378095      9.02001447      2.40201559
O      -1.75973324      7.92515711     10.33103484
O      -1.73339911      7.91085431      5.52645637
O      -3.66439778      9.02551304      7.15014322
O      -3.62283380      6.81267907      8.67676373
O      -3.65378095      6.78796216      3.98039141
O       0.21224706      9.02001447      2.40201559
O       2.10766398      7.78732572     10.15268225
O       2.16220143      7.96383821      5.51829938
O       0.23176383      9.07950441      7.10720170
O       0.01015522      6.90356165      8.55799059
O       0.21224706      6.78796216      3.98039141
O       4.07827507      9.02001447      2.40201559
O       6.00082835      7.88067709     10.24507121
O       6.00920426      7.91466580      5.53269579
O       4.08670793      8.91643438      7.23340117
O       4.00909511      6.45970335      8.83370935
O       4.07827507      6.78796216      3.98039141
Pd      2.23126533      5.61903805      9.65087325
C       3.19875852      5.06188510     11.43219019
