    83
 Tv_1:  11.598200   0.000000   0.000000 Tv_2:  -5.799100  10.044336   0.000000 Tv_3:   0.000000   0.000000  22.891600
Ce      2.14531905      1.20773094      3.19108904
Ce      0.20853914      2.36867924      9.53193335
Ce      0.21924165      0.09869895      6.35428326
Ce      6.01134706      1.20773094      3.19108904
Ce      4.01079560      2.17269638      9.44654907
Ce      4.08110029      0.07497910      6.30834946
Ce      9.87749105      1.20773094      3.19108904
Ce      7.92281429      2.32263061      9.48948436
Ce      7.93504215      0.08242498      6.34678269
Ce      0.21230505      4.55580941      3.19108904
Ce     -1.66063649      5.59511775      9.55575950
Ce     -1.72352322      3.44543544      6.33558371
Ce      4.07833306      4.55580941      3.19108904
Ce      2.14590880      3.43070431      6.40248189
Ce      7.94447705      4.55580941      3.19108904
Ce      6.16083075      5.75203374      9.46164780
Ce      5.99590360      3.44759917      6.34679689
Ce     -1.72076694      7.90398832      3.19108904
Ce     -3.62513601      9.00329296      9.52974440
Ce     -3.62695352      6.78975731      6.32790792
Ce      2.14526106      7.90398832      3.19108904
Ce      0.19611942      9.03153407      9.51352947
Ce      0.20830042      6.77782175      6.32487285
Ce      6.01140505      7.90398832      3.19108904
Ce      4.11349090      9.09467111      9.51322321
Ce      4.10379307      6.79451913      6.32829625
O       0.21230505      2.32375710      2.40201559
O       2.20501727      1.11566617     10.37236343
O       2.14326062      1.20253997      5.54283621
O       0.21445666      2.33816711      7.15187822
O       0.22821607      0.10791951      8.72010398
O       0.21230505      0.09170479      3.98039141
O       4.07833306      2.32375710      2.40201559
O       5.98476646      1.18537759     10.27609319
O       6.01484791      1.19763755      5.51982995
O       4.10824378      2.28223295      7.12204716
O       4.07181293      0.05842908      8.66371424
O       4.07833306      0.09170479      3.98039141
O       7.94436106      2.32375710      2.40201559
O       9.83621675      1.20122597     10.30070293
O       9.86208680      1.20782667      5.55531824
O       7.85709101      2.35181752      7.17018897
O       7.94474100      0.13219463      8.67214648
O       7.94436106      0.09170479      3.98039141
O      -1.72076694      5.67193601      2.40201559
O      -0.17606651      4.29524921     10.48240268
O       0.21829686      4.55631143      5.53420013
O      -1.69582744      5.67624553      7.14882051
O      -1.78155424      3.40040277      8.62749549
O      -1.72070895      3.43978325      3.98039141
O       2.14526106      5.67193601      2.40201559
O       3.88626340      4.56619026     10.85433714
O       4.09183433      4.56084250      5.55136096
O       2.16135423      5.65253980      7.12398599
O       2.21458062      3.29480467      8.74040592
O       2.14531905      3.43978325      3.98039141
O       6.01128907      5.67193601      2.40201559
O       7.93527872      4.54704619     10.29935026
O       7.94683211      4.55740373      5.52895069
O       6.06013834      5.69385157      7.14511280
O       5.85557409      3.54146054      8.80553686
O       6.01134706      3.43978325      3.98039141
O      -3.65378095      9.02001447      2.40201559
O      -1.70158543      7.93268986     10.31700849
O      -1.71419344      7.89849896      5.51967197
O      -3.65651655      9.00460296      7.14501124
O      -3.60555786      6.77614623      8.70189477
O      -3.65378095      6.78796216      3.98039141
O       0.21224706      9.02001447      2.40201559
O       2.19313093      8.05431612     10.35413639
O       2.15781601      7.90671698      5.53139171
O       0.20790344      9.00968565      7.14652274
O       0.19961715      6.78380347      8.73948765
O       0.21224706      6.78796216      3.98039141
O       4.07827507      9.02001447      2.40201559
O       6.09083085      7.89915111     10.32152351
O       6.01264329      7.90589322      5.52866375
O       4.09899477      9.00974445      7.17275104
O       4.17091968      6.73324867      8.77286179
O       4.07827507      6.78796216      3.98039141
Pd      2.18009158      6.70061248      8.85100695
H       3.62126204      4.69462752     11.78392936
H       3.14148729      4.95039956     10.32165295
