    85
 Tv_1:  11.598200   0.000000   0.000000 Tv_2:  -5.799100  10.044336   0.000000 Tv_3:   0.000000   0.000000  22.891600
Ce      2.14545062      1.20806603      3.18921991
Ce      0.24866476      2.36276486      9.66381630
Ce      0.22826519      0.08093312      6.43807868
Ce      6.01161133      1.20801304      3.18853250
Ce      4.10888123      2.20159240      9.60316960
Ce      4.07880983      0.09218390      6.38376144
Ce      9.87815796      1.20818487      3.18958248
Ce      7.97830979      2.30267603      9.69920879
Ce      7.94937740      0.08622164      6.43092521
Ce      0.21274890      4.55571603      3.18998327
Ce     -1.66972964      5.71542393      9.62445223
Ce     -1.71495445      3.43617748      6.43114705
Ce      4.07847407      4.55595401      3.18984538
Ce      2.15349860      3.48212581      6.43143993
Ce      7.94489749      4.55572339      3.18959368
Ce      6.15345997      5.70819525      9.62082929
Ce      6.01580822      3.43919726      6.42377158
Ce     -1.72069699      7.90369549      3.18843932
Ce     -3.64767677      9.02071991      9.65731738
Ce     -3.65378174      6.78767643      6.38622219
Ce      2.14557751      7.90386908      3.18895893
Ce      0.19586473      8.95769319      9.62235298
Ce      0.20474846      6.79210945      6.39672549
Ce      6.01150706      7.90389202      3.18934480
Ce      4.06299997      8.97217740      9.66852942
Ce      4.04716846      6.75436479      6.43586729
O       0.21263767      2.32410404      2.40070095
O       2.17689191      1.24053983     10.47279973
O       2.14209397      1.22011406      5.60107057
O       0.29535666      2.35629685      7.31951189
O       0.20774479      0.09947471      8.86878006
O       0.21269410      0.09182757      3.97830021
O       4.07836534      2.32416363      2.40041687
O       6.00022735      1.16894845     10.47974897
O       6.02409910      1.23487598      5.59057272
O       4.08069359      2.29947040      7.25527344
O       4.07188226      0.04103841      8.80742162
O       4.07842715      0.09170607      3.97727392
O       7.94493674      2.32409470      2.40037120
O       9.89111602      1.19823498     10.52468743
O       9.89207160      1.19501589      5.65596308
O       7.92075099      2.33616291      7.31208619
O       7.97462772      0.06139261      8.89619827
O       7.94496455      0.09192966      3.97731567
O      -1.72034514      5.67146048      2.40082301
O       0.40117991      4.73714304     10.29663181
O       0.20348055      4.52926464      5.58973858
O      -1.76398814      5.61192489      7.19491920
O      -1.67749265      3.42826348      8.89315417
O      -1.71987182      3.44000413      3.97972649
O       2.14550747      5.67176499      2.40068119
O       3.82843404      4.20836573     11.58396322
O       4.09026146      4.55173774      5.61642597
O       2.09186763      5.70343661      7.18481416
O       2.37955270      3.65066394      8.97882881
O       2.14567170      3.44005027      3.97949841
O       6.01144982      5.67186020      2.40061695
O       7.98561789      4.58254352     10.48162712
O       7.92576366      4.53245797      5.59201933
O       6.03688923      5.68839099      7.26744025
O       5.92245500      3.49678907      8.97164685
O       6.01165229      3.44013771      3.97843110
O      -3.65383923      9.02003889      2.40012593
O      -1.75548598      7.92687453     10.54731290
O      -1.72937623      7.90879624      5.59336597
O      -3.66893985      9.02732093      7.23397765
O      -3.60790985      6.81727626      8.81389995
O      -3.65376809      6.78766638      3.97838541
O       0.21246961      9.01992091      2.39974330
O       2.07256008      7.63985890     10.27294169
O       2.16631673      7.92439384      5.59052741
O       0.24203467      9.08673103      7.19448417
O      -0.05598861      6.94111424      8.67087450
O       0.21260405      6.78774745      3.97823589
O       4.07863639      9.02010903      2.40033570
O       6.00362419      7.87042493     10.45727640
O       5.99690975      7.89863937      5.60151181
O       4.09181716      8.91899336      7.33191115
O       4.01978323      6.42405543      9.02452458
O       4.07851899      6.78794830      3.97874794
Pd      2.20849393      5.61726153      9.64965617
C       2.90261883      5.30592753     11.50753139
H       2.00881344      5.12816664     12.11754759
H       3.51400016      3.60250267     12.28195611
H       3.41955997      6.24476736     11.73639056
