    85
 Tv_1:  11.598200   0.000000   0.000000 Tv_2:  -5.799100  10.044336   0.000000 Tv_3:   0.000000   0.000000  22.891600
Ce      2.14531905      1.20773094      3.19108904
Ce      0.24955628      2.36816191      9.49755482
Ce      0.23491520      0.07745521      6.35267165
Ce      6.01134706      1.20773094      3.19108904
Ce      4.13074772      2.24201367      9.50677159
Ce      4.07615324      0.10284435      6.32083402
Ce      9.87749105      1.20773094      3.19108904
Ce      7.98403906      2.30017475      9.51051285
Ce      7.94795350      0.08244392      6.34551076
Ce      0.21230505      4.55580941      3.19108904
Ce     -1.69273708      5.72105892      9.45550877
Ce     -1.71109712      3.44048529      6.34740423
Ce      4.07833306      4.55580941      3.19108904
Ce      2.16410071      3.49300493      6.36177724
Ce      7.94447705      4.55580941      3.19108904
Ce      6.11140362      5.66734184      9.48372889
Ce      6.01783192      3.43342706      6.34480108
Ce     -1.72076694      7.90398832      3.19108904
Ce     -3.65696664      9.02027574      9.48717026
Ce     -3.66249039      6.78472448      6.31614509
Ce      2.14526106      7.90398832      3.19108904
Ce      0.18133607      8.97032480      9.45186795
Ce      0.20378484      6.79139679      6.31814526
Ce      6.01140505      7.90398832      3.19108904
Ce      4.05914769      8.97881384      9.49236356
Ce      4.03748719      6.74271099      6.35681571
O       0.21230505      2.32375710      2.40201559
O       2.13165588      1.23282101     10.22287899
O       2.13674717      1.20858489      5.53340159
O       0.31059410      2.36340766      7.22819593
O       0.18774557      0.09572855      8.70105507
O       0.21230505      0.09170479      3.98039141
O       4.07833306      2.32375710      2.40201559
O       6.03539721      1.16757073     10.24924653
O       6.02265815      1.23533268      5.52512282
O       4.06814083      2.30034829      7.16134312
O       4.06902210      0.05874292      8.68638198
O       4.07833306      0.09170479      3.98039141
O       7.94436106      2.32375710      2.40201559
O       9.88934825      1.19893537     10.30653397
O       9.90762155      1.18908562      5.58308721
O       7.95302238      2.31967003      7.18321893
O       7.98573423      0.06325332      8.72580603
O       7.94436106      0.09170479      3.98039141
O      -1.72076694      5.67193601      2.40201559
O       0.34067022      4.72989771     10.09544932
O       0.18752926      4.52289587      5.52133929
O      -1.77771526      5.61050444      7.09739326
O      -1.67531984      3.42252509      8.73265531
O      -1.72070895      3.43978325      3.98039141
O       2.14526106      5.67193601      2.40201559
O       3.44442965      4.16584999     11.61609209
O       4.10276580      4.54096414      5.54332191
O       2.09872519      5.69916022      6.99577401
O       2.38670219      3.67730558      8.83096525
O       2.14531905      3.43978325      3.98039141
O       6.01128907      5.67193601      2.40201559
O       7.97810040      4.55894260     10.25657578
O       7.92530258      4.53250515      5.52506531
O       6.02265175      5.69567182      7.15672887
O       5.99219681      3.45787696      8.71016386
O       6.01134706      3.43978325      3.98039141
O      -3.65378095      9.02001447      2.40201559
O      -1.79101614      7.93844300     10.35381769
O      -1.73650678      7.91244061      5.53118850
O      -3.66450295      9.02497677      7.14852158
O      -3.63733221      6.80803990      8.68322082
O      -3.65378095      6.78796216      3.98039141
O       0.21224706      9.02001447      2.40201559
O       2.05774122      7.70766342     10.08334693
O       2.16028717      7.94038839      5.51929137
O       0.23696791      9.09801529      7.09597235
O      -0.07561422      6.95202334      8.53243703
O       0.21224706      6.78796216      3.98039141
O       4.07827507      9.02001447      2.40201559
O       5.96644181      7.87693808     10.24085032
O       6.00578247      7.91002241      5.53117210
O       4.09035977      8.90683313      7.22525723
O       3.99718406      6.44293633      8.85267524
O       4.07827507      6.78796216      3.98039141
O       4.73703074      4.11931120     10.94264897
Pd      2.17765097      5.65217939      9.50618496
C       2.82960709      5.36791182     11.42405244
H       1.90586576      5.36032051     12.01699798
H       3.48842844      6.23495120     11.57292094
