    84
 Tv_1:  11.598200   0.000000   0.000000 Tv_2:  -5.799100  10.044336   0.000000 Tv_3:   0.000000   0.000000  22.891600
Ce      2.14545748      1.20815833      3.18898072
Ce      0.23753506      2.35818218      9.51130920
Ce      0.23470677      0.07658222      6.36280247
Ce      6.01154382      1.20794639      3.18656864
Ce      4.13553133      2.20682489      9.47531165
Ce      4.08386387      0.08972285      6.31582041
Ce      9.87869198      1.20804402      3.18812092
Ce      7.98791537      2.29693729      9.52455925
Ce      7.94873594      0.07759891      6.35034971
Ce      0.21275576      4.55619631      3.18757930
Ce     -1.65005388      5.70484984      9.46494871
Ce     -1.70787486      3.43923973      6.34874649
Ce      4.07846174      4.55618818      3.18578780
Ce      2.16665862      3.48925844      6.35020694
Ce      7.94543656      4.55645184      3.18629188
Ce      6.14006709      5.68793209      9.47235518
Ce      6.02058872      3.43329268      6.34498219
Ce     -1.72100314      7.90490406      3.18778487
Ce     -3.64384367      9.00685049      9.48356117
Ce     -3.64950720      6.78297845      6.31335845
Ce      2.14527962      7.90466088      3.18634041
Ce      0.21570909      8.93528643      9.46748196
Ce      0.22071205      6.78131712      6.31817622
Ce      6.01199981      7.90466530      3.18909884
Ce      4.04695743      8.94016344      9.51065973
Ce      4.04339843      6.74187207      6.35048925
O       0.21299497      2.32382068      2.39926837
O       2.16232564      1.21098532     10.23098717
O       2.14040221      1.20279908      5.53474028
O       0.31340290      2.35863986      7.23521761
O       0.20078364      0.08713332      8.71471647
O       0.21321748      0.09245650      3.97886706
O       4.07803736      2.32367945      2.39833096
O       6.02452918      1.19078931     10.26628976
O       6.02688087      1.22924563      5.52849601
O       4.07649574      2.28296566      7.16340088
O       4.08775682      0.05041418      8.69042194
O       4.07824810      0.09256950      3.97739238
O       7.94542253      2.32387703      2.39807320
O       9.88303884      1.20646043     10.30083935
O       9.90322102      1.19070165      5.59222122
O       7.93582855      2.32458588      7.20653210
O       7.97655101      0.04885871      8.73823723
O       7.94516169      0.09252481      3.97571649
O      -1.72022235      5.67271454      2.39871897
O       0.34743532      4.66179333     10.14868933
O       0.17618802      4.50857476      5.51678523
O      -1.75661019      5.61683844      7.10605469
O      -1.67318040      3.42465690      8.73170140
O      -1.71952483      3.44005134      3.97659232
O       2.14510773      5.67225722      2.39802833
O       2.80268991      5.41294899     12.39361787
O       4.13048306      4.52404567      5.53737290
O       2.12558120      5.68370081      6.88434282
O       2.41121974      3.67505549      8.81759647
O       2.14560257      3.44020059      3.97701307
O       6.01202051      5.67291844      2.39780239
O       7.97528449      4.55105588     10.25763916
O       7.93207172      4.52980210      5.52864550
O       6.04003060      5.69482255      7.16081082
O       5.93890519      3.47945856      8.75519756
O       6.01207467      3.44028376      3.97402503
O      -3.65381116      9.02088100      2.39948881
O      -1.74256598      7.91291711     10.33193145
O      -1.73078463      7.90931452      5.52848746
O      -3.65477542      9.02113096      7.15284500
O      -3.60691541      6.80231417      8.68219637
O      -3.65364878      6.78854965      3.97790584
O       0.21192805      9.02053246      2.39821032
O       2.10731394      7.72099736     10.15059542
O       2.16495773      7.95833597      5.51503516
O       0.23797382      9.07527902      7.10975509
O       0.01889139      6.89445482      8.55402733
O       0.21218466      6.78872071      3.97608390
O       4.07924270      9.02048414      2.39928576
O       6.00366125      7.86502694     10.23024988
O       6.01291123      7.91106027      5.53396467
O       4.09195109      8.90676687      7.23424070
O       3.99805086      6.45502036      8.84140163
O       4.07864714      6.78878700      3.97456572
O       4.41269427      4.48417962     11.01300330
Pd      2.22517504      5.61341887      9.61395754
C       3.30125313      4.99696053     11.37697925
H       2.30717407      3.40577320     11.18427946
