84
CIF: CO+Olatt—CO2.cif | data_image0
Ce     1.93596140     1.11772783     0.89035214
Ce     0.02764416     2.22526641     4.03695872
Ce    -5.76255716    10.00809456     7.24106186
Ce     5.80789581     1.11772783     0.89035214
Ce     3.83066058     2.20095448     3.97065579
Ce    -2.00731101     9.92851884     7.21340865
Ce     9.67981860     1.11772783     0.89035214
Ce     7.79606489     2.20929216     4.02672951
Ce     2.03275684     9.96788460     7.29868179
Ce     0.00000000     4.47091133     0.89035214
Ce    -1.93308564     5.57294023     4.08688670
Ce    -1.72385844     3.28840767     7.25332598
Ce     3.87193441     4.47091133     0.89035214
Ce     1.95823601     5.58003254     4.09876610
Ce     1.85702411     3.31215665     7.34769204
Ce     7.74385721     4.47091133     0.89035214
Ce     5.81928366     5.64823266     3.97351850
Ce    -1.93596721     7.82410489     0.89035214
Ce    -3.86375018     8.91920437     4.03287105
Ce    -3.84383017     6.72741818     7.30934154
Ce     1.93596721     7.82410489     0.89035214
Ce     0.01078702     8.95380571     4.07313923
Ce     0.01700381     6.69060306     7.25088021
Ce     5.80789000     7.82410489     0.89035214
Ce     3.87553444     8.93540724     4.05625197
Ce     3.82028393     6.83548256     7.35355514
Mo     5.13283475     3.74754175     6.70404834
O      0.00000000     0.00000000     0.09999685
O      1.94415061     1.10249826     3.19981754
O      0.04508853     2.20873345     6.36808600
O      0.00000000     2.23545567     1.68070743
O     -5.77167146    10.04155909     4.81887491
O      2.02675594     0.94137956     8.03687418
O      3.87192279     0.00000000     0.09999685
O      5.81241147     1.14630174     3.23906891
O      3.97434769     2.25882304     6.47544864
O      3.87192279     2.23545567     1.68070743
O      3.85364332     0.03734775     4.84734566
O      6.06541905     1.23841593     8.55038403
O      7.74385721     0.00000000     0.09999685
O      9.68909010     1.11650042     3.22290408
O      7.84842781     2.27284404     6.64075332
O      7.74385721     2.23545567     1.68070743
O      7.75382140     0.05599127     4.83829108
O      9.92008050     1.14931178     8.11083321
O     -1.93596140     3.35318350     0.09999685
O     -0.00046552     4.47207887     3.26617314
O     -1.92719259     5.49570923     6.44002404
O     -1.93596721     5.58864923     1.68070743
O      9.67635728     3.29499334     4.85708195
O     -0.05349540     4.48337512     8.13015976
O      1.93596140     3.35318350     0.09999685
O      3.90877561     4.45308125     3.22749165
O      1.93957554     5.55017986     6.41771854
O      1.93595559     5.58864923     1.68070743
O      1.99503554     3.30741876     4.81065213
O      5.80789581     3.35318350     0.09999685
O      7.73617672     4.43812487     3.23954225
O      5.75128470     5.52590823     6.44110677
O      5.80789000     5.58864923     1.68070743
O      5.80696343     3.36443383     4.91988512
O      7.91767661     4.28437651     8.50794278
O     -3.87192860     6.70637706     0.09999685
O     -1.92628918     7.81917530     3.25372760
O     -3.81065643     8.89470203     6.36010646
O     -3.87192860     8.94183273     1.68070743
O      7.71869240     6.66340092     4.83493663
O     -1.88029729     7.84970984     8.06210642
O     -0.00000581     6.70637706     0.09999685
O      1.92569957     7.83352860     3.25917743
O     -0.04802862     9.03049571     6.43627471
O     -0.00000581     8.94183273     1.68070743
O     -0.00510929     6.72797333     4.89249700
O      3.87192860     6.70637706     0.09999685
O      5.81897073     7.82431584     3.20876828
O      3.91550511     8.96541532     6.38114085
O      3.87192860     8.94183273     1.68070743
O      3.90279496     6.70037124     4.80172193
O      5.86142157     7.93890479     8.09118425
O      4.04585180     4.37928213     8.29065010
O      1.78217624     7.74651012     8.12767847
O      4.87964886     4.08625840    10.57028215
Re     6.71326155     2.90860776     8.13814982
C      5.19214282     3.83427547     9.46291457
