84
CIF: Re-Mo-CeO2-CO.cif | data_image0
Ce     1.93596140     1.11772783     0.89035214
Ce     0.02184832     2.21650386     4.01867555
Ce    -5.77262096    10.01113793     7.23001572
Ce     5.80789581     1.11772783     0.89035214
Ce     3.84165368     2.21499416     3.98745333
Ce    -2.02408042     9.91641404     7.20121020
Ce     9.67981860     1.11772783     0.89035214
Ce     7.77590819     2.22069814     4.04321066
Ce     2.03825157     9.96045640     7.26786888
Ce     0.00000000     4.47091133     0.89035214
Ce    -1.94266993     5.58366308     4.08096865
Ce    -1.70670811     3.30113114     7.21860693
Ce     3.87193441     4.47091133     0.89035214
Ce     1.94804429     5.58853137     4.08292737
Ce     1.86040288     3.30073584     7.28267838
Ce     7.74385721     4.47091133     0.89035214
Ce     5.81197928     5.63108114     3.99742592
Ce    -1.93596721     7.82410489     0.89035214
Ce    -3.87146391     8.91707230     4.02333919
Ce    -3.82983575     6.73632532     7.32905117
Ce     1.93596721     7.82410489     0.89035214
Ce     0.00106758     8.95976626     4.06778755
Ce     0.02165513     6.69924800     7.22770984
Ce     5.80789000     7.82410489     0.89035214
Ce     3.87976236     8.94146248     4.03779398
Ce     3.83179146     6.83438058     7.29339388
Mo     5.17607339     3.71905080     6.89136652
O      0.00000000     0.00000000     0.09999685
O      1.94256809     1.10846710     3.19522714
O      0.03280310     2.19394945     6.33317309
O      0.00000000     2.23545567     1.68070743
O     -5.77571088    10.03987927     4.79776622
O      2.00314838     0.95293097     8.01779659
O      3.87192279     0.00000000     0.09999685
O      5.81210523     1.16970525     3.24780370
O      4.07460561     2.20304073     6.54578519
O      3.87192279     2.23545567     1.68070743
O      3.84526770     0.03871959     4.84027330
O      6.25701953     1.15432860     8.70867567
O      7.74385721     0.00000000     0.09999685
O      9.67715065     1.12190993     3.22122059
O      7.79638286     2.30404794     6.65930914
O      7.74385721     2.23545567     1.68070743
O      7.74550365     0.06711960     4.82928588
O      9.89829626     1.16118416     8.08952071
O     -1.93596140     3.35318350     0.09999685
O      0.00398418     4.46775804     3.26920368
O     -1.91563813     5.50820551     6.41751341
O     -1.93596721     5.58864923     1.68070743
O      9.66132281     3.29582685     4.84619859
O     -0.03148441     4.47713720     8.09706620
O      1.93596140     3.35318350     0.09999685
O      3.89759666     4.45883371     3.21621918
O      1.87777955     5.58345063     6.35352674
O      1.93595559     5.58864923     1.68070743
O      2.01773877     3.29172387     4.83046871
O      5.80789581     3.35318350     0.09999685
O      7.71122599     4.42238987     3.25230326
O      5.83266877     5.45626383     6.49045493
O      5.80789000     5.58864923     1.68070743
O      5.71527005     3.40035090     4.99982378
O      8.07893780     4.26973586     8.56985402
O     -3.87192860     6.70637706     0.09999685
O     -1.93296315     7.82710102     3.24054598
O     -3.82056011     8.89901820     6.35336423
O     -3.87192860     8.94183273     1.68070743
O      7.71645927     6.66817461     4.81821345
O     -1.85839345     7.86563595     8.07590731
O     -0.00000581     6.70637706     0.09999685
O      1.93244699     7.83477440     3.25814102
O     -0.05013290     9.04600780     6.42832591
O     -0.00000581     8.94183273     1.68070743
O     -0.02926785     6.75524046     4.86187977
O      3.87192860     6.70637706     0.09999685
O      5.81036841     7.82013285     3.20505409
O      3.91511310     8.98327168     6.34915779
O      3.87192860     8.94183273     1.68070743
O      3.92228574     6.69121459     4.82131779
O      5.83316887     7.95675353     8.08627630
O      3.91487265     4.44386999     7.99780023
O      1.80333086     7.74978625     8.09432036
O      5.29058353     3.92402565    10.88269776
Re     6.88969871     2.84157988     8.35073276
C      5.92609643     3.50029919    10.01415224
