84
CIF: Pt-Cu-CeO2-CO.cif | data_image0
Ce     1.93038582     1.11050507     0.88387043
Ce     0.00138847     2.22668151     4.03418959
Ce    -5.75713345    10.02936019     7.21081664
Ce     5.81181033     1.12175166     0.90127712
Ce     3.86572730     2.23132632     4.02460984
Ce    -1.91175513    10.05859906     7.20639420
Ce     9.66901012     1.12377363     0.90450652
Ce     7.72145641     2.24781739     4.09795501
Ce     2.01543760     9.96656203     7.22591870
Ce    -0.00709724     4.47602159     0.89067279
Ce    -1.93913989     5.58338096     4.05272056
Ce    -1.81608597     3.32958851     7.22570833
Ce     3.86254305     4.47635356     0.87798423
Ce     1.93222388     5.59022263     4.03237386
Ce     1.93296883     3.34708793     7.18803513
Ce     7.74213807     4.46545905     0.90125422
Ce     5.80795798     5.59535695     4.02441686
Ce    -1.94645625     7.83004003     0.90010904
Ce    -3.86578354     8.93789027     4.04976415
Ce    -3.85935867     6.68518778     7.20619499
Ce     1.92815559     7.82745473     0.89060408
Ce     0.00251795     8.94654802     4.05261837
Ce    -0.00037289     6.70586966     7.18355787
Ce     5.81127600     7.83258510     0.88371011
Ce     3.87972181     8.94424048     4.03418742
Ce     3.87491011     6.71088606     7.18797624
Cu     4.98182000     3.82964017     6.56998420
Pt     6.79950983     2.78120301     8.24839272
O     11.61334069     0.00154917     0.10141687
O      1.93412234     1.11037808     3.22741402
O      0.04660382     2.22479389     6.38615667
O     -0.00785227     2.23805103     1.69392277
O     -5.79473083    10.05126971     4.85284122
O      1.97892563     1.08932480     7.98564274
O     -1.93899312    10.05733740     0.10496691
O      5.81453761     1.11780097     3.24919834
O      3.87740955     2.23701660     6.40075973
O      3.86763657     2.23577757     1.68132582
O      3.87766621     0.00561230     4.86556819
O      5.93163180     0.92703101     8.13295530
O      7.73821774     0.00761509     0.10924988
O      9.67527389     1.11988859     3.24642474
O      7.76005868     2.22514771     6.56190202
O      7.74357843     2.23531483     1.71563532
O      7.76419160     0.02523018     4.88396307
O      9.79950721     1.04784523     7.99633893
O      9.67032270     3.35425987     0.10911246
O     -0.01074665     4.46551508     3.23779206
O     -1.91050316     5.57662316     6.40048798
O     -1.94403436     5.59119430     1.70564938
O      9.66764355     3.32208088     4.88398877
O      0.03850445     4.45595245     8.00518715
O      1.92738314     3.35244915     0.09928684
O      3.85841837     4.47844219     3.20810879
O      1.89487939     5.61166311     6.35103491
O      1.92862022     5.59252216     1.67404250
O      1.94044172     3.35218758     4.83436687
O      3.75334708     4.53874725     7.94489045
O      5.81155478     3.35101064     0.10766953
O      7.74664915     4.46458385     3.24916772
O      5.80874374     5.58232290     6.40061448
O      5.80528807     5.59217007     1.68114259
O      5.78653102     3.36504342     4.80635757
O      7.97126884     4.45910014     8.13210119
O     -3.87155109     6.71022987     0.10512724
O     -1.94568984     7.82939159     3.24378601
O     -3.83780356     8.92169168     6.39979164
O     -3.87509971     8.94378428     1.69355631
O      7.74141183     6.69790716     4.86546705
O     -1.92204679     7.81541796     7.98319637
O     -0.01209783     6.71325780     0.10434852
O      1.93508305     7.83556259     3.23756225
O      0.02247850     8.92528824     6.40082571
O     -0.00628994     8.94736548     1.70514550
O     -0.01831759     6.71672073     4.83244734
O      1.96749397     7.79705668     8.00513677
O      3.86815347     6.71410280     0.09951587
O      5.81314713     7.82891675     3.22711571
O      3.90366273     8.90562936     6.38621578
O      3.86556896     8.94715423     1.69389986
O      3.87451447     6.70222363     4.83433072
O      5.85341518     7.80023810     7.98551949
O      5.47613145     3.55972502    10.82172107
C      5.97806792     3.26133310     9.82101596
