83
CIF: O2—Olatt+Osur.cif | data_image0
Ce     1.93596140     1.11772783     0.89035214
Ce     0.00454632     2.25129073     4.05614379
Ce     0.01264853     0.02872882     7.20744405
Ce     5.80789581     1.11772783     0.89035214
Ce     3.80915821     2.20488523     3.95563031
Ce    -2.02175973    10.02755578     7.28718405
Ce     9.67981860     1.11772783     0.89035214
Ce     7.81730792     2.20783581     3.96283183
Ce     2.03578935    10.00457293     7.29950265
Ce     0.00000000     4.47091133     0.89035214
Ce    -1.94671427     5.58307583     4.07744200
Ce    -1.82249172     3.38454068     7.31496629
Ce     3.87193441     4.47091133     0.89035214
Ce     1.95340442     5.59368600     4.08840225
Ce     1.83374458     3.38025423     7.30861568
Ce     7.74385721     4.47091133     0.89035214
Ce     5.79496543     5.61547938     4.03480377
Ce    -1.93596721     7.82410489     0.89035214
Ce    -3.87500892     8.93628101     4.05300940
Ce    -3.78064869     6.79516445     7.29242764
Ce     1.93596721     7.82410489     0.89035214
Ce     0.00098343     8.96578191     4.09003604
Ce     0.01865117     6.74798393     7.25479588
Ce     5.80789000     7.82410489     0.89035214
Ce     3.87770175     8.91794607     4.08784429
Ce     3.82452601     6.68960962     7.39220778
W      5.80250098     3.18509339     6.71492371
Rh     6.41174245     3.83223201     9.14085050
O      0.00000000     0.00000000     0.09999685
O      1.90964123     1.11228429     3.21039054
O      0.00382704     2.29520005     6.41605978
O      0.00000000     2.23545567     1.68070743
O      0.01035032     0.03827930     4.89152247
O      1.84410709     1.21316185     8.01801428
O      3.87192279     0.00000000     0.09999685
O      5.81788980     1.09386838     3.21184903
O      4.11558113     2.40716198     6.47156165
O      3.87192279     2.23545567     1.68070743
O      3.84114928     0.06935154     4.84562087
O      5.87717995     2.09281716     8.36378081
O      7.74385721     0.00000000     0.09999685
O      9.70812402     1.11570671     3.22268900
O      7.52195644     2.47237524     6.44048747
O      7.74385721     2.23545567     1.68070743
O      7.78844981     0.06361492     4.87275036
O      9.76401573     1.25238436     8.03429633
O     -1.93596140     3.35318350     0.09999685
O     -0.00000427     4.47420339     3.28489681
O     -1.96158329     5.55011456     6.47003799
O     -1.93596721     5.58864923     1.68070743
O      9.66389611     3.30659114     4.91362012
O     -0.01893996     4.47054817     8.10786414
O      1.93596140     3.35318350     0.09999685
O      3.79798780     4.42438344     3.22970210
O      1.87777707     5.51733178     6.43516939
O      1.93595559     5.58864923     1.68070743
O      1.97735491     3.27846622     4.90668652
O      5.80789581     3.35318350     0.09999685
O      7.82151564     4.42982838     3.23486310
O      5.79092105     5.04727231     6.63368588
O      5.80789000     5.58864923     1.68070743
O      5.80984812     3.22770108     4.76925215
O      8.13914681     4.49144850     8.67568726
O     -3.87192860     6.70637706     0.09999685
O     -1.94600014     7.81985183     3.27294622
O     -3.86964423     8.95970380     6.42630860
O     -3.87192860     8.94183273     1.68070743
O     -3.86976770     6.71406463     4.97546910
O     -1.94927937     7.75751020     8.10017306
O     -0.00000581     6.70637706     0.09999685
O      1.92971381     7.83123845     3.27528522
O     -0.01079504     9.03161230     6.46682581
O     -0.00000581     8.94183273     1.68070743
O     -0.01796880     6.73824789     4.91101330
O      3.87192860     6.70637706     0.09999685
O      5.81273217     7.90627550     3.24067347
O      3.93967383     8.97622271     6.49190031
O      3.87192860     8.94183273     1.68070743
O      3.84539514     6.72262357     4.93098396
O      5.98764192     7.75479156     8.01078566
O      1.81444948     7.76664320     8.12479529
O      3.46401712     4.43886702     8.49433577
O      4.81451472     4.53485769     9.56241444
