81
CIF: 2-O2 — 2Olat.cif | data_image0
O      0.55978923     0.45000431     0.59999690
O      2.47682156     1.52195991     3.73964798
O      0.40702022     2.50196929     6.85908756
O      0.55978923     2.65902057     2.16203261
O      0.55313019     0.38006880     5.31780786
O      4.38603242     0.45000431     0.59999690
O      6.29509310     1.56856395     3.73564651
O      4.14499215     2.77799821     7.28856411
O      4.38603242     2.65902057     2.16203261
O      4.41214991     0.50809424     5.40163991
O      6.45425980     1.64014102     8.60210993
O      8.21216082     0.45000431     0.59999690
O     10.11247073     1.55159774     3.73932957
O      8.25911541     2.66255754     6.89416296
O      8.21216082     2.65902057     2.16203261
O      8.19652004     0.45386300     5.35674138
O     10.08336330     1.51011828     8.61577588
O     -1.35327498     3.76352871     0.59999690
O      0.53485140     4.89446355     3.73249276
O     -1.32237112     5.94868394     6.94082138
O     -1.35333237     5.97264438     2.16203261
O     -1.36417589     3.79105320     5.33783104
O      2.47296821     3.76352871     0.59999690
O      4.43151520     4.88766407     3.73878022
O      2.53015420     5.83586995     7.12462219
O      2.47291082     5.97264438     2.16203261
O      2.47817514     3.77106194     5.21003695
O      4.60984295     5.01885460     8.69040414
O      6.29909662     3.76352871     0.59999690
O      8.18216606     4.88798287     3.77405082
O      6.36177334     6.01251056     6.92225320
O      6.29903923     5.97264438     2.16203261
O      6.23452644     3.72044142     5.45928444
O      8.23607218     4.86678163     8.56978800
O     -3.26639657     7.07715251     0.59999690
O     -1.32874497     8.19141093     3.76581395
O     -3.31825113     9.44201112     7.08697028
O     -3.26639657     9.28616878     2.16203261
O     -3.22565342     7.15375878     5.43107048
O     -1.33385484     8.05398262     8.62079087
O      0.55984662     7.07715251     0.59999690
O      2.46642889     8.17417381     3.73185619
O      0.59820320     9.26418900     6.94961686
O      0.55984662     9.28616878     2.16203261
O      0.62851931     7.05214589     5.42894593
O      2.50851933     8.19712698     8.56562864
O      4.38597502     7.07715251     0.59999690
O      6.30200691     8.15163289     3.74270773
O      4.36293445     9.31588775     6.88321355
O      4.38597502     9.28616878     2.16203261
O      4.35334643     7.06923942     5.41042511
O      6.24734067     8.22370466     8.57762796
O      0.45881932     4.86246602     8.69334524
O      1.72291489     3.89363492     8.80377596
Ce     2.47285343     1.55451244     1.38101475
Ce     0.56835714     2.66590671     4.57143017
Ce     0.40832059     0.43619025     7.64664729
Ce     6.29909662     1.55451244     1.38101475
Ce     4.34471515     2.67808952     4.56097140
Ce     4.50562721     0.43171019     7.80614395
Ce    10.12522502     1.55451244     1.38101475
Ce     8.20191403     2.65903292     4.54099200
Ce     8.20888249     0.46191034     7.76066247
Ce     0.55978923     4.86803684     1.38101475
Ce    -1.33801922     5.98016131     4.57029410
Ce    -1.33862612     3.70911021     7.70871921
Ce     4.38603242     4.86803684     1.38101475
Ce     2.47718293     5.92927714     4.55306958
Ce     8.21216082     4.86803684     1.38101475
Ce     6.30001974     5.98400182     4.57625108
Ce     6.39791677     3.78371299     7.78601044
Ce    -1.35333237     8.18166064     1.38101475
Ce    -3.25006578     9.30744692     4.57840647
Ce    -3.22717695     7.09711601     7.77327462
Ce     2.47291082     8.18166064     1.38101475
Ce     0.57101548     9.29820877     4.55813590
Ce     0.57457008     7.07621403     7.77535540
Ce     6.29903923     8.18166064     1.38101475
Ce     4.36811929     9.27486865     4.50612276
Ce     4.42141890     7.14650194     7.76541985
Fe     3.16049290     4.24800019     7.86774092
