84
CIF: Fe-CeO2-O2+CO.cif | data_image0
O      0.55978923     0.45000431     0.59999690
O      2.47500387     1.59552927     3.76338840
O      0.44058290     2.58246591     6.91654003
O      0.55978923     2.65902057     2.16203261
O      0.56609768     0.42933827     5.34553853
O      2.46776492     1.10615780     8.74676490
O      4.38603242     0.45000431     0.59999690
O      6.29674839     1.54935878     3.73563046
O      4.27961273     2.74478047     7.01405654
O      4.38603242     2.65902057     2.16203261
O      4.38828808     0.50075746     5.40790260
O      6.29910633     1.59167097     8.53643636
O      8.21216082     0.45000431     0.59999690
O     10.12236229     1.55678096     3.75772101
O      8.23630419     2.64687979     6.91540234
O      8.21216082     2.65902057     2.16203261
O      8.18991777     0.44046609     5.38546743
O     10.05547365     1.54630802     8.62530944
O     -1.35327498     3.76352871     0.59999690
O      0.59759390     4.85384215     3.76834697
O     -1.37165356     5.98687558     6.88556884
O     -1.35333237     5.97264438     2.16203261
O     -1.37451247     3.78255367     5.35977919
O      2.47296821     3.76352871     0.59999690
O      4.37309612     4.86445626     3.74525993
O      2.50334316     5.84121398     7.00438043
O      2.47291082     5.97264438     2.16203261
O      2.54414294     3.80203020     5.51505081
O      4.40306394     4.88537318     8.42632777
O      6.29909662     3.76352871     0.59999690
O      8.19351433     4.85710092     3.73744890
O      6.29395074     5.98835844     6.90035219
O      6.29903923     5.97264438     2.16203261
O      6.27993996     3.73037505     5.39597418
O      8.13273746     4.85641126     8.54401309
O     -3.26639657     7.07715251     0.59999690
O     -1.33606863     8.18948851     3.76280807
O     -3.28485598     9.22508935     6.85891443
O     -3.26639657     9.28616878     2.16203261
O     -3.27505071     7.05483118     5.33820558
O     -1.41814190     8.19267428     8.57208732
O      0.55984662     7.07715251     0.59999690
O      2.46485457     8.18433345     3.73631962
O      0.52107263     9.27450093     6.97490847
O      0.55984662     9.28616878     2.16203261
O      0.60675511     7.07089640     5.42194311
O      2.48104413     8.16395363     8.53266377
O      4.38597502     7.07715251     0.59999690
O      6.28215170     8.16896683     3.74026731
O      4.38446591     9.32113465     6.92361224
O      4.38597502     9.28616878     2.16203261
O      4.34569386     7.08920274     5.39617156
O      6.26929251     8.15470580     8.56366608
O     -0.46856456     5.41592835     9.38593910
O      0.58482654     4.86177856     8.56946522
O      2.35144685     3.48811563    10.36749713
Ce     2.47285343     1.55451244     1.38101475
Ce     0.54173308     2.65116934     4.64111992
Ce     0.57887778     0.48648927     7.77564371
Ce     6.29909662     1.55451244     1.38101475
Ce     4.39487487     2.63964533     4.52751133
Ce     4.30615773     0.40509574     7.81427185
Ce    10.12522502     1.55451244     1.38101475
Ce     8.21803322     2.65738855     4.54644072
Ce     8.19929197     0.45674542     7.76589471
Ce     0.55978923     4.86803684     1.38101475
Ce    -1.34945500     5.96666596     4.56636330
Ce    -1.34794970     3.73643973     7.79890318
Ce     4.38603242     4.86803684     1.38101475
Ce     2.46060787     5.99505604     4.53608446
Ce     8.21216082     4.86803684     1.38101475
Ce     6.29788674     5.97196110     4.55234739
Ce     6.39267964     3.73336243     7.73815089
Ce    -1.35333237     8.18166064     1.38101475
Ce    -3.27062997     9.28498608     4.55613085
Ce    -3.27928481     7.06247616     7.73442972
Ce     2.47291082     8.18166064     1.38101475
Ce     0.55327751     9.28560124     4.58963346
Ce     0.48009504     7.09097812     7.82844921
Ce     6.29903923     8.18166064     1.38101475
Ce     4.38401105     9.29711801     4.54940764
Ce     4.41480916     7.18651675     7.73605978
Fe     3.17131219     4.16285809     7.28238820
C      2.37395405     3.51256422     9.21849277
