84
CIF: Sc-Mo-CeO2-CO.cif | data_image0
Ce     1.93596140     1.11772783     0.89035214
Ce    -0.01979997     2.21193807     4.03069606
Ce    -5.61994380     9.93243381     7.19511685
Ce     5.80789581     1.11772783     0.89035214
Ce     3.82292194     2.17805872     3.95920630
Ce    -1.96070035     9.98149633     7.30217727
Ce     9.67981860     1.11772783     0.89035214
Ce     7.72555208     2.25473910     4.06768123
Ce     2.02526211     9.94149888     7.22746547
Ce     0.00000000     4.47091133     0.89035214
Ce    -1.94312249     5.60181722     4.05376452
Ce    -1.72163338     3.51672256     7.20666712
Ce     3.87193441     4.47091133     0.89035214
Ce     1.94763641     5.59701771     4.06651582
Ce     1.88534739     3.31464354     7.18984981
Ce     7.74385721     4.47091133     0.89035214
Ce     5.83019569     5.62793417     4.00982463
Ce    -1.93596721     7.82410489     0.89035214
Ce    -3.84253969     8.90462321     4.04573645
Ce    -3.74665684     6.67885938     7.44403196
Ce     1.93596721     7.82410489     0.89035214
Ce     0.01314496     8.96710458     4.06872857
Ce     0.06133695     6.77503038     7.23627280
Ce     5.80789000     7.82410489     0.89035214
Ce     3.89474033     8.95393031     4.05361373
Ce     3.90404276     6.73684404     7.31585541
Mo     5.39825211     3.40764588     6.91501447
O      0.00000000     0.00000000     0.09999685
O      1.91571147     1.10854190     3.20430779
O     -0.07535102     2.14473580     6.48880558
O      0.00000000     2.23545567     1.68070743
O     -5.72824774    10.02781129     4.86268758
O      1.89785994     1.20155772     8.04048274
O      3.87192279     0.00000000     0.09999685
O      5.74489416     1.10620621     3.22890364
O      4.00375827     2.22599079     6.37481696
O      3.87192279     2.23545567     1.68070743
O     -1.96279030    10.05946173     4.81823241
O      5.58290825     2.36781579     8.54194268
O      7.74385721     0.00000000     0.09999685
O      9.75479271     1.08575270     3.23962048
O      7.26142552     2.71184617     6.78884148
O      7.74385721     2.23545567     1.68070743
O      1.98259276    10.04616627     4.87551787
O      9.04209745     1.64682164     8.51983327
O     -1.93596140     3.35318350     0.09999685
O      0.00789986     4.47065361     3.26441518
O     -1.84531796     5.59585329     6.40691326
O     -1.93596721     5.58864923     1.68070743
O     -1.90678493     3.35881667     4.92217240
O      0.10629747     4.44168539     8.06200591
O      1.93596140     3.35318350     0.09999685
O      3.85231147     4.47392458     3.22863560
O      1.91649364     5.53668986     6.38168678
O      1.93595559     5.58864923     1.68070743
O      1.91911127     3.27010891     4.89406023
O      5.80789581     3.35318350     0.09999685
O      7.72320087     4.53868390     3.23842573
O      5.95541185     5.18747228     6.68935833
O      5.80789000     5.58864923     1.68070743
O      5.62358875     3.40134388     4.93314677
O      8.33309704     4.49421928     8.67547624
O     -3.87192860     6.70637706     0.09999685
O     -1.93632288     7.80377802     3.24775964
O     -3.81096023     8.91612825     6.44403928
O     -3.87192860     8.94183273     1.68070743
O      7.69154501     6.68068051     4.89360906
O     -1.73493517     7.76259809     8.17760900
O     -0.00000581     6.70637706     0.09999685
O      1.97476409     7.81302570     3.26172261
O      0.02150646     9.01961165     6.44708474
O     -0.00000581     8.94183273     1.68070743
O      0.02155887     6.75669237     4.85645494
O      3.87192860     6.70637706     0.09999685
O      5.81563205     7.82351701     3.22051137
O      3.98452044     9.07158877     6.49022055
O      3.87192860     8.94183273     1.68070743
O      3.98125730     6.70613701     4.91229788
O      5.88256972     7.92263593     8.13409409
O      3.92551754     4.27945222     7.84538404
O      1.90230852     7.77417189     8.11275157
O      7.53470223     2.86448483    12.68168661
Sc     7.51859946     2.78635815     8.98050676
C      7.48605648     2.79648114    11.54580863
