82
CIF: Sc-Mo-CeO2.cif | data_image0
Ce     1.93596140     1.11772783     0.89035214
Ce    -0.01758758     2.21185351     4.03440070
Ce    -5.61839207     9.92930319     7.20361130
Ce     5.80789581     1.11772783     0.89035214
Ce     3.82605508     2.17777117     3.96475712
Ce    -1.96178480     9.97834498     7.31288262
Ce     9.67981860     1.11772783     0.89035214
Ce     7.72979256     2.25429715     4.06560146
Ce     2.02845604     9.93595041     7.23996504
Ce     0.00000000     4.47091133     0.89035214
Ce    -1.94277580     5.60266957     4.05870599
Ce    -1.72035046     3.51986849     7.21251368
Ce     3.87193441     4.47091133     0.89035214
Ce     1.94769786     5.59754852     4.07214215
Ce     1.87960772     3.31142571     7.19519820
Ce     7.74385721     4.47091133     0.89035214
Ce     5.83123654     5.62773134     4.01346018
Ce    -1.93596721     7.82410489     0.89035214
Ce    -3.84287176     8.90419724     4.05139782
Ce    -3.74522309     6.67779662     7.45911734
Ce     1.93596721     7.82410489     0.89035214
Ce     0.01490452     8.96803177     4.07543020
Ce     0.06194866     6.77472555     7.24553083
Ce     5.80789000     7.82410489     0.89035214
Ce     3.89433696     8.95381607     4.05775132
Ce     3.90424496     6.73867967     7.32452444
Mo     5.38661251     3.41351705     6.93242134
O      0.00000000     0.00000000     0.09999685
O      1.91846121     1.10794316     3.20814703
O     -0.07771540     2.14299371     6.49347589
O      0.00000000     2.23545567     1.68070743
O     -5.72822162    10.02679749     4.86779997
O      1.89627534     1.19958446     8.04315304
O      3.87192279     0.00000000     0.09999685
O      5.74514211     1.10665230     3.23204432
O      4.00535070     2.22534497     6.38445250
O      3.87192279     2.23545567     1.68070743
O      3.84700446     0.00015871     4.82626823
O      5.58062771     2.38159748     8.56138556
O      7.74385721     0.00000000     0.09999685
O      9.75551644     1.08426978     3.24213600
O      7.26882593     2.73020263     6.82306117
O      7.74385721     2.23545567     1.68070743
O      1.98244115    10.04962514     4.88476563
O      9.03551885     1.64620216     8.52683502
O     -1.93596140     3.35318350     0.09999685
O      0.00929136     4.47203859     3.26777160
O     -1.84459286     5.60125842     6.41087432
O     -1.93596721     5.58864923     1.68070743
O     -1.90602005     3.36068524     4.92417053
O      0.10721488     4.44287592     8.06407369
O      1.93596140     3.35318350     0.09999685
O      3.85553748     4.47100863     3.23368842
O      1.91595862     5.53546649     6.38650393
O      1.93595559     5.58864923     1.68070743
O      1.91955576     3.26783542     4.89895008
O      5.80789581     3.35318350     0.09999685
O      7.72376906     4.53985748     3.23888222
O      5.95133285     5.18969661     6.70800205
O      5.80789000     5.58864923     1.68070743
O      5.63245526     3.40090590     4.95137601
O      8.34600394     4.50100835     8.68240007
O     -3.87192860     6.70637706     0.09999685
O     -1.93845544     7.80364944     3.25370217
O     -3.81035827     8.91329673     6.44994689
O     -3.87192860     8.94183273     1.68070743
O      7.68692350     6.67774494     4.90102999
O     -1.73470678     7.76323295     8.18604107
O     -0.00000581     6.70637706     0.09999685
O      1.97410330     7.81538853     3.26443120
O      0.02208376     9.01978233     6.45737966
O     -0.00000581     8.94183273     1.68070743
O      0.02452829     6.75926072     4.86136321
O      3.87192860     6.70637706     0.09999685
O      5.81550208     7.82375262     3.22356980
O      3.98582104     9.06946123     6.49696873
O      3.87192860     8.94183273     1.68070743
O      3.97904583     6.70616168     4.91713324
O      5.88262594     7.92122111     8.14023960
O      3.91661913     4.28086338     7.85353069
O      1.90292306     7.77211779     8.12165736
Sc     7.51949438     2.79677587     8.96175134
