84
CIF: CO+Olatt—CO2.cif | data_image0
Ce     1.93596140     1.11772783     0.89035214
Ce     0.00986859     2.22731325     4.01636467
Ce    -5.78459123    10.05257732     7.26467539
Ce     5.80789581     1.11772783     0.89035214
Ce     3.83100007     2.18185110     4.00249425
Ce    -1.95680367     9.97002623     7.32454227
Ce     9.67981860     1.11772783     0.89035214
Ce     7.78596924     2.19779029     4.02125714
Ce     2.02918401     9.98092319     7.31826410
Ce     0.00000000     4.47091133     0.89035214
Ce    -1.94245604     5.57535875     4.08290114
Ce    -1.78482362     3.29745801     7.24924276
Ce     3.87193441     4.47091133     0.89035214
Ce     1.95573705     5.58430072     4.07543306
Ce     1.77970448     3.31307789     7.25355848
Ce     7.74385721     4.47091133     0.89035214
Ce     5.81750454     5.67405305     3.96788990
Ce    -1.93596721     7.82410489     0.89035214
Ce    -3.85444002     8.93694622     4.08672678
Ce    -3.83082792     6.73524149     7.35396582
Ce     1.93596721     7.82410489     0.89035214
Ce     0.00743764     8.95201547     4.10150948
Ce     0.00657345     6.71274745     7.26020542
Ce     5.80789000     7.82410489     0.89035214
Ce     3.86988696     8.95117690     4.05286367
Ce     3.83474651     6.88293081     7.30525364
W      5.13235621     3.77683897     6.71977155
Re     6.68127903     2.91508087     8.22564497
O      0.00000000     0.00000000     0.09999685
O      1.86734142     1.06924005     3.22058902
O      0.00719023     2.24385934     6.37307626
O      0.00000000     2.23545567     1.68070743
O      5.80618890    10.04979929     4.87407297
O      1.85234868     1.22210958     8.05257149
O      3.87192279     0.00000000     0.09999685
O      5.88567676     1.10604194     3.24959983
O      3.88180553     2.37499132     6.56108530
O      3.87192279     2.23545567     1.68070743
O     -1.93945572    10.00362035     4.90658213
O      6.00543052     1.22754367     8.56434769
O      7.74385721     0.00000000     0.09999685
O      9.68576192     1.11379966     3.21999358
O      7.85037913     2.26637398     6.69712408
O      7.74385721     2.23545567     1.68070743
O      7.78592284     0.05786267     4.87257308
O      9.91518086     1.15411494     8.12349622
O     -1.93596140     3.35318350     0.09999685
O     -0.01141519     4.47950866     3.24914805
O     -1.92519898     5.48333844     6.46011628
O     -1.93596721     5.58864923     1.68070743
O      9.65372445     3.29920214     4.86002480
O      0.02987438     4.43112486     8.08807871
O      1.93596140     3.35318350     0.09999685
O      3.90380313     4.54968016     3.25040409
O      2.05998860     5.51599047     6.51339257
O      1.93595559     5.58864923     1.68070743
O      1.87876200     3.37344962     4.89810920
O      5.80789581     3.35318350     0.09999685
O      7.71961669     4.45215271     3.24815197
O      5.69431542     5.57888577     6.46970046
O      5.80789000     5.58864923     1.68070743
O      5.85165944     3.39022077     4.99882082
O      7.91876767     4.28513688     8.54652054
O     -3.87192860     6.70637706     0.09999685
O     -1.91990707     7.79963267     3.27161381
O     -3.88706083     8.93286892     6.48853331
O     -3.87192860     8.94183273     1.68070743
O      7.71649955     6.68170749     4.86656415
O     -1.79452031     7.73590530     8.12016200
O     -0.00000581     6.70637706     0.09999685
O      1.93021823     7.82803804     3.26802478
O      0.05297634     8.93460324     6.46949836
O     -0.00000581     8.94183273     1.68070743
O      0.02573798     6.67639719     4.92977882
O      3.87192860     6.70637706     0.09999685
O      5.80947327     7.83337482     3.22847429
O      3.90387181     8.94135457     6.42307895
O      3.87192860     8.94183273     1.68070743
O      3.88274266     6.74621451     4.88230219
O      5.68136830     7.86245964     8.12018218
O      4.07286390     4.45813872     8.35691506
O      1.95968249     7.70821402     8.13479318
O      4.84296112     4.13896692    10.59331129
C      5.13065507     3.90228132     9.46717553
