83
CIF: Re-W-CeO2-O.cif | data_image0
Ce     1.93596140     1.11772783     0.89035214
Ce     0.00522259     2.22483390     4.04049569
Ce    -5.79642362    10.05267980     7.19816844
Ce     5.80789581     1.11772783     0.89035214
Ce     3.83775185     2.20074865     3.98846871
Ce    -2.03232033     9.91868832     7.30990463
Ce     9.67981860     1.11772783     0.89035214
Ce     7.74392695     2.22162638     3.98207400
Ce     1.99766797     9.97288161     7.33983495
Ce     0.00000000     4.47091133     0.89035214
Ce    -1.95467405     5.58244121     4.08333809
Ce    -1.74226265     3.34460068     7.26494683
Ce     3.87193441     4.47091133     0.89035214
Ce     1.94480959     5.57740593     4.08075847
Ce     1.91049481     3.31190336     7.30532685
Ce     7.74385721     4.47091133     0.89035214
Ce     5.82780456     5.62964516     3.97872624
Ce    -1.93596721     7.82410489     0.89035214
Ce    -3.86038273     8.92295937     4.04719429
Ce    -3.82532119     6.74026880     7.33722181
Ce     1.93596721     7.82410489     0.89035214
Ce    -0.00776934     8.95391752     4.10745398
Ce     0.01245545     6.69688741     7.24526726
Ce     5.80789000     7.82410489     0.89035214
Ce     3.86913312     8.96055336     4.04481198
Ce     3.84819619     6.79627092     7.21347422
W      5.43397370     3.58918625     6.84965354
Re     6.71565220     2.98529945     9.03809816
O      0.00000000     0.00000000     0.09999685
O      1.92469707     1.11292293     3.20994727
O      0.02027724     2.25212301     6.32566509
O      0.00000000     2.23545567     1.68070743
O     -5.80112006    10.05613820     4.82308007
O      1.79503799     1.01715414     8.05371540
O      3.87192279     0.00000000     0.09999685
O      5.80284503     1.13208573     3.22483872
O      4.16670086     2.21861616     6.53439075
O      3.87192279     2.23545567     1.68070743
O      3.84616946     0.02737424     4.82962109
O      6.57868950     1.17001884     9.10425359
O      7.74385721     0.00000000     0.09999685
O      9.68198716     1.11980946     3.20425585
O      7.16264054     2.60988264     6.90779825
O      7.74385721     2.23545567     1.68070743
O      7.75479568     0.14818571     4.87971724
O      9.77673572     1.20581469     7.93888337
O     -1.93596140     3.35318350     0.09999685
O     -0.01664147     4.44917741     3.28454113
O     -1.96064684     5.48910221     6.42534085
O     -1.93596721     5.58864923     1.68070743
O      9.55745900     3.25063635     4.91385509
O     -0.01806722     4.49803603     8.07390176
O      1.93596140     3.35318350     0.09999685
O      3.88566266     4.47607630     3.21151156
O      1.95242224     5.62981671     6.37548390
O      1.93595559     5.58864923     1.68070743
O      2.02838727     3.31024444     4.84183810
O      5.80789581     3.35318350     0.09999685
O      7.73209025     4.44730615     3.21991834
O      5.92839497     5.38392897     6.42742232
O      5.80789000     5.58864923     1.68070743
O      5.75977574     3.37140312     4.85810558
O      8.22786435     4.04390105     8.86568080
O     -3.87192860     6.70637706     0.09999685
O     -1.92428199     7.81988371     3.25159902
O     -3.89149542     8.87911675     6.39374104
O     -3.87192860     8.94183273     1.68070743
O      7.72827402     6.68315648     4.80082246
O     -1.80845136     7.70597536     8.12361664
O     -0.00000581     6.70637706     0.09999685
O      1.94166643     7.84120157     3.29069697
O      0.02179015     8.95400850     6.43798543
O     -0.00000581     8.94183273     1.68070743
O     -0.03080483     6.70279540     4.87089880
O      3.87192860     6.70637706     0.09999685
O      5.79897990     7.83210141     3.21297902
O      3.88146422     8.92136768     6.35330600
O      3.87192860     8.94183273     1.68070743
O      3.94718708     6.67902788     4.86772653
O      5.67339743     7.82148080     8.01474761
O      1.99834141     7.70005163     8.08846685
O      4.06252153     4.44869452     7.84183960
O      5.70791857     3.67182696    10.25176061
