92
CIF: Fe-CeO2(110)+CO.cif | data_image0
O      1.35499851     2.41455620     4.33506896
O      1.32101704     6.27464609     8.22691414
O      1.35275000     6.24576514     0.45001077
O      1.27585084     2.44985574     8.28636233
O      1.35275000     2.41961430     0.45001077
O      1.34890405     6.24669083     4.34552731
O      4.07020489     0.44940773     6.23684946
O      4.05825000     4.33269546     2.36308887
O      4.05825000     0.50653314     2.36308887
O      4.15002544     4.40833733     6.41927890
O      4.05901336     2.46155414     4.38077899
O      4.17247117     6.20025203     8.23401331
O      4.05825000     6.24576514     0.45001077
O      4.00372797     2.17528691     8.23852983
O      4.05825000     2.41961430     0.45001077
O      4.04425493     6.23254464     4.35653570
O      1.34400741     0.52409441     6.32547303
O      1.35275000     4.33269546     2.36308887
O      1.35275000     0.50653314     2.36308887
O      1.36454648     4.32948568     6.29545989
O      6.76303574     2.46146207     4.38090509
O      6.64941612     6.19977670     8.23396846
O      6.76375000     6.24576514     0.45001077
O      6.81666433     2.17653375     8.23801901
O      6.76375000     2.41961430     0.45001077
O      6.77775118     6.23250587     4.35646146
O      9.47784424     0.52394399     6.32532109
O      9.46925000     4.33269546     2.36308887
O      9.46925000     0.50653314     2.36308887
O      9.45769802     4.32916474     6.29564649
O      9.46732193     2.41471585     4.33508264
O      9.50100707     6.27468336     8.22712369
O      9.46925000     6.24576514     0.45001077
O      9.54554974     2.44938240     8.28686202
O      9.46925000     2.41961430     0.45001077
O      9.47348072     6.24675407     4.34557858
O      6.75149694     0.44942671     6.23710725
O      6.76375000     4.33269546     2.36308887
O      6.76375000     0.50653314     2.36308887
O      6.67180521     4.40881317     6.41902423
O      1.35557566    10.08736082     4.34721565
O      1.29798936    10.06923478     8.24708428
O      1.35275000    10.07192746     0.45001077
O      4.06450651     8.15315664     6.31329595
O      4.05825000     8.15884630     2.36308887
O      4.05560826    10.04367543     4.32936445
O      4.08675262    10.02732630     8.27466754
O      4.05825000    10.07192746     0.45001077
O      1.33111382     8.17065782     6.27332180
O      1.35275000     8.15884630     2.36308887
O      6.76639682    10.04358409     4.32931205
O      6.73488864    10.02720404     8.27478355
O      6.76375000    10.07192746     0.45001077
O      9.49080268     8.17067052     6.27350408
O      9.46925000     8.15884630     2.36308887
O      9.46657483    10.08735355     4.34727840
O      9.52386770    10.06924086     8.24715095
O      9.46925000    10.07192746     0.45001077
O      6.75749877     8.15316740     6.31338739
O      6.76375000     8.15884630     2.36308887
O      5.41162472     2.91056763    11.26595226
Ce    10.82195493     0.53363709     4.32694392
Ce    10.82172396     4.32269216     8.11301308
Ce     0.00000000     4.33269546     0.45001077
Ce     2.76653074     2.40057168     6.48145017
Ce     2.70550000     6.24576514     2.36308887
Ce     2.70550000     2.41961430     2.36308887
Ce     2.64476700     6.25819483     6.33631881
Ce    10.82169695     0.51895161     8.12967712
Ce     0.00000000     0.50653314     0.45001077
Ce     0.00001315     4.29773512     4.31898981
Ce     5.41112486     0.50495713     4.32772166
Ce     5.41100000     4.33269546     0.45001077
Ce     8.05503285     2.40056755     6.48145644
Ce     8.11650000     6.24576514     2.36308887
Ce     8.11650000     2.41961430     2.36308887
Ce     8.17725296     6.25798377     6.33625680
Ce     5.41079567     0.53246158     8.15106702
Ce     5.41100000     0.50653314     0.45001077
Ce     5.41117302     4.31953029     4.31345707
Ce     0.00006936     8.17625812     4.30276006
Ce     2.69711452    10.08436036     6.36370760
Ce     2.70550000    10.07192746     2.36308887
Ce    10.82196665     8.18521187     8.10980841
Ce     0.00000000     8.15884630     0.45001077
Ce     5.41115081     8.15834305     4.31966757
Ce     8.12470297    10.08423249     6.36386431
Ce     8.11650000    10.07192746     2.36308887
Ce     5.41121933     8.30038605     8.12398329
Ce     5.41100000     8.15884630     0.45001077
Fe     5.41179836     5.06834645     7.61699670
C      5.41146430     1.95179266    10.63987957
