91
CIF: Fe-CeO2(110)-Ov+CO.cif | data_image0
O      1.33203270     2.42712702     4.31492484
O      1.33647379     6.27634782     8.27107085
O      1.35275000     6.24576514     0.45001077
O      1.34306695     2.43120712     8.35694060
O      1.35275000     2.41961430     0.45001077
O      1.36056105     6.26248045     4.33584146
O      4.10915956     0.53377946     6.45513447
O      4.05825000     4.33269546     2.36308887
O      4.05825000     0.50653314     2.36308887
O      4.14231138     4.35129877     6.46371527
O      4.09326654     2.42718492     4.30631136
O      4.17536066     6.24478050     8.22970012
O      4.05825000     6.24576514     0.45001077
O      4.05825000     2.41961430     0.45001077
O      4.05243194     6.22280424     4.36764984
O      1.30308361     0.46187505     6.29028382
O      1.35275000     4.33269546     2.36308887
O      1.35275000     0.50653314     2.36308887
O      1.28953096     4.41012532     6.28952142
O      6.77391369     2.43476816     4.41571260
O      6.70190297     6.23806176     8.22740963
O      6.76375000     6.24576514     0.45001077
O      6.58320178     2.10457057     8.27164210
O      6.76375000     2.41961430     0.45001077
O      6.77788467     6.23157479     4.34650974
O      9.46910235     0.53578180     6.32441625
O      9.46925000     4.33269546     2.36308887
O      9.46925000     0.50653314     2.36308887
O      9.44097045     4.30120450     6.31102514
O      9.45252120     2.41459030     4.34081194
O      9.53788958     6.25050024     8.24184757
O      9.46925000     6.24576514     0.45001077
O      9.51633671     2.43083313     8.28381616
O      9.46925000     2.41961430     0.45001077
O      9.47240907     6.24224306     4.34715210
O      6.78396497     0.39047398     6.26838415
O      6.76375000     4.33269546     2.36308887
O      6.76375000     0.50653314     2.36308887
O      6.71266126     4.37171840     6.40790512
O      1.36946896    10.06734782     4.33739461
O      1.34894165    10.08569484     8.28166759
O      1.35275000    10.07192746     0.45001077
O      4.08003913     8.18024769     6.29678875
O      4.05825000     8.15884630     2.36308887
O      4.06462883    10.10823609     4.38075384
O      4.15320341     9.99401427     8.32440078
O      4.05825000    10.07192746     0.45001077
O      1.36388881     8.17749847     6.30118554
O      1.35275000     8.15884630     2.36308887
O      6.77307129    10.04796918     4.31528529
O      6.81216126     9.96556982     8.30977956
O      6.76375000    10.07192746     0.45001077
O      9.52254922     8.14425293     6.28792105
O      9.46925000     8.15884630     2.36308887
O      9.47778572    10.07583773     4.35192848
O      9.57303225    10.06633997     8.23513527
O      9.46925000    10.07192746     0.45001077
O      6.78750124     8.16454023     6.27840915
O      6.76375000     8.15884630     2.36308887
O      4.20147236     3.36327458    10.45123927
Ce    10.80837117     0.52076744     4.32017390
Ce     0.00590117     4.33290695     8.12505409
Ce     0.00000000     4.33269546     0.45001077
Ce     2.66754197     2.44260473     6.29948727
Ce     2.70550000     6.24576514     2.36308887
Ce     2.70550000     2.41961430     2.36308887
Ce     2.68586331     6.25991205     6.36211218
Ce     0.02586363     0.51989331     8.12444214
Ce     0.00000000     0.50653314     0.45001077
Ce    10.79741870     4.32051551     4.31557661
Ce     5.42128002     0.50797211     4.34331216
Ce     5.41100000     4.33269546     0.45001077
Ce     8.03769581     2.39757192     6.49521464
Ce     8.11650000     6.24576514     2.36308887
Ce     8.11650000     2.41961430     2.36308887
Ce     8.16737541     6.23856631     6.35108647
Ce     5.53555476     0.31184536     8.18602700
Ce     5.41100000     0.50653314     0.45001077
Ce     5.42051341     4.32481775     4.33469526
Ce     0.02351968     8.16461021     4.30735987
Ce     2.71444295    10.09594814     6.39447415
Ce     2.70550000    10.07192746     2.36308887
Ce     0.03546454     8.16698470     8.12439803
Ce     0.00000000     8.15884630     0.45001077
Ce     5.41955693     8.15801452     4.32467510
Ce     8.18022730    10.05005461     6.34661044
Ce     8.11650000    10.07192746     2.36308887
Ce     5.44928912     8.18506537     8.11058242
Ce     5.41100000     8.15884630     0.45001077
Fe     5.43197309     5.15827058     7.52111405
C      4.28092209     2.39263403     9.85347639
