83
CIF: CH+OH+Olat→CO+H2O.cif | data_image0
O     -0.00101584     0.09961518     0.10145935
O      1.90250103     1.21623541     3.24877599
O     -0.02599931     2.31769426     6.47096932
O     -0.00101584     2.30864459     1.66347260
O     -0.00370697     0.10897633     4.86112806
O      3.82513533     0.09961518     0.10145935
O      5.73803567     1.20240994     3.23503811
O      3.89018729     2.32975120     6.55279531
O      3.82513533     2.30864459     1.66347260
O      3.80304920     0.11076943     4.83253977
O      5.71072994     1.10350467     8.88445238
O      7.65129798     0.09961518     0.10145935
O      9.57509950     1.19923220     3.22637098
O      7.57908679     2.21191631     6.47936889
O      7.65129798     2.30864459     1.66347260
O      7.68622513     0.08603324     4.82556640
O      9.54406356     1.05699318     8.16226401
O     -1.91409143     3.41315929     0.10145935
O     -0.00736818     4.52674050     3.26082179
O     -1.70825456     5.59642107     6.52144929
O     -1.91409717     5.62219864     1.66347260
O      9.51189290     3.39359624     4.84667143
O      1.91205974     3.41315929     0.10145935
O      3.82628941     4.51971987     3.22824564
O      1.71706090     5.51694542     7.09069649
O      1.91205400     5.62219864     1.66347260
O      1.93776191     3.44841998     4.86925827
O      4.00470016     4.15013847     9.20789750
O      5.73822240     3.41315929     0.10145935
O      7.65712783     4.53305331     3.23186863
O      5.66162233     5.64306354     6.47176750
O      5.73821666     5.62219864     1.66347260
O      5.75666786     3.42292523     4.81012428
O      7.66700055     4.66225991     8.16257847
O     -3.82717276     6.72671335     0.10145935
O     -1.90070559     7.80752308     3.26820570
O     -3.87274766     8.87338652     6.39969995
O     -3.82717276     8.93574276     1.66347260
O     -3.79287664     6.65493866     4.92610633
O     -1.89903994     7.74281939     8.17222664
O     -0.00102158     6.72671335     0.10145935
O      1.91021904     7.83305612     3.20393612
O      0.03314055     9.06533969     6.44770932
O     -0.00102158     8.93574276     1.66347260
O      0.10066493     6.77634698     4.91858618
O      1.81979693     8.04950873     8.21244657
O      3.82514107     6.72671335     0.10145935
O      5.73415928     7.80328336     3.27423065
O      3.84125044     8.92467489     6.40741124
O      3.82514107     8.93574276     1.66347260
O      3.69988359     6.67889120     4.90631154
O      5.82241665     7.87286051     8.18596047
O      1.75098597     1.06762436     8.24360607
Ce     1.91205974     1.20412988     0.88247738
Ce    -0.00821145     2.29709694     4.07170598
Ce     0.00493639     0.05466453     7.31644587
Ce     5.73822240     1.20412988     0.88247738
Ce     3.82756835     2.30435721     4.06899522
Ce     3.70105452     0.04151928     7.31650021
Ce     9.56437357     1.20412988     0.88247738
Ce     7.65146859     2.30753240     4.01603704
Ce     7.77688559     0.05666968     7.21648423
Ce    -0.00101584     4.51767400     0.88247738
Ce    -1.90394349     5.61215733     4.09741654
Ce     9.44201574     3.32602739     7.25317990
Ce     3.82514681     4.51767400     0.88247738
Ce     1.91588678     5.62062889     4.00384559
Ce     1.91296934     3.21226900     7.24060394
Ce     7.65129798     4.51767400     0.88247738
Ce     5.72903627     5.61536066     4.07835256
Ce     5.83301184     3.50123220     7.21235724
Ce    -1.91409717     7.83122806     0.88247738
Ce    -3.82408232     8.93057122     4.06979610
Ce    -3.82455876     6.71742168     7.31594865
Ce     1.91206548     7.83122806     0.88247738
Ce    -0.00018899     8.96156211     4.04146554
Ce    -0.00941822     6.95813473     7.23544227
Ce     5.73821666     7.83122806     0.88247738
Ce     3.82823524     8.92181162     4.03549066
Ce     3.80190516     6.83979575     7.37044118
C      4.37357301     3.19612863     9.87907926
H      5.95250920     0.57240727     9.66989157
H      5.14379824     2.08495769     9.39556335
