84
CIF: CO+O2→CO2+O.cif | data_image0
O     -0.00101584     0.09961518     0.10145935
O      1.91202855     1.20906485     3.24251201
O     -0.00137362     2.31983945     6.42542856
O     -0.00101584     2.30864459     1.66347260
O     -0.00126921     0.10617629     4.86681227
O      3.82513533     0.09961518     0.10145935
O      5.73851977     1.20174398     3.25075938
O      3.86213595     2.29162950     6.47621397
O      3.82513533     2.30864459     1.66347260
O      3.81174927     0.10020801     4.87817111
O      7.65129798     0.09961518     0.10145935
O      9.56334892     1.20900678     3.24199995
O      7.61455902     2.28732973     6.47749639
O      7.65129798     2.30864459     1.66347260
O      7.66486658     0.10061549     4.87795703
O      9.58231948     1.19127268     8.04814326
O     -1.91409143     3.41315929     0.10145935
O     -0.00153780     4.51860719     3.25577635
O     -1.88934680     5.63489878     6.40909573
O     -1.91409717     5.62219864     1.66347260
O     -1.93159319     3.40738975     4.88986054
O      1.91205974     3.41315929     0.10145935
O      3.82089803     4.51899739     3.24254596
O      1.89038763     5.63433598     6.41023800
O      1.91205400     5.62219864     1.66347260
O      1.92921396     3.40749092     4.88892690
O      4.35935461     3.34606693    11.35791272
O      5.73822240     3.41315929     0.10145935
O      7.65569768     4.51895610     3.24190163
O      5.73722343     5.63018932     6.43506336
O      5.73821666     5.62219864     1.66347260
O      5.74020070     3.42192549     4.85984095
O      7.70559689     4.57014264     8.01883881
O     -3.82717276     6.72671335     0.10145935
O     -1.91541665     7.83477746     3.24057971
O     -3.84193060     8.93350025     6.41424526
O     -3.82717276     8.93574276     1.66347260
O     -3.82852255     6.72549891     4.86899194
O     -1.93114202     7.83380572     8.04313382
O     -0.00102158     6.72671335     0.10145935
O      1.91326996     7.83540596     3.23965233
O     -0.00010446     8.97975881     6.45150805
O     -0.00102158     8.93574276     1.66347260
O     -0.00056864     6.75370821     4.87268210
O      1.92811572     7.83414172     8.04476807
O      3.82514107     6.72671335     0.10145935
O      5.73817129     7.83185214     3.23746359
O      3.83691834     8.93410349     6.41552250
O      3.82514107     8.93574276     1.66347260
O      3.82679846     6.72583073     4.86869057
O      5.73799245     7.84257755     8.05205062
O      1.89412785     1.19240119     8.04818911
O     -0.00120921     4.52769534     8.05032924
O      3.77165147     4.57132122     8.02937726
O      5.68800421     2.26412786     9.26250032
O      5.73232856     1.00996574     8.22247429
Ce     1.91205974     1.20412988     0.88247738
Ce    -0.00126147     2.30904388     4.05720998
Ce    -0.00209165     0.10126126     7.24571485
Ce     5.73822240     1.20412988     0.88247738
Ce     3.83170581     2.31320081     4.06747206
Ce     3.75737969     0.07435774     7.24134627
Ce     9.56437357     1.20412988     0.88247738
Ce     7.64501106     2.31264236     4.06618648
Ce     7.71640587     0.07323582     7.24391027
Ce    -0.00101584     4.51767400     0.88247738
Ce    -1.91548429     5.62791741     4.05389708
Ce    -1.91196436     3.42741380     7.24584425
Ce     3.82514681     4.51767400     0.88247738
Ce     1.91372687     5.62812495     4.05381697
Ce     1.91090153     3.42678979     7.24508392
Ce     7.65129798     4.51767400     0.88247738
Ce     5.73814565     5.61856669     4.05206435
Ce     5.74462501     3.46606645     7.29642480
Ce    -1.91409717     7.83122806     0.88247738
Ce    -3.83087713     8.93797025     4.04117927
Ce    -3.82710416     6.73034929     7.23851423
Ce     1.91206548     7.83122806     0.88247738
Ce    -0.00088958     8.94497321     4.06119017
Ce    -0.00128986     6.73925817     7.23794617
Ce     5.73821666     7.83122806     0.88247738
Ce     3.82788659     8.93794159     4.04186544
Ce     3.82480278     6.73039301     7.23968289
C      5.15103395     3.47462367    10.52649763
