86
CIF: 9-2CH2.cif | data_VESTA_phase_1
O     -0.00101584     0.09961518     0.10145935
O      1.90960335     1.19132633     3.23960530
O     -0.01033636     2.37125075     6.52159179
O     -0.00101584     2.30864459     1.66347260
O      0.05580830     0.11720017     4.92597925
O      3.82513533     0.09961518     0.10145935
O      5.74224560     1.19425882     3.22831430
O      3.84714529     2.30897263     6.46769151
O      3.82513533     2.30864459     1.66347260
O      3.82335617     0.12798577     4.86662736
O      5.79066750     1.06486148     8.17295222
O      7.65129798     0.09961518     0.10145935
O      9.58178640     1.19919932     3.25662164
O      7.65370272     2.26024360     6.43639604
O      7.65129798     2.30864459     1.66347260
O      7.64216112     0.08283537     4.86865745
O      9.57580612     1.06857928     8.15796598
O     -1.91409143     3.41315929     0.10145935
O     -0.00109045     4.51207742     3.24945927
O     -1.85842088     5.69461622     6.57927854
O     -1.91409717     5.62219864     1.66347260
O     -1.93191175     3.43527722     4.85118491
O      1.91205974     3.41315929     0.10145935
O      3.82499185     4.52509966     3.23292194
O      1.95835239     5.58260506     6.56618554
O      1.91205400     5.62219864     1.66347260
O      1.92688418     3.40135975     4.82915035
O      3.70946110     4.67387131     8.63782218
O      5.73822240     3.41315929     0.10145935
O      7.65603285     4.52283319     3.23061812
O      5.62436750     5.63835219     6.47255006
O      5.73821666     5.62219864     1.66347260
O      5.75005669     3.41111152     4.82741678
O      7.62102927     4.66984535     8.19569390
O     -3.82717276     6.72671335     0.10145935
O     -1.92482954     7.82552212     3.26864257
O     -3.73130462     8.82146513     6.48938392
O     -3.82717276     8.93574276     1.66347260
O      7.63152633     6.65806327     4.89883523
O     -1.92697601     7.83593992     8.65832847
O     -0.00102158     6.72671335     0.10145935
O      1.92195992     7.83800757     3.22648949
O     -0.03842416     8.92770078     6.44077558
O     -0.00102158     8.93574276     1.66347260
O      0.04346321     6.72073902     4.83127169
O      2.04050377     7.92887498     8.15169320
O      3.82514107     6.72671335     0.10145935
O      5.74684846     7.83671529     3.26221012
O      3.85837696     8.95126010     6.39645554
O      3.82514107     8.93574276     1.66347260
O      3.78913886     6.74101793     4.86769943
O      5.71818673     7.84238145     8.12302090
O      1.88198043     1.06990139     8.15495505
Ce     1.91205974     1.20412988     0.88247738
Ce     0.00587697     2.31426105     4.07395336
Ce     0.01015270     0.10347215     7.29501405
Ce     5.73822240     1.20412988     0.88247738
Ce     3.83973020     2.31072218     4.03239335
Ce     3.84636475     0.17612830     7.24020137
Ce     9.56437357     1.20412988     0.88247738
Ce     7.64639094     2.31030467     4.04338782
Ce     7.67622347     0.10183194     7.29531058
Ce    -0.00101584     4.51767400     0.88247738
Ce    -1.90690591     5.61383856     4.08214219
Ce     9.43719792     3.34708384     7.25920218
Ce     3.82514681     4.51767400     0.88247738
Ce     1.91973884     5.61664182     4.05246624
Ce     1.98074114     3.28670438     7.21741407
Ce     7.65129798     4.51767400     0.88247738
Ce     5.72638810     5.60198932     4.05492973
Ce     5.80725962     3.35811796     7.35165154
Ce    -1.91409717     7.83122805     0.88247738
Ce    -3.81807607     8.92897318     4.07897159
Ce     7.54022088     6.63781418     7.23616398
Ce     1.91206548     7.83122805     0.88247738
Ce     0.00916555     8.93815833     4.04092433
Ce     0.10547561     6.83643816     7.20051178
Ce     5.73821666     7.83122805     0.88247738
Ce     3.82833208     8.94333741     4.04420898
Ce     3.82430888     6.85207479     7.24280172
C     -2.05081143     8.61171758     9.70173114
C      4.44711317     4.34439866     9.70896195
H     -3.05025285     8.83259865    10.10008684
H     -1.15318973     8.96635000    10.22809715
H      4.15100895     3.47837985    10.31422811
H      5.16005211     5.07402192    10.11094445
