82
CIF: 1-O2 — 2Olat.cif | data_image0
O      0.39818343     0.52990743     0.59999690
O      2.30852903     1.66564497     3.76659773
O      0.27482191     2.68921383     6.93421007
O      0.39818343     2.73892370     2.16203261
O      0.40133223     0.51917652     5.36564290
O      2.29867455     1.13688772     8.76464552
O      4.22442662     0.52990743     0.59999690
O      6.13689926     1.62191814     3.73524014
O      4.14307669     2.77078611     6.94536935
O      4.22442662     2.73892370     2.16203261
O      4.22520417     0.54371206     5.39145461
O      6.14027158     1.66950741     8.54309168
O      8.05055502     0.52990743     0.59999690
O      9.96624063     1.62796438     3.75660297
O      8.06754995     2.71211235     6.89588705
O      8.05055502     2.73892370     2.16203261
O      8.02964022     0.51487579     5.37850381
O      9.89743195     1.62753393     8.62481159
O     -1.51488078     3.84343183     0.59999690
O      0.42700597     4.93383067     3.75954718
O     -1.53722446     6.04618170     6.91942345
O     -1.51493817     6.05254750     2.16203261
O     -1.53764902     3.85749887     5.34622129
O      2.31136241     3.84343183     0.59999690
O      4.21335801     4.94594166     3.74530705
O      2.29398329     5.94133712     7.05409907
O      2.31130502     6.05254750     2.16203261
O      2.36527418     3.89365649     5.47860562
O      4.19535017     4.86855883     8.40157975
O      6.13749082     3.84343183     0.59999690
O      8.03514832     4.94132377     3.72911798
O      6.10249219     6.04995525     6.93310007
O      6.13743343     6.05254750     2.16203261
O      6.14071514     3.81762904     5.37666150
O      7.98816415     4.90467783     8.53769430
O     -3.42800237     7.15705564     0.59999690
O     -1.50719923     8.25339398     3.76127625
O     -3.45652945     9.28718174     6.85817785
O     -3.42800237     9.36607190     2.16203261
O     -3.43726401     7.10884245     5.35923330
O     -1.58567476     8.24139342     8.58774969
O      0.39824082     7.15705564     0.59999690
O      2.30614388     8.26085185     3.73980344
O      0.35456205     9.34909403     6.97277534
O      0.39824082     9.36607190     2.16203261
O      0.43055681     7.13888842     5.41441731
O      2.31295662     8.41115664     8.59158197
O      4.22436922     7.15705564     0.59999690
O      6.11724154     8.24417029     3.75542079
O      4.22596856     9.37845638     6.94036391
O      4.22436922     9.36607190     2.16203261
O      4.17004657     7.15228944     5.41736310
O      6.10491936     8.20754423     8.59278698
O     -0.22704212     5.26983980     8.87253748
O      2.25087828     6.55834858     9.29883126
Ce     2.31124763     1.63441557     1.38101475
Ce     0.38145151     2.72801973     4.63567500
Ce     0.42887214     0.56486085     7.79720071
Ce     6.13749082     1.63441557     1.38101475
Ce     4.23793521     2.70871352     4.53842733
Ce     4.12216567     0.50524411     7.81677548
Ce     9.96361922     1.63441557     1.38101475
Ce     8.05507975     2.73370651     4.52716676
Ce     8.03665041     0.57741642     7.74766117
Ce     0.39818343     4.94793996     1.38101475
Ce    -1.51338289     6.04179529     4.55909072
Ce    -1.51388484     3.76913095     7.76752383
Ce     4.22442662     4.94793996     1.38101475
Ce     2.29555084     6.08067585     4.52896001
Ce     8.05055502     4.94793996     1.38101475
Ce     6.12561110     6.04390768     4.56136967
Ce     6.19962674     3.78695690     7.72799122
Ce    -1.51493817     8.26156377     1.38101475
Ce    -3.43678575     9.35851762     4.56316162
Ce    -3.45940213     7.13016720     7.75297082
Ce     2.31130502     8.26156377     1.38101475
Ce     0.38557180     9.35535252     4.59129349
Ce     0.31279105     7.18232493     7.84437710
Ce     6.13743343     8.26156377     1.38101475
Ce     4.22271337     9.36693318     4.57205317
Ce     4.24485378     7.23318813     7.79251291
Ni     3.12420645     4.31031834     7.09826306
