81
CIF: CeO2.cif | data_image0
O      0.09997773     0.10000317     0.00000000
O      2.01332890     1.20461071     3.14277558
O      0.09997774     2.30882062     6.33459287
O      0.09997774     2.30901943     1.56203565
O      0.09997773     0.10000317     4.77985646
O      2.01344368     1.20461071     7.96300591
O      3.92622092     0.10000317     0.00000000
O      5.83922774     1.20421308     3.14300368
O      3.92662267     2.30931765     6.33436477
O      3.92622093     2.30901943     1.56203565
O      3.92564700     0.10000317     4.78031266
O      5.83911295     1.20441189     7.96346211
O      7.75234933     0.10000317     0.00000000
O      9.66518396     1.20471011     3.14277558
O      7.75200497     2.30921824     6.33436477
O      7.75234933     2.30901943     1.56203565
O      7.75298065     0.09990376     4.78031266
O      9.66506918     1.20471011     7.96323401
O     -1.81308647     3.41352756     0.00000000
O      0.09997773     4.51843332     3.14300368
O     -1.81377518     5.62214620     6.33390857
O     -1.81314386     5.62264324     1.56203565
O     -1.81274211     3.41312994     4.78031266
O      0.09992034     4.51853273     7.96300591
O      2.01315672     3.41352756     0.00000000
O      3.92604875     4.51813510     3.14300368
O      2.01384543     5.62214620     6.33413667
O      2.01309933     5.62264324     1.56203565
O      2.01275497     3.41322934     4.78031266
O      3.92616353     4.51813510     7.96346211
O      5.83928513     3.41352756     0.00000000
O      7.75257890     4.51823451     3.14300368
O      5.83917034     5.62214620     6.33436477
O      5.83922773     5.62264324     1.56203565
O      5.83922774     3.41362697     4.77985646
O      7.75234933     4.51823451     7.96323401
O     -3.72620806     6.72715137     0.00000000
O     -1.81279951     7.83146069     3.14300368
O     -3.72643763     8.93636645     6.33459287
O     -3.72620806     8.93616763     1.56203565
O     -3.72649503     6.72764840     4.78031266
O     -1.81279951     7.83146069     7.96277781
O      0.10003513     6.72715137     0.00000000
O      2.01275498     7.83146069     3.14300368
O      0.10003513     8.93696289     6.33390857
O      0.10003513     8.93616763     1.56203565
O      0.10009252     6.72705196     4.78122506
O      2.01264019     7.83146069     7.96300591
O      3.92616353     6.72715137     0.00000000
O      5.83928513     7.83136128     3.14277558
O      3.92639310     8.93636645     6.33459287
O      3.92616353     8.93616763     1.56203565
O      3.92633571     6.72764840     4.78031266
O      5.83934252     7.83126187     7.96300591
Ce     2.01304194     1.20451130     0.78101782
Ce     0.09997774     2.30901943     3.95641185
Ce     0.09997773     0.10000317     7.15096635
Ce     5.83928513     1.20451130     0.78101782
Ce     3.92622093     2.30901943     3.95663995
Ce     3.92622093     0.10020198     7.15119445
Ce     9.66541353     1.20451130     0.78101782
Ce     7.75234933     2.30901943     3.95663995
Ce     7.75223455     0.10020198     7.15119445
Ce     0.09997773     4.51803570     0.78101782
Ce    -1.81302908     5.62264324     3.95686805
Ce    -1.81320125     3.41352756     7.15119445
Ce     3.92622092     4.51803570     0.78101782
Ce     2.01309933     5.62264324     3.95686805
Ce     2.01321412     3.41362697     7.15119445
Ce     7.75234933     4.51803570     0.78101782
Ce     5.83928513     5.62254383     3.95663995
Ce     5.83928513     3.41352756     7.15119445
Ce    -1.81314386     7.83165950     0.78101782
Ce    -3.72620806     8.93616763     3.95663995
Ce    -3.72620806     6.72695256     7.15119445
Ce     2.01309933     7.83165950     0.78101782
Ce     0.10009252     8.93606823     3.95686805
Ce     0.09992034     6.72715137     7.15119445
Ce     5.83922774     7.83165950     0.78101782
Ce     3.92616353     8.93616763     3.95641185
Ce     3.92627832     6.72695256     7.15119445
