83
CIF: CeO2+CO.cif | data_image0
O      0.09997773     0.10000317     0.00000000
O      2.01153467     1.20545953     3.14647760
O      0.09918737     2.30959759     6.33505596
O      0.09997774     2.30901943     1.56203572
O      0.09692299     0.09893949     4.78420255
O      2.01312897     1.20463876     7.96778717
O      3.92622092     0.10000317     0.00000000
O      5.84134371     1.20555679     3.14652684
O      3.92614724     2.30313364     6.32934374
O      3.92622093     2.30901943     1.56203572
O      3.92616892     0.10009842     4.77638771
O      5.83967373     1.20493733     7.96724156
O      7.75234933     0.10000317     0.00000000
O      9.66514881     1.20426356     3.14614030
O      7.75404062     2.30959838     6.33497204
O      7.75234933     2.30901943     1.56203572
O      7.75583917     0.09884196     4.78455964
O      9.66568245     1.20392971     7.96914300
O     -1.81308647     3.41352756     0.00000000
O      0.10006149     4.51840123     3.14604748
O     -1.81261490     5.62087516     6.33491602
O     -1.81314386     5.62264324     1.56203572
O     -1.81309741     3.41357863     4.78278595
O      0.10011059     4.51797320     7.96908353
O      2.01315672     3.41352756     0.00000000
O      3.92644418     4.51597841     3.14554832
O      2.02249951     5.62736970     6.34747845
O      2.01309933     5.62264324     1.56203572
O      2.01255338     3.41681439     4.78423051
O      3.92744278     4.48750300     7.97221798
O      5.83928513     3.41352756     0.00000000
O      7.75235036     4.51800742     3.14590177
O      5.82961651     5.62880941     6.34713040
O      5.83922773     5.62264324     1.56203572
O      5.84031600     3.41691358     4.78457731
O      7.75188941     4.51844905     7.96955403
O     -3.72620806     6.72715137     0.00000000
O     -1.81291435     7.82945704     3.14638619
O     -3.72095557     8.93916443     6.32913051
O     -3.72620806     8.93616763     1.56203572
O     -3.72824432     6.72456728     4.78429589
O     -1.81312812     7.83105317     7.96734433
O      0.10003513     6.72715137     0.00000000
O      2.01133655     7.83264838     3.14561854
O      0.09452499     8.93923223     6.32919181
O      0.10003513     8.93616763     1.56203572
O      0.10256283     6.72474211     4.78431681
O      1.98578827     7.84756976     7.97180687
O      3.92616353     6.72715137     0.00000000
O      5.84111565     7.83241012     3.14573047
O      3.92729515     8.92474551     6.34766416
O      3.92616353     8.93616763     1.56203572
O      3.92592552     6.72691132     4.77336736
O      5.86801965     7.84704749     7.97416978
O      4.03492513     6.78883501    11.17211260
Ce     2.01304194     1.20451130     0.78101786
Ce     0.09898707     2.30960422     3.95758171
Ce     0.10304510     0.10183736     7.15190431
Ce     5.83928513     1.20451130     0.78101786
Ce     3.92640300     2.30901558     3.95724049
Ce     3.92654170     0.09987311     7.14936880
Ce     9.66541353     1.20451130     0.78101786
Ce     7.75356715     2.30957698     3.95757947
Ce     7.75022390     0.10162642     7.15204215
Ce     0.09997773     4.51803570     0.78101786
Ce    -1.81295584     5.62130228     3.95747313
Ce    -1.81287579     3.41340850     7.15528918
Ce     3.92622092     4.51803570     0.78101786
Ce     2.01645179     5.62433891     3.96138016
Ce     2.01307674     3.41024696     7.15208195
Ce     7.75234933     4.51803570     0.78101786
Ce     5.83617106     5.62439356     3.96155998
Ce     5.83994348     3.41055215     7.15193226
Ce    -1.81314386     7.83165950     0.78101786
Ce    -3.72600178     8.93596324     3.95720815
Ce    -3.72277864     6.72806027     7.15189754
Ce     2.01309933     7.83165950     0.78101786
Ce     0.10025651     8.93597946     3.95742167
Ce     0.09733028     6.72809282     7.15219206
Ce     5.83922774     7.83165950     0.78101786
Ce     3.92635864     8.93219915     3.96162314
Ce     3.92572490     6.72636927     7.18170510
C      3.97988420     6.75595009    10.03131391
