84
CIF: Pt-W-CeO2-CO.cif | data_image0
Ce     1.93596140     1.11772783     0.89035214
Ce     0.00216744     2.22362745     4.01648600
Ce    -5.77787302    10.04295090     7.24323812
Ce     5.80789581     1.11772783     0.89035214
Ce     3.83237819     2.19299461     3.98327582
Ce    -1.93175998     9.97600734     7.34408903
Ce     9.67981860     1.11772783     0.89035214
Ce     7.78237743     2.21306964     4.04524268
Ce     2.05990048     9.93200183     7.27116323
Ce     0.00000000     4.47091133     0.89035214
Ce    -1.94267821     5.58215164     4.08778366
Ce    -1.76339752     3.31167321     7.26987418
Ce     3.87193441     4.47091133     0.89035214
Ce     1.93791978     5.58738711     4.04928822
Ce     1.79545854     3.31113902     7.22091542
Ce     7.74385721     4.47091133     0.89035214
Ce     5.82515631     5.64405732     3.98374036
Ce    -1.93596721     7.82410489     0.89035214
Ce    -3.85488405     8.93228298     4.07947995
Ce    -3.79717115     6.74905740     7.34278656
Ce     1.93596721     7.82410489     0.89035214
Ce     0.00236527     8.95095166     4.08825255
Ce     0.01220357     6.70009535     7.21968857
Ce     5.80789000     7.82410489     0.89035214
Ce     3.88322790     8.94594035     4.01635632
Ce     3.83900713     6.84840988     7.22116025
W      5.10918299     3.75505183     6.85462018
Re     6.78873678     2.78604052     8.28889424
O      0.00000000     0.00000000     0.09999685
O      1.94097373     1.11360078     3.21073308
O      0.05690100     2.21740682     6.31974423
O      0.00000000     2.23545567     1.68070743
O     -5.78521230    10.04616778     4.81063560
O      1.85932425     1.22470544     8.05888756
O      3.87192279     0.00000000     0.09999685
O      5.81415023     1.17812144     3.25237056
O      3.92959017     2.31018503     6.49500906
O      3.87192279     2.23545567     1.68070743
O      3.87163670     0.04683513     4.84284303
O      6.08550705     1.06639419     8.56303863
O      7.74385721     0.00000000     0.09999685
O      9.68165953     1.11624916     3.21093382
O      7.75055730     2.22977491     6.65599424
O      7.74385721     2.23545567     1.68070743
O      7.76979213     0.05954680     4.81597391
O      9.90678628     0.98471442     8.09028905
O     -1.93596140     3.35318350     0.09999685
O      0.00260590     4.46185775     3.24906922
O     -1.90351227     5.56092834     6.40776363
O     -1.93596721     5.58864923     1.68070743
O      9.64096792     3.30049619     4.81435568
O      0.15332626     4.48877583     8.08678053
O      1.93596140     3.35318350     0.09999685
O      3.90277248     4.45310405     3.22120122
O      1.94316587     5.58525709     6.34370125
O      1.93595559     5.58864923     1.68070743
O      1.98224823     3.32098689     4.83895779
O      5.80789581     3.35318350     0.09999685
O      7.69478157     4.43555699     3.25232002
O      5.77505123     5.49981039     6.49969451
O      5.80789000     5.58864923     1.68070743
O      5.72230795     3.40254463     5.02796152
O      7.92977718     4.23900607     8.58674490
O     -3.87192860     6.70637706     0.09999685
O     -1.93919179     7.82606795     3.25981206
O     -3.85356527     8.93180857     6.45069399
O     -3.87192860     8.94183273     1.68070743
O      7.70281895     6.68410822     4.84252879
O     -1.78192828     7.73623957     8.14118779
O     -0.00000581     6.70637706     0.09999685
O      1.94553951     7.82682330     3.24961623
O      0.04211499     8.92670379     6.40773294
O     -0.00000581     8.94183273     1.68070743
O     -0.00552897     6.70945823     4.83257928
O      3.87192860     6.70637706     0.09999685
O      5.81370070     7.82193162     3.21042127
O      3.91301439     8.90236248     6.32068590
O      3.87192860     8.94183273     1.68070743
O      3.92444417     6.68206122     4.84032856
O      5.67682174     7.83781920     8.05855330
O      3.81138566     4.50541192     7.97292219
O      1.99857187     7.68523237     8.08717243
O      5.12332237     3.71028184    10.84996561
C      5.77357895     3.35169936     9.96338173
