84
CIF: CO+Olatt—CO2.cif | data_image0
Ce     1.93038582     1.11050507     0.88387043
Ce    -0.00795642     2.23758555     4.04596250
Ce    -5.79465055    10.03845594     7.21223115
Ce     5.81181033     1.12175166     0.90127712
Ce     3.85520589     2.21598252     4.01337553
Ce    -2.01205698    10.00688156     7.21195467
Ce     9.66901012     1.12377363     0.90450652
Ce     7.74493186     2.24341497     4.08771003
Ce     2.02017962    10.02653894     7.25428814
Ce    -0.00709724     4.47602159     0.89067279
Ce    -1.93988690     5.58134041     4.07492531
Ce    -1.85251450     3.33557257     7.29793393
Ce     3.86254305     4.47635356     0.87798423
Ce     1.95269864     5.58554457     4.04926239
Ce     1.88591204     3.31573708     7.19528817
Ce     7.74213807     4.46545905     0.90125422
Ce     5.81620385     5.61140480     4.00374799
Ce    -1.94645625     7.83004003     0.90010904
Ce    -3.87255491     8.93682700     4.02980864
Ce    -3.86321974     6.73378615     7.21657222
Ce     1.92815559     7.82745473     0.89060408
Ce     0.00422303     8.95578192     4.07153116
Ce     0.03245956     6.70753594     7.22694468
Ce     5.81127600     7.83258510     0.88371011
Ce     3.87179572     8.94819295     4.02598264
Ce     3.88523331     6.77677708     7.17875598
Rh     4.86307400     3.89093875     6.45259474
Ti     6.56079137     2.92951368     7.94938969
O     11.61334069     0.00154917     0.10141687
O      1.93283774     1.11314980     3.22452633
O      0.08221720     2.18943989     6.39739340
O     -0.00785227     2.23805103     1.69392277
O     -5.79883103    10.04546785     4.84237182
O      1.94845359     1.05712058     8.03135528
O     -1.93899312    10.05733740     0.10496691
O      5.80446783     1.10382769     3.25065977
O      3.86587808     2.15271125     6.45248629
O      3.86763657     2.23577757     1.68132582
O     -1.95489574    10.03788809     4.85998762
O      6.33405437     1.17804839     8.48884135
O      7.73821774     0.00761509     0.10924988
O      9.67653597     1.11648741     3.24386348
O      7.65019823     2.24141823     6.47936333
O      7.74357843     2.23531483     1.71563532
O      7.75812976     0.00224387     4.87317260
O      9.75003085     0.95208872     8.01728636
O      9.67032270     3.35425987     0.10911246
O      0.00369989     4.49174126     3.25165436
O     -1.98852036     5.63525905     6.46748878
O     -1.94403436     5.59119430     1.70564938
O      9.68263191     3.34635687     4.84279458
O      0.15284960     4.54986152     8.01172092
O      1.92738314     3.35244915     0.09928684
O      3.84783348     4.48146586     3.20659636
O      2.01028823     5.58009499     6.39449026
O      1.92862022     5.59252216     1.67404250
O      1.94033078     3.34659395     4.84688496
O      3.87322022     4.47002312     8.16473289
O      5.81155478     3.35101064     0.10766953
O      7.74969763     4.48201899     3.24385350
O      5.84550685     5.63400812     6.41997538
O      5.80528807     5.59217007     1.68114259
O      5.78797896     3.36266298     4.75011843
O      7.77297559     4.21172931     8.38187524
O     -3.87155109     6.71022987     0.10512724
O     -1.92462748     7.81855041     3.25138172
O     -3.85550897     8.91747588     6.40667569
O     -3.87509971     8.94378428     1.69355631
O     -3.87322139     6.72014037     4.85873546
O     -1.96794587     7.84804712     8.02599394
O     -0.01209783     6.71325780     0.10434852
O      1.92144875     7.82457617     3.24298487
O     -0.01991390     9.04082636     6.49839195
O     -0.00628994     8.94736548     1.70514550
O      0.00670644     6.72852611     4.92435437
O      1.96528413     7.79824235     7.98331399
O      3.86815347     6.71410280     0.09951587
O      5.81470529     7.83098537     3.21338008
O      3.90464308     8.90370400     6.37179964
O      3.86556896     8.94715423     1.69389986
O      3.88811409     6.71874978     4.82581459
O      5.84105122     7.82174594     8.00086150
O      4.59632998     4.01943511    10.39867685
C      4.91325327     3.82336100     9.27356859
