85
CIF: 1-NH3-NH2+H_ts.cif | data_image0
Ce     0.01064863     0.01131742     8.73853713
Ce     1.92028941     1.11011252     5.63265145
Ce     0.00000000     2.23543938     2.47426506
Ce    -1.91272352    10.01422887     8.77629835
Ce     5.80622842     1.10857464     5.62455792
Ce     3.87189458     2.23543938     2.47426506
Ce     1.95330927    10.05368667     8.74638414
Ce     9.68934653     1.13666373     5.61999419
Ce     7.74390532     2.23543938     2.47426506
Ce     9.60018297     3.36994988     8.81257277
Ce    -0.01643299     4.52566070     5.63589376
Ce    -1.93600537     5.58869904     2.47426506
Ce     1.90487625     3.40002067     8.77941450
Ce     3.86154213     4.47399470     5.62325189
Ce     1.93588921     5.58869904     2.47426506
Ce     5.76679875     3.33206682     8.77142322
Ce     7.73828405     4.47035536     5.61548064
Ce     5.80789995     5.58869904     2.47426506
Ce     7.71048739     6.63624670     8.81124095
Ce    -1.89765130     7.78425694     5.63825049
Ce    -3.87195266     8.94185811     2.47426506
Ce     1.93955390     7.82754638     5.57448057
Ce    -0.00005808     8.94185811     2.47426506
Ce     3.86710519     6.72904280     8.74472026
Ce     5.82624546     7.82622166     5.61908098
Ce     3.87195266     8.94185811     2.47426506
Ir     0.20586093     6.82969163     8.79340680
O      0.00452717     0.00649554     6.43837591
O      0.01017829     2.32916438     9.50274945
O      1.93594729     1.11771969     3.26466483
O      0.00545768     2.23034527     4.81700176
O      0.00000000     0.00000000     1.68386529
O      1.93819451     1.12191394     7.98146457
O     -1.95124189     9.96160767     6.50120627
O      3.86099942     2.23000192     9.56912312
O      5.80795803     1.11771969     3.26466483
O      3.83978964     2.21738491     4.85423209
O      3.87189458     0.00000000     1.68386529
O      5.77944966     1.08829366     7.98157896
O      7.75705183     0.02173346     6.42162140
O      7.70934847     2.21445211     9.53716542
O      9.67985261     1.11771969     3.26466483
O      7.74725624     2.24804949     4.82795939
O      7.74390532     0.00000000     1.68386529
O      9.69833009     1.11954538     7.98087998
O     -1.88874406     3.37139620     6.47247051
O     -2.55296679     5.24024727    10.00876859
O      0.00000000     4.47087876     3.26466483
O     -1.97768836     5.56614578     4.80624304
O      9.67985261     3.35315907     1.68386529
O     -0.11251160     4.85889172     8.15360403
O      1.84007922     3.39107096     6.50188696
O      1.92368521     5.75584757     9.51820185
O      3.87201074     4.47087876     3.26466483
O      1.98385480     5.55743391     4.79583494
O      1.93594729     3.35315907     1.68386529
O      3.82631534     4.46316496     7.98129118
O      5.77206850     3.33443208     6.43041708
O      5.76243001     5.57504621     9.53353444
O      7.74390532     4.47087876     3.26466483
O      5.81850443     5.58753875     4.82775722
O      5.80795803     3.35315907     1.68386529
O      7.69990275     4.44998517     7.90891092
O     -3.83626072     6.74254686     6.47132339
O     -3.79079793     8.91053422     9.50226095
O     -1.93600537     7.82413842     3.26466483
O     -3.87611135     8.95062563     4.81864065
O      7.74384724     6.70641873     1.68386529
O     -1.65859757     7.54289252     8.14804207
O      0.02639350     6.72185790     6.16848417
O      0.13549167     8.85581281     9.51707691
O      1.93600537     7.82413842     3.26466483
O     -0.00206211     8.99965133     4.79695104
O     -0.00005808     6.70641873     1.68386529
O      1.88082764     7.79473582     7.87456700
O      3.89431664     6.70759775     6.42085887
O      3.86770315     8.94447895     9.52696067
O      5.80789995     7.82413842     3.26466483
O      3.89559112     8.95614871     4.81097847
O      3.87195266     6.70641873     1.68386529
O      5.81088053     7.84654831     7.97919133
N     -0.47641145     6.44544300    10.63302917
H     -1.52385771     5.84619940    10.45163591
H     -0.56751781     7.35576349    11.10322869
H      0.24971816     5.89227766    11.10808288
