83
CIF: Pt-Ti-CeO2-O.cif | data_image0
Ce     1.93038582     1.11050507     0.88387043
Ce    -0.00325610     2.23152774     4.07031259
Ce    -5.76633834    10.02775597     7.16890498
Ce     5.81181033     1.12175166     0.90127712
Ce     3.83122334     2.21721963     4.00495348
Ce    -1.91480597    10.00096130     7.24814896
Ce     9.66901012     1.12377363     0.90450652
Ce     7.71218224     2.25089042     4.09423855
Ce     1.98037700     9.96577689     7.28667804
Ce    -0.00709724     4.47602159     0.89067279
Ce    -1.94280780     5.58498286     4.05692897
Ce    -1.85760209     3.36201046     7.26468268
Ce     3.86254305     4.47635356     0.87798423
Ce     1.93738212     5.57646386     4.05811750
Ce     1.98275799     3.32679246     7.27136725
Ce     7.74213807     4.46545905     0.90125422
Ce     5.81687883     5.62887660     3.98053583
Ce    -1.94645625     7.83004003     0.90010904
Ce    -3.85609913     8.93026945     4.04827434
Ce    -3.82962594     6.67183596     7.22146914
Ce     1.92815559     7.82745473     0.89060408
Ce    -0.00114992     8.95051124     4.07063635
Ce     0.01911597     6.68058839     7.21466642
Ce     5.81127600     7.83258510     0.88371011
Ce     3.86884338     8.95685300     4.04785169
Ce     3.91284691     6.68626774     7.16744089
Ti     5.46919755     3.56254527     6.67385079
Pt     6.93214925     2.70844683     8.57175079
O     11.61334069     0.00154917     0.10141687
O      1.92191689     1.10235175     3.22527218
O      0.01453607     2.19465223     6.40069107
O     -0.00785227     2.23805103     1.69392277
O     -5.79310030    10.04236559     4.85412020
O      2.02624626     0.95400292     7.97752350
O     -1.93899312    10.05733740     0.10496691
O      5.81252600     1.11201743     3.25602102
O      4.13649413     2.21952564     6.40625829
O      3.86763657     2.23577757     1.68132582
O      3.86056860     0.00048789     4.87490006
O      6.02797155     0.87491729     8.33946671
O      7.73821774     0.00761509     0.10924988
O      9.66794398     1.12095903     3.25559092
O      7.31952721     2.50211310     6.52114121
O      7.74357843     2.23531483     1.71563532
O      7.75964131     0.06968301     4.92745198
O      9.70050720     1.07921344     7.88984224
O      9.67032270     3.35425987     0.10911246
O     -0.01485063     4.46122685     3.26334730
O     -1.96787389     5.57969195     6.39022646
O     -1.94403436     5.59119430     1.70564938
O      9.62768692     3.30374957     4.91503652
O     -0.06229656     4.53287259     8.01729992
O      1.92738314     3.35244915     0.09928684
O      3.83252275     4.49879601     3.18515121
O      1.94321989     5.63886421     6.37998129
O      1.92862022     5.59252216     1.67404250
O      1.97485931     3.32638697     4.83413363
O      5.81155478     3.35101064     0.10766953
O      7.74959522     4.45870259     3.24470418
O      5.95801410     5.42722401     6.33042266
O      5.80528807     5.59217007     1.68114259
O      5.69382224     3.42057377     4.71563545
O      8.01552700     4.44480198     8.30757726
O     -3.87155109     6.71022987     0.10512724
O     -1.92462384     7.83020983     3.24398160
O     -3.84375614     8.87927511     6.38592705
O     -3.87509971     8.94378428     1.69355631
O     -3.86748099     6.71169639     4.82465858
O     -1.92997776     7.80089592     7.99740506
O     -0.01209783     6.71325780     0.10434852
O      1.93698149     7.84268004     3.26861064
O      0.00592063     8.94419955     6.43186226
O     -0.00628994     8.94736548     1.70514550
O     -0.01879822     6.71131391     4.86404480
O      1.98752732     7.79098734     8.01202806
O      3.86815347     6.71410280     0.09951587
O      5.80373304     7.84554634     3.21470855
O      3.90544578     8.89065620     6.38509761
O      3.86556896     8.94715423     1.69389986
O      3.92142064     6.68762484     4.85182663
O      5.84614121     7.73269985     7.93134017
O      4.10228480     4.46758189     7.72805286
O      6.64262176     2.87781338    10.35123472
