84
CIF: Cr-Rh-CeO2-Ov-CO2.cif | data_image0
Ce     1.93038582     1.11050507     0.88387043
Ce    -0.00862340     2.21955473     4.01116480
Ce    -5.78538923    10.04616653     7.23173127
Ce     5.81181033     1.12175166     0.90127712
Ce     3.84015847     2.19209447     4.01403737
Ce    -1.98047419    10.01393966     7.32353950
Ce     9.66901012     1.12377363     0.90450652
Ce     7.70991479     2.25499930     4.08016937
Ce     2.03399465     9.96011009     7.19695271
Ce    -0.00709724     4.47602159     0.89067279
Ce    -1.95225867     5.58561921     4.08199351
Ce    -1.80007894     3.31810825     7.19661217
Ce     3.86254305     4.47635356     0.87798423
Ce     1.95517791     5.57747760     4.06414494
Ce     1.85236357     3.25142555     7.20623851
Ce     7.74213807     4.46545905     0.90125422
Ce     5.82936145     5.63772860     4.01389763
Ce    -1.94645625     7.83004003     0.90010904
Ce    -3.85184991     8.93000642     4.07715503
Ce    -3.85420954     6.76537707     7.32357531
Ce     1.92815559     7.82745473     0.89060408
Ce    -0.00557650     8.95764328     4.08212739
Ce     0.01656612     6.69702122     7.27786717
Ce     5.81127600     7.83258510     0.88371011
Ce     3.88112969     8.95714021     4.01119569
Ce     3.91788448     6.82968109     7.20592594
Rh     4.99564754     3.82211562     6.60310761
Cr     6.66200864     2.86352594     8.08126288
O     11.61334069     0.00154917     0.10141687
O      1.92818898     1.10893863     3.23039080
O      0.01841486     2.21541144     6.38777848
O     -0.00785227     2.23805103     1.69392277
O     -5.78333577    10.04505420     4.87547247
O      1.78949990     1.18089261     8.10960092
O     -1.93899312    10.05733740     0.10496691
O      5.73540635     1.07434503     3.24798623
O      3.83704300     2.20381401     6.48104346
O      3.86763657     2.23577757     1.68132582
O     -1.95240381    10.02842451     4.86848243
O      6.31014654     1.33433052     8.65926194
O      7.73821774     0.00761509     0.10924988
O      9.74153188     1.08196665     3.22737523
O      7.53486338     2.35556525     6.58353265
O      7.74357843     2.23531483     1.71563532
O      1.97369584    10.03468603     4.91712154
O      9.67727552     1.11896613     7.92439907
O      9.67032270     3.35425987     0.10911246
O      0.00250220     4.49105809     3.25746007
O     -1.98034729     5.46414725     6.51377016
O     -1.94403436     5.59119430     1.70564938
O     -1.89543156     3.33287035     4.91682498
O      0.02583382     4.39747574     8.03114472
O      1.92738314     3.35244915     0.09928684
O      3.83207883     4.49392146     3.21757352
O      2.08064717     5.50510547     6.54564988
O      1.92862022     5.59252216     1.67404250
O      1.92412728     3.33917670     4.86686924
O      4.13414099     4.32388564     8.43267853
O      5.81155478     3.35101064     0.10766953
O      7.74494686     4.55525493     3.24795576
O      5.81834667     5.63439398     6.48003234
O      5.80528807     5.59217007     1.68114259
O      5.69603463     3.41732933     4.80345514
O      7.81640379     3.93305982     8.65208689
O     -3.87155109     6.71022987     0.10512724
O     -1.90505472     7.80628023     3.26763826
O     -3.88582143     8.94995145     6.49005800
O     -3.87509971     8.94378428     1.69355631
O     -3.85326563     6.73634957     4.86828055
O     -1.72968385     7.70508964     8.11568104
O     -0.01209783     6.71325780     0.10434852
O      1.91975547     7.81186041     3.25727885
O      0.08583573     9.04384219     6.51486661
O     -0.00628994     8.94736548     1.70514550
O      0.01700225     6.69706253     4.98212265
O      2.01215200     7.83878662     8.03134868
O      3.86815347     6.71410280     0.09951587
O      5.81144958     7.83502662     3.23008614
O      3.89757878     8.93630394     6.38794271
O      3.86556896     8.94715423     1.69389986
O      3.87795257     6.72368258     4.86675300
O      5.68021573     7.91875019     8.10831354
O      5.17835670     3.76165429    10.39101919
C      5.09766632     3.78316380     9.18479025
