83
CIF: W-Rh-CeO2-O.cif | data_image0
Ce     1.93038582     1.11050507     0.88387043
Ce     0.01094355     2.22739227     4.02637038
Ce    -5.78886615    10.02758645     7.22443625
Ce     5.81181033     1.12175166     0.90127712
Ce     3.85243116     2.21484003     4.01353719
Ce    -2.01409837    10.00503974     7.20561401
Ce     9.66901012     1.12377363     0.90450652
Ce     7.73679646     2.24699833     4.09694537
Ce     2.04273985    10.03719004     7.18008778
Ce    -0.00709724     4.47602159     0.89067279
Ce    -1.95499202     5.59722356     4.07729693
Ce    -1.81802928     3.29351005     7.18444102
Ce     3.86254305     4.47635356     0.87798423
Ce     1.93441056     5.59502473     4.05121602
Ce     1.88108065     3.34275267     7.23451687
Ce     7.74213807     4.46545905     0.90125422
Ce     5.81716710     5.61721954     4.02206660
Ce    -1.94645625     7.83004003     0.90010904
Ce    -3.87709256     8.92301349     4.04643653
Ce    -3.87968783     6.72465950     7.31402173
Ce     1.92815559     7.82745473     0.89060408
Ce    -0.00991679     8.96323926     4.05827262
Ce    -0.00604366     6.73151017     7.20526397
Ce     5.81127600     7.83258510     0.88371011
Ce     3.87477318     8.94507372     4.01916311
Ce     3.83434562     6.78063115     7.21837812
Rh     4.92445956     3.84046922     6.61369319
W      6.43560351     3.00971128     8.26398126
O     11.61334069     0.00154917     0.10141687
O      1.93582458     1.12044983     3.22024054
O      0.03860671     2.21540520     6.37405508
O     -0.00785227     2.23805103     1.69392277
O     -5.79236232    10.04877736     4.83447040
O      1.92220512     1.07305096     8.02980283
O     -1.93899312    10.05733740     0.10496691
O      5.79769112     1.12795063     3.24839136
O      3.86583701     2.14344007     6.46172563
O      3.86763657     2.23577757     1.68132582
O     -1.96343207    10.04658391     4.84977020
O      6.22288982     1.16194362     8.41535064
O      7.73821774     0.00761509     0.10924988
O      9.68295179     1.12253732     3.23890436
O      7.76813065     2.23620602     6.52379891
O      7.74357843     2.23531483     1.71563532
O      7.75513144     0.02435257     4.84326609
O      9.76136218     1.08240381     7.99904517
O      9.67032270     3.35425987     0.10911246
O      0.00213607     4.48359570     3.25622051
O     -1.92858523     5.52257750     6.45614210
O     -1.94403436     5.59119430     1.70564938
O      9.68401722     3.32749669     4.85542796
O      0.03140554     4.43103196     8.01941416
O      1.92738314     3.35244915     0.09928684
O      3.86538868     4.47124031     3.22309213
O      1.86355511     5.62847825     6.36339723
O      1.92862022     5.59252216     1.67404250
O      1.96558360     3.34831445     4.86612248
O      5.81155478     3.35101064     0.10766953
O      7.73641429     4.46405602     3.25182087
O      5.77959121     5.63078689     6.43610878
O      5.80528807     5.59217007     1.68114259
O      5.79823090     3.35164307     4.84880092
O      7.92889398     4.14199739     8.37356639
O     -3.87155109     6.71022987     0.10512724
O     -1.93829485     7.82783584     3.23728367
O     -3.85350591     8.94577947     6.42060506
O     -3.87509971     8.94378428     1.69355631
O      7.73935285     6.70854697     4.83097129
O     -1.82246040     7.89001743     8.03197287
O     -0.01209783     6.71325780     0.10434852
O      1.92195162     7.82670065     3.23936497
O      0.00618161     9.07953682     6.44935730
O     -0.00628994     8.94736548     1.70514550
O     -0.04613362     6.76619294     4.88542476
O      1.94185100     7.84989856     7.98202800
O      3.86815347     6.71410280     0.09951587
O      5.80186118     7.82422309     3.21842076
O      3.87540472     8.94985181     6.34638940
O      3.86556896     8.94715423     1.69389986
O      3.86666300     6.70632267     4.84176290
O      5.68507189     7.92142625     8.04671922
O      3.66726929     4.57346530     8.00370380
O      5.62769090     3.50837400     9.71169178
