81
FORCE:  2.302835  ...  ENERGY:  -631.96412420
 O    0.0026128429879    0.0038271472816    0.1999463180631 
 O    2.1019190061409    1.2341028070987    3.3271719329776 
 O    0.2293816270972    2.4065269109806    6.4347861030565 
 O    0.0026128429880    2.2128565582500    1.7619595668371 
 O    0.1592548634570    0.1695147907787    5.0987407131694 
 O    2.1004093010318    1.4287496291213    8.1185054096062 
 O    3.8287640168329    0.0038271472816    0.1999463180631 
 O    5.8616709330697    1.1513686306346    3.3302323648997 
 O    3.9077690861891    2.4923704209465    6.7527758601750 
 O    3.8287640168330    2.2128565582500    1.7619595668371 
 O    4.1394030176887    0.2902702340928    5.2170373444013 
 O    6.0957499497912    1.3319707167914    8.2188908613038 
 O    7.6549266691429    0.0038271472816    0.1999463180631 
 O    9.7463121749150    1.1212937144183    3.4649675552226 
 O    7.8741580618177    2.5186395622621    6.7295157107836 
 O    7.6549266691430    2.2128565582500    1.7619595668371 
 O    7.6247310173677    0.0831913466030    5.2258034962382 
 O    9.8283129514592    0.9495734927412    8.5051793612045 
 O   -1.9104627439346    3.3173712637342    0.1999463180631 
 O    0.0931531383536    4.5461336595754    3.3885854061699 
 O   -1.8745917947093    5.6672063935156    6.6991470199584 
 O   -1.9104684831671    5.5264106153449    1.7619595668371 
 O   -1.7721449449915    3.3095750167990    5.0550725900409 
 O   -0.3861224771499    4.5887241426541    8.5798017105792 
 O    1.9156884299104    3.3173712637342    0.1999463180631 
 O    3.9146194914935    4.3099276961117    3.3444496758684 
 O    1.7410902448957    5.8652675279457    6.8182061930338 
 O    1.9156826906780    5.5264106153449    1.7619595668371 
 O    2.0308801636717    3.4856010276841    5.0397191076923 
 O    4.7226366228271    5.1440722398970    8.6320281854789 
 O    5.7418510822204    3.3173712637342    0.1999463180631 
 O    7.6112266606875    4.4857607591299    3.2834570491318 
 O    6.0229272390763    5.5412720743813    6.6072473838950 
 O    5.7418453429880    5.5264106153449    1.7619595668371 
 O    5.7657596917536    3.3603866098644    5.0908824035513 
 O    7.7701347023245    4.4405593663538    8.4439342265945 
 O   -3.8235440700895    6.6309253208291    0.1999463180631 
 O   -2.0365148847479    7.7786885799115    3.4787663007462 
 O   -3.5247719654894    9.1482320417729    6.7857280236057 
 O   -3.8235440700895    8.8399547317975    1.7619595668371 
 O   -3.7498195537720    6.6460799294066    5.2423228031044 
 O   -1.7291426550311    7.7887434401814    8.5020787834959 
 O    0.0026071037555    6.6309253208291    0.1999463180631 
 O    2.1909281316678    7.7749815155887    3.4856433196042 
 O    0.2303567800913    8.9267084069715    6.7486604608504 
 O    0.0026071037555    8.8399547317975    1.7619595668371 
 O   -0.0877308836645    6.7878048594122    4.8756464714364 
 O    2.0975154652206    7.8915596027933    8.5943983536107 
 O    3.8287697560655    6.6309253208291    0.1999463180631 
 O    5.7148734181079    7.8026480129910    3.3591558074087 
 O    3.9397163517234    8.8954652664733    6.5481313445790 
 O    3.8287697560655    8.8399547317975    1.7619595668371 
 O    3.9735312209055    6.5044123569070    5.2053318823053 
 O    6.0749707141710    7.9550188738571    8.3808373675794 
Ce    1.9156884299104    1.1083418527658    0.9809643475031 
Ce    0.0393488667279    2.3917119741501    4.1013793209682 
Ce    0.2364513858677    0.2264636369874    7.5241308444102 
Ce    5.7418510822205    1.1083418527658    0.9809643475031 
Ce    3.8341102266914    2.3227424062521    4.2660217536719 
Ce    4.0995845669576    0.2248830748633    7.4480351902889 
Ce    9.5680022560654    1.1083418527658    0.9809643475031 
Ce    7.6428493726239    2.3006228866541    4.2865713781673 
Ce    7.8674951572391    0.2316196493304    7.5368835184727 
Ce    0.0026128429880    4.4218859692184    0.9809643475031 
Ce   -1.8653039373622    5.5764659243448    4.1782863305599 
Ce   -1.7129344311356    3.4433176110458    7.5791346778165 
Ce    3.8287754952980    4.4218859692184    0.9809643475031 
Ce    2.0175129172559    5.6416525808193    4.3488119458032 
Ce    7.6549266691429    4.4218859692184    0.9809643475031 
Ce    5.7273921763909    5.5993555455010    4.3228661345313 
Ce    5.9080631580985    3.4495772334958    7.5474979731987 
Ce   -1.9104684831671    7.7354400263133    0.9809643475031 
Ce   -3.8648423245284    8.8989476722803    4.0932030384725 
Ce   -3.6783347155452    6.7271906995783    7.6182854875527 
Ce    1.9156941691429    7.7354400263133    0.9809643475031 
Ce    0.1286132159241    8.9416274223267    4.3586269063139 
Ce    0.0175181463214    6.7691055172005    7.6295828768524 
Ce    5.7418453429879    7.7354400263133    0.9809643475031 
Ce    3.9385597815900    8.9720587105691    4.3607918134744 
Ce    3.8445493166856    6.8735583071590    7.7002554282722 
Cu    2.0495696299540    2.7834405785244    6.7659655758684 
81
FORCE:  2.342935  ...  ENERGY:  -632.02988222
 O    0.0026128429879    0.0038271472816    0.1999463180631 
 O    2.0941770110677    1.2297046693239    3.3283055952458 
 O    0.2250741035367    2.4087677305656    6.4348408473109 
 O    0.0026128429880    2.2128565582500    1.7619595668371 
 O    0.1516694346464    0.1670588556945    5.1010132840302 
 O    2.0976198618598    1.4163284983607    8.1163767705143 
 O    3.8287640168329    0.0038271472816    0.1999463180631 
 O    5.8579407762986    1.1586924982482    3.3350854430522 
 O    3.9079680079876    2.4930833638116    6.7524777320895 
 O    3.8287640168330    2.2128565582500    1.7619595668371 
 O    4.1262381366109    0.2923305316138    5.2169702826897 
 O    6.0932326650244    1.3272420526605    8.2252343517824 
 O    7.6549266691429    0.0038271472816    0.1999463180631 
 O    9.7413616277451    1.1216533668564    3.4797594527615 
 O    7.8792118003879    2.4983769546438    6.7335642764975 
 O    7.6549266691430    2.2128565582500    1.7619595668371 
 O    7.6095209607885    0.0730869819345    5.2290308981361 
 O    9.8306282726343    0.9414317090800    8.5052984299578 
 O   -1.9104627439346    3.3173712637342    0.1999463180631 
 O    0.0906538747768    4.5472630159460    3.3777957698298 
 O   -1.8697674532622    5.6755284010216    6.6948242767703 
 O   -1.9104684831671    5.5264106153449    1.7619595668371 
 O   -1.7914370880787    3.3118944668645    5.0506419550514 
 O   -0.3917227054388    4.5915862523822    8.5738596779662 
 O    1.9156884299104    3.3173712637342    0.1999463180631 
 O    3.9058815100122    4.3052619562464    3.3398294888981 
 O    1.7446234312073    5.8639899565986    6.8193845631098 
 O    1.9156826906780    5.5264106153449    1.7619595668371 
 O    2.0381976851092    3.4879356869323    5.0357620105034 
 O    4.7292926977190    5.1387670185132    8.6249894429695 
 O    5.7418510822204    3.3173712637342    0.1999463180631 
 O    7.6033921491864    4.4857756700933    3.2857649756569 
 O    6.0137677683603    5.5421192159172    6.6090035339559 
 O    5.7418453429880    5.5264106153449    1.7619595668371 
 O    5.7642530284377    3.3602681174083    5.0890596479809 
 O    7.7686041638014    4.4436405678380    8.4391796880998 
 O   -3.8235440700895    6.6309253208291    0.1999463180631 
 O   -2.0283806705256    7.7752763550391    3.4735744925196 
 O   -3.5241545388571    9.1489223199735    6.7887430634168 
 O   -3.8235440700895    8.8399547317975    1.7619595668371 
 O   -3.7486660254318    6.6431314354970    5.2385199022321 
 O   -1.7228281792577    7.7936375166001    8.5008693916758 
 O    0.0026071037555    6.6309253208291    0.1999463180631 
 O    2.1817760071693    7.7768197391610    3.4917783257139 
 O    0.2266654205320    8.9376170690077    6.7523064281935 
 O    0.0026071037555    8.8399547317975    1.7619595668371 
 O   -0.0755380563952    6.7897475591349    4.8793467268317 
 O    2.1069655132781    7.8927535733388    8.5962669574943 
 O    3.8287697560655    6.6309253208291    0.1999463180631 
 O    5.7131597406758    7.8030733730746    3.3605757365072 
 O    3.9416170707428    8.8966118201550    6.5539736970288 
 O    3.8287697560655    8.8399547317975    1.7619595668371 
 O    3.9728203021757    6.4988079221903    5.1997105597826 
 O    6.0657662478721    7.9451080534939    8.3828118103547 
Ce    1.9156884299104    1.1083418527658    0.9809643475031 
Ce    0.0372662714306    2.3889565275137    4.0988718060156 
Ce    0.2386830290330    0.2246272027308    7.5249054756099 
Ce    5.7418510822205    1.1083418527658    0.9809643475031 
Ce    3.8332865894353    2.3216623554673    4.2670358909847 
Ce    4.1006450623390    0.2235005303336    7.4499694872777 
Ce    9.5680022560654    1.1083418527658    0.9809643475031 
Ce    7.6410389891241    2.3011646516589    4.2849399993862 
Ce    7.8700581836890    0.2284167743846    7.5368463379999 
Ce    0.0026128429880    4.4218859692184    0.9809643475031 
Ce   -1.8682808772600    5.5735392004418    4.1798308028371 
Ce   -1.7152930261238    3.4440709129185    7.5793538829351 
Ce    3.8287754952980    4.4218859692184    0.9809643475031 
Ce    2.0149851870860    5.6390981339700    4.3513493419946 
Ce    7.6549266691429    4.4218859692184    0.9809643475031 
Ce    5.7257145413388    5.6053375258119    4.3220301441464 
Ce    5.9059234574379    3.4484525492271    7.5496161196419 
Ce   -1.9104684831671    7.7354400263133    0.9809643475031 
Ce   -3.8645856086587    8.9015015226910    4.0919993491788 
Ce   -3.6802953521519    6.7224615384152    7.6190347995348 
Ce    1.9156941691429    7.7354400263133    0.9809643475031 
Ce    0.1294545300163    8.9448812927675    4.3589683736007 
Ce    0.0177846762787    6.7686969568024    7.6313871562370 
Ce    5.7418453429879    7.7354400263133    0.9809643475031 
Ce    3.9388012884936    8.9718189422771    4.3571526891631 
Ce    3.8409644198891    6.8752180962022    7.7022161849840 
Cu    2.0488638191411    2.7871333283223    6.7673985067273 
81
FORCE:  2.378490  ...  ENERGY:  -632.09063498
 O    0.0026128429879    0.0038271472816    0.1999463180631 
 O    2.0857116431302    1.2247377279973    3.3297750222744 
 O    0.2209316976952    2.4111295277673    6.4357334067587 
 O    0.0026128429880    2.2128565582500    1.7619595668371 
 O    0.1442380468360    0.1641470427549    5.1031467132444 
 O    2.0947315357118    1.4043989323613    8.1143569356280 
 O    3.8287640168329    0.0038271472816    0.1999463180631 
 O    5.8541643039213    1.1659735216935    3.3403265211078 
 O    3.9079754689898    2.4940883627471    6.7522329796522 
 O    3.8287640168330    2.2128565582500    1.7619595668371 
 O    4.1129173779784    0.2938840551909    5.2167011234389 
 O    6.0899949917941    1.3222284897216    8.2319633330524 
 O    7.6549266691429    0.0038271472816    0.1999463180631 
 O    9.7356690552053    1.1219912492878    3.4943056854587 
 O    7.8841088579108    2.4773111431285    6.7371361109961 
 O    7.6549266691430    2.2128565582500    1.7619595668371 
 O    7.5950675072298    0.0636574874710    5.2318130467649 
 O    9.8329182264018    0.9337807943351    8.5048508956781 
 O   -1.9104627439346    3.3173712637342    0.1999463180631 
 O    0.0880553224778    4.5481657256723    3.3670814068395 
 O   -1.8647676060851    5.6837078597170    6.6901826483004 
 O   -1.9104684831671    5.5264106153449    1.7619595668371 
 O   -1.8110016725326    3.3147013066215    5.0458461302649 
 O   -0.3970802789775    4.5946595013526    8.5680802814090 
 O    1.9156884299104    3.3173712637342    0.1999463180631 
 O    3.8969654975388    4.3016210966013    3.3354775487744 
 O    1.7490862583993    5.8625119819029    6.8199431826057 
 O    1.9156826906780    5.5264106153449    1.7619595668371 
 O    2.0453267301514    3.4903339662912    5.0321160431604 
 O    4.7358183772485    5.1331969784189    8.6178756552112 
 O    5.7418510822204    3.3173712637342    0.1999463180631 
 O    7.5958586030376    4.4856416702352    3.2888785551259 
 O    6.0044188455794    5.5432243171206    6.6111529302443 
 O    5.7418453429880    5.5264106153449    1.7619595668371 
 O    5.7630924408416    3.3600903787241    5.0873696472273 
 O    7.7670396490219    4.4470494128920    8.4343767921805 
 O   -3.8235440700895    6.6309253208291    0.1999463180631 
 O   -2.0202422092713    7.7722182158450    3.4680980141700 
 O   -3.5237270808205    9.1490716284207    6.7913967911489 
 O   -3.8235440700895    8.8399547317975    1.7619595668371 
 O   -3.7479630842352    6.6405921978304    5.2340995317904 
 O   -1.7167301873341    7.7988781238089    8.4994115978013 
 O    0.0026071037555    6.6309253208291    0.1999463180631 
 O    2.1720873792168    7.7786625354287    3.4981204475862 
 O    0.2225465455437    8.9485158898080    6.7560726047951 
 O    0.0026071037555    8.8399547317975    1.7619595668371 
 O   -0.0627849078570    6.7915360794958    4.8833567434665 
 O    2.1167307599846    7.8942274723711    8.5978068677503 
 O    3.8287697560655    6.6309253208291    0.1999463180631 
 O    5.7117828414067    7.8035243800153    3.3625168765278 
 O    3.9435647940763    8.8978886956572    6.5604291851278 
 O    3.8287697560655    8.8399547317975    1.7619595668371 
 O    3.9716014613697    6.4935925642129    5.1943050208628 
 O    6.0561285843042    7.9353479332679    8.3844363461041 
Ce    1.9156884299104    1.1083418527658    0.9809643475031 
Ce    0.0351937771825    2.3861372619539    4.0963912069881 
Ce    0.2409312011879    0.2227003086293    7.5256522784804 
Ce    5.7418510822205    1.1083418527658    0.9809643475031 
Ce    3.8325876657014    2.3205378700115    4.2679567349639 
Ce    4.1016424261628    0.2220440274253    7.4519295596863 
Ce    9.5680022560654    1.1083418527658    0.9809643475031 
Ce    7.6392664271665    2.3017188424666    4.2832588945740 
Ce    7.8726345251582    0.2251280122894    7.5368324238352 
Ce    0.0026128429880    4.4218859692184    0.9809643475031 
Ce   -1.8712906455677    5.5706357376417    4.1814261416508 
Ce   -1.7176737745494    3.4449019506139    7.5795851774100 
Ce    3.8287754952980    4.4218859692184    0.9809643475031 
Ce    2.0124020159300    5.6365917998294    4.3538543478355 
Ce    7.6549266691429    4.4218859692184    0.9809643475031 
Ce    5.7241257496058    5.6112505180652    4.3210926487898 
Ce    5.9038677791411    3.4474032150269    7.5517404248136 
Ce   -1.9104684831671    7.7354400263133    0.9809643475031 
Ce   -3.8642740831186    8.9040554725082    4.0908720737403 
Ce   -3.6822222420714    6.7177441072101    7.6197879892350 
Ce    1.9156941691429    7.7354400263133    0.9809643475031 
Ce    0.1302465441013    8.9481133932017    4.3592366204473 
Ce    0.0180413921484    6.7682437629204    7.6332297565997 
Ce    5.7418453429879    7.7354400263133    0.9809643475031 
Ce    3.9390267255462    8.9715579010105    4.3534223244279 
Ce    3.8373434233202    6.8768901122354    7.7041541315897 
Cu    2.0481042317197    2.7905637445701    6.7689406979940 
81
FORCE:  2.408568  ...  ENERGY:  -632.14557020
 O    0.0026128429879    0.0038271472816    0.1999463180631 
 O    2.0765578542543    1.2192398569659    3.3315674404038 
 O    0.2169769073641    2.4136226408536    6.4374206702995 
 O    0.0026128429880    2.2128565582500    1.7619595668371 
 O    0.1370143044576    0.1608018178115    5.1051175064028 
 O    2.0917696326032    1.3930660037122    8.1124566256972 
 O    3.8287640168329    0.0038271472816    0.1999463180631 
 O    5.8503511578483    1.1731703478986    3.3459040482270 
 O    3.9077809090081    2.4953891951971    6.7520591666444 
 O    3.8287640168330    2.2128565582500    1.7619595668371 
 O    4.0994899844060    0.2949089354110    5.2162150400800 
 O    6.0860548365059    1.3169956362137    8.2390547669067 
 O    7.6549266691429    0.0038271472816    0.1999463180631 
 O    9.7292645308739    1.1223137237237    3.5085147847893 
 O    7.8888218582475    2.4555726483495    6.7402510590714 
 O    7.6549266691430    2.2128565582500    1.7619595668371 
 O    7.5815042660242    0.0549650916334    5.2341298692313 
 O    9.8351888963481    0.9266668730866    8.5038623056840 
 O   -1.9104627439346    3.3173712637342    0.1999463180631 
 O    0.0853546118402    4.5487970558642    3.3565367510378 
 O   -1.8596311077823    5.6917023230595    6.6852501909789 
 O   -1.9104684831671    5.5264106153449    1.7619595668371 
 O   -1.8306958488563    3.3179928520966    5.0406999422503 
 O   -0.4021570318700    4.5979390186505    8.5625134750397 
 O    1.9156884299104    3.3173712637342    0.1999463180631 
 O    3.8879276985517    4.2990246008352    3.3314073134597 
 O    1.7544428562685    5.8608452344101    6.8199171790849 
 O    1.9156826906780    5.5264106153449    1.7619595668371 
 O    2.0521785128715    3.4927470572071    5.0288411962419 
 O    4.7421909340549    5.1273762353260    8.6107342672248 
 O    5.7418510822204    3.3173712637342    0.1999463180631 
 O    7.5886672299304    4.4853665132567    3.2927533078321 
 O    5.9949314351183    5.5445814136060    6.6137012752866 
 O    5.7418453429880    5.5264106153449    1.7619595668371 
 O    5.7622841273363    3.3598692988396    5.0858434230349 
 O    7.7654588922144    4.4507675113278    8.4295269074427 
 O   -3.8235440700895    6.6309253208291    0.1999463180631 
 O   -2.0121655595510    7.7695307632019    3.4623774676863 
 O   -3.5235213867277    9.1486352342242    6.7936778017489 
 O   -3.8235440700895    8.8399547317975    1.7619595668371 
 O   -3.7477268574255    6.6384740457713    5.2290975036456 
 O   -1.7108846068559    7.8044258968646    8.4977218251488 
 O    0.0026071037555    6.6309253208291    0.1999463180631 
 O    2.1619440318733    7.7805207396920    3.5046188186845 
 O    0.2180058943590    8.9593066558267    6.7599656055862 
 O    0.0026071037555    8.8399547317975    1.7619595668371 
 O   -0.0495735389960    6.7931321490218    4.8876594137613 
 O    2.1267421623729    7.8959641025792    8.5990304018362 
 O    3.8287697560655    6.6309253208291    0.1999463180631 
 O    5.7107508700108    7.8040121673325    3.3649555049603 
 O    3.9455398935488    8.8992724330639    6.5673992692183 
 O    3.8287697560655    8.8399547317975    1.7619595668371 
 O    3.9698639087303    6.4888175766889    5.1891442343803 
 O    6.0461253890183    7.9257584938700    8.3856988854712 
Ce    1.9156884299104    1.1083418527658    0.9809643475031 
Ce    0.0331345405615    2.3832658080220    4.0939477884334 
Ce    0.2431850551830    0.2206852410307    7.5263689720109 
Ce    5.7418510822205    1.1083418527658    0.9809643475031 
Ce    3.8320173581679    2.3193725285158    4.2687815483969 
Ce    4.1025763714676    0.2205178406145    7.4539115297966 
Ce    9.5680022560654    1.1083418527658    0.9809643475031 
Ce    7.6375323180666    2.3022837691679    4.2815353629646 
Ce    7.8752145971286    0.2217641983448    7.5368433726861 
Ce    0.0026128429880    4.4218859692184    0.9809643475031 
Ce   -1.8743219933895    5.5677690552181    4.1830664163732 
Ce   -1.7200736346193    3.4458036662761    7.5798230868155 
Ce    3.8287754952980    4.4218859692184    0.9809643475031 
Ce    2.0097689708437    5.6341452089490    4.3563178392835 
Ce    7.6549266691429    4.4218859692184    0.9809643475031 
Ce    5.7226306221472    5.6170728516609    4.3200552451690 
Ce    5.9019030676793    3.4464213777880    7.5538615365706 
Ce   -1.9104684831671    7.7354400263133    0.9809643475031 
Ce   -3.8639040174070    8.9066006745601    4.0898250898749 
Ce   -3.6841119417644    6.7130539133648    7.6205407227330 
Ce    1.9156941691429    7.7354400263133    0.9809643475031 
Ce    0.1309812806459    8.9513093096979    4.3594302782472 
Ce    0.0182894417770    6.7677515023142    7.6351004133928 
Ce    5.7418453429879    7.7354400263133    0.9809643475031 
Ce    3.9392297795921    8.9712728033897    4.3496191954545 
Ce    3.8336991828597    6.8785711742530    7.7060612845524 
Cu    2.0472915563977    2.7937191032458    6.7705841661313 
81
FORCE:  2.431340  ...  ENERGY:  -632.19407479
 O    0.0026128429879    0.0038271472816    0.1999463180631 
 O    2.0667603530612    1.2132586719065    3.3336664263580 
 O    0.2132289015800    2.4162540282742    6.4398510870938 
 O    0.0026128429880    2.2128565582500    1.7619595668371 
 O    0.1300479666568    0.1570525057590    5.1069065030163 
 O    2.0887618156346    1.3824273295206    8.1106874738758 
 O    3.8287640168329    0.0038271472816    0.1999463180631 
 O    5.8465109799902    1.1802416237916    3.3517621396499 
 O    3.9073757191936    2.4969856623489    6.7519713477363 
 O    3.8287640168330    2.2128565582500    1.7619595668371 
 O    4.0860051411163    0.2953907583428    5.2154992589537 
 O    6.0814371648211    1.3116117843494    8.2464815093192 
 O    7.6549266691429    0.0038271472816    0.1999463180631 
 O    9.7221879424168    1.1226292397100    3.5222987037440 
 O    7.8933293366683    2.4333042179300    6.7429321589307 
 O    7.6549266691430    2.2128565582500    1.7619595668371 
 O    7.5689565246171    0.0470653626119    5.2359706447855 
 O    9.8374452182132    0.9201350758507    8.5023641379219 
 O   -1.9104627439346    3.3173712637342    0.1999463180631 
 O    0.0825496193482    4.5491149576046    3.3462560081625 
 O   -1.8543983051581    5.6994691456935    6.6800599794597 
 O   -1.9104684831671    5.5264106153449    1.7619595668371 
 O   -1.8503763084144    3.3217628406851    5.0352273416188 
 O   -0.4069170365209    4.6014188398905    8.5572080724852 
 O    1.9156884299104    3.3173712637342    0.1999463180631 
 O    3.8788237836063    4.2974792285848    3.3276306442093 
 O    1.7606435804539    5.8590049233030    6.8193505760519 
 O    1.9156826906780    5.5264106153449    1.7619595668371 
 O    2.0586690109058    3.4951230695272    5.0259942669121 
 O    4.7483873538158    5.1213219865457    8.6036152331422 
 O    5.7418510822204    3.3173712637342    0.1999463180631 
 O    7.5818565401150    4.4849600403934    3.2973369986328 
 O    5.9853589118393    5.5461799682927    6.6166494814871 
 O    5.7418453429880    5.5264106153449    1.7619595668371 
 O    5.7618281453141    3.3596202857502    5.0845113128445 
 O    7.7638845059550    4.4547718008550    8.4246325429983 
 O   -3.8235440700895    6.6309253208291    0.1999463180631 
 O   -2.0042122459372    7.7672249318163    3.4564543674613 
 O   -3.5235655214256    9.1475746670983    6.7955783397808 
 O   -3.8235440700895    8.8399547317975    1.7619595668371 
 O   -3.7479664703824    6.6367854288655    5.2235548759887 
 O   -1.7053229462094    7.8102385880372    8.4958183218031 
 O    0.0026071037555    6.6309253208291    0.1999463180631 
 O    2.1514340049653    7.7824080700372    3.5112182385524 
 O    0.2130547158736    8.9698921475820    6.7639872553750 
 O    0.0026071037555    8.8399547317975    1.7619595668371 
 O   -0.0360116752061    6.7945002796202    4.8922383144397 
 O    2.1369233886509    7.8979483541867    8.5999551235334 
 O    3.8287697560655    6.6309253208291    0.1999463180631 
 O    5.7100672126355    7.8045469738877    3.3678612843636 
 O    3.9475235444778    8.9007397712724    6.5747815319241 
 O    3.8287697560655    8.8399547317975    1.7619595668371 
 O    3.9676050616030    6.4845303764821    5.1842516947443 
 O    6.0358289763440    7.9163586225206    8.3865914449189 
Ce    1.9156884299104    1.1083418527658    0.9809643475031 
Ce    0.0310917181455    2.3803537962695    4.0915518148991 
Ce    0.2454331125533    0.2185851809405    7.5270532751909 
Ce    5.7418510822205    1.1083418527658    0.9809643475031 
Ce    3.8315785938433    2.3181698102052    4.2695071378687 
Ce    4.1034466112915    0.2189266420032    7.4559106074864 
Ce    9.5680022560654    1.1083418527658    0.9809643475031 
Ce    7.6358370061784    2.3028576424473    4.2797764756910 
Ce    7.8777882985509    0.2183364660704    7.5368819217652 
Ce    0.0026128429880    4.4218859692184    0.9809643475031 
Ce   -1.8773640735761    5.5649525730381    4.1847452401748 
Ce   -1.7224894497555    3.4467682067975    7.5800623648275 
Ce    3.8287754952980    4.4218859692184    0.9809643475031 
Ce    2.0070924223750    5.6317699918803    4.3587313765994 
Ce    7.6549266691429    4.4218859692184    0.9809643475031 
Ce    5.7212334059951    5.6227832536244    4.3189218110018 
Ce    5.9000350622852    3.4454990849963    7.5559698746682 
Ce   -1.9104684831671    7.7354400263133    0.9809643475031 
Ce   -3.8634719679844    8.9091277846431    4.0888615909975 
Ce   -3.6859616963991    6.7084068619071    7.6212875256034 
Ce    1.9156941691429    7.7354400263133    0.9809643475031 
Ce    0.1316513360403    8.9544546283249    4.3595488907984 
Ce    0.0185308912883    6.7672255429306    7.6369884058664 
Ce    5.7418453429879    7.7354400263133    0.9809643475031 
Ce    3.9394042522600    8.9709606672218    4.3457620065299 
Ce    3.8300458170195    6.8802571071854    7.7079294322338 
Cu    2.0464273427679    2.7965887678621    6.7723206995011 
81
FORCE:  2.446341  ...  ENERGY:  -632.23560155
 O    0.0026128429879    0.0038271472816    0.1999463180631 
 O    2.0563728013748    1.2068493433836    3.3360535039509 
 O    0.2097021432087    2.4190282627245    6.4429678599777 
 O    0.0026128429880    2.2128565582500    1.7619595668371 
 O    0.1233836846624    0.1529337000325    5.1084954550003 
 O    2.0857370105378    1.3725705862515    8.1090622538233 
 O    3.8287640168329    0.0038271472816    0.1999463180631 
 O    5.8426519774496    1.1871482826483    3.3578426296063 
 O    3.9067547342371    2.4988729926941    6.7519806998798 
 O    3.8287640168330    2.2128565582500    1.7619595668371 
 O    4.0725108854854    0.2953218696917    5.2145426031081 
 O    6.0761727390258    1.3061445304963    8.2542113980405 
 O    7.6549266691429    0.0038271472816    0.1999463180631 
 O    9.7144876715638    1.1229480361082    3.5355760102445 
 O    7.8976161989919    2.4106566514135    6.7452060983978 
 O    7.6549266691430    2.2128565582500    1.7619595668371 
 O    7.5575383215584    0.0400047232062    5.2373321800127 
 O    9.8396921851292    0.9142276503571    8.5003924323593 
 O   -1.9104627439346    3.3173712637342    0.1999463180631 
 O    0.0796393693321    4.5490823522979    3.3363283657282 
 O   -1.8491106354712    5.7069683662371    6.6746480537101 
 O   -1.9104684831671    5.5264106153449    1.7619595668371 
 O   -1.8698996851789    3.3260021269961    5.0294598063167 
 O   -0.4113295306438    4.6050918078103    8.5522090096542 
 O    1.9156884299104    3.3173712637342    0.1999463180631 
 O    3.8697104563196    4.2969776237748    3.3241578055708 
 O    1.7676269637752    5.8570092399568    6.8182942400430 
 O    1.9156826906780    5.5264106153449    1.7619595668371 
 O    2.0647204002614    3.4974099142861    5.0236252093029 
 O    4.7543841630704    5.1150536163304    8.5965673665903 
 O    5.7418510822204    3.3173712637342    0.1999463180631 
 O    7.5754608542017    4.4844341804163    3.3025691807471 
 O    5.9757547653891    5.5480070583456    6.6199918463193 
 O    5.7418453429880    5.5264106153449    1.7619595668371 
 O    5.7617181242271    3.3593581510130    5.0834016011876 
 O    7.7623411689434    4.4590350441139    8.4196980327673 
 O   -3.8235440700895    6.6309253208291    0.1999463180631 
 O   -1.9964379389850    7.7653066860736    3.4503713683932 
 O   -3.5238839914370    9.1458586140197    6.7970956680319 
 O   -3.8235440700895    8.8399547317975    1.7619595668371 
 O   -3.7486851944683    6.6355308204020    5.2175179533347 
 O   -1.7000728111030    7.8162713650302    8.4937211606575 
 O    0.0026071037555    6.6309253208291    0.1999463180631 
 O    2.1406486670743    7.7843384433635    3.5178609976217 
 O    0.2077121791240    8.9801795194751    6.7681350450501 
 O    0.0026071037555    8.8399547317975    1.7619595668371 
 O   -0.0222082471204    6.7956098541126    4.8970761098213 
 O    2.1471929991095    7.9001658132623    8.6006024743417 
 O    3.8287697560655    6.6309253208291    0.1999463180631 
 O    5.7097307214340    7.8051379450718    3.3711972623661 
 O    3.9494961760804    8.9022699343401    6.5824730996673 
 O    3.8287697560655    8.8399547317975    1.7619595668371 
 O    3.9648318644590    6.4807732113221    5.1796467905450 
 O    6.0253131528113    7.9071672064400    8.3871106029315 
Ce    1.9156884299104    1.1083418527658    0.9809643475031 
Ce    0.0290688108662    2.3774124596223    4.0892124104278 
Ce    0.2476640670106    0.2164032099578    7.5277031351108 
Ce    5.7418510822205    1.1083418527658    0.9809643475031 
Ce    3.8312731518896    2.3169341883685    4.2701314504699 
Ce    4.1042528586731    0.2172757001316    7.4579226869367 
Ce    9.5680022560654    1.1083418527658    0.9809643475031 
Ce    7.6341805488943    2.3034385735828    4.2779899881891 
Ce    7.8803455857683    0.2148558495790    7.5369492115779 
Ce    0.0026128429880    4.4218859692184    0.9809643475031 
Ce   -1.8804062111551    5.5621992139366    4.1864550857206 
Ce   -1.7249174894569    3.4477871226322    7.5802973089193 
Ce    3.8287754952980    4.4218859692184    0.9809643475031 
Ce    2.0043793149952    5.6294771827361    4.3610867481449 
Ce    7.6549266691429    4.4218859692184    0.9809643475031 
Ce    5.7199378890429    5.6283618426711    4.3176964521075 
Ce    5.8982683543448    3.4446283841381    7.5580554026597 
Ce   -1.9104684831671    7.7354400263133    0.9809643475031 
Ce   -3.8629756391578    8.9116276573662    4.0879849986239 
Ce   -3.6877693824596    6.7038187584582    7.6220231515219 
Ce    1.9156941691429    7.7354400263133    0.9809643475031 
Ce    0.1322493640668    8.9575350345577    4.3595915456966 
Ce    0.0187680363752    6.7666714515294    7.6388823289676 
Ce    5.7418453429879    7.7354400263133    0.9809643475031 
Ce    3.9395444043177    8.9706185103141    4.3418699181431 
Ce    3.8263981330195    6.8819431395242    7.7097503629958 
Cu    2.0455137143462    2.7991646864987    6.7741414021620 
81
FORCE:  2.530099  ...  ENERGY:  -632.26986849
 O    0.0026128429879    0.0038271472816    0.1999463180631 
 O    2.0454552315671    1.2000737021923    3.3387058630765 
 O    0.2064054706684    2.4219481275843    6.4467098578670 
 O    0.0026128429880    2.2128565582500    1.7619595668371 
 O    0.1170603130786    0.1484842685435    5.1098699919879 
 O    2.0827250039295    1.3635722174442    8.1075919143905 
 O    3.8287640168329    0.0038271472816    0.1999463180631 
 O    5.8387804633820    1.1938531464665    3.3640884928312 
 O    3.9059151419146    2.5010429354996    6.7520963471172 
 O    3.8287640168330    2.2128565582500    1.7619595668371 
 O    4.0590524426652    0.2947020706450    5.2133361766017 
 O    6.0702996102316    1.3006627633055    8.2622138675285 
 O    7.6549266691429    0.0038271472816    0.1999463180631 
 O    9.7062182984162    1.1232809482185    3.5482718871431 
 O    7.9016732050538    2.3877857186648    6.7471016182064 
 O    7.6549266691430    2.2128565582500    1.7619595668371 
 O    7.5473500360244    0.0338196555733    5.2382181245297 
 O    9.8419339293437    0.9089831662977    8.4979864223784 
 O   -1.9104627439346    3.3173712637342    0.1999463180631 
 O    0.0766235174380    4.5486672310759    3.3268395897332 
 O   -1.8438097655495    5.7141639995652    6.6690511380009 
 O   -1.9104684831671    5.5264106153449    1.7619595668371 
 O   -1.8891277210391    3.3306976887882    5.0234372540295 
 O   -0.4153707538164    4.6089489758316    8.5475555199291 
 O    1.9156884299104    3.3173712637342    0.1999463180631 
 O    3.8606420672233    4.2974994080886    3.3209976934856 
 O    1.7753220693189    5.8548792585334    6.8168051963233 
 O    1.9156826906780    5.5264106153449    1.7619595668371 
 O    2.0702622031634    3.4995541108280    5.0217764502116 
 O    4.7601584622810    5.1085928946869    8.5896385687917 
 O    5.7418510822204    3.3173712637342    0.1999463180631 
 O    7.5695092700992    4.4838025520052    3.3083821081601 
 O    5.9661718540992    5.5500462817050    6.6237165085280 
 O    5.7418453429880    5.5264106153449    1.7619595668371 
 O    5.7619421264716    3.3590972091529    5.0825400634840 
 O    7.7608548225106    4.4635274191776    8.4147274825689 
 O   -3.8235440700895    6.6309253208291    0.1999463180631 
 O   -1.9888918813094    7.7637760259738    3.4441724939866 
 O   -3.5244969414680    9.1434629192279    6.7982309270075 
 O   -3.8235440700895    8.8399547317975    1.7619595668371 
 O   -3.7498812505213    6.6347101209746    5.2110355493106 
 O   -1.6951576749977    7.8224780038568    8.4914520113126 
 O    0.0026071037555    6.6309253208291    0.1999463180631 
 O    2.1296823711826    7.7863249813187    3.5244884739200 
 O    0.2020035941255    8.9900821885115    6.7724009910742 
 O    0.0026071037555    8.8399547317975    1.7619595668371 
 O   -0.0082735053950    6.7964351262355    4.9021577452360 
 O    2.1574663400691    7.9026028611261    8.6009993701861 
 O    3.8287697560655    6.6309253208291    0.1999463180631 
 O    5.7097352554277    7.8057929339923    3.3749221526759 
 O    3.9514381601814    8.9038430409824    6.5903706426677 
 O    3.8287697560655    8.8399547317975    1.7619595668371 
 O    3.9615590097335    6.4775824639599    5.1753416111386 
 O    6.0146529301888    7.8982020393779    8.3872579562163 
Ce    1.9156884299104    1.1083418527658    0.9809643475031 
Ce    0.0270686883400    2.3744525339741    4.0869386990617 
Ce    0.2498671287981    0.2141427079011    7.5283162707601 
Ce    5.7418510822205    1.1083418527658    0.9809643475031 
Ce    3.8311017210149    2.3156702357014    4.2706531175942 
Ce    4.1049945970814    0.2155706811661    7.4599432061262 
Ce    9.5680022560654    1.1083418527658    0.9809643475031 
Ce    7.6325623148986    2.3040246738522    4.2761827434907 
Ce    7.8828770464393    0.2113328859514    7.5370475231348 
Ce    0.0026128429880    4.4218859692184    0.9809643475031 
Ce   -1.8834385920388    5.5595212049037    4.1881891099787 
Ce   -1.7273541953995    3.4488520636407    7.5805229008676 
Ce    3.8287754952980    4.4218859692184    0.9809643475031 
Ce    2.0016364783912    5.6272772191909    4.3633771108884 
Ce    7.6549266691429    4.4218859692184    0.9809643475031 
Ce    5.7187464243759    5.6337906262385    4.3163844148104 
Ce    5.8966062726127    3.4438011238867    7.5601096808061 
Ce   -1.9104684831671    7.7354400263133    0.9809643475031 
Ce   -3.8624129074111    8.9140912467449    4.0871989623711 
Ce   -3.6895339094918    6.6993052098264    7.6227421260630 
Ce    1.9156941691429    7.7354400263133    0.9809643475031 
Ce    0.1327689367850    8.9605370091229    4.3595582429419 
Ce    0.0190040336156    6.7660940990252    7.6407714619465 
Ce    5.7418453429879    7.7354400263133    0.9809643475031 
Ce    3.9396446687095    8.9702434498805    4.3379611783790 
Ce    3.8227708806872    6.8836238039162    7.7115163214023 
Cu    2.0445531963950    2.8014410935831    6.7760369219706 
81
FORCE:  2.621151  ...  ENERGY:  -632.29687277
 O    0.0026128429879    0.0038271472816    0.1999463180631 
 O    2.0340702586645    1.1929982512295    3.3416002374269 
 O    0.2033427292448    2.4250145175115    6.4510120719596 
 O    0.0026128429880    2.2128565582500    1.7619595668371 
 O    0.1111102211765    0.1437467572410    5.1110175684207 
 O    2.0797551232877    1.3554961414285    8.1062874044284 
 O    3.8287640168329    0.0038271472816    0.1999463180631 
 O    5.8349001108964    1.2003202301211    3.3704411073522 
 O    3.9048574587572    2.5034836614010    6.7523230795709 
 O    3.8287640168330    2.2128565582500    1.7619595668371 
 O    4.0456715942684    0.2935391149034    5.2118724520997 
 O    6.0638578956736    1.2952309975454    8.2704540183210 
 O    7.6549266691429    0.0038271472816    0.1999463180631 
 O    9.6974396831689    1.1236398054052    3.5603199570312 
 O    7.9054980017688    2.3648491776770    6.7486470028879 
 O    7.6549266691430    2.2128565582500    1.7619595668371 
 O    7.5384735668629    0.0285359059769    5.2386382866822 
 O    9.8441736648269    0.9044366147335    8.4951896752818 
 O   -1.9104627439346    3.3173712637342    0.1999463180631 
 O    0.0735036706510    4.5478411637016    3.3178679188413 
 O   -1.8385356978437    5.7210263231572    6.6633057285016 
 O   -1.9104684831671    5.5264106153449    1.7619595668371 
 O   -1.9079310536941    3.3358338198466    5.0172053049692 
 O   -0.4190226848485    4.6129804033123    8.5432809060647 
 O    1.9156884299104    3.3173712637342    0.1999463180631 
 O    3.8516689493865    4.2990118768130    3.3181569228843 
 O    1.7836514748385    5.8526383395419    6.8149448040780 
 O    1.9156826906780    5.5264106153449    1.7619595668371 
 O    2.0752337559242    3.5015030731554    5.0204824328982 
 O    4.7656883849717    5.1019637785630    8.5828760566659 
 O    5.7418510822204    3.3173712637342    0.1999463180631 
 O    7.5640257777994    4.4830802649364    3.3147034728359 
 O    5.9566608553925    5.5522800434340    6.6278077291402 
 O    5.7418453429880    5.5264106153449    1.7619595668371 
 O    5.7624823604268    3.3588509794434    5.0819501941428 
 O    7.7594524410492    4.4682165195523    8.4097259106263 
 O   -3.8235440700895    6.6309253208291    0.1999463180631 
 O   -1.9816150510303    7.7626279811957    3.4378994867356 
 O   -3.5254204413696    9.1403710812564    6.7989900473352 
 O   -3.8235440700895    8.8399547317975    1.7619595668371 
 O   -3.7515478088547    6.6343192549197    5.2041601271601 
 O   -1.6905957886528    7.8288113858726    8.4890325433692 
 O    0.0026071037555    6.6309253208291    0.1999463180631 
 O    2.1186266580486    7.7883811037700    3.5310422735760 
 O    0.1959596083798    8.9995200331145    6.7767720916870 
 O    0.0026071037555    8.8399547317975    1.7619595668371 
 O    0.0056855132838    6.7969563141108    4.9074674817106 
 O    2.1676548551724    7.9052476684138    8.6011768328108 
 O    3.8287697560655    6.6309253208291    0.1999463180631 
 O    5.7100705987826    7.8065183026602    3.3789898788789 
 O    3.9533312460215    8.9054409992306    6.5983740245599 
 O    3.8287697560655    8.8399547317975    1.7619595668371 
 O    3.9578106022031    6.4749881551350    5.1713425433547 
 O    6.0039221723989    7.8894783305171    8.3870410321082 
Ce    1.9156884299104    1.1083418527658    0.9809643475031 
Ce    0.0250939332214    2.3714834629349    4.0847384362369 
Ce    0.2520320246894    0.2118071539951    7.5288908573303 
Ce    5.7418510822205    1.1083418527658    0.9809643475031 
Ce    3.8310641290420    2.3143826243055    4.2710719111403 
Ce    4.1056713099855    0.2138172512725    7.4619682873369 
Ce    9.5680022560654    1.1083418527658    0.9809643475031 
Ce    7.6309816154834    2.3046137563143    4.2743613565266 
Ce    7.8853741291078    0.2077768199850    7.5371779969411 
Ce    0.0026128429880    4.4218859692184    0.9809643475031 
Ce   -1.8864527221631    5.5569294806458    4.1899402418163 
Ce   -1.7297956075127    3.4499543814642    7.5807341224492 
Ce    3.8287754952980    4.4218859692184    0.9809643475031 
Ce    1.9988709718187    5.6251793460420    4.3655963061011 
Ce    7.6549266691429    4.4218859692184    0.9809643475031 
Ce    5.7176603320176    5.6390539975183    4.3149916297380 
Ce    5.8950503092897    3.4430093517283    7.5621238131659 
Ce   -1.9104684831671    7.7354400263133    0.9809643475031 
Ce   -3.8617821657594    8.9165102026397    4.0865057632498 
Ce   -3.6912547609645    6.6948802323174    7.6234389748013 
Ce    1.9156941691429    7.7354400263133    0.9809643475031 
Ce    0.1332040280008    8.9634485238432    4.3594487544331 
Ce    0.0192416952334    6.7654981575199    7.6426448559523 
Ce    5.7418453429879    7.7354400263133    0.9809643475031 
Ce    3.9397000523031    8.9698326031347    4.3340533510190 
Ce    3.8191784654961    6.8852934341952    7.7132195520173 
Cu    2.0435488880999    2.8034148081098    6.7779990472887 
81
FORCE:  2.689646  ...  ENERGY:  -632.31689114
 O    0.0026128429879    0.0038271472816    0.1999463180631 
 O    2.0222826212097    1.1856925749913    3.3447094829757 
 O    0.2005132302299    2.4282248479391    6.4558094934535 
 O    0.0026128429880    2.2128565582500    1.7619595668371 
 O    0.1055582598330    0.1387652031702    5.1119306569639 
 O    2.0768552038901    1.3483921608224    8.1051589884846 
 O    3.8287640168329    0.0038271472816    0.1999463180631 
 O    5.8310126417626    1.2065179223696    3.3768434479043 
 O    3.9035844395964    2.5061806570607    6.7526631782513 
 O    3.8287640168330    2.2128565582500    1.7619595668371 
 O    4.0324059322679    0.2918470187728    5.2101466394798 
 O    6.0568901230646    1.2899091752890    8.2788971790569 
 O    7.6549266691429    0.0038271472816    0.1999463180631 
 O    9.6882165643644    1.1240371328775    3.5716634227450 
 O    7.9090925978682    2.3420025995019    6.7498709931759 
 O    7.6549266691430    2.2128565582500    1.7619595668371 
 O    7.5309708977849    0.0241661984391    5.2386074930391 
 O    9.8464144907642    0.9006176187785    8.4920453021697 
 O   -1.9104627439346    3.3173712637342    0.1999463180631 
 O    0.0702826985873    4.5465818831363    3.3094820114715 
 O   -1.8333257373648    5.7275282984662    6.6574483213819 
 O   -1.9104684831671    5.5264106153449    1.7619595668371 
 O   -1.9261909384238    3.3413937204858    5.0108143694701 
 O   -0.4222744191983    4.6171751555459    8.5394111715818 
 O    1.9156884299104    3.3173712637342    0.1999463180631 
 O    3.8428382219080    4.3014715893413    3.3156414243946 
 O    1.7925355197868    5.8503103405240    6.8127769316037 
 O    1.9156826906780    5.5264106153449    1.7619595668371 
 O    2.0795846680825    3.5032074956824    5.0197680203783 
 O    4.7709536142595    5.0951919148158    8.5763243099195 
 O    5.7418510822204    3.3173712637342    0.1999463180631 
 O    7.5590265619379    4.4822848147403    3.3214589138289 
 O    5.9472674535598    5.5546906491893    6.6322438385551 
 O    5.7418453429880    5.5264106153449    1.7619595668371 
 O    5.7633160987321    3.3586317882809    5.0816511536531 
 O    7.7581604824211    4.4730692428990    8.4046974227586 
 O   -3.8235440700895    6.6309253208291    0.1999463180631 
 O   -1.9746411948349    7.7618532075356    3.4315931767297 
 O   -3.5266664861377    9.1365750481851    6.7993819249563 
 O   -3.8235440700895    8.8399547317975    1.7619595668371 
 O   -3.7536738501420    6.6343502697237    5.1969446063291 
 O   -1.6864005244799    7.8352252870909    8.4864846545290 
 O    0.0026071037555    6.6309253208291    0.1999463180631 
 O    2.1075692805371    7.7905202305844    3.5374651432234 
 O    0.1896190190984    9.0084224747237    6.7812307831068 
 O    0.0026071037555    8.8399547317975    1.7619595668371 
 O    0.0195661914390    6.7971606937163    4.9129925455860 
 O    2.1776714802623    7.9080911891409    8.6011702178800 
 O    3.8287697560655    6.6309253208291    0.1999463180631 
 O    5.7107226903793    7.8073191208031    3.3833523116514 
 O    3.9551593637497    8.9070471088054    6.6063901801115 
 O    3.8287697560655    8.8399547317975    1.7619595668371 
 O    3.9536176337233    6.4730139435762    5.1676495871933 
 O    5.9931911850397    7.8810104937888    8.3864694108518 
Ce    1.9156884299104    1.1083418527658    0.9809643475031 
Ce    0.0231464968495    2.3685135966443    4.0826182368842 
Ce    0.2541494571280    0.2093995304324    7.5294250700128 
Ce    5.7418510822205    1.1083418527658    0.9809643475031 
Ce    3.8311586542012    2.3130763245022    4.2713878311084 
Ce    4.1062827104237    0.2120208778043    7.4639947371539 
Ce    9.5680022560654    1.1083418527658    0.9809643475031 
Ce    7.6294371880177    2.3052038328406    4.2725319860254 
Ce    7.8878289136327    0.2041962006321    7.5373426859064 
Ce    0.0026128429880    4.4218859692184    0.9809643475031 
Ce   -1.8894412553105    5.5544337829925    4.1917016382017 
Ce   -1.7322381100800    3.4510862229954    7.5809268678449 
Ce    3.8287754952980    4.4218859692184    0.9809643475031 
Ce    1.9960889362567    5.6231914163968    4.3677393155598 
Ce    7.6549266691429    4.4218859692184    0.9809643475031 
Ce    5.7166796693603    5.6441393318945    4.3135251680233 
Ce    5.8936010956911    3.4422448169298    7.5640905005052 
Ce   -1.9104684831671    7.7354400263133    0.9809643475031 
Ce   -3.8610826107100    8.9188769701626    4.0859079103715 
Ce   -3.6929326255859    6.6905569475791    7.6241089076145 
Ce    1.9156941691429    7.7354400263133    0.9809643475031 
Ce    0.1335500463283    8.9662586440122    4.3592637644734 
Ce    0.0194844647682    6.7648876032704    7.6444929307404 
Ce    5.7418453429879    7.7354400263133    0.9809643475031 
Ce    3.9397060784972    8.9693833855096    4.3301628593397 
Ce    3.8156345468197    6.8869462647888    7.7148532118090 
Cu    2.0425037164693    2.8050853330466    6.7800193383771 
81
FORCE:  2.735333  ...  ENERGY:  -632.33037924
 O    0.0026128429879    0.0038271472816    0.1999463180631 
 O    2.0101568281760    1.1782278484765    3.3480064556970 
 O    0.1979112343914    2.4315763354871    6.4610368854456 
 O    0.0026128429880    2.2128565582500    1.7619595668371 
 O    0.1004226224150    0.1335848362536    5.1126037831920 
 O    2.0740512444599    1.3422965589702    8.1042146500962 
 O    3.8287640168329    0.0038271472816    0.1999463180631 
 O    5.8271173098802    1.2124178923816    3.3832412264352 
 O    3.9021018810570    2.5091167251675    6.7531155026533 
 O    3.8287640168330    2.2128565582500    1.7619595668371 
 O    4.0192880555043    0.2896458623506    5.2081541767207 
 O    6.0494404844950    1.2847527653204    8.2875100469814 
 O    7.6549266691429    0.0038271472816    0.1999463180631 
 O    9.6786145988226    1.1244858534705    3.5822546111629 
 O    7.9124641100003    2.3193944973353    6.7508014173996 
 O    7.6549266691430    2.2128565582500    1.7619595668371 
 O    7.5248830069105    0.0207115270241    5.2381444478873 
 O    9.8486594489489    0.8975507318192    8.4885973265467 
 O   -1.9104627439346    3.3173712637342    0.1999463180631 
 O    0.0669627247631    4.5448721920688    3.3017411738993 
 O   -1.8282150082159    5.7336504418334    6.6515124474975 
 O   -1.9104684831671    5.5264106153449    1.7619595668371 
 O    9.5346643171041    3.3473593981433    5.0043175950792 
 O   -0.4251216524416    4.6215214031679    8.5359659331716 
 O    1.9156884299104    3.3173712637342    0.1999463180631 
 O    3.8341917237928    4.3048261584884    3.3134537071282 
 O    1.8018928218472    5.8479195166469    6.8103661315006 
 O    1.9156826906780    5.5264106153449    1.7619595668371 
 O    2.0832748224030    3.5046203591711    5.0196496359282 
 O    4.7759356124235    5.0883022544574    8.5700255272487 
 O    5.7418510822204    3.3173712637342    0.1999463180631 
 O    7.5545229861952    4.4814344921988    3.3285731577892 
 O    5.9380320527978    5.5572600070020    6.6370002018582 
 O    5.7418453429880    5.5264106153449    1.7619595668371 
 O    5.7644165965640    3.3584509679976    5.0816605057966 
 O    7.7570050601342    4.4780520892533    8.3996463528859 
 O   -3.8235440700895    6.6309253208291    0.1999463180631 
 O   -1.9679949340306    7.7614390803778    3.4252918849472 
 O   -3.5282433402670    9.1320720366342    6.7994204740354 
 O   -3.8235440700895    8.8399547317975    1.7619595668371 
 O   -3.7562445097711    6.6347913360221    5.1894414500614 
 O   -1.6825802617586    7.8416753722472    8.4838297862916 
 O    0.0026071037555    6.6309253208291    0.1999463180631 
 O    2.0965916209651    7.7927560798482    3.5437025667091 
 O    0.1830228044015    9.0167300682983    6.7857540271266 
 O    0.0026071037555    8.8399547317975    1.7619595668371 
 O    0.0332730282418    6.7970409089767    4.9187219880110 
 O    2.1874309877363    7.9111267630770    8.6010180744730 
 O    3.8287697560655    6.6309253208291    0.1999463180631 
 O    5.7116746568741    7.8081981718008    3.3879594968613 
 O    3.9569077635385    8.9086465581498    6.6143308342122 
 O    3.8287697560655    8.8399547317975    1.7619595668371 
 O    3.9490171797359    6.4716765295625    5.1642561277237 
 O    5.9825264858159    7.8728077739903    8.3855560942076 
Ce    1.9156884299104    1.1083418527658    0.9809643475031 
Ce    0.0212273548938    2.3655497941456    4.0805835754290 
Ce    0.2562112190113    0.2069225211866    7.5299179964034 
Ce    5.7418510822205    1.1083418527658    0.9809643475031 
Ce    3.8313831155843    2.3117559089868    4.2716027023069 
Ce    4.1068279949035    0.2101869287082    7.4660198183646 
Ce    9.5680022560654    1.1083418527658    0.9809643475031 
Ce    7.6279270237700    2.3057928158963    4.2707001064125 
Ce    7.8902352590353    0.2005970916846    7.5375427305361 
Ce    0.0026128429880    4.4218859692184    0.9809643475031 
Ce   -1.8923983948562    5.5520419650511    4.1934666842039 
Ce   -1.7346785465237    3.4522399339396    7.5810972593367 
Ce    3.8287754952980    4.4218859692184    0.9809643475031 
Ce    1.9932965126838    5.6213196928600    4.3698029458497 
Ce    7.6549266691429    4.4218859692184    0.9809643475031 
Ce    5.7158032311652    5.6490369869444    4.3119911883948 
Ce    5.8922574839705    3.4414995669773    7.5660035840954 
Ce   -1.9104684831671    7.7354400263133    0.9809643475031 
Ce   -3.8603133239857    8.9211849884895    4.0854081409491 
Ce   -3.6945688807717    6.6863460915050    7.6247471343804 
Ce    1.9156941691429    7.7354400263133    0.9809643475031 
Ce    0.1338030890892    8.9689584230517    4.3590044135682 
Ce    0.0197355561901    6.7642660149080    7.6463067903695 
Ce    5.7418453429879    7.7354400263133    0.9809643475031 
Ce    3.9396584428675    8.9688933118447    4.3263033894045 
Ce    3.8121515787924    6.8885766295307    7.7164111420488 
Cu    2.0414205511195    2.8064542588964    6.7820902679009 
81
FORCE:  2.755443  ...  ENERGY:  -632.33783821
 O    0.0026128429879    0.0038271472816    0.1999463180631 
 O    1.9977565276519    1.1706765389673    3.3514619586549 
 O    0.1955262389337    2.4350649044924    6.4666319763463 
 O    0.0026128429880    2.2128565582500    1.7619595668371 
 O    0.0957137543257    0.1282499917558    5.1130348941954 
 O    2.0713670628120    1.3372330940069    8.1034600917897 
 O    3.8287640168329    0.0038271472816    0.1999463180631 
 O    5.8232113030253    1.2179959843962    3.3895840326106 
 O    3.9004173589259    2.5122737737524    6.7536759469577 
 O    3.8287640168330    2.2128565582500    1.7619595668371 
 O    4.0063447661933    0.2869600002102    5.2058925547108 
 O    6.0415538607628    1.2798118684765    8.2962618284515 
 O    7.6549266691429    0.0038271472816    0.1999463180631 
 O    9.6687002468558    1.1249984923934    3.5920567980143 
 O    7.9156227539990    2.2971672211749    6.7514635947768 
 O    7.6549266691430    2.2128565582500    1.7619595668371 
 O    7.5202321050695    0.0181618516831    5.2372703646254 
 O    9.8509116385665    0.8952558351402    8.4848893157153 
 O   -1.9104627439346    3.3173712637342    0.1999463180631 
 O    0.0635471353253    4.5426994658835    3.2946955883580 
 O   -1.8232350761756    5.7393772458567    6.6455304971990 
 O   -1.9104684831671    5.5264106153449    1.7619595668371 
 O    9.5178005006800    3.3537106733152    4.9977699541519 
 O   -0.4275671968022    4.6260065215627    8.5329586487966 
 O    1.9156884299104    3.3173712637342    0.1999463180631 
 O    3.8257667600522    4.3090159404008    3.3115949115902 
 O    1.8116424004489    5.8454894272326    6.8077774125706 
 O    1.9156826906780    5.5264106153449    1.7619595668371 
 O    2.0862750061924    3.5056980242018    5.0201357192870 
 O    4.7806177930816    5.0813187544358    8.5640171172272 
 O    5.7418510822204    3.3173712637342    0.1999463180631 
 O    7.5505182645413    4.4805479857194    3.3359718437714 
 O    5.9289906954865    5.5599718142187    6.6420499031245 
 O    5.7418453429880    5.5264106153449    1.7619595668371 
 O    5.7657538951288    3.3583186580488    5.0819919366368 
 O    7.7560123450887    4.4831316580570    8.3945756663221 
 O   -3.8235440700895    6.6309253208291    0.1999463180631 
 O   -1.9616933141379    7.7613684024111    3.4190302827492 
 O   -3.5301565134209    9.1268650287962    6.7991228021521 
 O   -3.8235440700895    8.8399547317975    1.7619595668371 
 O   -3.7592421109058    6.6356289345414    5.1817019810956 
 O   -1.6791389605593    7.8481199900503    8.4810886958536 
 O    0.0026071037555    6.6309253208291    0.1999463180631 
 O    2.0857686337089    7.7951019720222    3.5497027650924 
 O    0.1762175668570    9.0243925141883    6.7903151359223 
 O    0.0026071037555    8.8399547317975    1.7619595668371 
 O    0.0467176969040    6.7965958664214    4.9246478254488 
 O    2.1968487239148    7.9143497181202    8.6007598640731 
 O    3.8287697560655    6.6309253208291    0.1999463180631 
 O    5.7129070422688    7.8091571455625    3.3927603398711 
 O    3.9585638190764    8.9102264244290    6.6221161514911 
 O    3.8287697560655    8.8399547317975    1.7619595668371 
 O    3.9440528010157    6.4709877424583    5.1611509879939 
 O    5.9719891401612    7.8648765331328    8.3843168211486 
Ce    1.9156884299104    1.1083418527658    0.9809643475031 
Ce    0.0193369091006    2.3625975227919    4.0786385576904 
Ce    0.2582107676143    0.2043781143861    7.5303682678959 
Ce    5.7418510822205    1.1083418527658    0.9809643475031 
Ce    3.8317342992210    2.3104261492677    4.2717178933422 
Ce    4.1073062451478    0.2083201754926    7.4680421623625 
Ce    9.5680022560654    1.1083418527658    0.9809643475031 
Ce    7.6264484253010    2.3063790155722    4.2688700516081 
Ce    7.8925876556524    0.1969844634636    7.5377797275374 
Ce    0.0026128429880    4.4218859692184    0.9809643475031 
Ce   -1.8953199511603    5.5497606870520    4.1952299053977 
Ce   -1.7371139898350    3.4534088540664    7.5812418754087 
Ce    3.8287754952980    4.4218859692184    0.9809643475031 
Ce    1.9904984646631    5.6195690463464    4.3717846878589 
Ce    7.6549266691429    4.4218859692184    0.9809643475031 
Ce    5.7150285495624    5.6537403024375    4.3103965338843 
Ce    5.8910174653966    3.4407655499506    7.5678573614101 
Ce   -1.9104684831671    7.7354400263133    0.9809643475031 
Ce   -3.8594740186249    8.9234285914543    4.0850078235888 
Ce   -3.6961655926455    6.6822570082990    7.6253493211788 
Ce    1.9156941691429    7.7354400263133    0.9809643475031 
Ce    0.1339604588444    8.9715408031058    4.3586720703238 
Ce    0.0199981834693    6.7636363746254    7.6480779951004 
Ce    5.7418453429879    7.7354400263133    0.9809643475031 
Ce    3.9395534723050    8.9683599963858    4.3224872586707 
Ce    3.8087410398793    6.8901789616615    7.7178878683113 
Cu    2.0403018599207    2.8075250648839    6.7842059052324 
81
FORCE:  2.750595  ...  ENERGY:  -632.34005774
 O    0.0026128429879    0.0038271472816    0.1999463180631 
 O    1.9851415798322    1.1631097220562    3.3550463387118 
 O    0.1933459045070    2.4386852864144    6.4725366003855 
 O    0.0026128429880    2.2128565582500    1.7619595668371 
 O    0.0914359599896    0.1228023209681    5.1132251304794 
 O    2.0688221723369    1.3332125018263    8.1028991912832 
 O    3.8287640168329    0.0038271472816    0.1999463180631 
 O    5.8192903741660    1.2232313230646    3.3958264743196 
 O    3.8985406298984    2.5156321203437    6.7543383524360 
 O    3.8287640168330    2.2128565582500    1.7619595668371 
 O    3.9935955203332    0.2838171667438    5.2033590362373 
 O    6.0332730091502    1.2751291301130    8.3051230984304 
 O    7.6549266691429    0.0038271472816    0.1999463180631 
 O    9.6585375009064    1.1255868790105    3.6010428392730 
 O    7.9185823040223    2.2754529815630    6.7518805635145 
 O    7.6549266691430    2.2128565582500    1.7619595668371 
 O    7.5170200288163    0.0164970923188    5.2360075971573 
 O    9.8531747901182    0.8937481379240    8.4809620997653 
 O   -1.9104627439346    3.3173712637342    0.1999463180631 
 O    0.0600398903446    4.5400560502857    3.2883844882299 
 O   -1.8184133747754    5.7446979746424    6.6395325798263 
 O   -1.9104684831671    5.5264106153449    1.7619595668371 
 O    9.5017628467744    3.3604254777757    4.9912257347405 
 O   -0.4296198333058    4.6306184825532    8.5303963895896 
 O    1.9156884299104    3.3173712637342    0.1999463180631 
 O    3.8175964460575    4.3139776131870    3.3100650377808 
 O    1.8217070629148    5.8430420411009    6.8050728183022 
 O    1.9156826906780    5.5264106153449    1.7619595668371 
 O    2.0885664521603    3.5064016228631    5.0212262704549 
 O    4.7849854637988    5.0742654711054    8.5583330669131 
 O    5.7418510822204    3.3173712637342    0.1999463180631 
 O    7.5470113639145    4.4796449777738    3.3435822075372 
 O    5.9201721925733    5.5628105634375    6.6473637454182 
 O    5.7418453429880    5.5264106153449    1.7619595668371 
 O    5.7672965434325    3.3582432085738    5.0826566231256 
 O    7.7552064420610    4.4882751451907    8.3894881002799 
 O   -3.8235440700895    6.6309253208291    0.1999463180631 
 O   -1.9557456327135    7.7616234792923    3.4128389356776 
 O   -3.5324069812688    9.1209636670944    6.7985089821997 
 O   -3.8235440700895    8.8399547317975    1.7619595668371 
 O   -3.7626463940555    6.6368482537247    5.1737738725532 
 O   -1.6760769078436    7.8545204714015    8.4782812280071 
 O    0.0026071037555    6.6309253208291    0.1999463180631 
 O    2.0751649999189    7.7975701340964    3.5554178371507 
 O    0.1692516881948    9.0313695527924    6.7948828596488 
 O    0.0026071037555    8.8399547317975    1.7619595668371 
 O    0.0598222012559    6.7958304369650    4.9307650396759 
 O    2.2058453152125    7.9177581655486    8.6004366448711 
 O    3.8287697560655    6.6309253208291    0.1999463180631 
 O    5.7143990131495    7.8101963403075    3.3977055708519 
 O    3.9601170275679    8.9117756735299    6.6296735958110 
 O    3.8287697560655    8.8399547317975    1.7619595668371 
 O    3.9387709279537    6.4709540436809    5.1583188852329 
 O    5.9616322933687    7.8572201510346    8.3827693835576 
Ce    1.9156884299104    1.1083418527658    0.9809643475031 
Ce    0.0174747003314    2.3596603612144    4.0767861489821 
Ce    0.2601425932738    0.2017675029079    7.5307752001869 
Ce    5.7418510822205    1.1083418527658    0.9809643475031 
Ce    3.8322083598255    2.3090913198210    4.2717361414270 
Ce    4.1077166576638    0.2064247932271    7.4700604005414 
Ce    9.5680022560654    1.1083418527658    0.9809643475031 
Ce    7.6249987525638    2.3069606425525    4.2670456993303 
Ce    7.8948823729828    0.1933609999425    7.5380550455168 
Ce    0.0026128429880    4.4218859692184    0.9809643475031 
Ce   -1.8982033415683    5.5475948199098    4.1969862835597 
Ce   -1.7395417425748    3.4545871183971    7.5813579788483 
Ce    3.8287754952980    4.4218859692184    0.9809643475031 
Ce    1.9876989818342    5.6179425584549    4.3736838572845 
Ce    7.6549266691429    4.4218859692184    0.9809643475031 
Ce    5.7143522384046    5.6582457991490    4.3087475913216 
Ce    5.8898777686067    3.4400351115552    7.5696481828321 
Ce   -1.9104684831671    7.7354400263133    0.9809643475031 
Ce   -3.8585644650583    8.9256032063617    4.0847085549981 
Ce   -3.6977260325699    6.6782969546300    7.6259120464938 
Ce    1.9156941691429    7.7354400263133    0.9809643475031 
Ce    0.1340203764316    8.9740007144469    4.3582687876497 
Ce    0.0202754457914    6.7630010681766    7.6498006143055 
Ce    5.7418453429879    7.7354400263133    0.9809643475031 
Ce    3.9393879528397    8.9677812521917    4.3187245035849 
Ce    3.8054123424216    6.8917480920469    7.7192788285752 
Cu    2.0391502255272    2.8083024231110    6.7863610040472 
81
FORCE:  2.721495  ...  ENERGY:  -632.33793186
 O    0.0026128429879    0.0038271472816    0.1999463180631 
 O    1.9723674257030    1.1555965846134    3.3587290303255 
 O    0.1913546203988    2.4424321133064    6.4786966976118 
 O    0.0026128429880    2.2128565582500    1.7619595668371 
 O    0.0875876324213    0.1172831769622    5.1131781416610 
 O    2.0664328724548    1.3302347824283    8.1025337733850 
 O    3.8287640168329    0.0038271472816    0.1999463180631 
 O    5.8153480379694    1.2281073075143    3.4019284057757 
 O    3.8964819098083    2.5191724800952    6.7550951917530 
 O    3.8287640168330    2.2128565582500    1.7619595668371 
 O    3.9810555842823    0.2802467862525    5.2005517964919 
 O    6.0246382190693    1.2707427222961    8.3140685377004 
 O    7.6549266691429    0.0038271472816    0.1999463180631 
 O    9.6481890907857    1.1262624450606    3.6091940306521 
 O    7.9213599777676    2.2543738495871    6.7520723965059 
 O    7.6549266691430    2.2128565582500    1.7619595668371 
 O    7.5152320283232    0.0156879240364    5.2343775869825 
 O    9.8554529784591    0.8930392707223    8.4768539996747 
 O   -1.9104627439346    3.3173712637342    0.1999463180631 
 O    0.0564443759680    4.5369374719865    3.2828382109560 
 O   -1.8137737218301    5.7496059679602    6.6335444707992 
 O   -1.9104684831671    5.5264106153449    1.7619595668371 
 O    9.4866189635459    3.3674815444860    4.9847383124931 
 O   -0.4312931639335    4.6353452579621    8.5282805241570 
 O    1.9156884299104    3.3173712637342    0.1999463180631 
 O    3.8097078135939    4.3196450715758    3.3088627170936 
 O    1.8320128305381    5.8405971401296    6.8023125673752 
 O    1.9156826906780    5.5264106153449    1.7619595668371 
 O    2.0901383705497    3.5066971581583    5.0229146745010 
 O    4.7890256539095    5.0671640750663    8.5530034856462 
 O    5.7418510822204    3.3173712637342    0.1999463180631 
 O    7.5439956841974    4.4787444549888    3.3513349063645 
 O    5.9116002470883    5.5657632324168    6.6529113912985 
 O    5.7418453429880    5.5264106153449    1.7619595668371 
 O    5.7690115982804    3.3582317768352    5.0836630050023 
 O    7.7546099636273    4.4934509394118    8.3843866200730 
 O   -3.8235440700895    6.6309253208291    0.1999463180631 
 O   -1.9501541280580    7.7621845291431    3.4067456720618 
 O   -3.5349952603417    9.1143799797057    6.7975999994756 
 O   -3.8235440700895    8.8399547317975    1.7619595668371 
 O   -3.7664366979832    6.6384321956672    5.1657002355345 
 O   -1.6733917505261    7.8608409305824    8.4754258589381 
 O    0.0026071037555    6.6309253208291    0.1999463180631 
 O    2.0648369640735    7.8001728924672    3.5608042155816 
 O    0.1621755588762    9.0376299704938    6.7994243517534 
 O    0.0026071037555    8.8399547317975    1.7619595668371 
 O    0.0725168096226    6.7947526725280    4.9370708934796 
 O    2.2143456350759    7.9213535964585    8.6000899312599 
 O    3.8287697560655    6.6309253208291    0.1999463180631 
 O    5.7161280717248    7.8113143643458    3.4027461480758 
 O    3.9615600427954    8.9132849612488    6.6369411236836 
 O    3.8287697560655    8.8399547317975    1.7619595668371 
 O    3.9332212049108    6.4715781172039    5.1557404308507 
 O    5.9515034088910    7.8498403176050    8.3809340824288 
Ce    1.9156884299104    1.1083418527658    0.9809643475031 
Ce    0.0156394659548    2.3567404963546    4.0750279460117 
Ce    0.2620027359193    0.1990909849713    7.5311381089734 
Ce    5.7418510822205    1.1083418527658    0.9809643475031 
Ce    3.8328013373274    2.3077552974972    4.2716606399762 
Ce    4.1080577402513    0.2045043605431    7.4720749891033 
Ce    9.5680022560654    1.1083418527658    0.9809643475031 
Ce    7.6235745046266    2.3075362057411    4.2652297867916 
Ce    7.8971167709797    0.1897272975598    7.5383700530807 
Ce    0.0026128429880    4.4218859692184    0.9809643475031 
Ce   -1.9010475904106    5.5455478428495    4.1987319409719 
Ce   -1.7419597386194    3.4557697566103    7.5814437448468 
Ce    3.8287754952980    4.4218859692184    0.9809643475031 
Ce    1.9849010485981    5.6164418196883    4.3755006822274 
Ce    7.6549266691429    4.4218859692184    0.9809643475031 
Ce    5.7137701654444    5.6625524830147    4.3070500632331 
Ce    5.8888340317843    3.4393006969028    7.5713726268457 
Ce   -1.9104684831671    7.7354400263133    0.9809643475031 
Ce   -3.8575842615396    8.9277051551739    4.0845121599854 
Ce   -3.6992537014768    6.6744713978511    7.6264314326075 
Ce    1.9156941691429    7.7354400263133    0.9809643475031 
Ce    0.1339822679279    8.9763347772566    4.3577963903544 
Ce    0.0205699832032    6.7623618848774    7.6514684892562 
Ce    5.7418453429879    7.7354400263133    0.9809643475031 
Ce    3.9391586705014    8.9671552899467    4.3150224233811 
Ce    3.8021738656988    6.8932790503660    7.7205799170214 
Cu    2.0379671975320    2.8087921985566    6.7885514585264 
81
FORCE:  2.667503  ...  ENERGY:  -632.33247274
 O    0.0026128429879    0.0038271472816    0.1999463180631 
 O    1.9594849148642    1.1482031325038    3.3624806084593 
 O    0.1895345949884    2.4462988243443    6.4850636824996 
 O    0.0026128429880    2.2128565582500    1.7619595668371 
 O    0.0841609088725    0.1117302347726    5.1129000864689 
 O    2.0642123634005    1.3282909892350    8.1023640661964 
 O    3.8287640168329    0.0038271472816    0.1999463180631 
 O    5.8113762595101    1.2326094244074    3.4078549275166 
 O    3.8942526771207    2.5228753693483    6.7559362003613 
 O    3.8287640168330    2.2128565582500    1.7619595668371 
 O    3.9687336816741    0.2762788794760    5.1974690106660 
 O    6.0156871398853    1.2666846538941    8.3230753361556 
 O    7.6549266691429    0.0038271472816    0.1999463180631 
 O    9.6377136140574    1.1270348329665    3.6164987389975 
 O    7.9239731651096    2.2340402657829    6.7520552889264 
 O    7.6549266691430    2.2128565582500    1.7619595668371 
 O    7.5148380874044    0.0156980634915    5.2324006350955 
 O    9.8577511967214    0.8931378818939    8.4725987744004 
 O   -1.9104627439346    3.3173712637342    0.1999463180631 
 O    0.0527637487734    4.5333426375152    3.2780786542381 
 O   -1.8093371229306    5.7540974483661    6.6275898926279 
 O   -1.9104684831671    5.5264106153449    1.7619595668371 
 O    9.4724222258569    3.3748554135303    4.9783601506533 
 O   -0.4326061281525    4.6401757142701    8.5266087714883 
 O    1.9156884299104    3.3173712637342    0.1999463180631 
 O    3.8021237621991    4.3259514150446    3.3079861247200 
 O    1.8424917508059    5.8381736115393    6.7995532288523 
 O    1.9156826906780    5.5264106153449    1.7619595668371 
 O    2.0909880065291    3.5065548081607    5.0251886139682 
 O    4.7927274014797    5.0600343481966    8.5480539207452 
 O    5.7418510822204    3.3173712637342    0.1999463180631 
 O    7.5414602060635    4.4778660998360    3.3591637909458 
 O    5.9032926506522    5.5688176935733    6.6586631876274 
 O    5.7418453429880    5.5264106153449    1.7619595668371 
 O    5.7708663460475    3.3582899295925    5.0850181533998 
 O    7.7542441449478    4.4986284235422    8.3792744191163 
 O   -3.8235440700895    6.6309253208291    0.1999463180631 
 O   -1.9449151844551    7.7630313724598    3.4007737582100 
 O   -3.5379198584390    9.1071288775937    6.7964193483890 
 O   -3.8235440700895    8.8399547317975    1.7619595668371 
 O   -3.7705919023132    6.6403632648385    5.1575203034219 
 O   -1.6710780937284    7.8670503527888    8.4725390119227 
 O    0.0026071037555    6.6309253208291    0.1999463180631 
 O    2.0548323913718    7.8029205854026    3.5658226670026 
 O    0.1550395119704    9.0431510032217    6.8039044846729 
 O    0.0026071037555    8.8399547317975    1.7619595668371 
 O    0.0847422931248    6.7933743030680    4.9435656149609 
 O    2.2222809848920    7.9251396888875    8.5997605533292 
 O    3.8287697560655    6.6309253208291    0.1999463180631 
 O    5.7180706871414    7.8125090307363    3.4078357670276 
 O    3.9628865516031    8.9147467326975    6.6438646751578 
 O    3.8287697560655    8.8399547317975    1.7619595668371 
 O    3.9274538501716    6.4728592671822    5.1533928147412 
 O    5.9416427761405    7.8427364364053    8.3788325873630 
Ce    1.9156884299104    1.1083418527658    0.9809643475031 
Ce    0.0138290250627    2.3538385246509    4.0733653173853 
Ce    0.2637884407194    0.1963483617635    7.5314567661542 
Ce    5.7418510822205    1.1083418527658    0.9809643475031 
Ce    3.8335086977330    2.3064215615212    4.2714943543034 
Ce    4.1083280007097    0.2025614620076    7.4740866123515 
Ce    9.5680022560654    1.1083418527658    0.9809643475031 
Ce    7.6221718935959    2.3081043134480    4.2634239106996 
Ce    7.8992895870119    0.1860819646256    7.5387263469364 
Ce    0.0026128429880    4.4218859692184    0.9809643475031 
Ce   -1.9038530994336    5.5436220422186    4.2004634561184 
Ce   -1.7443665431606    3.4569528918557    7.5814973485959 
Ce    3.8287754952980    4.4218859692184    0.9809643475031 
Ce    1.9821068458632    5.6150670288596    4.3772365312940 
Ce    7.6549266691429    4.4218859692184    0.9809643475031 
Ce    5.7132773375497    5.6666622427567    4.3053091959431 
Ce    5.8878815487586    3.4385549499182    7.5730286405413 
Ce   -1.9104684831671    7.7354400263133    0.9809643475031 
Ce   -3.8565330637149    8.9297316545111    4.0844197790561 
Ce   -3.7007531907521    6.6707839165936    7.6269045142059 
Ce    1.9156941691429    7.7354400263133    0.9809643475031 
Ce    0.1338464776869    8.9785414010321    4.3572573875497 
Ce    0.0208844357519    6.7617202164176    7.6530777422345 
Ce    5.7418453429879    7.7354400263133    0.9809643475031 
Ce    3.9388627556737    8.9664801215224    4.3113867205858 
Ce    3.7990321524360    6.8947672639233    7.7217881683362 
Cu    2.0367538663891    2.8090006538254    6.7907747595582 
81
FORCE:  2.590365  ...  ENERGY:  -632.32470653
 O    0.0026128429879    0.0038271472816    0.1999463180631 
 O    1.9465396742142    1.1409942781215    3.3662705075712 
 O    0.1878661427083    2.4502791569237    6.4915951282516 
 O    0.0026128429880    2.2128565582500    1.7619595668371 
 O    0.0811444256629    0.1061794795243    5.1123989484401 
 O    2.0621706888310    1.3273645213735    8.1023882449088 
 O    3.8287640168329    0.0038271472816    0.1999463180631 
 O    5.8073637325001    1.2367266396311    3.4135763864046 
 O    3.8918642381235    2.5267218014760    6.7568515699150 
 O    3.8287640168330    2.2128565582500    1.7619595668371 
 O    3.9566346908562    0.2719441629991    5.1941102225575 
 O    6.0064526000081    1.2629813670153    8.3321245614079 
 O    7.6549266691429    0.0038271472816    0.1999463180631 
 O    9.6271666264921    1.1279137845578    3.6229517179849 
 O    7.9264382228606    2.2145549169853    6.7518442954459 
 O    7.6549266691430    2.2128565582500    1.7619595668371 
 O    7.5157953913854    0.0164853623609    5.2300947614799 
 O    9.8600743806451    0.8940501346368    8.4682276737876 
 O   -1.9104627439346    3.3173712637342    0.1999463180631 
 O    0.0490023131852    4.5292718450910    3.2741206446450 
 O   -1.8051217140517    5.7581726146729    6.6216884620036 
 O   -1.9104684831671    5.5264106153449    1.7619595668371 
 O    9.4592150466356    3.3825235255864    4.9721412033535 
 O   -0.4335801906924    4.6450997120220    8.5253740604505 
 O    1.9156884299104    3.3173712637342    0.1999463180631 
 O    3.7948623704555    4.3328307371350    3.3074325234474 
 O    1.8530812660840    5.8357875591705    6.7968493188871 
 O    1.9156826906780    5.5264106153449    1.7619595668371 
 O    2.0911193775610    3.5059497212646    5.0280293845694 
 O    4.7960808350294    5.0528939848397    8.5435078666194 
 O    5.7418510822204    3.3173712637342    0.1999463180631 
 O    7.5393901222931    4.4770284019102    3.3670081863992 
 O    5.8952624887152    5.5719636086388    6.6645897093684 
 O    5.7418453429880    5.5264106153449    1.7619595668371 
 O    5.7728276139697    3.3584222395414    5.0867270865413 
 O    7.7541287863745    4.5037782726869    8.3741526379150 
 O   -3.8235440700895    6.6309253208291    0.1999463180631 
 O   -1.9400203078405    7.7641441279578    3.3949439513185 
 O   -3.5411784224755    9.0992273592566    6.7949905233492 
 O   -3.8235440700895    8.8399547317975    1.7619595668371 
 O   -3.7750910588469    6.6426232698631    5.1492680632732 
 O   -1.6691288208021    7.8731203077839    8.4696359697321 
 O    0.0026071037555    6.6309253208291    0.1999463180631 
 O    2.0451895624946    7.8058228553256    3.5704382919517 
 O    0.1478947414311    9.0479175411997    6.8082867622376 
 O    0.0026071037555    8.8399547317975    1.7619595668371 
 O    0.0964462525697    6.7917101401423    4.9502535380401 
 O    2.2295881757111    7.9291238983173    8.5994888849668 
 O    3.8287697560655    6.6309253208291    0.1999463180631 
 O    5.7202028120151    7.8137770590668    3.4129299480005 
 O    3.9640929382746    8.9161551228971    6.6503995424258 
 O    3.8287697560655    8.8399547317975    1.7619595668371 
 O    3.9215184507047    6.4747957043003    5.1512511738888 
 O    5.9320848305119    7.8359065193071    8.3764872522641 
Ce    1.9156884299104    1.1083418527658    0.9809643475031 
Ce    0.0120407376080    2.3509538496647    4.0717980350021 
Ce    0.2654981006888    0.1935380427817    7.5317311717294 
Ce    5.7418510822205    1.1083418527658    0.9809643475031 
Ce    3.8343260218334    2.3050933923048    4.2712411621268 
Ce    4.1085257746617    0.2005979863424    7.4760973231954 
Ce    9.5680022560654    1.1083418527658    0.9809643475031 
Ce    7.6207872463630    2.3086637727961    4.2616292115595 
Ce    7.9014005915101    0.1824222177601    7.5391255237914 
Ce    0.0026128429880    4.4218859692184    0.9809643475031 
Ce   -1.9066217051916    5.5418188097072    4.2021783198875 
Ce   -1.7467606639980    3.4581333431276    7.5815174214892 
Ce    3.8287754952980    4.4218859692184    0.9809643475031 
Ce    1.9793174066912    5.6138173907174    4.3788939135960 
Ce    7.6549266691429    4.4218859692184    0.9809643475031 
Ce    5.7128682450571    5.6705788558190    4.3035300076751 
Ce    5.8870151542204    3.4377907133389    7.5746155396157 
Ce   -1.9104684831671    7.7354400263133    0.9809643475031 
Ce   -3.8554103550532    8.9316808156514    4.0844334651197 
Ce   -3.7022289769971    6.6672366977988    7.6273292383796 
Ce    1.9156941691429    7.7354400263133    0.9809643475031 
Ce    0.1336137518090    8.9806204863671    4.3566542883470 
Ce    0.0212211565227    6.7610767586421    7.6546247236235 
Ce    5.7418453429879    7.7354400263133    0.9809643475031 
Ce    3.9384977404867    8.9657540570095    4.3078205886137 
Ce    3.7959924827270    6.8962087564617    7.7229010734080 
Cu    2.0355111503759    2.8089339521156    6.7930297666374 
81
FORCE:  2.491666  ...  ENERGY:  -632.31572906
 O    0.0026128429879    0.0038271472816    0.1999463180631 
 O    1.9335718209881    1.1340293671010    3.3700699869276 
 O    0.1863279710059    2.4543668484397    6.4982540824962 
 O    0.0026128429880    2.2128565582500    1.7619595668371 
 O    0.0785226868645    0.1006627212726    5.1116836235159 
 O    2.0603143914712    1.3274321177411    8.1026028880062 
 O    3.8287640168329    0.0038271472816    0.1999463180631 
 O    5.8032993802205    1.2404503048265    3.4190676913230 
 O    3.8893287599896    2.5306932868837    6.7578296672603 
 O    3.8287640168330    2.2128565582500    1.7619595668371 
 O    3.9447594727135    0.2672727569677    5.1904740635601 
 O    5.9969627216771    1.2596541346345    8.3411988777768 
 O    7.6549266691429    0.0038271472816    0.1999463180631 
 O    9.6165978872357    1.1289073517547    3.6285520552101 
 O    7.9287718521875    2.1960103505740    6.7514510492185 
 O    7.6549266691430    2.2128565582500    1.7619595668371 
 O    7.5180510819349    0.0180026025936    5.2274743365027 
 O    9.8624275233624    0.8957810986788    8.4637673856604 
 O   -1.9104627439346    3.3173712637342    0.1999463180631 
 O    0.0451633979583    4.5247274804681    3.2709726219159 
 O   -1.8011428763364    5.7618338526347    6.6158581989100 
 O   -1.9104684831671    5.5264106153449    1.7619595668371 
 O    9.4470294507993    3.3904612278614    4.9661289156140 
 O   -0.4342396285067    4.6501093981104    8.5245661264960 
 O    1.9156884299104    3.3173712637342    0.1999463180631 
 O    3.7879391342907    4.3402196165491    3.3071984917598 
 O    1.8637271980175    5.8334525022965    6.7942507916116 
 O    1.9156826906780    5.5264106153449    1.7619595668371 
 O    2.0905413794559    3.5048613203402    5.0314153167040 
 O    4.7990767717867    5.0457590888360    8.5393860804652 
 O    5.7418510822204    3.3173712637342    0.1999463180631 
 O    7.5377675838730    4.4762497513997    3.3748108393586 
 O    5.8875191736185    5.5751906393454    6.6706624438887 
 O    5.7418453429880    5.5264106153449    1.7619595668371 
 O    5.7748640084453    3.3586323847194    5.0887936821449 
 O    7.7542819664900    4.5088725536413    8.3690235574799 
 O   -3.8235440700895    6.6309253208291    0.1999463180631 
 O   -1.9354560684102    7.7655039084166    3.3892740432701 
 O   -3.5447678532657    9.0906921249736    6.7933377030684 
 O   -3.8235440700895    8.8399547317975    1.7619595668371 
 O   -3.7799142524476    6.6451938205529    5.1409733963273 
 O   -1.6675356672524    7.8790261427748    8.4667306465309 
 O    0.0026071037555    6.6309253208291    0.1999463180631 
 O    2.0359365422888    7.8088893446592    3.5746200686847 
 O    0.1407916951121    9.0519207372563    6.8125344601769 
 O    0.0026071037555    8.8399547317975    1.7619595668371 
 O    0.1075857011060    6.7897791703774    4.9571396809405 
 O    2.2362111352314    7.9333146742939    8.5993127909484 
 O    3.8287697560655    6.6309253208291    0.1999463180631 
 O    5.7225010302774    7.8151144730805    3.4179867203997 
 O    3.9651764479783    8.9175055591522    6.6565096855200 
 O    3.8287697560655    8.8399547317975    1.7619595668371 
 O    3.9154651100100    6.4773847445847    5.1492888204696 
 O    5.9228591290529    7.8293480811498    8.3739208872381 
Ce    1.9156884299104    1.1083418527658    0.9809643475031 
Ce    0.0102710452666    2.3480844832677    4.0703258707608 
Ce    0.2671310845120    0.1906579404910    7.5319608694968 
Ce    5.7418510822205    1.1083418527658    0.9809643475031 
Ce    3.8352489478117    2.3037733744151    4.2709044849623 
Ce    4.1086484794526    0.1986152258313    7.4781094026456 
Ce    9.5680022560654    1.1083418527658    0.9809643475031 
Ce    7.6194163732880    2.3092138879404    4.2598463736745 
Ce    7.9034504157898    0.1787431860486    7.5395691803531 
Ce    0.0026128429880    4.4218859692184    0.9809643475031 
Ce   -1.9093561051239    5.5401384435345    4.2038751636728 
Ce   -1.7491415272083    3.4593091222977    7.5815032792235 
Ce    3.8287754952980    4.4218859692184    0.9809643475031 
Ce    1.9765326736899    5.6126908177266    4.3804755663460 
Ce    7.6549266691429    4.4218859692184    0.9809643475031 
Ce    5.7125374356958    5.6743075907419    4.3017159199450 
Ce    5.8862291663295    3.4370011281218    7.5761326397658 
Ce   -1.9104684831671    7.7354400263133    0.9809643475031 
Ce   -3.8542151024928    8.9335512469046    4.0845543586815 
Ce   -3.7036862255212    6.6638305367182    7.6277026398148 
Ce    1.9156941691429    7.7354400263133    0.9809643475031 
Ce    0.1332858694563    8.9825731267321    4.3559893737571 
Ce    0.0215823264239    6.7604317103639    7.6561076086145 
Ce    5.7418453429879    7.7354400263133    0.9809643475031 
Ce    3.9380609848934    8.9649753070925    4.3043258522735 
Ce    3.7930583001114    6.8975999493502    7.7239165793271 
Cu    2.0342388773153    2.8085981572191    6.7953164797639 
81
FORCE:  2.373109  ...  ENERGY:  -632.30671640
 O    0.0026128429879    0.0038271472816    0.1999463180631 
 O    1.9206172827815    1.1273660551676    3.3738496214918 
 O    0.1848994760367    2.4585558351007    6.5050102077924 
 O    0.0026128429880    2.2128565582500    1.7619595668371 
 O    0.0762776138952    0.0952102789765    5.1107650605473 
 O    2.0586472592146    1.3284653481007    8.1030041177708 
 O    3.8287640168329    0.0038271472816    0.1999463180631 
 O    5.7991701746138    1.2437737597633    3.4243087693786 
 O    3.8866579507535    2.5347721312281    6.7588586311420 
 O    3.8287640168330    2.2128565582500    1.7619595668371 
 O    3.9331060759069    0.2622926939933    5.1865593931683 
 O    5.9872411505300    1.2567200546561    8.3502839148956 
 O    7.6549266691429    0.0038271472816    0.1999463180631 
 O    9.6060544579946    1.1300222941939    3.6333006630771 
 O    7.9309869089708    2.1784902667572    6.7508833056801 
 O    7.6549266691430    2.2128565582500    1.7619595668371 
 O    7.5215440362267    0.0201997827590    5.2245507652166 
 O    9.8648165362829    0.8983356449345    8.4592395796194 
 O   -1.9104627439346    3.3173712637342    0.1999463180631 
 O    0.0412496431396    4.5197127246521    3.2686370951626 
 O   -1.7974127769577    5.7650851385085    6.6101141580170 
 O   -1.9104684831671    5.5264106153449    1.7619595668371 
 O    9.4358898874784    3.3986432711238    4.9603675390405 
 O   -0.4346107272801    4.6551974164602    8.5241733364707 
 O    1.9156884299104    3.3173712637342    0.1999463180631 
 O    3.7813649008543    4.3480587076526    3.3072815205456 
 O    1.8743823701154    5.8311801708755    6.7918046358441 
 O    1.9156826906780    5.5264106153449    1.7619595668371 
 O    2.0892672124486    3.5032731039215    5.0353208630534 
 O    4.8017063733336    5.0386423842078    8.5357068103674 
 O    5.7418510822204    3.3173712637342    0.1999463180631 
 O    7.5365726182742    4.4755478426476    3.3825201989845 
 O    5.8800678132791    5.5784891432701    6.6768537909603 
 O    5.7418453429880    5.5264106153449    1.7619595668371 
 O    5.7769450541498    3.3589226514743    5.0912202212212 
 O    7.7547196403604    4.5138856195481    8.3638876340129 
 O   -3.8235440700895    6.6309253208291    0.1999463180631 
 O   -1.9312057649977    7.7670931188995    3.3837784044315 
 O   -3.5486861994704    9.0815404714621    6.7914846100570 
 O   -3.8235440700895    8.8399547317975    1.7619595668371 
 O   -3.7850424862556    6.6480575207838    5.1326607093978 
 O   -1.6662896798767    7.8847459883485    8.4638355878773 
 O    0.0026071037555    6.6309253208291    0.1999463180631 
 O    2.0270939919914    7.8121288011687    3.5783394845691 
 O    0.1337801321592    9.0551569133538    6.8166101699170 
 O    0.0026071037555    8.8399547317975    1.7619595668371 
 O    0.1181235058992    6.7876009768388    4.9642313428959 
 O    2.2420991860301    7.9377222556789    8.5992683112417 
 O    3.8287697560655    6.6309253208291    0.1999463180631 
 O    5.7249415241134    7.8165162030498    3.4229659384384 
 O    3.9661354737290    8.9187948604573    6.6621659075048 
 O    3.8287697560655    8.8399547317975    1.7619595668371 
 O    3.9093397419474    6.4806242010942    5.1474770137501 
 O    5.9139878825929    7.8230586367729    8.3711560742898 
Ce    1.9156884299104    1.1083418527658    0.9809643475031 
Ce    0.0085157583988    2.3452275426736    4.0689479122574 
Ce    0.2686876791507    0.1877049732923    7.5321460875575 
Ce    5.7418510822205    1.1083418527658    0.9809643475031 
Ce    3.8362732286359    2.3024640924191    4.2704882005278 
Ce    4.1086935898200    0.1966135780998    7.4801265003192 
Ce    9.5680022560654    1.1083418527658    0.9809643475031 
Ce    7.6180552569083    2.3097538636296    4.2580747127415 
Ce    7.9054410111901    0.1750389051057    7.5400593695310 
Ce    0.0026128429880    4.4218859692184    0.9809643475031 
Ce   -1.9120602593009    5.5385808442941    4.2055526188680 
Ce   -1.7515086736529    3.4604788376759    7.5814542374956 
Ce    3.8287754952980    4.4218859692184    0.9809643475031 
Ce    1.9737521303283    5.6116846259140    4.3819851391611 
Ce    7.6549266691429    4.4218859692184    0.9809643475031 
Ce    5.7122788832716    5.6778555053817    4.2998701261674 
Ce    5.8855179032458    3.4361795340366    7.5775803971936 
Ce   -1.9104684831671    7.7354400263133    0.9809643475031 
Ce   -3.8529462729717    8.9353419542068    4.0847845126510 
Ce   -3.7051303312028    6.6605654333516    7.6280228937031 
Ce    1.9156941691429    7.7354400263133    0.9809643475031 
Ce    0.1328647819678    8.9844013102556    4.3552653809927 
Ce    0.0219699541870    6.7597849721765    7.6575245723992 
Ce    5.7418453429879    7.7354400263133    0.9809643475031 
Ce    3.9375501358086    8.9641421818622    4.3009025115650 
Ce    3.7902321872438    6.8989375621768    7.7248333174872 
Cu    2.0329367602457    2.8079987364890    6.7976364956452 
81
FORCE:  2.358863  ...  ENERGY:  -632.29875876
 O    0.0026128429879    0.0038271472816    0.1999463180631 
 O    1.9077064775264    1.1210588170410    3.3775802143281 
 O    0.1835581026168    2.4628396554892    6.5118379568213 
 O    0.0026128429880    2.2128565582500    1.7619595668371 
 O    0.0743884881255    0.0898492905895    5.1096555769915 
 O    2.0571704973000    1.3304321041778    8.1035864597769 
 O    3.8287640168329    0.0038271472816    0.1999463180631 
 O    5.7949633171913    1.2466913382755    3.4292836534972 
 O    3.8838639201955    2.5389417336366    6.7599254597996 
 O    3.8287640168330    2.2128565582500    1.7619595668371 
 O    3.9216702534043    0.2570312114356    5.1823650708771 
 O    5.9773070556034    1.2541914534768    8.3593671272058 
 O    7.6549266691429    0.0038271472816    0.1999463180631 
 O    9.5955804160745    1.1312655703251    3.6371995944957 
 O    7.9330952734220    2.1620697173840    6.7501458549532 
 O    7.6549266691430    2.2128565582500    1.7619595668371 
 O    7.5262075069869    0.0230245156721    5.2213322592600 
 O    9.8672465273233    0.9017184455057    8.4546634161537 
 O   -1.9104627439346    3.3173712637342    0.1999463180631 
 O    0.0372646644455    4.5142322497448    3.2671122395765 
 O   -1.7939420334956    5.7679325360861    6.6044677443778 
 O   -1.9104684831671    5.5264106153449    1.7619595668371 
 O    9.4258123691317    3.4070423186075    4.9548983599249 
 O   -0.4347208057594    4.6603585979371    8.5241820043109 
 O    1.9156884299104    3.3173712637342    0.1999463180631 
 O    3.7751475902870    4.3562923428486    3.3076788725922 
 O    1.8850073538503    5.8289792132660    6.7895539626851 
 O    1.9156826906780    5.5264106153449    1.7619595668371 
 O    2.0873128316054    3.5011733420506    5.0397161423785 
 O    4.8039611456059    5.0315561973514    8.5324864796024 
 O    5.7418510822204    3.3173712637342    0.1999463180631 
 O    7.5357838181594    4.4749394753394    3.3900890483574 
 O    5.8729104164284    5.5818502732412    6.6831384313654 
 O    5.7418453429880    5.5264106153449    1.7619595668371 
 O    5.7790428010209    3.3592943320895    5.0940083004776 
 O    7.7554568447750    4.5187918235504    8.3587466923226 
 O   -3.8235440700895    6.6309253208291    0.1999463180631 
 O   -1.9272494250738    7.7688946615017    3.3784691241589 
 O   -3.5529306488658    9.0717891984078    6.7894551949261 
 O   -3.8235440700895    8.8399547317975    1.7619595668371 
 O   -3.7904587147505    6.6511971732447    5.1243493910745 
 O   -1.6653827663570    7.8902616531295    8.4609615145213 
 O    0.0026071037555    6.6309253208291    0.1999463180631 
 O    2.0186761448990    7.8155483821164    3.5815719046903 
 O    0.1269084916946    9.0576264671179    6.8204755704798 
 O    0.0026071037555    8.8399547317975    1.7619595668371 
 O    0.1280285603093    6.7851976277524    4.9715374198477 
 O    2.2472077916630    7.9423577759916    8.5993887486014 
 O    3.8287697560655    6.6309253208291    0.1999463180631 
 O    5.7275013365930    7.8179762845893    3.4278304216440 
 O    3.9669697285652    8.9200211380902    6.6673467668806 
 O    3.8287697560655    8.8399547317975    1.7619595668371 
 O    3.9031875716690    6.4845122845131    5.1457872410976 
 O    5.9054890549300    7.8170357010159    8.3682144830200 
Ce    1.9156884299104    1.1083418527658    0.9809643475031 
Ce    0.0067705725802    2.3423789522190    4.0676630189864 
Ce    0.2701690898436    0.1846750655223    7.5322868259115 
Ce    5.7418510822205    1.1083418527658    0.9809643475031 
Ce    3.8373950190204    2.3011674350388    4.2699957303392 
Ce    4.1086581213631    0.1945926455222    7.4821522658331 
Ce    9.5680022560654    1.1083418527658    0.9809643475031 
Ce    7.6167001093304    2.3102835010508    4.2563140006594 
Ce    7.9073744438347    0.1713022176688    7.5405979161337 
Ce    0.0026128429880    4.4218859692184    0.9809643475031 
Ce   -1.9147387017164    5.5371453161410    4.2072109135742 
Ce   -1.7538619885472    3.4616418928239    7.5813698401034 
Ce    3.8287754952980    4.4218859692184    0.9809643475031 
Ce    1.9709738826597    5.6107953360548    4.3834271940624 
Ce    7.6549266691429    4.4218859692184    0.9809643475031 
Ce    5.7120868485522    5.6812303534391    4.2979949073532 
Ce    5.8848758553060    3.4353193702592    7.5789594962024 
Ce   -1.9104684831671    7.7354400263133    0.9809643475031 
Ce   -3.8516022021125    8.9370526393385    4.0851259799379 
Ce   -3.7065668610976    6.6574404930413    7.6282879471348 
Ce    1.9156941691429    7.7354400263133    0.9809643475031 
Ce    0.1323533015674    8.9861077209111    4.3544845910643 
Ce    0.0223857615816    6.7591357488286    7.6588751587755 
Ce    5.7418453429879    7.7354400263133    0.9809643475031 
Ce    3.9369624384006    8.9632530908158    4.2975491978819 
Ce    3.7875156363245    6.9002188115615    7.7256501473831 
Cu    2.0316031921820    2.8071406602465    6.7999918671907 
81
FORCE:  2.415321  ...  ENERGY:  -632.29303309
 O    0.0026128429879    0.0038271472816    0.1999463180631 
 O    1.8948684457395    1.1151593440612    3.3812334809051 
 O    0.1822826155860    2.4672123452197    6.5187174847909 
 O    0.0026128429880    2.2128565582500    1.7619595668371 
 O    0.0728335004720    0.0846042100917    5.1083674903056 
 O    2.0558822691730    1.3332973949115    8.1043444395993 
 O    3.8287640168329    0.0038271472816    0.1999463180631 
 O    5.7906649764027    1.2491991635124    3.4339802543226 
 O    3.8809588928810    2.5431862884880    6.7610171514728 
 O    3.8287640168330    2.2128565582500    1.7619595668371 
 O    3.9104462659734    0.2515145525904    5.1778899561809 
 O    5.9671752441172    1.2520770788618    8.3684380220588 
 O    7.6549266691429    0.0038271472816    0.1999463180631 
 O    9.5852168543799    1.1326417528437    3.6402515866785 
 O    7.9351057265668    2.1468165970414    6.7492428028566 
 O    7.6549266691430    2.2128565582500    1.7619595668371 
 O    7.5319709016557    0.0264235194903    5.2178231525530 
 O    9.8697234652857    0.9059344707138    8.4500528094279 
 O   -1.9104627439346    3.3173712637342    0.1999463180631 
 O    0.0332110445308    4.5082909266609    3.2663921245300 
 O   -1.7907402878609    5.7703828050041    6.5989294506410 
 O   -1.9104684831671    5.5264106153449    1.7619595668371 
 O    9.4168069968082    3.4156295424497    4.9497610678516 
 O   -0.4345973548684    4.6655890656909    8.5245779877511 
 O    1.9156884299104    3.3173712637342    0.1999463180631 
 O    3.7692948357682    4.3648677373265    3.3083891792930 
 O    1.8955698373433    5.8268566873243    6.7875380055168 
 O    1.9156826906780    5.5264106153449    1.7619595668371 
 O    2.0846958563700    3.4985541816201    5.0445694486321 
 O    4.8058326519318    5.0245105683155    8.5297408271431 
 O    5.7418510822204    3.3173712637342    0.1999463180631 
 O    7.5353777674600    4.4744399580643    3.3974742763771 
 O    5.8660460647891    5.5852650826806    6.6894921863917 
 O    5.7418453429880    5.5264106153449    1.7619595668371 
 O    5.7811309633737    3.3597482218165    5.0971590604194 
 O    7.7565074112841    4.5235670098872    8.3536014167122 
 O   -3.8235440700895    6.6309253208291    0.1999463180631 
 O   -1.9235651821628    7.7708933270406    3.3733569232022 
 O   -3.5574994222897    9.0614545090574    6.7872729520851 
 O   -3.8235440700895    8.8399547317975    1.7619595668371 
 O   -3.7961465811197    6.6545965746886    5.1160574613414 
 O   -1.6648070065526    7.8955564368389    8.4581189191116 
 O    0.0026071037555    6.6309253208291    0.1999463180631 
 O    2.0106898880906    7.8191540518879    3.5842940627404 
 O    0.1202257293716    9.0593330765863    6.8240916565840 
 O    0.0026071037555    8.8399547317975    1.7619595668371 
 O    0.1372752673594    6.7825927818467    4.9790681763436 
 O    2.2514968922872    7.9472331640027    8.5997046685695 
 O    3.8287697560655    6.6309253208291    0.1999463180631 
 O    5.7301573960017    7.8194883556881    3.4325434457457 
 O    3.9676801881564    8.9211838950188    6.6720369808763 
 O    3.8287697560655    8.8399547317975    1.7619595668371 
 O    3.8970509547107    6.4890497900928    5.1441903055765 
 O    5.8973769941452    7.8112770869373    8.3651168706252 
Ce    1.9156884299104    1.1083418527658    0.9809643475031 
Ce    0.0050302651093    2.3395340398020    4.0664700504426 
Ce    0.2715766366142    0.1815637438920    7.5323828564578 
Ce    5.7418510822205    1.1083418527658    0.9809643475031 
Ce    3.8386104736792    2.2998852909962    4.2694302678115 
Ce    4.1085386305425    0.1925516328472    7.4841914893095 
Ce    9.5680022560654    1.1083418527658    0.9809643475031 
Ce    7.6153469704839    2.3108025019848    4.2545626407207 
Ce    7.9092541572631    0.1675247735986    7.5411866449696 
Ce    0.0026128429880    4.4218859692184    0.9809643475031 
Ce   -1.9173969994257    5.5358313620431    4.2088498196903 
Ce   -1.7562016440682    3.4627981883350    7.5812496308448 
Ce    3.8287754952980    4.4218859692184    0.9809643475031 
Ce    1.9681960367374    5.6100188724855    4.3848062930712 
Ce    7.6549266691429    4.4218859692184    0.9809643475031 
Ce    5.7119555923049    5.6844406838667    4.2960916321085 
Ce    5.8842972832777    3.4344142747787    7.5802713053984 
Ce   -1.9104684831671    7.7354400263133    0.9809643475031 
Ce   -3.8501811107532    8.9386830040804    4.0855814977547 
Ce   -3.7080016118302    6.6544544235038    7.6284955190994 
Ce    1.9156941691429    7.7354400263133    0.9809643475031 
Ce    0.1317536665558    8.9876958379234    4.3536490568815 
Ce    0.0228313555929    6.7584832450687    7.6601591396422 
Ce    5.7418453429879    7.7354400263133    0.9809643475031 
Ce    3.9362951952302    8.9623063440441    4.2942634021126 
Ce    3.7849091638846    6.9014410135311    7.7263659285094 
Cu    2.0302365087468    2.8060274077165    6.8023864721186 
81
FORCE:  2.468150  ...  ENERGY:  -632.29054002
 O    0.0026128429879    0.0038271472816    0.1999463180631 
 O    1.8821281530820    1.1097144566532    3.3847802242870 
 O    0.1810508615069    2.4716667470299    6.5256330527280 
 O    0.0026128429880    2.2128565582500    1.7619595668371 
 O    0.0715896940046    0.0794971057087    5.1069147146545 
 O    2.0547786147633    1.3370239428931    8.1052725828125 
 O    3.8287640168329    0.0038271472816    0.1999463180631 
 O    5.7862632146445    1.2512928615915    3.4383892197114 
 O    3.8779546342365    2.5474907854124    6.7621209325021 
 O    3.8287640168330    2.2128565582500    1.7619595668371 
 O    3.8994276282813    0.2457672708440    5.1731335928778 
 O    5.9568569075747    1.2503835910412    8.3774879316143 
 O    7.6549266691429    0.0038271472816    0.1999463180631 
 O    9.5750015370608    1.1341556132581    3.6424577801308 
 O    7.9370257294073    2.1327911460216    6.7481777990075 
 O    7.6549266691430    2.2128565582500    1.7619595668371 
 O    7.5387612745881    0.0303440094031    5.2140259542072 
 O    9.8722527450484    0.9109894861311    8.4454177958887 
 O   -1.9104627439346    3.3173712637342    0.1999463180631 
 O    0.0290925138964    4.5018948191922    3.2664685383851 
 O   -1.7878164358637    5.7724434007444    6.5935088570512 
 O   -1.9104684831671    5.5264106153449    1.7619595668371 
 O    9.4088781323248    3.4243753195365    4.9449926151923 
 O   -0.4342677507459    4.6708867321865    8.5253460040201 
 O    1.9156884299104    3.3173712637342    0.1999463180631 
 O    3.7638123765302    4.3737365795648    3.3094117563450 
 O    1.9060431905556    5.8248177621842    6.7857921200036 
 O    1.9156826906780    5.5264106153449    1.7619595668371 
 O    2.0814353409944    3.4954118451858    5.0498470228573 
 O    4.8073122834626    5.0175148413039    8.5274839952555 
 O    5.7418510822204    3.3173712637342    0.1999463180631 
 O    7.5353309353228    4.4740642017858    3.4046368777621 
 O    5.8594703965445    5.5887258178875    6.6958933864385 
 O    5.7418453429880    5.5264106153449    1.7619595668371 
 O    5.7831858381780    3.3602834259974    5.1006729572487 
 O    7.7578827609604    4.5281870227979    8.3484529476869 
 O   -3.8235440700895    6.6309253208291    0.1999463180631 
 O   -1.9201304810808    7.7730754968361    3.3684500131995 
 O   -3.5623914866804    9.0505529048772    6.7849593230335 
 O   -3.8235440700895    8.8399547317975    1.7619595668371 
 O   -3.8020903024736    6.6582411123713    5.1077981500599 
 O   -1.6645559151308    7.9006171184223    8.4553160132863 
 O    0.0026071037555    6.6309253208291    0.1999463180631 
 O    2.0031360824511    7.8229512778362    3.5864849734217 
 O    0.1137778164425    9.0602839984277    6.8274196510494 
 O    0.0026071037555    8.8399547317975    1.7619595668371 
 O    0.1458422197121    6.7798101972569    4.9868343331334 
 O    2.2549322246848    7.9523606467023    8.6002425308690 
 O    3.8287697560655    6.6309253208291    0.1999463180631 
 O    5.7328869175864    7.8210461537413    3.4370712517867 
 O    3.9682670246795    8.9222838270882    6.6762253725400 
 O    3.8287697560655    8.8399547317975    1.7619595668371 
 O    3.8909696065614    6.4942377118975    5.1426574664533 
 O    5.8896611699722    7.8057818998793    8.3618846786050 
Ce    1.9156884299104    1.1083418527658    0.9809643475031 
Ce    0.0032896706767    2.3366876362887    4.0653678661207 
Ce    0.2729120986246    0.1783655410480    7.5324341791963 
Ce    5.7418510822205    1.1083418527658    0.9809643475031 
Ce    3.8399164934269    2.2986190519813    4.2687950063594 
Ce    4.1083312146799    0.1904889495720    7.4862487327696 
Ce    9.5680022560654    1.1083418527658    0.9809643475031 
Ce    7.6139923394369    2.3113111646508    4.2528192643191 
Ce    7.9110831932685    0.1636981233491    7.5418278370492 
Ce    0.0026128429880    4.4218859692184    0.9809643475031 
Ce   -1.9200407194845    5.5346380873426    4.2104702496206 
Ce   -1.7585279845697    3.4639485194608    7.5810938378208 
Ce    3.8287754952980    4.4218859692184    0.9809643475031 
Ce    1.9654155507681    5.6093511595429    4.3861267701075 
Ce    7.6549266691429    4.4218859692184    0.9809643475031 
Ce    5.7118796048666    5.6874952444295    4.2941614409388 
Ce    5.8837770792439    3.4334579849904    7.5815171933882 
Ce   -1.9104684831671    7.7354400263133    0.9809643475031 
Ce   -3.8486805310238    8.9402329490263    4.0861538033142 
Ce   -3.7094401504564    6.6516055348299    7.6286437847884 
Ce    1.9156941691429    7.7354400263133    0.9809643475031 
Ce    0.1310687465492    8.9891688422979    4.3527603751518 
Ce    0.0233083432060    6.7578258703940    7.6613769712016 
Ce    5.7418453429879    7.7354400263133    0.9809643475031 
Ce    3.9355458236426    8.9613000528251    4.2910417027412 
Ce    3.7824121960009    6.9026021799570    7.7269799765629 
Cu    2.0288338403238    2.8046617622787    6.8048241881468 
81
FORCE:  2.515187  ...  ENERGY:  -632.29220595
 O    0.0026128429879    0.0038271472816    0.1999463180631 
 O    1.8695086712687    1.1047684900819    3.3881921599425 
 O    0.1798420069654    2.4761963995021    6.5325737117817 
 O    0.0026128429880    2.2128565582500    1.7619595668371 
 O    0.0706329639468    0.0745486539768    5.1053116204048 
 O    2.0538538522306    1.3415720849601    8.1063656430920 
 O    3.8287640168329    0.0038271472816    0.1999463180631 
 O    5.7817450612512    1.2529694503201    3.4425039347327 
 O    3.8748634262197    2.5518393193822    6.7632228887230 
 O    3.8287640168330    2.2128565582500    1.7619595668371 
 O    3.8886075680337    0.2398114344223    5.1680964371698 
 O    5.9463588182704    1.2491141710208    8.3865097847395 
 O    7.6549266691429    0.0038271472816    0.1999463180631 
 O    9.5649711952052    1.1358101337608    3.6438181748527 
 O    7.9388606768222    2.1200466461673    6.7469547211238 
 O    7.6549266691430    2.2128565582500    1.7619595668371 
 O    7.5465034992306    0.0347322065356    5.2099402080205 
 O    9.8748397614901    0.9168902513944    8.4407649904668 
 O   -1.9104627439346    3.3173712637342    0.1999463180631 
 O    0.0249128030437    4.4950507863820    3.2673303041898 
 O   -1.7851794307070    5.7741212817566    6.5882134909433 
 O   -1.9104684831671    5.5264106153449    1.7619595668371 
 O    9.4020249147966    3.4332477404060    4.9406279014092 
 O   -0.4337593121387    4.6762511997983    8.5264723670544 
 O    1.9156884299104    3.3173712637342    0.1999463180631 
 O    3.7587067552982    4.3828549319245    3.3107466037481 
 O    1.9164072687811    5.8228667123219    6.7843498370012 
 O    1.9156826906780    5.5264106153449    1.7619595668371 
 O    2.0775512580077    3.4917463327478    5.0555110002782 
 O    4.8083904556801    5.0105772670497    8.5257308105083 
 O    5.7418510822204    3.3173712637342    0.1999463180631 
 O    7.5356196761099    4.4738267198415    3.4115405844441 
 O    5.8531776150699    5.5922248245671    6.7023215024104 
 O    5.7418453429880    5.5264106153449    1.7619595668371 
 O    5.7851851572117    3.3608989505680    5.1045497628644 
 O    7.7595925357145    4.5326287999923    8.3433024257521 
 O   -3.8235440700895    6.6309253208291    0.1999463180631 
 O   -1.9169224222903    7.7754295403368    3.3637568338900 
 O   -3.5676058663683    9.0391007879270    6.7825366616753 
 O   -3.8235440700895    8.8399547317975    1.7619595668371 
 O   -3.8082757029082    6.6621163723617    5.0995833184850 
 O   -1.6646239250359    7.9054312720769    8.4525603243805 
 O    0.0026071037555    6.6309253208291    0.1999463180631 
 O    1.9960103087714    7.8269445332505    3.5881250200431 
 O    0.1076102076287    9.0604883780332    6.8304216891000 
 O    0.0026071037555    8.8399547317975    1.7619595668371 
 O    0.1537113387852    6.7768740297437    4.9948475233712 
 O    2.2574840596312    7.9577525504868    8.6010251456059 
 O    3.8287697560655    6.6309253208291    0.1999463180631 
 O    5.7356677479096    7.8226427202995    3.4413807651133 
 O    3.9687302381346    8.9233221271754    6.6799050988399 
 O    3.8287697560655    8.8399547317975    1.7619595668371 
 O    3.8849806026630    6.5000808214356    5.1411602110955 
 O    5.8823491581979    7.8005501398421    8.3585384360548 
Ce    1.9156884299104    1.1083418527658    0.9809643475031 
Ce    0.0015428778730    2.3338340755129    4.0643560098185 
Ce    0.2741774846063    0.1750749896372    7.5324405660260 
Ce    5.7418510822205    1.1083418527658    0.9809643475031 
Ce    3.8413098069010    2.2973704079033    4.2680931393978 
Ce    4.1080317989204    0.1884025081618    7.4883299268411 
Ce    9.5680022560654    1.1083418527658    0.9809643475031 
Ce    7.6126328874346    2.3118098866745    4.2510827309493 
Ce    7.9128654545290    0.1598131215293    7.5425235452822 
Ce    0.0026128429880    4.4218859692184    0.9809643475031 
Ce   -1.9226757733022    5.5335649950074    4.2120731157692 
Ce   -1.7608414117981    3.4650935820462    7.5809015486272 
Ce    3.8287754952980    4.4218859692184    0.9809643475031 
Ce    1.9626292681740    5.6087877239379    4.3873943276979 
Ce    7.6549266691429    4.4218859692184    0.9809643475031 
Ce    5.7118537783204    5.6904028822994    4.2922041057430 
Ce    5.8833101926800    3.4324443376961    7.5826987568790 
Ce   -1.9104684831671    7.7354400263133    0.9809643475031 
Ce   -3.8470978802695    8.9417023747696    4.0868463181324 
Ce   -3.7108882736008    6.6488923359233    7.6287309193933 
Ce    1.9156941691429    7.7354400263133    0.9809643475031 
Ce    0.1303012389870    8.9905304120724    4.3518203706835 
Ce    0.0238179296596    6.7571619348955    7.6625288815546 
Ce    5.7418453429879    7.7354400263133    0.9809643475031 
Ce    3.9347110522755    8.9602325272495    4.2878802220496 
Ce    3.7800242735346    6.9036999250851    7.7274918353415 
Cu    2.0273922025121    2.8030451156230    6.8073104897008 
81
FORCE:  2.556513  ...  ENERGY:  -632.29868842
 O    0.0026128429879    0.0038271472816    0.1999463180631 
 O    1.8570318093830    1.1003633938575    3.3914400909358 
 O    0.1786354481169    2.4807940459677    6.5395326189202 
 O    0.0026128429880    2.2128565582500    1.7619595668371 
 O    0.0699389759529    0.0697777421161    5.1035741746308 
 O    2.0531008649266    1.3468998716018    8.1076192865177 
 O    3.8287640168329    0.0038271472816    0.1999463180631 
 O    5.7770992673271    1.2542261463184    3.4463186968602 
 O    3.8716983542806    2.5562169794339    6.7643095621728 
 O    3.8287640168330    2.2128565582500    1.7619595668371 
 O    3.8779814938446    0.2336679186743    5.1627789452591 
 O    5.9356855675901    1.2482702104904    8.3954965103013 
 O    7.6549266691429    0.0038271472816    0.1999463180631 
 O    9.5551594033232    1.1376081971383    3.6443309460356 
 O    7.9406133810354    2.1086307131550    6.7455765345192 
 O    7.6549266691430    2.2128565582500    1.7619595668371 
 O    7.5551240560149    0.0395365189543    5.2055640891844 
 O    9.8774899094893    0.9236443213919    8.4360962179707 
 O   -1.9104627439346    3.3173712637342    0.1999463180631 
 O    0.0206764459661    4.4877674765890    3.2689653325879 
 O   -1.7828383977702    5.7754235058965    6.5830527044608 
 O   -1.9104684831671    5.5264106153449    1.7619595668371 
 O    9.3962434989377    3.4422121122167    4.9366995449539 
 O   -0.4330980377701    4.6816841584354    8.5279429345882 
 O    1.9156884299104    3.3173712637342    0.1999463180631 
 O    3.7539839408740    4.3921828330238    3.3123944058055 
 O    1.9266460595611    5.8210072157751    6.7832412658496 
 O    1.9156826906780    5.5264106153449    1.7619595668371 
 O    2.0730632355851    3.4875614217501    5.0615221475124 
 O    4.8090568379657    5.0037050028154    8.5244958713695 
 O    5.7418510822204    3.3173712637342    0.1999463180631 
 O    7.5362212624606    4.4737404350664    3.4181527779714 
 O    5.8471607758939    5.5957546472379    6.7087576019193 
 O    5.7418453429880    5.5264106153449    1.7619595668371 
 O    5.7871092349073    3.3615929068062    5.1087887929635 
 O    7.7616445982949    4.5368689809611    8.3381514476152 
 O   -3.8235440700895    6.6309253208291    0.1999463180631 
 O   -1.9139177618995    7.7779454174939    3.3592842283055 
 O   -3.5731409543683    9.0271146596730    6.7800252690047 
 O   -3.8235440700895    8.8399547317975    1.7619595668371 
 O   -3.8146891230499    6.6662086365732    5.0914220906593 
 O   -1.6650073631592    7.9099887583476    8.4498593797290 
 O    0.0026071037555    6.6309253208291    0.1999463180631 
 O    1.9893044747338    7.8311357068528    3.5891964107219 
 O    0.1017650288968    9.0599573489221    6.8330605902632 
 O    0.0026071037555    8.8399547317975    1.7619595668371 
 O    0.1608690799899    6.7738081368486    5.0031205207163 
 O    2.2591280627809    7.9634194124371    8.6020721294713 
 O    3.8287697560655    6.6309253208291    0.1999463180631 
 O    5.7384780204956    7.8242709975066    3.4454398234760 
 O    3.9690690250291    8.9243013798474    6.6830738787655 
 O    3.8287697560655    8.8399547317975    1.7619595668371 
 O    3.8791202149649    6.5065846854666    5.1396711673758 
 O    5.8754451484620    7.7955840931733    8.3550973034637 
Ce    1.9156884299104    1.1083418527658    0.9809643475031 
Ce   -0.0002156229650    2.3309671942765    4.0634340253340 
Ce    0.2753747458981    0.1716857276484    7.5324013326437 
Ce    5.7418510822205    1.1083418527658    0.9809643475031 
Ce    3.8427878314467    2.2961404522327    4.2673274041394 
Ce    4.1076355049163    0.1862900222687    7.4904403178482 
Ce    9.5680022560654    1.1083418527658    0.9809643475031 
Ce    7.6112656874685    2.3122993639008    4.2493509877018 
Ce    7.9146051880768    0.1558606227484    7.5432758225781 
Ce    0.0026128429880    4.4218859692184    0.9809643475031 
Ce   -1.9253084166423    5.5326117868182    4.2136597867426 
Ce   -1.7631419831458    3.4662346683747    7.5806727632640 
Ce    3.8287754952980    4.4218859692184    0.9809643475031 
Ce    1.9598335158463    5.6083241917879    4.3886137559647 
Ce    7.6549266691429    4.4218859692184    0.9809643475031 
Ce    5.7118728325723    5.6931725440542    4.2902196265210 
Ce    5.8828918026308    3.4313673685104    7.5838175925783 
Ce   -1.9104684831671    7.7354400263133    0.9809643475031 
Ce   -3.8454301740897    8.9430912813104    4.0876622356240 
Ce   -3.7123515483190    6.6463133356876    7.6287544138025 
Ce    1.9156941691429    7.7354400263133    0.9809643475031 
Ce    0.1294536117391    8.9917838276587    4.3508299558810 
Ce    0.0243614923697    6.7564894504446    7.6636162393076 
Ce    5.7418453429879    7.7354400263133    0.9809643475031 
Ce    3.9337880115125    8.9591017791891    4.2847746261177 
Ce    3.7777435025391    6.9047327578190    7.7279010486432 
Cu    2.0259079222030    2.8011778653753    6.8098508512060 
81
FORCE:  2.589996  ...  ENERGY:  -632.31036701
 O    0.0026128429879    0.0038271472816    0.1999463180631 
 O    1.8447193191161    1.0965374394529    3.3944952765335 
 O    0.1774118437479    2.4854506404420    6.5465061245265 
 O    0.0026128429880    2.2128565582500    1.7619595668371 
 O    0.0694832808924    0.0652020644700    5.1017181163056 
 O    2.0525108144333    1.3529629675538    8.1090294072707 
 O    3.8287640168329    0.0038271472816    0.1999463180631 
 O    5.7723157892153    1.2550594703616    3.4498300845778 
 O    3.8684735369311    2.5606080593526    6.7653668105859 
 O    3.8287640168330    2.2128565582500    1.7619595668371 
 O    3.8675444125817    0.2273578971678    5.1571836262573 
 O    5.9248405990735    1.2478517094500    8.4044394404597 
 O    7.6549266691429    0.0038271472816    0.1999463180631 
 O    9.5455983011168    1.1395515927059    3.6439899349509 
 O    7.9422833255159    2.0985847994631    6.7440489417204 
 O    7.6549266691430    2.2128565582500    1.7619595668371 
 O    7.5645481053492    0.0447054541323    5.2008939480819 
 O    9.8802081247860    0.9312588533861    8.4314110221983 
 O   -1.9104627439346    3.3173712637342    0.1999463180631 
 O    0.0163879766575    4.4800555263004    3.2713599375158 
 O   -1.7808023476485    5.7763575286461    6.5780363059492 
 O   -1.9104684831671    5.5264106153449    1.7619595668371 
 O    9.3915265385306    3.4512290700251    4.9332394799747 
 O   -0.4323086637320    4.6871884908843    8.5297442486590 
 O    1.9156884299104    3.3173712637342    0.1999463180631 
 O    3.7496501316286    4.4016821107961    3.3143581278311 
 O    1.9367468217995    5.8192426523622    6.7824944629792 
 O    1.9156826906780    5.5264106153449    1.7619595668371 
 O    2.0679918775711    3.4828641700488    5.0678378096617 
 O    4.8093010423085    4.9969059017083    8.5237935482058 
 O    5.7418510822204    3.3173712637342    0.1999463180631 
 O    7.5371123356985    4.4738167791992    3.4244422084987 
 O    5.8414114997370    5.5993085262630    6.7151834368806 
 O    5.7418453429880    5.5264106153449    1.7619595668371 
 O    5.7889395909362    3.3623627101452    5.1133873103331 
 O    7.7640444009724    4.5408832111307    8.3330029785900 
 O   -3.8235440700895    6.6309253208291    0.1999463180631 
 O   -1.9110925673091    7.7806142811359    3.3550397237810 
 O   -3.5789951436952    9.0146108227685    6.7774461303193 
 O   -3.8235440700895    8.8399547317975    1.7619595668371 
 O   -3.8213169609179    6.6705052803902    5.0833226782208 
 O   -1.6657042781617    7.9142824199719    8.4472197942627 
 O    0.0026071037555    6.6309253208291    0.1999463180631 
 O    1.9830062983806    7.8355257927074    3.5896815816765 
 O    0.0962828566205    9.0587037345229    6.8352994021671 
 O    0.0026071037555    8.8399547317975    1.7619595668371 
 O    0.1673033335457    6.7706360778939    5.0116635897165 
 O    2.2598436876813    7.9693713720082    8.6033994495394 
 O    3.8287697560655    6.6309253208291    0.1999463180631 
 O    5.7412958114761    7.8259236292873    3.4492162646253 
 O    3.9692826392627    8.9252248655161    6.6857326247208 
 O    3.8287697560655    8.8399547317975    1.7619595668371 
 O    3.8734211570924    6.5137574553174    5.1381631912681 
 O    5.8689524695194    7.7908873385041    8.3515806694217 
Ce    1.9156884299104    1.1083418527658    0.9809643475031 
Ce   -0.0019922023854    2.3280811276004    4.0626019126671 
Ce    0.2765061781931    0.1681913930706    7.5323164790493 
Ce    5.7418510822205    1.1083418527658    0.9809643475031 
Ce    3.8443479270172    2.2949305766596    4.2665000815947 
Ce    4.1071379134585    0.1841484102938    7.4925856083175 
Ce    9.5680022560654    1.1083418527658    0.9809643475031 
Ce    7.6098884438455    2.3127805903941    4.2476226659702 
Ce    7.9163065261591    0.1518318792411    7.5440867218464 
Ce    0.0026128429880    4.4218859692184    0.9809643475031 
Ce   -1.9279446183065    5.5317788604008    4.2152316311470 
Ce   -1.7654299855742    3.4673732695426    7.5804072536302 
Ce    3.8287754952980    4.4218859692184    0.9809643475031 
Ce    1.9570246206761    5.6079559903975    4.3897903012322 
Ce    7.6549266691429    4.4218859692184    0.9809643475031 
Ce    5.7119323484133    5.6958126792400    4.2882073189696 
Ce    5.8825175472794    3.4302213118608    7.5848752971935 
Ce   -1.9104684831671    7.7354400263133    0.9809643475031 
Ce   -3.8436741411217    8.9443993704293    4.0886056616082 
Ce   -3.7138355990588    6.6438673412457    7.6287122151064 
Ce    1.9156941691429    7.7354400263133    0.9809643475031 
Ce    0.1285283326754    8.9929319718432    4.3497900431484 
Ce    0.0249402939673    6.7558060312871    7.6646395006628 
Ce    5.7418453429879    7.7354400263133    0.9809643475031 
Ce    3.9327732004219    8.9579061187344    4.2817198967222 
Ce    3.7755686203832    6.9056986900303    7.7282069321646 
Cu    2.0243767523643    2.7990592162840    6.8124516594922 
81
FORCE:  2.615098  ...  ENERGY:  -632.32753695
 O    0.0026128429879    0.0038271472816    0.1999463180631 
 O    1.8325957643831    1.0933258167418    3.3973280635976 
 O    0.1761522543911    2.4901566399085    6.5534940004996 
 O    0.0026128429880    2.2128565582500    1.7619595668371 
 O    0.0692418313811    0.0608384207240    5.0997603249076 
 O    2.0520740014477    1.3597141547650    8.1105950929465 
 O    3.8287640168329    0.0038271472816    0.1999463180631 
 O    5.7673861328518    1.2554660426313    3.4530362730772 
 O    3.8652032074680    2.5649958588594    6.7663804916965 
 O    3.8287640168330    2.2128565582500    1.7619595668371 
 O    3.8572949468293    0.2209014500005    5.1513134454782 
 O    5.9138248309976    1.2478564809583    8.4133289949700 
 O    7.6549266691429    0.0038271472816    0.1999463180631 
 O    9.5363206596036    1.1416422091860    3.6427873861625 
 O    7.9438668371550    2.0899434985269    6.7423769609506 
 O    7.6549266691430    2.2128565582500    1.7619595668371 
 O    7.5747021276652    0.0501886130130    5.1959259069951 
 O    9.8829987691968    0.9397408058265    8.4267066659369 
 O   -1.9104627439346    3.3173712637342    0.1999463180631 
 O    0.0120542821967    4.4719278583512    3.2744976956971 
 O   -1.7790811518217    5.7769305072677    6.5731752442596 
 O   -1.9104684831671    5.5264106153449    1.7619595668371 
 O    9.3878653673342    3.4602551732244    4.9302791844181 
 O   -0.4314148930548    4.6927692668723    8.5318630794054 
 O    1.9156884299104    3.3173712637342    0.1999463180631 
 O    3.7457115259331    4.4113173765550    3.3166407351385 
 O    1.9467000283703    5.8175760042759    6.7821358881129 
 O    1.9156826906780    5.5264106153449    1.7619595668371 
 O    2.0623568695333    3.4776670034467    5.0744105417056 
 O    4.8091111311051    4.9901873198037    8.5236379832828 
 O    5.7418510822204    3.3173712637342    0.1999463180631 
 O    7.5382698815015    4.4740653946628    3.4303785385852 
 O    5.8359207186119    5.6028793043800    6.7215816716136 
 O    5.7418453429880    5.5264106153449    1.7619595668371 
 O    5.7906595241318    3.3632046825471    5.1183414372552 
 O    7.7667955594637    4.5446467383017    8.3278604401923 
 O   -3.8235440700895    6.6309253208291    0.1999463180631 
 O   -1.9084229059194    7.7834280793426    3.3510299352473 
 O   -3.5851667699718    9.0016062757119    6.7748193185123 
 O   -3.8235440700895    8.8399547317975    1.7619595668371 
 O   -3.8281451553925    6.6749936791970    5.0752921523025 
 O   -1.6667143256893    7.9183050996874    8.4446486391144 
 O    0.0026071037555    6.6309253208291    0.1999463180631 
 O    1.9771018907693    7.8401132003114    3.5895629691253 
 O    0.0912024880115    9.0567420481734    6.8371016286421 
 O    0.0026071037555    8.8399547317975    1.7619595668371 
 O    0.1730044575419    6.7673815116081    5.0204874511216 
 O    2.2596144053429    7.9756153876498    8.6050173703580 
 O    3.8287697560655    6.6309253208291    0.1999463180631 
 O    5.7440993117677    7.8275934583792    3.4526788387161 
 O    3.9693705069123    8.9260955663743    6.6878849863230 
 O    3.8287697560655    8.8399547317975    1.7619595668371 
 O    3.8679136174084    6.5216078787531    5.1366095949485 
 O    5.8628727857475    7.7864659396264    8.3480083787210 
Ce    1.9156884299104    1.1083418527658    0.9809643475031 
Ce   -0.0037930013669    2.3251696128801    4.0618605842221 
Ce    0.2775731015149    0.1645857232992    7.5321848647377 
Ce    5.7418510822205    1.1083418527658    0.9809643475031 
Ce    3.8459875109578    2.2937422722803    4.2656141370777 
Ce    4.1065336870610    0.1819745906378    7.4947719569776 
Ce    9.5680022560654    1.1083418527658    0.9809643475031 
Ce    7.6084990330495    2.3132548584377    4.2458959409460 
Ce    7.9179737732003    0.1477186402744    7.5449576116935 
Ce    0.0026128429880    4.4218859692184    0.9809643475031 
Ce   -1.9305905766660    5.5310666133807    4.2167904737911 
Ce   -1.7677055338682    3.4685109760527    7.5801041073215 
Ce    3.8287754952980    4.4218859692184    0.9809643475031 
Ce    1.9541985652008    5.6076789446969    4.3909292098247 
Ce    7.6549266691429    4.4218859692184    0.9809643475031 
Ce    5.7120277344575    5.6983314391834    4.2861658144826 
Ce    5.8821834091633    3.4290004021747    7.5858734674320 
Ce   -1.9104684831671    7.7354400263133    0.9809643475031 
Ce   -3.8418263378260    8.9456262445007    4.0896809300050 
Ce   -3.7153454763449    6.6415533585334    7.6286015860923 
Ce    1.9156941691429    7.7354400263133    0.9809643475031 
Ce    0.1275275827044    8.9939776280057    4.3487013167891 
Ce    0.0255551379451    6.7551090928562    7.6656000342264 
Ce    5.7418453429879    7.7354400263133    0.9809643475031 
Ce    3.9316634050333    8.9566435577572    4.2787110156397 
Ce    3.7734976183356    6.9065962306227    7.7284090297038 
Cu    2.0227939868254    2.7966879754722    6.8151186170857 
81
FORCE:  2.629925  ...  ENERGY:  -632.35019692
 O    0.0026128429879    0.0038271472816    0.1999463180631 
 O    1.8206884065384    1.0907624233145    3.3999078865862 
 O    0.1748395771337    2.4949007120350    6.5604973873448 
 O    0.0026128429880    2.2128565582500    1.7619595668371 
 O    0.0691904652502    0.0567034117506    5.0977197328248 
 O    2.0517799805667    1.3671025371471    8.1123149749389 
 O    3.8287640168329    0.0038271472816    0.1999463180631 
 O    5.7623041572577    1.2554429803411    3.4559358937519 
 O    3.8619025174649    2.5693626836110    6.7673360070369 
 O    3.8287640168330    2.2128565582500    1.7619595668371 
 O    3.8472329818026    0.2143174643926    5.1451738773472 
 O    5.9026360824542    1.2482811451969    8.4221551373857 
 O    7.6549266691429    0.0038271472816    0.1999463180631 
 O    9.5273590202318    1.1438809412361    3.6407116665165 
 O    7.9453570862660    2.0827349423639    6.7405706286565 
 O    7.6549266691430    2.2128565582500    1.7619595668371 
 O    7.5855134068870    0.0559373858558    5.1906560882059 
 O    9.8858640236301    0.9490973359755    8.4219779028620 
 O   -1.9104627439346    3.3173712637342    0.1999463180631 
 O    0.0076832827247    4.4634005765820    3.2783605871482 
 O   -1.7776859444010    5.7771499966495    6.5684816087480 
 O   -1.9104684831671    5.5264106153449    1.7619595668371 
 O    9.3852486216682    3.4692409174160    4.9278496800280 
 O   -0.4304398548454    4.6984325501913    8.5342873374711 
 O    1.9156884299104    3.3173712637342    0.1999463180631 
 O    3.7421748386897    4.4210549315230    3.3192477021532 
 O    1.9564989643714    5.8160093590510    6.7821897199630 
 O    1.9156826906780    5.5264106153449    1.7619595668371 
 O    2.0561792170626    3.4719844352817    5.0811906176130 
 O    4.8084753389287    4.9835569113963    8.5240435469675 
 O    5.7418510822204    3.3173712637342    0.1999463180631 
 O    7.5396703116238    4.4744959238804    3.4359325712952 
 O    5.8306789627850    5.6064587308558    6.7279361109431 
 O    5.7418453429880    5.5264106153449    1.7619595668371 
 O    5.7922539977050    3.3641146489424    5.1236461555066 
 O    7.7698999103229    4.5481343132427    8.3227286225444 
 O   -3.8235440700895    6.6309253208291    0.1999463180631 
 O   -1.9058852468772    7.7863802512898    3.3472621619382 
 O   -3.5916546279591    8.9881182158143    6.7721642221739 
 O   -3.8235440700895    8.8399547317975    1.7619595668371 
 O   -3.8351598749233    6.6796606119393    5.0673375840371 
 O   -1.6680386535887    7.9220510319216    8.4421516168106 
 O    0.0026071037555    6.6309253208291    0.1999463180631 
 O    1.9715746655178    7.8448942516272    3.5888246059941 
 O    0.0865615150427    9.0540892883719    6.8384310016198 
 O    0.0026071037555    8.8399547317975    1.7619595668371 
 O    0.1779645892300    6.7640677985008    5.0296014570749 
 O    2.2584290242624    7.9821567279024    8.6069329630599 
 O    3.8287697560655    6.6309253208291    0.1999463180631 
 O    5.7468668270715    7.8292727310813    3.4557949272968 
 O    3.9693308488157    8.9269173592724    6.6895380347048 
 O    3.8287697560655    8.8399547317975    1.7619595668371 
 O    3.8626261198985    6.5301469898866    5.1349846029970 
 O    5.8572066710696    7.7823292407438    8.3444002761539 
Ce    1.9156884299104    1.1083418527658    0.9809643475031 
Ce   -0.0056242182807    2.3222264869173    4.0612111805043 
Ce    0.2785772376331    0.1608623563230    7.5320060335067 
Ce    5.7418510822205    1.1083418527658    0.9809643475031 
Ce    3.8477038858292    2.2925772290039    4.2646716234978 
Ce    4.1058176604142    0.1797653822953    7.4970052944560 
Ce    9.5680022560654    1.1083418527658    0.9809643475031 
Ce    7.6070961924496    2.3137235597217    4.2441699002250 
Ce    7.9196110040556    0.1435134503664    7.5458903169278 
Ce    0.0026128429880    4.4218859692184    0.9809643475031 
Ce   -1.9332520309532    5.5304764374479    4.2183374551800 
Ce   -1.7699679967120    3.4696490801885    7.5797626400346 
Ce    3.8287754952980    4.4218859692184    0.9809643475031 
Ce    1.9513514467422    5.6074886808034    4.3920357280668 
Ce    7.6549266691429    4.4218859692184    0.9809643475031 
Ce    5.7121550306343    5.7007362793662    4.2840939725547 
Ce    5.8818857151735    3.4276990726926    7.5868134719003 
Ce   -1.9104684831671    7.7354400263133    0.9809643475031 
Ce   -3.8398836650170    8.9467713070861    4.0908919185325 
Ce   -3.7168861733095    6.6393712881444    7.6284202457496 
Ce    1.9156941691429    7.7354400263133    0.9809643475031 
Ce    0.1264531409881    8.9949228836811    4.3475635487018 
Ce    0.0262071147571    6.7543957523654    7.6664982962007 
Ce    5.7418453429879    7.7354400263133    0.9809643475031 
Ce    3.9304548374535    8.9553125057545    4.2757434208491 
Ce    3.7715284302725    6.9074237890933    7.7285066569575 
Cu    2.0211545750618    2.7940619559984    6.8178585670184 
