81
FORCE:  2.210718  ...  ENERGY:  -632.84525818
 O    0.0026128429879    0.0038271472816    0.1999463180631 
 O    1.9756213409612    1.0762929238036    3.5486131263288 
 O    0.0512902008290    2.2904501303667    6.7469284895019 
 O    0.0026128429880    2.2128565582500    1.7619595668371 
 O    5.6771884122741    9.8337453943216    5.1901330524754 
 O    1.7543254315716    1.0962456816017    8.2488580942634 
 O    3.8287640168329    0.0038271472816    0.1999463180631 
 O    5.7493380831937    1.0431820360255    3.4022445538448 
 O    3.6636955978151    2.0937850597398    6.5410914615642 
 O    3.8287640168330    2.2128565582500    1.7619595668371 
 O   -1.9020531039446    9.8292980503675    4.9808183957770 
 O    5.7179566485916    1.0765412410480    8.4175271949793 
 O    7.6549266691429    0.0038271472816    0.1999463180631 
 O    9.6918769894606    0.9972568650843    3.6212528212901 
 O    7.5333493505176    2.2363287010444    6.6285773421166 
 O    7.6549266691430    2.2128565582500    1.7619595668371 
 O    1.6010542345268    9.9389997976744    5.1483326208261 
 O    9.4642128276890    1.1478968613148    8.2014525352668 
 O   -1.9104627439346    3.3173712637342    0.1999463180631 
 O    0.2036039217158    4.2597343115904    3.4309289464430 
 O   -1.9849423136798    5.6983285563972    6.9037069100611 
 O   -1.9104684831671    5.5264106153449    1.7619595668371 
 O   -1.7381262182710    3.3025551340267    5.3283620667343 
 O   -0.4403137452230    4.5554089746770    8.5099544287945 
 O    1.9156884299104    3.3173712637342    0.1999463180631 
 O    3.7767189921455    4.3930162564734    3.3200465120654 
 O    1.9515531233723    5.5661705999379    6.7523844387560 
 O    1.9156826906780    5.5264106153449    1.7619595668371 
 O    2.1633954263802    3.3333480628356    5.3821681414745 
 O    4.1818597362076    4.4947944172173    8.7791727577690 
 O    5.7418510822204    3.3173712637342    0.1999463180631 
 O    7.7787001624768    4.2883132605484    3.5550734045501 
 O    5.6617790321502    5.4527096993426    6.6857412925611 
 O    5.7418453429880    5.5264106153449    1.7619595668371 
 O    5.6638853304777    3.2778959791364    4.9604273015183 
 O    7.5485862093125    4.3797379441281    8.4612459565432 
 O   -3.8235440700895    6.6309253208291    0.1999463180631 
 O   -1.9333745061748    7.5668251618811    3.3223918471643 
 O   -3.7856223209151    8.8386715936907    6.5136746265565 
 O   -3.8235440700895    8.8399547317975    1.7619595668371 
 O    7.6102179331833    6.3993751565883    5.0517890752822 
 O   -2.0559449415919    7.7038450864844    8.4991953579964 
 O    0.0026071037555    6.6309253208291    0.1999463180631 
 O    2.0411703779749    7.6703837910656    3.5414950046505 
 O   -0.1313852078293    8.6900553134175    6.6732247030957 
 O    0.0026071037555    8.8399547317975    1.7619595668371 
 O   -0.0541999917065    6.3544560780532    5.1415228917809 
 O    1.9055277500848    7.7046346717015    8.4717814883024 
 O    3.8287697560655    6.6309253208291    0.1999463180631 
 O    5.8432206206057    7.6140991785747    3.4225243347863 
 O    3.6220571790660    8.7411198958291    6.6613235302902 
 O    3.8287697560655    8.8399547317975    1.7619595668371 
 O    3.9597664752468    6.5055459877538    5.0014601731006 
 O    5.7068988119415    7.7932627543857    8.3528245045018 
Ce    1.9156884299104    1.1083418527658    0.9809643475031 
Ce    0.0791844777641    2.2278441640371    4.3357935340058 
Ce    5.5656191098899    9.9241867495660    7.5290051359613 
Ce    5.7418510822205    1.1083418527658    0.9809643475031 
Ce    3.8520364324435    2.0462300210887    4.1537761873597 
Ce   -1.8932996839280    9.8050302585642    7.5164664206931 
Ce    9.5680022560654    1.1083418527658    0.9809643475031 
Ce    7.7076840473683    2.1537535748570    4.2791425828452 
Ce    7.6353755144931    0.0254538098349    7.4298879261574 
Ce    0.0026128429880    4.4218859692184    0.9809643475031 
Ce   -1.9031413198189    5.4947693521230    4.3273850446310 
Ce    9.3766635333407    3.4379269001383    7.5806704822534 
Ce    3.8287754952980    4.4218859692184    0.9809643475031 
Ce    2.0987522124320    5.4643506884963    4.3609300427167 
Ce    7.6549266691429    4.4218859692184    0.9809643475031 
Ce    5.6750427428116    5.3866284844684    4.1820495418478 
Ce    5.5090352131799    3.2965090365730    7.5811036461664 
Ce   -1.9104684831671    7.7354400263133    0.9809643475031 
Ce   -3.8396365910579    8.7394275014793    4.2240915325195 
Ce    7.6077731923153    6.6029254142844    7.4199714606750 
Ce    1.9156941691429    7.7354400263133    0.9809643475031 
Ce   -0.0665536896628    8.7516988267606    4.1281579292100 
Ce   -0.0388653363898    6.5607415034754    7.5573790830168 
Ce    5.7418453429879    7.7354400263133    0.9809643475031 
Ce    3.8760447324452    8.7588621530012    4.2495765796502 
Ce    3.7684625322710    6.5113798524945    7.8039761736691 
Cu    1.8645611658921    2.3243885766154    6.9352660603184 
81
FORCE:  2.389111  ...  ENERGY:  -632.84044852
 O    0.0026128429879    0.0038271472816    0.1999463180631 
 O    1.9605168862600    1.0784217123500    3.5597608813331 
 O    0.0492487558288    2.2895413568485    6.7459862040230 
 O    0.0026128429880    2.2128565582500    1.7619595668371 
 O    5.6786388885038    9.8361574911733    5.1853632312097 
 O    1.7454679592697    1.1082583513706    8.2496886102228 
 O    3.8287640168329    0.0038271472816    0.1999463180631 
 O    5.7480352774162    1.0506277759136    3.4020082411467 
 O    3.6517473766350    2.0964792720197    6.5428172741842 
 O    3.8287640168330    2.2128565582500    1.7619595668371 
 O   -1.9071549372832    9.8316517956489    4.9799842302005 
 O    5.7188985714295    1.0811519097550    8.4233175403874 
 O    7.6549266691429    0.0038271472816    0.1999463180631 
 O    9.6880391646878    0.9988471690378    3.6290552461484 
 O    7.5276009352456    2.2376263524890    6.6348683693514 
 O    7.6549266691430    2.2128565582500    1.7619595668371 
 O    7.3349285870648    0.0021556282806    5.1438166760402 
 O    9.4681370853032    1.1439108625694    8.1967328962343 
 O   -1.9104627439346    3.3173712637342    0.1999463180631 
 O    0.1995190803763    4.2522921503335    3.4307658541851 
 O   -1.9831043818640    5.7004148984010    6.8958693576395 
 O   -1.9104684831671    5.5264106153449    1.7619595668371 
 O   -1.7401545204289    3.2986294749799    5.3272341069926 
 O   -0.4488895359938    4.5521182244533    8.5127187855406 
 O    1.9156884299104    3.3173712637342    0.1999463180631 
 O    3.7784761729601    4.3803032684551    3.3229331309797 
 O    1.9544462130832    5.5717257290688    6.7631711097823 
 O    1.9156826906780    5.5264106153449    1.7619595668371 
 O    2.1704865924879    3.3309257271223    5.3804938796941 
 O    4.1900402660362    4.4975504602922    8.7812192804794 
 O    5.7418510822204    3.3173712637342    0.1999463180631 
 O    7.7869533509888    4.2828477960109    3.5526913451806 
 O    5.6675101149400    5.4453758910867    6.6868845350738 
 O    5.7418453429880    5.5264106153449    1.7619595668371 
 O    5.6670893718055    3.2856690643751    4.9659829309356 
 O    7.5484717116241    4.3764359609786    8.4657616732280 
 O   -3.8235440700895    6.6309253208291    0.1999463180631 
 O   -1.9282190684047    7.5663160021830    3.3176202010901 
 O   -3.7852393419304    8.8395979621457    6.5150008061193 
 O   -3.8235440700895    8.8399547317975    1.7619595668371 
 O    7.6047976872256    6.3929391871440    5.0525737429286 
 O   -2.0499600699409    7.7057590577509    8.4931134994336 
 O    0.0026071037555    6.6309253208291    0.1999463180631 
 O    2.0377750480279    7.6692235192975    3.5318413115891 
 O   -0.1324016832973    8.6878682727073    6.6789507240049 
 O    0.0026071037555    8.8399547317975    1.7619595668371 
 O   -0.0535590916133    6.3552882092193    5.1364980535301 
 O    1.9144929477807    7.7186077355365    8.4666649534256 
 O    3.8287697560655    6.6309253208291    0.1999463180631 
 O    5.8409306094458    7.6119387787858    3.4242941709108 
 O    3.6239251844601    8.7445279456318    6.6585530148155 
 O    3.8287697560655    8.8399547317975    1.7619595668371 
 O    3.9579985046752    6.5141270483978    5.0080139727565 
 O    5.7118682985786    7.8025483083488    8.3504481476588 
Ce    1.9156884299104    1.1083418527658    0.9809643475031 
Ce    0.0818673393886    2.2314122581807    4.3344602833101 
Ce    5.5678061018264    9.9203186468381    7.5310210931296 
Ce    5.7418510822205    1.1083418527658    0.9809643475031 
Ce    3.8533391234363    2.0479960755979    4.1501299919156 
Ce   -1.8929122283419    9.8070852875448    7.5172839348922 
Ce    9.5680022560654    1.1083418527658    0.9809643475031 
Ce    7.7086089246856    2.1555553162721    4.2802568565233 
Ce    7.6373698977868    0.0271311938149    7.4304951311791 
Ce    0.0026128429880    4.4218859692184    0.9809643475031 
Ce   -1.9004290733241    5.4964984274429    4.3266585427549 
Ce    9.3775780800396    3.4375311631687    7.5793153338560 
Ce    3.8287754952980    4.4218859692184    0.9809643475031 
Ce    2.0987174900754    5.4644869747021    4.3637760596423 
Ce    7.6549266691429    4.4218859692184    0.9809643475031 
Ce    5.6752225529659    5.3902487669840    4.1843068299375 
Ce    5.5106222831431    3.2983032231000    7.5825069238875 
Ce   -1.9104684831671    7.7354400263133    0.9809643475031 
Ce   -3.8370108921892    8.7411144284759    4.2260032475034 
Ce    7.6108213560884    6.6045150223930    7.4233989072025 
Ce    1.9156941691429    7.7354400263133    0.9809643475031 
Ce   -0.0613871751739    8.7532011560299    4.1300689598907 
Ce   -0.0396113792225    6.5604841402465    7.5551628531179 
Ce    5.7418453429879    7.7354400263133    0.9809643475031 
Ce    3.8788546606771    8.7573768222302    4.2518099171286 
Ce    3.7670738675753    6.5128767144105    7.8049449188709 
Cu    1.8670040702057    2.3219786667050    6.9308995217268 
81
FORCE:  2.577330  ...  ENERGY:  -632.83047670
 O    0.0026128429879    0.0038271472816    0.1999463180631 
 O    1.9445607294559    1.0805083525731    3.5705423060351 
 O    0.0473571621891    2.2883529530627    6.7449472036947 
 O    0.0026128429880    2.2128565582500    1.7619595668371 
 O    5.6803556077292    9.8387102481134    5.1804544963985 
 O    1.7366582373822    1.1199640541056    8.2507314882692 
 O    3.8287640168329    0.0038271472816    0.1999463180631 
 O    5.7467661609335    1.0581276923021    3.4012746681377 
 O    3.6404552645143    2.0986422563756    6.5455900706695 
 O    3.8287640168330    2.2128565582500    1.7619595668371 
 O   -1.9120313909614    9.8338114001864    4.9790681763436 
 O    5.7195329861900    1.0856667506702    8.4286439282395 
 O    7.6549266691429    0.0038271472816    0.1999463180631 
 O    9.6836017049035    1.0009840095045    3.6364557569391 
 O    7.5218219298644    2.2390626758935    6.6411801537827 
 O    7.6549266691430    2.2128565582500    1.7619595668371 
 O    7.3302555317864    0.0059934120495    5.1389389629732 
 O    9.4722491306047    1.1396399650159    8.1920518062810 
 O   -1.9104627439346    3.3173712637342    0.1999463180631 
 O    0.1950994696050    4.2449168895993    3.4306397142989 
 O   -1.9814648553157    5.7019072870280    6.8867692658508 
 O   -1.9104684831671    5.5264106153449    1.7619595668371 
 O   -1.7426934421022    3.2948573988566    5.3254065612999 
 O   -0.4574206755358    4.5488489460169    8.5156742909751 
 O    1.9156884299104    3.3173712637342    0.1999463180631 
 O    3.7802976905709    4.3671281399768    3.3258815652812 
 O    1.9574799713827    5.5777171529898    6.7742048142567 
 O    1.9156826906780    5.5264106153449    1.7619595668371 
 O    2.1767425854822    3.3285097534202    5.3780659720115 
 O    4.1983360396533    4.5006816632072    8.7828944546640 
 O    5.7418510822204    3.3173712637342    0.1999463180631 
 O    7.7952175588271    4.2772489280539    3.5496708309440 
 O    5.6732421733994    5.4379634523503    6.6881707969512 
 O    5.7418453429880    5.5264106153449    1.7619595668371 
 O    5.6703327268759    3.2932130178089    4.9717858219020 
 O    7.5483661097461    4.3731992878490    8.4698923553235 
 O   -3.8235440700895    6.6309253208291    0.1999463180631 
 O   -1.9229347848649    7.5663353864355    3.3131471393035 
 O   -3.7848341521159    8.8401397271505    6.5167603776961 
 O   -3.8235440700895    8.8399547317975    1.7619595668371 
 O    7.5995828483992    6.3870733135351    5.0535732817735 
 O   -2.0438288478612    7.7082513755859    8.4865688238201 
 O    0.0026071037555    6.6309253208291    0.1999463180631 
 O    2.0337364649023    7.6681680218992    3.5217122559188 
 O   -0.1333366616639    8.6857305375828    6.6848017442950 
 O    0.0026071037555    8.8399547317975    1.7619595668371 
 O   -0.0526847769342    6.3567850711353    5.1312280066399 
 O    1.9235631160391    7.7327747413025    8.4613403903820 
 O    3.8287697560655    6.6309253208291    0.1999463180631 
 O    5.8382281196462    7.6102898250427    3.4258126396672 
 O    3.6262509510384    8.7480827193147    6.6556064053224 
 O    3.8287697560655    8.8399547317975    1.7619595668371 
 O    3.9558548439441    6.5231397317300    5.0148932726251 
 O    5.7167984714731    7.8120124956539    8.3478706056808 
Ce    1.9156884299104    1.1083418527658    0.9809643475031 
Ce    0.0845624255783    2.2350271727494    4.3331126622476 
Ce    5.5700661541925    9.9163619729874    7.5330391032074 
Ce    5.7418510822205    1.1083418527658    0.9809643475031 
Ce    3.8547087912724    2.0498835053496    4.1464728476206 
Ce   -1.8925367677517    9.8091610924678    7.5181247153993 
Ce    9.5680022560654    1.1083418527658    0.9809643475031 
Ce    7.7094965543841    2.1573909552774    4.2814308926792 
Ce    7.6393149236811    0.0288109635491    7.4311554837478 
Ce    0.0026128429880    4.4218859692184    0.9809643475031 
Ce   -1.8976581144808    5.4981850562202    4.3258907545869 
Ce    9.3785320552657    3.4370738936234    7.5779886980910 
Ce    3.8287754952980    4.4218859692184    0.9809643475031 
Ce    2.0985620142670    5.4646212727794    4.3666813828436 
Ce    7.6549266691429    4.4218859692184    0.9809643475031 
Ce    5.6754959700022    5.3939351547709    4.1866498840258 
Ce    5.5123098470674    3.3001499956246    7.5839460134750 
Ce   -1.9104684831671    7.7354400263133    0.9809643475031 
Ce   -3.8343474865629    8.7428308791801    4.2279767778745 
Ce    7.6138342809739    6.6061636779168    7.4269638986693 
Ce    1.9156941691429    7.7354400263133    0.9809643475031 
Ce   -0.0560849278365    8.7547312196911    4.1320956378088 
Ce   -0.0403165587197    6.5602259817663    7.5529530100486 
Ce    5.7418453429879    7.7354400263133    0.9809643475031 
Ce    3.8817091253533    8.7558527229543    4.2541208089675 
Ce    3.7656725765681    6.5143948493011    7.8058972407964 
Cu    1.8695498215658    2.3196379436650    6.9263032853678 
81
FORCE:  2.764801  ...  ENERGY:  -632.81479703
 O    0.0026128429879    0.0038271472816    0.1999463180631 
 O    1.9278704674226    1.0825435996756    3.5809094992121 
 O    0.0456582345845    2.2869032097912    6.7438055578894 
 O    0.0026128429880    2.2128565582500    1.7619595668371 
 O    5.6823451126754    9.8413635049470    5.1754319391584 
 O    1.7279391379759    1.1312970821612    8.2520207154603 
 O    3.8287640168329    0.0038271472816    0.1999463180631 
 O    5.7455297580760    1.0656518638579    3.4000376760893 
 O    3.6299999898844    2.1002172517400    6.5494157816479 
 O    3.8287640168330    2.2128565582500    1.7619595668371 
 O   -1.9166372972197    9.8357640405515    4.9780697780040 
 O    5.7198385429283    1.0900583276211    8.4334830922274 
 O    7.6549266691429    0.0038271472816    0.1999463180631 
 O    9.6785617404913    1.0036556565264    3.6434231038168 
 O    7.5160429244831    2.2406288240863    6.6474980969426 
 O    7.6549266691430    2.2128565582500    1.7619595668371 
 O    7.3262827202652    0.0098422299313    5.1337384869063 
 O    9.4765252031712    1.1351032546876    8.1874297945022 
 O   -1.9104627439346    3.3173712637342    0.1999463180631 
 O    0.1903706863790    4.2377003809225    3.4305461928643 
 O   -1.9800271775745    5.7028019448341    6.8764153025352 
 O   -1.9104684831671    5.5264106153449    1.7619595668371 
 O   -1.7457592827114    3.2912738967174    5.3228981339431 
 O   -0.4658859860809    4.5456338440811    8.5188209450978 
 O    1.9156884299104    3.3173712637342    0.1999463180631 
 O    3.7821575462549    4.3535750682786    3.3289016233156 
 O    1.9606329909335    5.5841296625183    6.7854447220892 
 O    1.9156826906780    5.5264106153449    1.7619595668371 
 O    2.1821197298038    3.3261594873635    5.3748581868047 
 O    4.2067108998943    4.5042168538248    8.7842183532162 
 O    5.7418510822204    3.3173712637342    0.1999463180631 
 O    7.8034670742303    4.2715613895677    3.5460057031120 
 O    5.6789588507157    5.4305398800946    6.6896053245175 
 O    5.7418453429880    5.5264106153449    1.7619595668371 
 O    5.6735930126821    3.3004914566873    4.9778172701305 
 O    7.5482886301074    4.3700556591312    8.4736295630906 
 O   -3.8235440700895    6.6309253208291    0.1999463180631 
 O   -1.9175401358843    7.5668960386606    3.3090175977133 
 O   -3.7843972243456    8.8402849599343    6.5189667992495 
 O   -3.8235440700895    8.8399547317975    1.7619595668371 
 O    7.5946135913314    6.3818176959564    5.0547904290297 
 O   -2.0375683782656    7.7113069302130    8.4795868784746 
 O    0.0026071037555    6.6309253208291    0.1999463180631 
 O    2.0290736828500    7.6672125273623    3.5111511768408 
 O   -0.1341809601570    8.6836592059489    6.6907433207058 
 O    0.0026071037555    8.8399547317975    1.7619595668371 
 O   -0.0515285511548    6.3589565050371    5.1257376141257 
 O    1.9327149535759    7.7471100421425    8.4558331183894 
 O    3.8287697560655    6.6309253208291    0.1999463180631 
 O    5.8351278436420    7.6091706081273    3.4270728980237 
 O    3.6290359136090    8.7517785507117    6.6524761744760 
 O    3.8287697560655    8.8399547317975    1.7619595668371 
 O    3.9533260233200    6.5325189265435    5.0220773155098 
 O    5.7216874366782    7.8215955730407    8.3451119514611 
Ce    1.9156884299104    1.1083418527658    0.9809643475031 
Ce    0.0872625622925    2.2386802593846    4.3317554609406 
Ce    5.5723983487112    9.9123250781534    7.5350530074662 
Ce    5.7418510822205    1.1083418527658    0.9809643475031 
Ce    3.8561417054507    2.0518928073756    4.1428095445970 
Ce   -1.8921731873729    9.8112600590874    7.5189887622146 
Ce    9.5680022560654    1.1083418527658    0.9809643475031 
Ce    7.7103478547408    2.1592610883114    4.2826644632116 
Ce    7.6412094443294    0.0304929202246    7.4318703524699 
Ce    0.0026128429880    4.4218859692184    0.9809643475031 
Ce   -1.8948345842678    5.4998235722889    4.3250796272176 
Ce    9.3795238520341    3.4365503199940    7.5766894344533 
Ce    3.8287754952980    4.4218859692184    0.9809643475031 
Ce    2.0982871624225    5.4647523898512    4.3696446437140 
Ce    7.6549266691429    4.4218859692184    0.9809643475031 
Ce    5.6758641417671    5.3976822798821    4.1890787041127 
Ce    5.5140993397609    3.3020458749221    7.5854200025248 
Ce   -1.9104684831671    7.7354400263133    0.9809643475031 
Ce   -3.8316521708039    8.7445773506240    4.2300098426223 
Ce    7.6168095564942    6.6078685974760    7.4306625573572 
Ce    1.9156941691429    7.7354400263133    0.9809643475031 
Ce   -0.0506515964287    8.7562893159637    4.1342336290442 
Ce   -0.0409796122504    6.5599676244731    7.5507513786175 
Ce    5.7418453429879    7.7354400263133    0.9809643475031 
Ce    3.8846066916656    8.7542957201524    4.2565060617519 
Ce    3.7642607827655    6.5159351518239    7.8068308584350 
Cu    1.8721565235749    2.3173813184587    6.9214755264329 
81
FORCE:  2.949613  ...  ENERGY:  -632.79310597
 O    0.0026128429879    0.0038271472816    0.1999463180631 
 O    1.9105823495399    1.0845147296352    3.5908079447108 
 O    0.0441934102735    2.2852126047569    6.7425544235753 
 O    0.0026128429880    2.2128565582500    1.7619595668371 
 O    5.6846111912356    9.8440757097894    5.1703240721218 
 O    1.7193555992412    1.1421925231431    8.2535861730351 
 O    3.8287640168329    0.0038271472816    0.1999463180631 
 O    5.7443253801358    1.0731668900227    3.3982952120920 
 O    3.6205655525392    2.1011537596501    6.5542887045926 
 O    3.8287640168330    2.2128565582500    1.7619595668371 
 O   -1.9209295544218    9.8375010683852    4.9769899475859 
 O    5.7197963595694    1.0942979121514    8.4378122222451 
 O    7.6549266691429    0.0038271472816    0.1999463180631 
 O    9.6729226002061    1.0068430240702    3.6499260369363 
 O    7.5102970344734    2.2423147570186    6.6538071441611 
 O    7.6549266691430    2.2128565582500    1.7619595668371 
 O    7.3230253040752    0.0136720611864    5.1282594994451 
 O    9.4809379842558    1.1303243903131    8.1828901272061 
 O   -1.9104627439346    3.3173712637342    0.1999463180631 
 O    0.1853599346602    4.2307420307259    3.4304791311527 
 O   -1.9787949643567    5.7030999652900    6.8648279967883 
 O   -1.9104684831671    5.5264106153449    1.7619595668371 
 O   -1.7493635781137    3.2879140590298    5.3197339160387 
 O   -0.4742607315373    4.5425078103002    8.5221562387971 
 O    1.9156884299104    3.3173712637342    0.1999463180631 
 O    3.7840315778431    4.3397391853073    3.3320008324178 
 O    1.9638804208590    5.5909412888347    6.7968436163606 
 O    1.9156826906780    5.5264106153449    1.7619595668371 
 O    2.1865788264947    3.3239300995172    5.3708534164943 
 O    4.2151251312702    4.5081816790021    8.7852137862421 
 O    5.7418510822204    3.3173712637342    0.1999463180631 
 O    7.8116708479504    4.2658365736729    3.5416932244716 
 O    5.6846426996221    5.4231777410082    6.6911903987834 
 O    5.7418453429880    5.5264106153449    1.7619595668371 
 O    5.6768469853327    3.3074690917299    4.9840544655152 
 O    7.5482585565291    4.3670339026879    8.4769662253962 
 O   -3.8235440700895    6.6309253208291    0.1999463180631 
 O   -1.9120562418382    7.5680063089980    3.3052760560261 
 O   -3.7839199497710    8.8400237198550    6.5216289667208 
 O   -3.8235440700895    8.8399547317975    1.7619595668371 
 O    7.5899283114877    6.3772112023192    5.0562245003939 
 O   -2.0311993797833    7.7149023611229    8.4721977727369 
 O    0.0026071037555    6.6309253208291    0.1999463180631 
 O    2.0238112657861    7.6663514689271    3.5002082565883 
 O   -0.1349223542113    8.6816726679936    6.6967382727648 
 O    0.0026071037555    8.8399547317975    1.7619595668371 
 O   -0.0500423195066    6.3618080776844    5.1200567572264 
 O    1.9419224616680    7.7615839155360    8.4501727905855 
 O    3.8287697560655    6.6309253208291    0.1999463180631 
 O    5.8316480321926    7.6085950449387    3.4280703839591 
 O    3.6322780060483    8.7556086801861    6.6491577602551 
 O    3.8287697560655    8.8399547317975    1.7619595668371 
 O    3.9504073940244    6.5421907738659    5.0295403259908 
 O    5.7265319802238    7.8312293477032    8.3421968199143 
Ce    1.9156884299104    1.1083418527658    0.9809643475031 
Ce    0.0899586241517    2.2423614780374    4.3303934695113 
Ce    5.5748011357897    9.9082182011977    7.5370555066719 
Ce    5.7418510822205    1.1083418527658    0.9809643475031 
Ce    3.8576334467621    2.0540230870184    4.1391460134724 
Ce   -1.8918216019899    9.8133835790933    7.5198758472369 
Ce    9.5680022560654    1.1083418527658    0.9809643475031 
Ce    7.7111637440330    2.1611659141870    4.2839559714134 
Ce    7.6430515657849    0.0321763679964    7.4326395092442 
Ce    0.0026128429880    4.4218859692184    0.9809643475031 
Ce   -1.8919653697640    5.5014080112635    4.3242226515352 
Ce    9.3805515190055    3.4359560683979    7.5754168586395 
Ce    3.8287754952980    4.4218859692184    0.9809643475031 
Ce    2.0978949432735    5.4648790336340    4.3726626488389 
Ce    7.6549266691429    4.4218859692184    0.9809643475031 
Ce    5.6763274126144    5.4014835814938    4.1915928339960 
Ce    5.5159917942854    3.3039860894843    7.5869266100261 
Ce   -1.9104684831671    7.7354400263133    0.9809643475031 
Ce   -3.8289315450296    8.7463533457756    4.2321001607361 
Ce    7.6197440834638    6.6096262024393    7.4344894088408 
Ce    1.9156941691429    7.7354400263133    0.9809643475031 
Ce   -0.0450935514988    8.7578745501897    4.1364774591714 
Ce   -0.0415994493604    6.5597095653993    7.5485606960372 
Ce    5.7418453429879    7.7354400263133    0.9809643475031 
Ce    3.8875444899977    8.7527127722742    4.2589617977639 
Ce    3.7628411262143    6.5174980196047    7.8077428064728 
Cu    1.8747784345502    2.3152238014561    6.9164185259327 
81
FORCE:  3.122972  ...  ENERGY:  -632.76533012
 O    0.0026128429879    0.0038271472816    0.1999463180631 
 O    1.8928513924774    1.0864041475153    3.6001801610641 
 O    0.0430019456065    2.2833047966886    6.7411874139227 
 O    0.0026128429880    2.2128565582500    1.7619595668371 
 O    5.6871536712332    9.8468032232209    5.1651594079213 
 O    1.7109551994156    1.1525896397271    8.2554527240090 
 O    3.8287640168329    0.0038271472816    0.1999463180631 
 O    5.7431523384052    1.0806375809229    3.3960493290552 
 O    3.6123361244498    2.1014071466221    6.5601917319244 
 O    3.8287640168330    2.2128565582500    1.7619595668371 
 O   -1.9248677009786    9.8390178115858    4.9758300536958 
 O    5.7193903088701    1.0983547876763    8.4416103329952 
 O    7.6549266691429    0.0038271472816    0.1999463180631 
 O    9.6666944424894    1.0105205646854    3.6559328502503 
 O    7.5046219092004    2.2441091423584    6.6600895035556 
 O    7.6549266691430    2.2128565582500    1.7619595668371 
 O    7.3204968278050    0.0174514933851    5.1225512704186 
 O    9.4854559654721    1.1253307086587    8.1784574393071 
 O   -1.9104627439346    3.3173712637342    0.1999463180631 
 O    0.1800974028116    4.2241462157536    3.4304312299301 
 O   -1.9777691913320    5.7028076110002    6.8520408794658 
 O   -1.9104684831671    5.5264106153449    1.7619595668371 
 O   -1.7535125840726    3.2848125786354    5.3159474384427 
 O   -0.4825198314587    4.5395071280185    8.5256746976476 
 O    1.9156884299104    3.3173712637342    0.1999463180631 
 O    3.7858957953437    4.3257260606839    3.3351842108112 
 O    1.9671926467194    5.5981232040763    6.8083481214228 
 O    1.9156826906780    5.5264106153449    1.7619595668371 
 O    2.1900886541300    3.3218712930925    5.3660432213410 
 O    4.2235338529829    4.5125984057780    8.7859060729592 
 O    5.7418510822204    3.3173712637342    0.1999463180631 
 O    7.8197936411000    4.2601315396563    3.5367377289431 
 O    5.6902744936897    5.4159564608231    6.6929248792437 
 O    5.7418453429880    5.5264106153449    1.7619595668371 
 O    5.6800689904582    3.3141114289081    4.9904700359287 
 O    7.5482950580478    4.3641644368845    8.4798961835119 
 O   -3.8235440700895    6.6309253208291    0.1999463180631 
 O   -1.9065070353263    7.5696698754852    3.3019663096455 
 O   -3.7833947526049    8.8393484520242    6.5247512140301 
 O   -3.8235440700895    8.8399547317975    1.7619595668371 
 O    7.5855637399561    6.3732902153743    5.0578707057439 
 O   -2.0247469328605    7.7190055600409    8.4644380027768 
 O    0.0026071037555    6.6309253208291    0.1999463180631 
 O    2.0179802629584    7.6655797768661    3.4889416609318 
 O   -0.1355460366071    8.6797900097503    6.7027450860788 
 O    0.0026071037555    8.8399547317975    1.7619595668371 
 O   -0.0481783889675    6.3653408825479    5.1142173700904 
 O    1.9511550502060    7.7761602769515    8.4443947626346 
 O    3.8287697560655    6.6309253208291    0.1999463180631 
 O    5.8278098630660    7.6085715850229    3.4288025883617 
 O    3.6359711447697    8.7595645587854    6.6456507064576 
 O    3.8287697560655    8.8399547317975    1.7619595668371 
 O    3.9470984395265    6.5520732633985    5.0372519666273 
 O    5.7313297490245    7.8408351891609    8.3391564608856 
Ce    1.9156884299104    1.1083418527658    0.9809643475031 
Ce    0.0926397066141    2.2460590987500    4.3290323904863 
Ce    5.5772718179886    9.9040537679232    7.5390386172875 
Ce    5.7418510822205    1.1083418527658    0.9809643475031 
Ce    3.8591786777204    2.0562718591172    4.1354902377837 
Ce   -1.8914814376796    9.8155320501115    7.5207848299610 
Ce    9.5680022560654    1.1083418527658    0.9809643475031 
Ce    7.7119450831456    2.1631043394335    4.2853033643748 
Ce    7.6448388775700    0.0338599151746    7.4334631821718 
Ce    0.0026128429880    4.4218859692184    0.9809643475031 
Ce   -1.8890588502490    5.5029320111330    4.3233182308323 
Ce    9.3816131622334    3.4352870631718    7.5741696020434 
Ce    3.8287754952980    4.4218859692184    0.9809643475031 
Ce    2.0973870785896    5.4650004088764    4.3757308361969 
Ce    7.6549266691429    4.4218859692184    0.9809643475031 
Ce    5.6768860695060    5.4053308088728    4.1941899926652 
Ce    5.5179869236794    3.3059651719578    7.5884633268673 
Ce   -1.9104684831671    7.7354400263133    0.9809643475031 
Ce   -3.8261934719885    8.7481579699769    4.2342440825991 
Ce    7.6226339018122    6.6114318207048    7.4384371538862 
Ce    1.9156941691429    7.7354400263133    0.9809643475031 
Ce   -0.0394199758186    8.7594851330535    4.1388200570576 
Ce   -0.0421755535188    6.5594525003897    7.5463846119248 
Ce    5.7418453429879    7.7354400263133    0.9809643475031 
Ce    3.8905183307099    8.7511121300526    4.2614820863758 
Ce    3.7614169930617    6.5190835520500    7.8086305757984 
Cu    1.8773676319003    2.3131798065884    6.9111393550001 
81
FORCE:  3.271821  ...  ENERGY:  -632.73202001
 O    0.0026128429879    0.0038271472816    0.1999463180631 
 O    1.8748468462016    1.0881900833091    3.6089657014910 
 O    0.0421203421021    2.2812060288819    6.7396979140009 
 O    0.0026128429880    2.2128565582500    1.7619595668371 
 O    5.6899679038895    9.8495000200678    5.1599694245031 
 O    1.7027895915916    1.1624341560061    8.2576365635575 
 O    3.8287640168329    0.0038271472816    0.1999463180631 
 O    5.7420107476686    1.0880287466848    3.3933082386172 
 O    3.6054885313694    2.1009433162529    6.5670961229095 
 O    3.8287640168330    2.2128565582500    1.7619595668371 
 O   -1.9284139727404    9.8403132760891    4.9745935178496 
 O    5.7186070758108    1.1021989334563    8.4448603168981 
 O    7.6549266691429    0.0038271472816    0.1999463180631 
 O    9.6598960920238    1.0146556730652    3.6614127501158 
 O    7.4990570919761    2.2459985602385    6.6663278394456 
 O    7.6549266691430    2.2128565582500    1.7619595668371 
 O    7.3187095734121    0.0211489152848    5.1166676316769 
 O    9.4900447114252    1.1201538209669    8.1741577343261 
 O   -1.9104627439346    3.3173712637342    0.1999463180631 
 O    0.1746150009660    4.2180218854452    3.4303926808510 
 O   -1.9769487106538    5.7019374071741    6.8381036765987 
 O   -1.9104684831671    5.5264106153449    1.7619595668371 
 O   -1.7582068171190    3.2820027566857    5.3115790750427 
 O   -0.4906389514995    4.5366701681153    8.5293662852026 
 O    1.9156884299104    3.3173712637342    0.1999463180631 
 O    3.7877287914196    4.3116505088270    3.3384528990010 
 O    1.9705363235739    5.6056389260861    6.8198998434043 
 O    1.9156826906780    5.5264106153449    1.7619595668371 
 O    2.1926261983876    3.3200267075091    5.3604319352650 
 O    4.2318897737566    4.5174853249342    8.7863230416969 
 O    5.7418510822204    3.3173712637342    0.1999463180631 
 O    7.8277979764908    4.2545088141578    3.5311485686699 
 O    5.6958348343127    5.4089585468702    6.6948037476749 
 O    5.7418453429880    5.5264106153449    1.7619595668371 
 O    5.6832332589047    3.3203843718187    4.9970315910207 
 O    7.5484171315231    4.3614787735570    8.4824146473154 
 O   -3.8235440700895    6.6309253208291    0.1999463180631 
 O   -1.9009217864342    7.5718847499939    3.2991301010655 
 O   -3.7828146309838    8.8382547825594    6.5283328568742 
 O   -3.8235440700895    8.8399547317975    1.7619595668371 
 O    7.5815531642851    6.3700883344927    5.0597215177447 
 O   -2.0182405371523    7.7235761679594    8.4563499953913 
 O    0.0026071037555    6.6309253208291    0.1999463180631 
 O    2.0116199881096    7.6648911885747    3.4774175391784 
 O   -0.1360357079240    8.6780313113164    6.7087190528402 
 O    0.0026071037555    8.8399547317975    1.7619595668371 
 O   -0.0458922804858    6.3695504463384    5.1082541240788 
 O    1.9603774803026    7.7907997614455    8.4385368993127 
 O    3.8287697560655    6.6309253208291    0.1999463180631 
 O    5.8236371540768    7.6091027135405    3.4292690550294 
 O    3.6401053435088    8.7636364446802    6.6419563816899 
 O    3.8287697560655    8.8399547317975    1.7619595668371 
 O    3.9434041529586    6.5620774263928    5.0451775660581 
 O    5.7360767830099    7.8503265144194    8.3360266862413 
Ce    1.9156884299104    1.1083418527658    0.9809643475031 
Ce    0.0952928390142    2.2497601986874    4.3276786106952 
Ce    5.5798063204529    9.8998463910740    7.5409927590686 
Ce    5.7418510822205    1.1083418527658    0.9809643475031 
Ce    3.8607718886624    2.0586349486024    4.1318506572704 
Ce   -1.8911526944420    9.8177054721418    7.5217145698816 
Ce    9.5680022560654    1.1083418527658    0.9809643475031 
Ce    7.7126922164324    2.1650749723611    4.2867034486811 
Ce    7.6465690839918    0.0355413748180    7.4343400026465 
Ce    0.0026128429880    4.4218859692184    0.9809643475031 
Ce   -1.8861244954564    5.5043893092927    4.3223647684015 
Ce    9.3827068877709    3.4345404215294    7.5729474365640 
Ce    3.8287754952980    4.4218859692184    0.9809643475031 
Ce    2.0967657492791    5.4651159191398    4.3788430470596 
Ce    7.6549266691429    4.4218859692184    0.9809643475031 
Ce    5.6775393089491    5.4092146178156    4.1968676710085 
Ce    5.5200834079193    3.3079764621124    7.5900274158357 
Ce   -1.9104684831671    7.7354400263133    0.9809643475031 
Ce   -3.8234468474910    8.7499895333188    4.2364368180889 
Ce    7.6254747645073    6.6132802831386    7.4424959841478 
Ce    1.9156941691429    7.7354400263133    0.9809643475031 
Ce   -0.0336421182838    8.7611184799882    4.1412527548625 
Ce   -0.0427075229792    6.5591965288507    7.5442270039983 
Ce    5.7418453429879    7.7354400263133    0.9809643475031 
Ce    3.8935224171774    8.7495034359108    4.2640598564549 
Ce    3.7599922859859    6.5206913515340    7.8094912010977 
Cu    1.8798746434409    2.3112628531292    6.9056489624859 
81
FORCE:  3.390814  ...  ENERGY:  -632.69374509
 O    0.0026128429879    0.0038271472816    0.1999463180631 
 O    1.8567512756984    1.0898461943146    3.6171032068065 
 O    0.0415807968548    2.2789452286059    6.7380799931823 
 O    0.0026128429880    2.2128565582500    1.7619595668371 
 O    5.6930451081791    9.8521202739690    5.1547881089252 
 O    1.6949104862539    1.1716782574909    8.2601443066111 
 O    3.8287640168329    0.0038271472816    0.1999463180631 
 O    5.7409005505338    1.0953047004025    3.3900856268415 
 O    3.6001815778613    2.0997397032844    6.5749610474583 
 O    3.8287640168330    2.2128565582500    1.7619595668371 
 O   -1.9315348525892    9.8413904440876    4.9732849020683 
 O    5.7174377071889    1.1058005275644    8.4475489440923 
 O    7.6549266691429    0.0038271472816    0.1999463180631 
 O    9.6525542362406    1.0192092824854    3.6663363114959 
 O    7.4936448809440    2.2479683979147    6.6725025351398 
 O    7.6549266691430    2.2128565582500    1.7619595668371 
 O    7.3176728384533    0.0247305287019    5.1106681175968 
 O    9.4946678353809    1.1148297123628    8.1700183843903 
 O   -1.9104627439346    3.3173712637342    0.1999463180631 
 O    0.1689469923413    4.2124794803364    3.4303518507612 
 O   -1.9763287013669    5.7005070481550    6.8230813969892 
 O   -1.9104684831671    5.5264106153449    1.7619595668371 
 O   -1.7634390458200    3.2795158067976    5.3066774113643 
 O   -0.4985923798980    4.5340349038443    8.5332186840050 
 O    1.9156884299104    3.3173712637342    0.1999463180631 
 O    3.7895097326567    4.2976348990430    3.3418057564819 
 O    1.9738750072961    5.6134464059471    6.8314392479287 
 O    1.9156826906780    5.5264106153449    1.7619595668371 
 O    2.1941787181712    3.3184311350152    5.3540346129362 
 O    4.2401440527228    4.5228566515892    8.7864934331887 
 O    5.7418510822204    3.3173712637342    0.1999463180631 
 O    7.8356436794953    4.2490340054166    3.5249407983220 
 O    5.7013042654928    5.4022683952026    6.6968194767421 
 O    5.7418453429880    5.5264106153449    1.7619595668371 
 O    5.6863137919491    3.3262585955672    5.0037030908236 
 O    7.5486437164222    4.3590077286965    8.4845193357960 
 O   -3.8235440700895    6.6309253208291    0.1999463180631 
 O   -1.8953304539557    7.5746437752615    3.2968059793651 
 O   -3.7821738456752    8.8367413197708    6.5323677365245 
 O   -3.8235440700895    8.8399547317975    1.7619595668371 
 O    7.5779247067139    6.3676341887242    5.0617643908381 
 O   -2.0117127341068    7.7285647798862    8.4479816518031 
 O    0.0026071037555    6.6309253208291    0.1999463180631 
 O    2.0047757811764    7.6642799384803    3.4657091117686 
 O   -0.1363735191490    8.6764163545699    6.7146138685338 
 O    0.0026071037555    8.8399547317975    1.7619595668371 
 O   -0.0431435898646    6.3744252379110    5.1022053401697 
 O    1.9695531930467    7.8054573379086    8.4326411712149 
 O    3.8287697560655    6.6309253208291    0.1999463180631 
 O    5.8191567074410    7.6101839572024    3.4294741178823 
 O    3.6446662541842    8.7678130055384    6.6380804884783 
 O    3.8287697560655    8.8399547317975    1.7619595668371 
 O    3.9393353814701    6.5721073356505    5.0532788033050 
 O    5.7407690073249    7.8596097820347    8.3328476417681 
Ce    1.9156884299104    1.1083418527658    0.9809643475031 
Ce    0.0979042471940    2.2534508609504    4.3263382888667 
Ce    5.5824001091890    9.8956120750841    7.5429088079726 
Ce    5.7418510822205    1.1083418527658    0.9809643475031 
Ce    3.8624064220784    2.0611065899014    4.1282375364800 
Ce   -1.8908349705308    9.8199025529007    7.5226634702912 
Ce    9.5680022560654    1.1083418527658    0.9809643475031 
Ce    7.7134057752092    2.1670753278091    4.2881516623110 
Ce    7.6482391432570    0.0372182617659    7.4352683739607 
Ce    0.0026128429880    4.4218859692184    0.9809643475031 
Ce   -1.8831720620815    5.5057733449187    4.3213608956364 
Ce    9.3838298833942    3.4337134594973    7.5717496778979 
Ce    3.8287754952980    4.4218859692184    0.9809643475031 
Ce    2.0960333084275    5.4652252662050    4.3819922102939 
Ce    7.6549266691429    4.4218859692184    0.9809643475031 
Ce    5.6782860404897    5.4131243718346    4.1996213070049 
Ce    5.5222787217429    3.3100126038726    7.5916154554154 
Ce   -1.9104684831671    7.7354400263133    0.9809643475031 
Ce   -3.8207011986630    8.7518454512344    4.2386731208811 
Ce    7.6282620227710    6.6151653271361    7.4466544945727 
Ce    1.9156941691429    7.7354400263133    0.9809643475031 
Ce   -0.0277738104449    8.7627713105817    4.1437657442405 
Ce   -0.0431954151340    6.5589423466273    7.5420917499756 
Ce    5.7418453429879    7.7354400263133    0.9809643475031 
Ce    3.8965500344981    8.7478971275232    4.2666868963629 
Ce    3.7585713094112    6.5223207222117    7.8103214889561 
Cu    1.8822513744038    2.3094846710364    6.8999630873633 
81
FORCE:  3.468036  ...  ENERGY:  -632.65136548
 O    0.0026128429879    0.0038271472816    0.1999463180631 
 O    1.8387596426958    1.0913415651343    3.6245301773201 
 O    0.0414100546879    2.2765532118517    6.7363284051426 
 O    0.0026128429880    2.2128565582500    1.7619595668371 
 O    5.6963722560440    9.8546185561893    5.1496499044476 
 O    1.6873690199643    1.1802828774571    8.2629732159572 
 O    3.8287640168329    0.0038271472816    0.1999463180631 
 O    5.7398216322161    1.1024300533896    3.3864006542172 
 O    3.5965511689511    2.0977871623258    6.5837340423270 
 O    3.8287640168330    2.2128565582500    1.7619595668371 
 O   -1.9342031939554    9.8422567710632    4.9719105931818 
 O    5.7158772672645    1.1091309409508    8.4496657219291 
 O    7.6549266691429    0.0038271472816    0.1999463180631 
 O    9.6447038844577    1.0241372564942    3.6706782151730 
 O    7.4884272872859    2.2500015574822    6.6785948863513 
 O    7.6549266691430    2.2128565582500    1.7619595668371 
 O    7.3173928212997    0.0281641259553    5.1046129468580 
 O    9.4992867696969    1.1093985430413    8.1660674459300 
 O   -1.9104627439346    3.3173712637342    0.1999463180631 
 O    0.1631290175714    4.2076284468989    3.4302964222036 
 O   -1.9759016450765    5.6985416837679    6.8070559289179 
 O   -1.9104684831671    5.5264106153449    1.7619595668371 
 O   -1.7691956681944    3.2773796621759    5.3012969635611 
 O   -0.5063573892935    4.5316389108331    8.5372152426772 
 O    1.9156884299104    3.3173712637342    0.1999463180631 
 O    3.7912199665493    4.2838059745213    3.3452384493339 
 O    1.9771700154590    5.6214963380735    6.8428997294863 
 O    1.9156826906780    5.5264106153449    1.7619595668371 
 O    2.1947447212803    3.3171120117833    5.3468802231893 
 O    4.2482473898742    4.5287214317274    8.7864471286735 
 O    5.7418510822204    3.3173712637342    0.1999463180631 
 O    7.8432881076160    4.2437762008965    3.5181354031969 
 O    5.7066631016627    5.3959702030605    6.6989613456955 
 O    5.7418453429880    5.5264106153449    1.7619595668371 
 O    5.6892845908681    3.3317089503284    5.0104459862582 
 O    7.5489927765428    4.3567814224492    8.4862095646506 
 O   -3.8235440700895    6.6309253208291    0.1999463180631 
 O   -1.8897661532623    7.5779341278594    3.2950277035014 
 O   -3.7814679200776    8.8348098529738    6.5368437636249 
 O   -3.8235440700895    8.8399547317975    1.7619595668371 
 O    7.5747008650340    6.3659516356102    5.0639824455455 
 O   -2.0051984756500    7.7339136406896    8.4393849790538 
 O    0.0026071037555    6.6309253208291    0.1999463180631 
 O    1.9975006152747    7.6637389687269    3.4538950735681 
 O   -0.1365402438531    8.6749651202020    6.7203818600380 
 O    0.0026071037555    8.8399547317975    1.7619595668371 
 O   -0.0398957581928    6.3799476623288    5.0961111641497 
 O    1.9786434486188    7.8200855894768    8.4267541109574 
 O    3.8287697560655    6.6309253208291    0.1999463180631 
 O    5.8143991132679    7.6118034866442    3.4294237075481 
 O    3.6496359129982    8.7720824119955    6.6340307822591 
 O    3.8287697560655    8.8399547317975    1.7619595668371 
 O    3.9349081949119    6.5820621930590    5.0615146201774 
 O    5.7454021175452    7.8685862814290    8.3296635790716 
Ce    1.9156884299104    1.1083418527658    0.9809643475031 
Ce    0.1004581482642    2.2571170692334    4.3250180399314 
Ce    5.5850472727873    9.8913686137033    7.5447764994518 
Ce    5.7418510822205    1.1083418527658    0.9809643475031 
Ce    3.8640757926357    2.0636793275325    4.1246611399602 
Ce   -1.8905276920228    9.8221219006984    7.5236297063814 
Ce    9.5680022560654    1.1083418527658    0.9809643475031 
Ce    7.7140865055760    2.1691025229913    4.2896434432434 
Ce    7.6498463579263    0.0388872956064    7.4362460151038 
Ce    0.0026128429880    4.4218859692184    0.9809643475031 
Ce   -1.8802120529196    5.5070780542193    4.3203057001328 
Ce    9.3849797386255    3.4328045865727    7.5705758698431 
Ce    3.8287754952980    4.4218859692184    0.9809643475031 
Ce    2.0951924534739    5.4653285494784    4.3851696580597 
Ce    7.6549266691429    4.4218859692184    0.9809643475031 
Ce    5.6791244849656    5.4170488380043    4.2024456543298 
Ce    5.5245693068260    3.3120656447248    7.5932235678884 
Ce   -1.9104684831671    7.7354400263133    0.9809643475031 
Ce   -3.8179665691614    8.7537226421244    4.2409468322472 
Ce    7.6309910852170    6.6170801930604    7.4508999115014 
Ce    1.9156941691429    7.7354400263133    0.9809643475031 
Ce   -0.0218302612679    8.7644393503580    4.1463487606440 
Ce   -0.0436395169449    6.5586904507517    7.5399831837770 
Ce    5.7418453429879    7.7354400263133    0.9809643475031 
Ce    3.8995931477466    8.7463045372219    4.2693538539564 
Ce    3.7571588842930    6.5239708688319    7.8111184740598 
Cu    1.8844526570292    2.3078547039201    6.8941011182223 
81
FORCE:  3.497412  ...  ENERGY:  -632.60606839
 O    0.0026128429879    0.0038271472816    0.1999463180631 
 O    1.8210719594464    1.0926434910550    3.6311854819478 
 O    0.0416286046615    2.2740628821452    6.7344388159616 
 O    0.0026128429880    2.2128565582500    1.7619595668371 
 O    5.6999325889253    9.8569515255284    5.1445901667347 
 O    1.6802149518684    1.1882192874486    8.2661086931280 
 O    3.8287640168329    0.0038271472816    0.1999463180631 
 O    5.7387745666388    1.1093702122107    3.3822797804673 
 O    3.5947002664699    2.0950920553881    6.5933532921282 
 O    3.8287640168330    2.2128565582500    1.7619595668371 
 O   -1.9363975895018    9.8429234899416    4.9704781185250 
 O    5.7139251821143    1.1121645267585    8.4512067726904 
 O    7.6549266691429    0.0038271472816    0.1999463180631 
 O    9.6363894583350    1.0293900906931    3.6744154229400 
 O    7.4834466665378    2.2520809410364    6.6845857325911 
 O    7.6549266691430    2.2128565582500    1.7619595668371 
 O    7.3178711863286    0.0314185928346    5.0985648472521 
 O    9.5038619136689    1.1039036542026    8.1623327472746 
 O   -1.9104627439346    3.3173712637342    0.1999463180631 
 O    0.1571962581515    4.2035732612831    3.4302136215189 
 O   -1.9756569242027    5.6960704400946    6.7901219343245 
 O   -1.9104684831671    5.5264106153449    1.7619595668371 
 O   -1.7754552769052    3.2756180809556    5.2954972660095 
 O   -0.5139118836409    4.5295200629290    8.5413342916187 
 O    1.9156884299104    3.3173712637342    0.1999463180631 
 O    3.7928446858777    4.2702939576758    3.3487434502218 
 O    1.9803785907805    5.6297339495264    6.8542130858601 
 O    1.9156826906780    5.5264106153449    1.7619595668371 
 O    2.1943349400798    3.3160857398733    5.3390121052257 
 O    4.2561508295576    4.5350825481352    8.7862160622997 
 O    5.7418510822204    3.3173712637342    0.1999463180631 
 O    7.8506866096241    4.2388047862809    3.5107602116239 
 O    5.7118926903167    5.3901449866785    6.7012152122694 
 O    5.7418453429880    5.5264106153449    1.7619595668371 
 O    5.6921210343542    3.3367152565984    5.0172192191339 
 O    7.5494821608981    4.3548293785228    8.4874869305866 
 O   -3.8235440700895    6.6309253208291    0.1999463180631 
 O   -1.8842626310411    7.5817367217546    3.2938244704099 
 O   -3.7806935828288    8.8324668435861    6.5417433743937 
 O   -3.8235440700895    8.8399547317975    1.7619595668371 
 O    7.5718978238810    6.3650583694940    5.0663553808727 
 O   -1.9987332876310    7.7395570427241    8.4306156338021 
 O    0.0026071037555    6.6309253208291    0.1999463180631 
 O    1.9898523418682    7.6632609232392    3.4420595938678 
 O   -0.1365156225457    8.6736969924651    6.7259753542313 
 O    0.0026071037555    8.8399547317975    1.7619595668371 
 O   -0.0361185971076    6.3860930667989    5.0900131104117 
 O    1.9876097367689    7.8346343159068    8.4209252164701 
 O    3.8287697560655    6.6309253208291    0.1999463180631 
 O    5.8093976017134    7.6139419176137    3.4291280885743 
 O    3.6549919943365    8.7764312441845    6.6298188961862 
 O    3.8287697560655    8.8399547317975    1.7619595668371 
 O    3.9301440006213    6.5918399082219    5.0698407650695 
 O    5.7499715796770    7.8771515364518    8.3265217150711 
Ce    1.9156884299104    1.1083418527658    0.9809643475031 
Ce    0.1029385297660    2.2607444096050    4.3237244788201 
Ce    5.5877415554844    9.8871345959328    7.5465853408576 
Ce    5.7418510822205    1.1083418527658    0.9809643475031 
Ce    3.8657732854322    2.0663443143240    4.1211324165620 
Ce   -1.8902303423869    9.8243610303742    7.5246109971415 
Ce    9.5680022560654    1.1083418527658    0.9809643475031 
Ce    7.7147346371022    2.1711529792765    4.2911726327496 
Ce    7.6513879731681    0.0405446988954    7.4372701888632 
Ce    0.0026128429880    4.4218859692184    0.9809643475031 
Ce   -1.8772554872972    5.5082980692475    4.3191982694865 
Ce    9.3861536986334    3.4318134051300    7.5694255561976 
Ce    3.8287754952980    4.4218859692184    0.9809643475031 
Ce    2.0942459392500    5.4654261665857    4.3883658101125 
Ce    7.6549266691429    4.4218859692184    0.9809643475031 
Ce    5.6800522892916    5.4209761869602    4.2053350104568 
Ce    5.5269507439595    3.3141271351229    7.5948483317388 
Ce   -1.9104684831671    7.7354400263133    0.9809643475031 
Ce   -3.8152531174277    8.7556176267641    4.2432508810542 
Ce    7.6336574752442    6.6190175248363    7.4552178645672 
Ce    1.9156941691429    7.7354400263133    0.9809643475031 
Ce   -0.0158286310580    8.7661179272151    4.1489894866156 
Ce   -0.0440408614736    6.5584412388495    7.5379060955246 
Ce    5.7418453429879    7.7354400263133    0.9809643475031 
Ce    3.9026429758971    8.7447376931842    4.2720509208898 
Ce    3.7557598889788    6.5256408967366    7.8118794191959 
Cu    1.8864380871203    2.3063797114171    6.8880858651691 
81
FORCE:  3.469840  ...  ENERGY:  -632.55912136
 O    0.0026128429879    0.0038271472816    0.1999463180631 
 O    1.8038897304032    1.0937182732994    3.6370109549191 
 O    0.0422498765797    2.2715078388574    6.7324071198201 
 O    0.0026128429880    2.2128565582500    1.7619595668371 
 O    5.7037063064711    9.8590777295078    5.1396435671475 
 O    1.6734955158497    1.1954686996514    8.2695274718153 
 O    3.8287640168329    0.0038271472816    0.1999463180631 
 O    5.7377593538019    1.1160927703722    3.3777537992348 
 O    3.5946944124527    2.0916764506973    6.6037492260388 
 O    3.8287640168330    2.2128565582500    1.7619595668371 
 O   -1.9381026580853    9.8434055116862    4.9689972864435 
 O    5.7115853544163    1.1148792167614    8.4521732368817 
 O    7.6549266691429    0.0038271472816    0.1999463180631 
 O    9.6276638735959    1.0349129127366    3.6775296867122 
 O    7.4787441116042    2.2541878601698    6.6904568257745 
 O    7.6549266691430    2.2128565582500    1.7619595668371 
 O    7.3191054082777    0.0344647038515    5.0925865465706 
 O    9.5083539535543    1.0983900769565    8.1588407481471 
 O   -1.9104627439346    3.3173712637342    0.1999463180631 
 O    0.1511849860310    4.2004121370349    3.4300906750475 
 O   -1.9755799037026    5.6931282087896    6.7723879893138 
 O   -1.9104684831671    5.5264106153449    1.7619595668371 
 O   -1.7821884870819    3.2742501491701    5.2893430994107 
 O   -0.5212370382577    4.5277147428827    8.5455516521170 
 O    1.9156884299104    3.3173712637342    0.1999463180631 
 O    3.7943716660767    4.2572299655782    3.3523100383960 
 O    1.9834578038014    5.6380999940777    6.8653115710355 
 O    1.9156826906780    5.5264106153449    1.7619595668371 
 O    2.1929715853994    3.3153599735797    5.3304843189965 
 O    4.2638073100666    4.5419378138712    8.7858314839126 
 O    5.7418510822204    3.3173712637342    0.1999463180631 
 O    7.8577941899367    4.2341871591243    3.5028471577515 
 O    5.7169757563650    5.3848697860345    6.7035641969853 
 O    5.7418453429880    5.5264106153449    1.7619595668371 
 O    5.6947991898080    3.3412644921360    5.0239812750576 
 O    7.5501284558699    4.3531799277476    8.4883555394231 
 O   -3.8235440700895    6.6309253208291    0.1999463180631 
 O   -1.8788543226871    7.5860267053413    3.2932190901966 
 O   -3.7798490547664    8.8297231269076    6.5470430744217 
 O   -3.8235440700895    8.8399547317975    1.7619595668371 
 O    7.5695230442572    6.3649653250822    5.0688592462083 
 O   -1.9923544750612    7.7454222204880    8.4217317818183 
 O    0.0026071037555    6.6309253208291    0.1999463180631 
 O    1.9818942072991    7.6628384459418    3.4302877543634 
 O   -0.1362796253053    8.6726293674831    6.7313473622954 
 O    0.0026071037555    8.8399547317975    1.7619595668371 
 O   -0.0317882314017    6.3928300388917    5.0839529214496 
 O    1.9964154985859    7.8490527205163    8.4152039856832 
 O    3.8287697560655    6.6309253208291    0.1999463180631 
 O    5.8041870673113    7.6165726091893    3.4285993503172 
 O    3.6607095325377    8.7808456846127    6.6254580601211 
 O    3.8287697560655    8.8399547317975    1.7619595668371 
 O    3.9250696008141    6.6013373966786    5.0782113896683 
 O    5.7544736632193    7.8851998780755    8.3234704071915 
Ce    1.9156884299104    1.1083418527658    0.9809643475031 
Ce    0.1053289201023    2.2643190645725    4.3224637642615 
Ce    5.5904764145553    9.8829293066184    7.5483255238444 
Ce    5.7418510822205    1.1083418527658    0.9809643475031 
Ce    3.8674922429583    2.0690914108208    4.1176623151363 
Ce   -1.8899424050924    9.8266174567676    7.5256048334599 
Ce    9.5680022560654    1.1083418527658    0.9809643475031 
Ce    7.7153509732804    2.1732229192205    4.2927328440000 
Ce    7.6528614637202    0.0421868930017    7.4383370175209 
Ce    0.0026128429880    4.4218859692184    0.9809643475031 
Ce   -1.8743124088712    5.5094283202759    4.3180383755964 
Ce    9.3873493529402    3.4307401139819    7.5682987369612 
Ce    3.8287754952980    4.4218859692184    0.9809643475031 
Ce    2.0931970945106    5.4655187139654    4.3915706300055 
Ce    7.6549266691429    4.4218859692184    0.9809643475031 
Ce    5.6810665838513    5.4248946887445    4.2082823042531 
Ce    5.5294176382650    3.3161883273017    7.5964858692485 
Ce   -1.9104684831671    7.7354400263133    0.9809643475031 
Ce   -3.8125708297265    8.7575264288967    4.2455786523715 
Ce    7.6362571753897    6.6209697675756    7.4595935272012 
Ce    1.9156941691429    7.7354400263133    0.9809643475031 
Ce   -0.0097866540436    8.7678019714254    4.1516760609003 
Ce   -0.0444007113514    6.5581949097336    7.5358641348355 
Ce    5.7418453429879    7.7354400263133    0.9809643475031 
Ce    3.9056900492160    8.7432088224000    4.2747669202113 
Ce    3.7543796035625    6.5273300106745    7.8126020433540 
Cu    1.8881731718896    2.3050633715651    6.8819426474212 
81
FORCE:  3.383274  ...  ENERGY:  -632.51165358
 O    0.0026128429879    0.0038271472816    0.1999463180631 
 O    1.7874086633946    1.0945309208067    3.6419527643840 
 O    0.0432794374979    2.2689217807656    6.7302296671014 
 O    0.0026128429880    2.2128565582500    1.7619595668371 
 O    5.7076713700283    9.8609603877511    5.1348431803398 
 O    1.6672537561520    1.2020233603646    8.2731948806580 
 O    3.8287640168329    0.0038271472816    0.1999463180631 
 O    5.7367764528439    1.1225679059471    3.3728598909925 
 O    3.5965548420599    2.0875791167582    6.6148456583046 
 O    3.8287640168330    2.2128565582500    1.7619595668371 
 O   -1.9393089873644    9.8437207294532    4.9674790457882 
 O    5.7088668521581    1.1172557261137    8.4525715013324 
 O    7.6549266691429    0.0038271472816    0.1999463180631 
 O    9.6185861869430    1.0406491603700    3.6800073204259 
 O    7.4743584770893    2.2563043223198    6.6961899178165 
 O    7.6549266691430    2.2128565582500    1.7619595668371 
 O    7.3210887148527    0.0372758180847    5.0867400883017 
 O    9.5127245512801    1.0929041346959    8.1556169958661 
 O   -1.9104627439346    3.3173712637342    0.1999463180631 
 O    0.1451303253128    4.1982329494320    3.4299161777366 
 O   -1.9756528493476    5.6897542553899    6.7539758998516 
 O   -1.9104684831671    5.5264106153449    1.7619595668371 
 O   -1.7893610355064    3.2732910760020    5.2828999287689 
 O   -0.5283168406850    4.5262570470973    8.5498397239440 
 O    1.9156884299104    3.3173712637342    0.1999463180631 
 O    3.7957921835128    4.2447432265785    3.3559247558938 
 O    1.9863640363547    5.6465324421194    6.8761306324124 
 O    1.9156826906780    5.5264106153449    1.7619595668371 
 O    2.1906888630649    3.3149329235869    5.3213643824156 
 O    4.2711734428034    4.5492794752345    8.7853235028519 
 O    5.7418510822204    3.3173712637342    0.1999463180631 
 O    7.8645661399327    4.2299890270724    3.4944347906587 
 O    5.7218957708179    5.3802153785015    6.7059882269499 
 O    5.7418453429880    5.5264106153449    1.7619595668371 
 O    5.6972972481460    3.3453491020530    5.0306913239396 
 O    7.5509470999937    4.3518588163872    8.4888222341919 
 O   -3.8235440700895    6.6309253208291    0.1999463180631 
 O   -1.8735753192413    7.5907730638155    3.2932286704412 
 O   -3.7789339341442    8.8265929180569    6.5527150353797 
 O   -3.8235440700895    8.8399547317975    1.7619595668371 
 O    7.5675771574780    6.3656769756637    5.0714673537284 
 O   -1.9860994577365    7.7514318357845    8.4127956946917 
 O    0.0026071037555    6.6309253208291    0.1999463180631 
 O    1.9736923275256    7.6624641807596    3.4186646367500 
 O   -0.1358121648181    8.6717775538453    6.7364534045235 
 O    0.0026071037555    8.8399547317975    1.7619595668371 
 O   -0.0268890503627    6.4001215994178    5.0779725678585 
 O    2.0050263560673    7.8632911995004    8.4096408289309 
 O    3.8287697560655    6.6309253208291    0.1999463180631 
 O    5.7988037246186    7.6196614649681    3.4278532317500 
 O    3.6667608071087    8.7853119157871    6.6209637849359 
 O    3.8287697560655    8.8399547317975    1.7619595668371 
 O    3.9197151838532    6.6104542579420    5.0865811018629 
 O    5.7589037193938    7.8926252396468    8.3205607500701 
Ce    1.9156884299104    1.1083418527658    0.9809643475031 
Ce    0.1076124459294    2.2678283101137    4.3212418268831 
Ce    5.5932449629210    9.8787722294192    7.5499874681675 
Ce    5.7418510822205    1.1083418527658    0.9809643475031 
Ce    3.8692261224889    2.0719096823165    4.1142613283317 
Ce   -1.8896630766467    9.8288883964987    7.5266087062250 
Ce    9.5680022560654    1.1083418527658    0.9809643475031 
Ce    7.7159356862875    2.1753086647858    4.2943174620639 
Ce    7.6542647634587    0.0438097028555    7.4394428514597 
Ce    0.0026128429880    4.4218859692184    0.9809643475031 
Ce   -1.8713934352217    5.5104647316411    4.3168253341594 
Ce    9.3885640614988    3.4295861048185    7.5671949559318 
Ce    3.8287754952980    4.4218859692184    0.9809643475031 
Ce    2.0920489610490    5.4656074839010    4.3947738531910 
Ce    7.6549266691429    4.4218859692184    0.9809643475031 
Ce    5.6821642120669    5.4287927128057    4.2112800083836 
Ce    5.5319640783329    3.3182405729025    7.5981320745986 
Ce   -1.9104684831671    7.7354400263133    0.9809643475031 
Ce   -3.8099293479684    8.7594446746394    4.2479228469652 
Ce    7.6387866847218    6.6229290681710    7.4640113885313 
Ce    1.9156941691429    7.7354400263133    0.9809643475031 
Ce   -0.0037225235918    8.7694862144486    4.1543961660408 
Ce   -0.0447209605249    6.5579517616231    7.5338614075287 
Ce    5.7418453429879    7.7354400263133    0.9809643475031 
Ce    3.9087248405773    8.7417302512657    4.2774913592719 
Ce    3.7530231933535    6.5290376142071    7.8132838374224 
Cu    1.8896323143605    2.3039060819897    6.8756995214090 
81
FORCE:  3.234855  ...  ENERGY:  -632.46453510
 O    0.0026128429879    0.0038271472816    0.1999463180631 
 O    1.7718143651996    1.0950470389543    3.6459618686146 
 O    0.0447156804310    2.2663373131767    6.7279039486936 
 O    0.0026128429880    2.2128565582500    1.7619595668371 
 O    5.7118040191746    9.8625666961387    5.1302195718536 
 O    1.6615272647482    1.2078863511872    8.2770689490610 
 O    3.8287640168329    0.0038271472816    0.1999463180631 
 O    5.7358268968268    1.1287683815754    3.3676391139312 
 O    3.6002581966152    2.0828534348199    6.6265600163420 
 O    3.8287640168330    2.2128565582500    1.7619595668371 
 O   -1.9400143964310    9.8438904162171    4.9659352578141 
 O    5.7057835642821    1.1192787462261    8.4524127429947 
 O    7.6549266691429    0.0038271472816    0.1999463180631 
 O    9.6092222273730    1.0465394879590    3.6818394281398 
 O    7.4703263219041    2.2584123349238    6.7017690416431 
 O    7.6549266691430    2.2128565582500    1.7619595668371 
 O    7.3238091110577    0.0398287738377    5.0810852349233 
 O    9.5169375496814    1.0874923496268    8.1526843005377 
 O   -1.9104627439346    3.3173712637342    0.1999463180631 
 O    0.1390649896222    4.1971096568533    3.4296800931395 
 O   -1.9758568216707    5.6859919210960    6.7350175083508 
 O   -1.9104684831671    5.5264106153449    1.7619595668371 
 O   -1.7969322310205    3.2727512991256    5.2762352719978 
 O   -0.5351394107117    4.5251794814731    8.5541674853554 
 O    1.9156884299104    3.3173712637342    0.1999463180631 
 O    3.7971007859151    4.2329577004859    3.3595732323485 
 O    1.9890541294121    5.6549674747282    6.8866073140982 
 O    1.9156826906780    5.5264106153449    1.7619595668371 
 O    2.1875293581813    3.3147948480655    5.3117289374391 
 O    4.2782103731639    4.5570955040479    8.7847217722557 
 O    5.7418510822204    3.3173712637342    0.1999463180631 
 O    7.8709574640294    4.2262718232945    3.4855662214459 
 O    5.7266373525325    5.3762441913130    6.7084660887647 
 O    5.7418453429880    5.5264106153449    1.7619595668371 
 O    5.6995970733934    3.3489680922851    5.0373101323976 
 O    7.5519522691738    4.3508894049511    8.4888956827332 
 O   -3.8235440700895    6.6309253208291    0.1999463180631 
 O   -1.8684586786828    7.5959414025549    3.2938618789837 
 O   -3.7779495409858    8.8230942095965    6.5587268669171 
 O   -3.8235440700895    8.8399547317975    1.7619595668371 
 O    7.5660528173260    6.3671911342973    5.0741498221940 
 O   -1.9800036467212    7.7575048723787    8.4038712407192 
 O    0.0026071037555    6.6309253208291    0.1999463180631 
 O    1.9653148272377    7.6621306722108    3.4072723574094 
 O   -0.1350937276938    8.6711548720123    6.7412519665227 
 O    0.0026071037555    8.8399547317975    1.7619595668371 
 O   -0.0214116990417    6.4079249042091    5.0721135640314 
 O    2.0134089068798    7.8773014413375    8.4042836474357 
 O    3.8287697560655    6.6309253208291    0.1999463180631 
 O    5.7932849934313    7.6231691200065    3.4269077528563 
 O    3.6731157444713    8.7898166172473    6.6163536344123 
 O    3.8287697560655    8.8399547317975    1.7619595668371 
 O    3.9141147259951    6.6190938689691    5.0949047376434 
 O    5.7632579603068    7.8993244372989    8.3178429259402 
Ce    1.9156884299104    1.1083418527658    0.9809643475031 
Ce    0.1097734391426    2.2712603168644    4.3200636849082 
Ce    5.5960400265408    9.8746825497746    7.5515620497847 
Ce    5.7418510822205    1.1083418527658    0.9809643475031 
Ce    3.8709688404375    2.0747873988530    4.1109394925949 
Ce   -1.8893916109494    9.8311709667814    7.5276198782239 
Ce    9.5680022560654    1.1083418527658    0.9809643475031 
Ce    7.7164892352621    2.1774062397154    4.2959191877072 
Ce    7.6555960932217    0.0454094504193    7.4405833567597 
Ce    0.0026128429880    4.4218859692184    0.9809643475031 
Ce   -1.8685079212977    5.5114042217439    4.3155586889732 
Ce    9.3897956434010    3.4283531669552    7.5661137569074 
Ce    3.8287754952980    4.4218859692184    0.9809643475031 
Ce    2.0908048102277    5.4656939674890    4.3979645308183 
Ce    7.6549266691429    4.4218859692184    0.9809643475031 
Ce    5.6833418451836    5.4326593244372    4.2143208236144 
Ce    5.5345842101461    3.3202753229728    7.5997835262730 
Ce   -1.9104684831671    7.7354400263133    0.9809643475031 
Ce   -3.8073374531791    8.7613678907032    4.2502759375001 
Ce    7.6412430762318    6.6248877723278    7.4684557095843 
Ce    1.9156941691429    7.7354400263133    0.9809643475031 
Ce    0.0023455669304    8.7711653877442    4.1571370283777 
Ce   -0.0450038472948    6.5577120927375    7.5319011070191 
Ce    5.7418453429879    7.7354400263133    0.9809643475031 
Ce    3.9117373637166    8.7403139085523    4.2802132892209 
Ce    3.7516961680148    6.5307633097086    7.8139232046935 
Cu    1.8908003055665    2.3029049599046    6.8693843154618 
81
FORCE:  3.030208  ...  ENERGY:  -632.41868337
 O    0.0026128429879    0.0038271472816    0.1999463180631 
 O    1.7572811937014    1.0952334259973    3.6489951565104 
 O    0.0465489060761    2.2637855503008    6.7254281397884 
 O    0.0026128429880    2.2128565582500    1.7619595668371 
 O    5.7160787143253    9.8638703119686    5.1258007981193 
 O    1.6563478369862    1.2130694020773    8.2811006352965 
 O    3.8287640168329    0.0038271472816    0.1999463180631 
 O    5.7349111448891    1.1346713337801    3.3621368601619 
 O    3.6057366383904    2.0775675976887    6.6388033407375 
 O    3.8287640168330    2.2128565582500    1.7619595668371 
 O   -1.9402225010015    9.8439377336744    4.9643786961806 
 O    5.7023533398015    1.1209380382372    8.4517136132458 
 O    7.6549266691429    0.0038271472816    0.1999463180631 
 O    9.5996423004840    1.0525245498690    3.6830219040349 
 O    7.4666800153199    2.2604938060129    6.7071786863820 
 O    7.6549266691430    2.2128565582500    1.7619595668371 
 O    7.3272516748882    0.0421046838899    5.0756776430939 
 O    9.5209599481713    1.0822003492973    8.1500631912572 
 O   -1.9104627439346    3.3173712637342    0.1999463180631 
 O    0.1330207169148    4.1971025989972    3.4293758063255 
 O   -1.9761694376650    5.6818863364238    6.7156521845589 
 O   -1.9104684831671    5.5264106153449    1.7619595668371 
 O   -1.8048566189025    3.2726353912365    5.2694155065059 
 O   -0.5416965986276    4.5245112714983    8.5585030022028 
 O    1.9156884299104    3.3173712637342    0.1999463180631 
 O    3.7982962106525    4.2219914821308    3.3632401849891 
 O    1.9914858996147    5.6633403783226    6.8966843627268 
 O    1.9156826906780    5.5264106153449    1.7619595668371 
 O    2.1835448386259    3.3149268597951    5.3016619252571 
 O    4.2848837231456    4.5653692994387    8.7840559452615 
 O    5.7418510822204    3.3173712637342    0.1999463180631 
 O    7.8769265527910    4.2230915136066    3.4762870703251 
 O    5.7311879325894    5.3730104009697    6.7109749723236 
 O    5.7418453429880    5.5264106153449    1.7619595668371 
 O    5.7016824809146    3.3521260355278    5.0438005199589 
 O    7.5531564175446    4.3502924693816    8.4885872901001 
 O   -3.8235440700895    6.6309253208291    0.1999463180631 
 O   -1.8635359667906    7.6014935494932    3.2951219092392 
 O   -3.7768986301228    8.8192474792496    6.5650436695716 
 O   -3.8235440700895    8.8399547317975    1.7619595668371 
 O    7.5649358478969    6.3694991526242    5.0768744893557 
 O   -1.9741008460950    7.7635577294691    8.3950204633891 
 O    0.0026071037555    6.6309253208291    0.1999463180631 
 O    1.9568308641869    7.6618296695622    3.3961902955103 
 O   -0.1341058909959    8.6707713620327    6.7457060959213 
 O    0.0026071037555    8.8399547317975    1.7619595668371 
 O   -0.0153542834919    6.4161931328402    5.0664149152494 
 O    2.0215330774452    7.8910379178860    8.3991792019150 
 O    3.8287697560655    6.6309253208291    0.1999463180631 
 O    5.7876682935452    7.6270506426015    3.4257829865294 
 O    3.6797438693009    8.7943457726874    6.6116479095445 
 O    3.8287697560655    8.8399547317975    1.7619595668371 
 O    3.9083034661272    6.6271661675407    5.1031391859094 
 O    5.7675323111036    7.9051991580794    8.3153652922265 
Ce    1.9156884299104    1.1083418527658    0.9809643475031 
Ce    0.1117963464219    2.2746052435885    4.3189339003580 
Ce    5.5988554644360    9.8706780614345    7.5530410570578 
Ce    5.7418510822205    1.1083418527658    0.9809643475031 
Ce    3.8727152888873    2.0777123334404    4.1077059319683 
Ce   -1.8891268027619    9.8334622848292    7.5286356122441 
Ce    9.5680022560654    1.1083418527658    0.9809643475031 
Ce    7.7170119645582    2.1795122641910    4.2975307216961 
Ce    7.6568544199474    0.0469825570616    7.4417539713997 
Ce    0.0026128429880    4.4218859692184    0.9809643475031 
Ce   -1.8656644185556    5.5122447030495    4.3142377557347 
Ce    9.3910419177383    3.4270442825849    7.5650549117869 
Ce    3.8287754952980    4.4218859692184    0.9809643475031 
Ce    2.0894682003707    5.4657801528576    4.4011319421375 
Ce    7.6549266691429    4.4218859692184    0.9809643475031 
Ce    5.6845959248772    5.4364847818097    4.2173972226107 
Ce    5.5372715483719    3.3222845255925    7.6014370308569 
Ce   -1.9104684831671    7.7354400263133    0.9809643475031 
Ce   -3.8048027785378    8.7632918026120    4.2526310809446 
Ce    7.6436242264037    6.6268388221901    7.4729118918925 
Ce    1.9156941691429    7.7354400263133    0.9809643475031 
Ce    0.0084004572179    8.7728342227719    4.1598867866560 
Ce   -0.0452524134544    6.5574764001088    7.5299861986204 
Ce    5.7418453429879    7.7354400263133    0.9809643475031 
Ce    3.9147184932541    8.7389710271853    4.2829219893084 
Ce    3.7504034632865    6.5325072959920    7.8145190046623 
Cu    1.8916709471368    2.3020542397375    6.8630264546164 
81
FORCE:  2.794946  ...  ENERGY:  -632.37470197
 O    0.0026128429879    0.0038271472816    0.1999463180631 
 O    1.7439640507854    1.0950615522921    3.6510190972158 
 O    0.0487621263051    2.2612951211879    6.7228008717793 
 O    0.0026128429880    2.2128565582500    1.7619595668371 
 O    5.7204711211345    9.8648507575177    5.1216121783545 
 O    1.6517404959199    1.2175927919449    8.2852367918175 
 O    3.8287640168329    0.0038271472816    0.1999463180631 
 O    5.7340310909776    1.1402577759342    3.3563998904018 
 O    3.6128814089296    2.0718026215990    6.6514859877745 
 O    3.8287640168330    2.2128565582500    1.7619595668371 
 O   -1.9399428855941    9.8438878316501    4.9628235031536 
 O    5.6985981025844    1.1222280353872    8.4504948692822 
 O    7.6549266691429    0.0038271472816    0.1999463180631 
 O    9.5899198110597    1.0585467897811    3.6835549762121 
 O    7.4634484256761    2.2625321347145    6.7124065345762 
 O    7.6549266691430    2.2128565582500    1.7619595668371 
 O    7.3313984999387    0.0440882396525    5.0705684074509 
 O    9.5247634523337    1.0770721707527    8.1477710037053 
 O   -1.9104627439346    3.3173712637342    0.1999463180631 
 O    0.1270258589993    4.1982545206258    3.4290001238797 
 O   -1.9765647559996    5.6774834271407    6.6960254569523 
 O   -1.9104684831671    5.5264106153449    1.7619595668371 
 O   -1.8130842104375    3.2729432529283    5.2625051848932 
 O   -0.5479842147930    4.5242781634366    8.5628141122368 
 O    1.9156884299104    3.3173712637342    0.1999463180631 
 O    3.7993800073178    4.2119520298565    3.3669073657307 
 O    1.9936177949192    5.6715869363536    6.9063081745493 
 O    1.9156826906780    5.5264106153449    1.7619595668371 
 O    2.1787919506233    3.3153046042021    5.2912536738893 
 O    4.2911646818013    4.5740815765609    8.7833531658957 
 O    5.7418510822204    3.3173712637342    0.1999463180631 
 O    7.8824346090059    4.2204962107176    3.4666463790242 
 O    5.7355359751314    5.3705582433296    6.7134922956218 
 O    5.7418453429880    5.5264106153449    1.7619595668371 
 O    5.7035406722211    3.3548331706426    5.0501284995654 
 O    7.5545711383559    4.3500847099577    8.4879105142550 
 O   -3.8235440700895    6.6309253208291    0.1999463180631 
 O   -1.8588367980043    7.6073881515583    3.2970053396916 
 O   -3.7757855059794    8.8150766839640    6.5716289471738 
 O   -3.8235440700895    8.8399547317975    1.7619595668371 
 O    7.5642059896999    6.3725874119644    5.0796094210651 
 O   -1.9684201537665    7.7695085955696    8.3863038094823 
 O    0.0026071037555    6.6309253208291    0.1999463180631 
 O    1.9483092517709    7.6615535185194    3.3854916714931 
 O   -0.1328318961655    8.6706341811691    6.7497834023688 
 O    0.0026071037555    8.8399547317975    1.7619595668371 
 O   -0.0087223707688    6.4248760850677    5.0609151705917 
 O    2.0293731560018    7.9044554986297    8.3943722001766 
 O    3.8287697560655    6.6309253208291    0.1999463180631 
 O    5.7819905282252    7.6312576218250    3.4245003742690 
 O    3.6866148210576    8.7988865586791    6.6068673675290 
 O    3.8287697560655    8.8399547317975    1.7619595668371 
 O    3.9023171596681    6.6345897397964    5.1112447570765 
 O    5.7717241317369    7.9101605326464    8.3131741534442 
Ce    1.9156884299104    1.1083418527658    0.9809643475031 
Ce    0.1136675083939    2.2778547401467    4.3178554385463 
Ce    5.6016851356278    9.8667753652715    7.5544176469549 
Ce    5.7418510822205    1.1083418527658    0.9809643475031 
Ce    3.8744609338445    2.0806724579015    4.1045684018880 
Ce   -1.8888679059838    9.8357600642946    7.5296533991738 
Ce    9.5680022560654    1.1083418527658    0.9809643475031 
Ce    7.7175041037451    2.1816235572070    4.2991454490998 
Ce    7.6580389401430    0.0485258417772    7.4429503614594 
Ce    0.0026128429880    4.4218859692184    0.9809643475031 
Ce   -1.8628702732130    5.5129849826809    4.3128613939387 
Ce    9.3923012775258    3.4256622350873    7.5640179643681 
Ce    3.8287754952980    4.4218859692184    0.9809643475031 
Ce    2.0880421158791    5.4658682269483    4.4042665069040 
Ce    7.6549266691429    4.4218859692184    0.9809643475031 
Ce    5.6859229502159    5.4402602377515    4.2205019061383 
Ce    5.5400201816008    3.3242609240926    7.6030891668345 
Ce   -1.9104684831671    7.7354400263133    0.9809643475031 
Ce   -3.8023319241619    8.7652121358896    4.2549818904690 
Ce    7.6459288152141    6.6287751599018    7.4773657931900 
Ce    1.9156941691429    7.7354400263133    0.9809643475031 
Ce    0.0144257330657    8.7744881468361    4.1626342639237 
Ce   -0.0454695286198    6.5572450813628    7.5281182790400 
Ce    5.7418453429879    7.7354400263133    0.9809643475031 
Ce    3.9176591038101    8.7377122436521    4.2856076511888 
Ce    3.7491507610087    6.5342698712764    7.8150700968232 
Cu    1.8922488304572    2.3013451737229    6.8566542234043 
81
FORCE:  2.952279  ...  ENERGY:  -632.33333898
 O    0.0026128429879    0.0038271472816    0.1999463180631 
 O    1.7319955127222    1.0945089519872    3.6520079153109 
 O    0.0513314085184    2.2588917721014    6.7200216884643 
 O    0.0026128429880    2.2128565582500    1.7619595668371 
 O    5.7249564461179    9.8654929230096    5.1176767507664 
 O    1.6477239514471    1.2214841557757    8.2894197090558 
 O    3.8287640168329    0.0038271472816    0.1999463180631 
 O    5.7331879977233    1.1455123994487    3.3504772463789 
 O    3.6215480517509    2.0656472764866    6.6645162608270 
 O    3.8287640168330    2.2128565582500    1.7619595668371 
 O   -1.9391903000363    9.8437670528463    4.9612842772007 
 O    5.6945440809234    1.1231470477669    8.4487816022205 
 O    7.6549266691429    0.0038271472816    0.1999463180631 
 O    9.5801293691226    1.0645509377242    3.6834425223895 
 O    7.4606566334189    2.2645121118458    6.7174423216778 
 O    7.6549266691430    2.2128565582500    1.7619595668371 
 O    7.3362288675800    0.0457688046380    5.0658029201054 
 O    9.5283240721767    1.0721491670650    8.1458223363497 
 O   -1.9104627439346    3.3173712637342    0.1999463180631 
 O    0.1211048076136    4.2005907703768    3.4285530458021 
 O   -1.9770149413969    5.6728290196077    6.6762837664114 
 O   -1.9104684831671    5.5264106153449    1.7619595668371 
 O   -1.8215625490405    3.2736685221897    5.2555649820417 
 O   -0.5540029479157    4.5245030207652    8.5670677408037 
 O    1.9156884299104    3.3173712637342    0.1999463180631 
 O    3.8003564803354    4.2029372589894    3.3705572107918 
 O    1.9954118789987    5.6796458150581    6.9154326731514 
 O    1.9156826906780    5.5264106153449    1.7619595668371 
 O    2.1733311282919    3.3158979611404    5.2805961080629 
 O    4.2970297182777    4.5832092731244    8.7826396657800 
 O    5.7418510822204    3.3173712637342    0.1999463180631 
 O    7.8874466807482    4.2185275659185    3.4566950140796 
 O    5.7396725269558    5.3689221130151    6.7159943361489 
 O    5.7418453429880    5.5264106153449    1.7619595668371 
 O    5.7051620054024    3.3571054026573    5.0562625932709 
 O    7.5562053274179    4.3502801429852    8.4868794974638 
 O   -3.8235440700895    6.6309253208291    0.1999463180631 
 O   -1.8543883762859    7.6135832592398    3.2995023619954 
 O   -3.7746155060419    8.8106087628803    6.5784450630488 
 O   -3.8235440700895    8.8399547317975    1.7619595668371 
 O    7.5638370718348    6.3764372239105    5.0823217707695 
 O   -1.9629872241050    7.7752752615684    8.3777780761627 
 O    0.0026071037555    6.6309253208291    0.1999463180631 
 O    1.9398173111870    7.6612959564777    3.3752442313726 
 O   -0.1312559603134    8.6707470074591    6.7534571980412 
 O    0.0026071037555    8.8399547317975    1.7619595668371 
 O   -0.0015274967299    6.4339215725194    5.0556485452174 
 O    2.0369087108820    7.9175138245611    8.3899032442091 
 O    3.8287697560655    6.6309253208291    0.1999463180631 
 O    5.7762875676746    7.6357386645565    3.4230822699790 
 O    3.6936982392014    8.8034275434836    6.6020334498655 
 O    3.8287697560655    8.8399547317975    1.7619595668371 
 O    3.8961915620362    6.6412929137054    5.1191844987730 
 O    5.7758300360597    7.9141291352678    8.3113128487946 
Ce    1.9156884299104    1.1083418527658    0.9809643475031 
Ce    0.1153747578856    2.2810022457150    4.3168301242816 
Ce    5.6045237600223    9.8629889746232    7.5556854326463 
Ce    5.7418510822205    1.1083418527658    0.9809643475031 
Ce    3.8762018152387    2.0836559428720    4.1015332891837 
Ce   -1.8886133710224    9.8380620188296    7.5306711861036 
Ce    9.5680022560654    1.1083418527658    0.9809643475031 
Ce    7.7179655380381    2.1837375341964    4.3007562987855 
Ce    7.6591490798855    0.0500369188117    7.4441675087155 
Ce    0.0026128429880    4.4218859692184    0.9809643475031 
Ce   -1.8601317984256    5.5136252594508    4.3114284630798 
Ce    9.3935723453476    3.4242108019066    7.5630017741458 
Ce    3.8287754952980    4.4218859692184    0.9809643475031 
Ce    2.0865295411537    5.4659607743280    4.4073581886712 
Ce    7.6549266691429    4.4218859692184    0.9809643475031 
Ce    5.6873195924447    5.4439783361872    4.2236280311656 
Ce    5.5428243132080    3.3261978582428    7.6047378812962 
Ce   -1.9104684831671    7.7354400263133    0.9809643475031 
Ce   -3.7999298831836    8.7671248148726    4.2573226635467 
Ce    7.6481560965627    6.6306907216710    7.4818039555145 
Ce    1.9156941691429    7.7354400263133    0.9809643475031 
Ce    0.0204068742156    8.7761226866478    4.1653687394310 
Ce   -0.0456590380770    6.5570188323442    7.5262984887834 
Ce    5.7418453429879    7.7354400263133    0.9809643475031 
Ce    3.9205510456745    8.7365469021565    4.2882611508198 
Ce    3.7479430543138    6.5360519302197    7.8155762530754 
Cu    1.8925479018628    2.3007665289352    6.8502954501546 
81
FORCE:  3.080614  ...  ENERGY:  -632.29533684
 O    0.0026128429879    0.0038271472816    0.1999463180631 
 O    1.7214849692833    1.0935597200549    3.6519454156205 
 O    0.0542259330374    2.2565978694866    6.7170894493380 
 O    0.0026128429880    2.2128565582500    1.7619595668371 
 O    5.7295108140682    9.8657880606792    5.1140136758438 
 O    1.6443109446640    1.2247762976893    8.2935909931400 
 O    3.8287640168329    0.0038271472816    0.1999463180631 
 O    5.7323844477810    1.1504245678363    3.3444166012147 
 O    3.6315643898792    2.0591975889560    6.6778042880773 
 O    3.8287640168330    2.2128565582500    1.7619595668371 
 O   -1.9379837411879    9.8436027340292    4.9597758448909 
 O    5.6902201431579    1.1236965664727    8.4466043776028 
 O    7.6549266691429    0.0038271472816    0.1999463180631 
 O    9.5703469047187    1.0704854017649    3.6826918418011 
 O    7.4583249554311    2.2664206157590    6.7222782922508 
 O    7.6549266691430    2.2128565582500    1.7619595668371 
 O    7.3417198208821    0.0471394203970    5.0614220111470 
 O    9.5316239012949    1.0674687150492    8.1442276818393 
 O   -1.9104627439346    3.3173712637342    0.1999463180631 
 O    0.1152792570569    4.2041196983898    3.4280384498107 
 O   -1.9774895185323    5.6679679461215    6.6565719571094 
 O   -1.9104684831671    5.5264106153449    1.7619595668371 
 O   -1.8302379154952    3.2748002643144    5.2486528356205 
 O   -0.5597569876356    4.5252054265494    8.5712319537550 
 O    1.9156884299104    3.3173712637342    0.1999463180631 
 O    3.8012318280763    4.1950334543046    3.3741712439864 
 O    1.9968314207652    5.6874585634595    6.9240186251509 
 O    1.9156826906780    5.5264106153449    1.7619595668371 
 O    2.1672244701272    3.3166725359877    5.2697802401009 
 O    4.3024621314083    4.5927276369300    8.7819393955258 
 O    5.7418510822204    3.3173712637342    0.1999463180631 
 O    7.8919318335546    4.2172194767995    3.4464852106340 
 O    5.7435901270603    5.3681262651933    6.7184589681022 
 O    5.7418453429880    5.5264106153449    1.7619595668371 
 O    5.7065393064177    3.3589621158242    5.0621758851503 
 O    7.5580671344409    4.3508887091062    8.4855102068007 
 O   -3.8235440700895    6.6309253208291    0.1999463180631 
 O   -1.8502150933735    7.6200354319310    3.3025983776828 
 O   -3.7733953452125    8.8058726432677    6.5854536962183 
 O   -3.8235440700895    8.8399547317975    1.7619595668371 
 O    7.5637981024461    6.3810257249852    5.0849791481185 
 O   -1.9578234644478    7.7807777052952    8.3694980076847 
 O    0.0026071037555    6.6309253208291    0.1999463180631 
 O    1.9314193218390    7.6610508202388    3.3655068252223 
 O   -0.1293641371044    8.6711111331862    6.7567055852366 
 O    0.0026071037555    8.8399547317975    1.7619595668371 
 O    0.0062126617889    6.4432769097914    5.0506481137801 
 O    2.0441244183349    7.9301784016514    8.3858079177778 
 O    3.8287697560655    6.6309253208291    0.1999463180631 
 O    5.7705927568342    7.6404417812368    3.4215507994622 
 O    3.7009658293162    8.8079584882394    6.5971682823567 
 O    3.8287697560655    8.8399547317975    1.7619595668371 
 O    3.8899617399421    6.6472137590662    5.1269262487494 
 O    5.7798458344323    7.9170378666083    8.3098194711547 
Ce    1.9156884299104    1.1083418527658    0.9809643475031 
Ce    0.1169074199248    2.2840431875979    4.3158588699681 
Ce    5.6073666314489    9.8593314146990    7.5568398521110 
Ce    5.7418510822205    1.1083418527658    0.9809643475031 
Ce    3.8779351208460    2.0866515554261    4.0986060682807 
Ce   -1.8883621074235    9.8403660608996    7.5316866920227 
Ce    9.5680022560654    1.1083418527658    0.9809643475031 
Ce    7.7183962674372    2.1858524058436    4.3023568839236 
Ce    7.6601852409211    0.0515135018174    7.4454013073491 
Ce    0.0026128429880    4.4218859692184    0.9809643475031 
Ce   -1.8574536429718    5.5141666268299    4.3099371383495 
Ce    9.3948544898881    3.4226936610803    7.5620058849179 
Ce    3.8287754952980    4.4218859692184    0.9809643475031 
Ce    2.0849329440646    5.4660608765959    4.4103985477000 
Ce    7.6549266691429    4.4218859692184    0.9809643475031 
Ce    5.6887831541245    5.4476332121379    4.2267701232671 
Ce    5.5456788352765    3.3280898606898    7.6063804370292 
Ce   -1.9104684831671    7.7354400263133    0.9809643475031 
Ce   -3.7976005008889    8.7690261615234    4.2596476976513 
Ce   -3.8281585278042    6.6325800401447    7.4862152019138 
Ce    1.9156941691429    7.7354400263133    0.9809643475031 
Ce    0.0263311395714    8.7777342635759    4.1680815453376 
Ce   -0.0458246723270    6.5567981500854    7.5245270559514 
Ce    5.7418453429879    7.7354400263133    0.9809643475031 
Ce    3.9233868578451    8.7354835516507    4.2908738203610 
Ce    3.7467854511185    6.5378547651055    7.8160374734187 
Cu    1.8925901426140    2.3003056807587    6.8439770507926 
81
FORCE:  3.177733  ...  ENERGY:  -632.26125150
 O    0.0026128429879    0.0038271472816    0.1999463180631 
 O    1.7125175906791    1.0922072956714    3.6508231584053 
 O    0.0574106905440    2.2544328970023    6.7140027857940 
 O    0.0026128429880    2.2128565582500    1.7619595668371 
 O    5.7341124732944    9.8657338841787    5.1106393768632 
 O    1.6415080182956    1.2275052028108    8.2976911096935 
 O    3.8287640168329    0.0038271472816    0.1999463180631 
 O    5.7316227942359    1.1549872232410    3.3382660842329 
 O    3.6427389051260    2.0525550529650    6.6912613382131 
 O    3.8287640168330    2.2128565582500    1.7619595668371 
 O   -1.9363451903091    9.8434228084038    4.9583128046921 
 O    5.6856576828897    1.1238814624193    8.4439949014764 
 O    7.6549266691429    0.0038271472816    0.1999463180631 
 O    9.5606459948086    1.0763034608844    3.6813125146912 
 O    7.4564699207024    2.2682463141220    6.7269096561731 
 O    7.6549266691430    2.2128565582500    1.7619595668371 
 O    7.3478491490151    0.0481970053302    5.0574594395327 
 O    9.5346503133768    1.0630658057661    8.1429963923174 
 O   -1.9104627439346    3.3173712637342    0.1999463180631 
 O    0.1095671137342    4.2088319604609    3.4274652318469 
 O   -1.9779588155738    5.6629414603475    6.6370296268949 
 O   -1.9104684831671    5.5264106153449    1.7619595668371 
 O   -1.8390560740544    3.2763246618096    5.2418202964692 
 O   -0.5652536227778    4.5264001923463    8.5752761855488 
 O    1.9156884299104    3.3173712637342    0.1999463180631 
 O    3.8020156350588    4.1883144747743    3.3777328139372 
 O    1.9978430752780    5.6949716014958    6.9320350088035 
 O    1.9156826906780    5.5264106153449    1.7619595668371 
 O    2.1605339598404    3.3175905543031    5.2588957137198 
 O    4.3074497540201    4.6026102258690    8.7812751652391 
 O    5.7418510822204    3.3173712637342    0.1999463180631 
 O    7.8958628634632    4.2165979878435    3.4360687476280 
 O    5.7472835527433    5.3681857102342    6.7208633813757 
 O    5.7418453429880    5.5264106153449    1.7619595668371 
 O    5.7076680986658    3.3604255771821    5.0678448807945 
 O    7.5601640778194    4.3519172673639    8.4838190655418 
 O   -3.8235440700895    6.6309253208291    0.1999463180631 
 O   -1.8463377826811    7.6267012290250    3.3062735419615 
 O   -3.7721330010241    8.8008994393364    6.5926178943108 
 O   -3.8235440700895    8.8399547317975    1.7619595668371 
 O    7.5640543591772    6.3863273677377    5.0875489346605 
 O   -1.9529458055307    7.7859396820235    8.3615124176751 
 O    0.0026071037555    6.6309253208291    0.1999463180631 
 O    1.9231758326300    7.6608128412624    3.3563300914774 
 O   -0.1271438576194    8.6717252660669    6.7595128249821 
 O    0.0026071037555    8.8399547317975    1.7619595668371 
 O    0.0144756643885    6.4528905049501    5.0459433013165 
 O    2.0510087998957    7.9424194079738    8.3821183831323 
 O    3.8287697560655    6.6309253208291    0.1999463180631 
 O    5.7649376040903    7.6453141870552    3.4199290009256 
 O    3.7083910761477    8.8124706451812    6.5922946751088 
 O    3.8287697560655    8.8399547317975    1.7619595668371 
 O    3.8836609235419    6.6523014791966    5.1344410381711 
 O    5.7837674519995    7.9188339418573    8.3087284637848 
Ce    1.9156884299104    1.1083418527658    0.9809643475031 
Ce    0.1182572874088    2.2869744841964    4.3149400788985 
Ce    5.6102103063680    9.8558126261412    7.5578772557319 
Ce    5.7418510822205    1.1083418527658    0.9809643475031 
Ce    3.8796590141120    2.0896487584830    4.0957903887960 
Ce   -1.8881123934175    9.8426706000017    7.5326980921227 
Ce    9.5680022560654    1.1083418527658    0.9809643475031 
Ce    7.7187958328038    2.1879667804586    4.3039410457853 
Ce    7.6611474806420    0.0529542985109    7.4466476515409 
Ce    0.0026128429880    4.4218859692184    0.9809643475031 
Ce   -1.8548393077834    5.5146111723531    4.3083851387372 
Ce    9.3961466780854    3.4211147888653    7.5610289280779 
Ce    3.8287754952980    4.4218859692184    0.9809643475031 
Ce    2.0832548498739    5.4661717147574    4.4133798285542 
Ce    7.6549266691429    4.4218859692184    0.9809643475031 
Ce    5.6903106508544    5.4512208893468    4.2299224799163 
Ce    5.5485790416358    3.3299329551768    7.6080156935284 
Ce   -1.9104684831671    7.7354400263133    0.9809643475031 
Ce   -3.7953459007936    8.7709130942429    4.2619528869636 
Ce   -3.8260843691787    6.6344383438144    7.4905897240425 
Ce    1.9156941691429    7.7354400263133    0.9809643475031 
Ce    0.0321878541607    8.7793198954276    4.1707644700053 
Ce   -0.0459700470862    6.5565839292440    7.5228037524431 
Ce    5.7418453429879    7.7354400263133    0.9809643475031 
Ce    3.9261600549891    8.7345292499909    4.2934385886797 
Ce    3.7456827149860    6.5396800658427    7.8164539859542 
Cu    1.8924043062656    2.2999488117004    6.8377232040306 
81
FORCE:  3.240464  ...  ENERGY:  -632.23174533
 O    0.0026128429879    0.0038271472816    0.1999463180631 
 O    1.7051532944967    1.0904536669650    3.6486411436653 
 O    0.0608457933722    2.2524120638311    6.7107596449230 
 O    0.0026128429880    2.2128565582500    1.7619595668371 
 O    5.7387417382289    9.8653336739201    5.1075673117872 
 O    1.6393164923655    1.2297089438001    8.3016630334513 
 O    3.8287640168329    0.0038271472816    0.1999463180631 
 O    5.7309058493120    1.1591972840637    3.3320745090602 
 O    3.6548681416992    2.0458237470383    6.7048021014379 
 O    3.8287640168330    2.2128565582500    1.7619595668371 
 O   -1.9342985799996    9.8432552091748    4.9569104393752 
 O    5.6808906763752    1.1237102845590    8.4409862484950 
 O    7.6549266691429    0.0038271472816    0.1999463180631 
 O    9.5510995276450    1.0819623703209    3.6793168585173 
 O    7.4551032946595    2.2699799621374    6.7313329919286 
 O    7.6549266691430    2.2128565582500    1.7619595668371 
 O    7.3545933211258    0.0489419570634    5.0539430335918 
 O    9.5373963639511    1.0589705593619    8.1421337141085 
 O   -1.9104627439346    3.3173712637342    0.1999463180631 
 O    0.1039825535501    4.2147039972680    3.4268450250648 
 O   -1.9783928737278    5.6577889272294    6.6177899867871 
 O   -1.9104684831671    5.5264106153449    1.7619595668371 
 O   -1.8479646255256    3.2782225292356    5.2351127566989 
 O   -0.5705026100377    4.5280994457393    8.5791716954515 
 O    1.9156884299104    3.3173712637342    0.1999463180631 
 O    3.8027185762554    4.1828417535680    3.3812268659743 
 O    1.9984172280973    5.7021352259557    6.9394574172959 
 O    1.9156826906780    5.5264106153449    1.7619595668371 
 O    2.1533200889418    3.3186130487691    5.2480262420087 
 O    4.3119856990341    4.6128286097046    8.7806659073078 
 O    5.7418510822204    3.3173712637342    0.1999463180631 
 O    7.8992158378743    4.2166804951746    3.4254962634970 
 O    5.7507488439345    5.3691063131167    6.7231872749749 
 O    5.7418453429880    5.5264106153449    1.7619595668371 
 O    5.7085456273150    3.3615202407111    5.0732508759165 
 O    7.5625009785088    4.3533691975768    8.4818227250647 
 O   -3.8235440700895    6.6309253208291    0.1999463180631 
 O   -1.8427757280300    7.6335369116957    3.3105034480181 
 O   -3.7708377710335    8.7957207623290    6.5999025297630 
 O   -3.8235440700895    8.8399547317975    1.7619595668371 
 O    7.5645696848634    6.3923149148082    5.0900010210555 
 O   -1.9483656684264    7.7906901161611    8.3538671544471 
 O    0.0026071037555    6.6309253208291    0.1999463180631 
 O    1.9151438915309    7.6605776456658    3.3477575974405 
 O   -0.1245850782017    8.6725865233149    6.7618670560223 
 O    0.0026071037555    8.8399547317975    1.7619595668371 
 O    0.0232351679916    6.4627117601262    5.0415614799539 
 O    2.0575546815236    7.9542116937031    8.3788622405008 
 O    3.8287697560655    6.6309253208291    0.1999463180631 
 O    5.7593510925671    7.6503042900784    3.4182378596667 
 O    3.7159499323118    8.8169571552660    6.5874340696212 
 O    3.8287697560655    8.8399547317975    1.7619595668371 
 O    3.8773207360069    6.6565164109340    5.1417044602246 
 O    5.7875913304373    7.9194779960712    8.3080678831150 
Ce    1.9156884299104    1.1083418527658    0.9809643475031 
Ce    0.1194181045742    2.2897944456012    4.3140721543652 
Ce    5.6130519725557    9.8524400644315    7.5587951343973 
Ce    5.7418510822205    1.1083418527658    0.9809643475031 
Ce    3.8813719454440    2.0926383072453    4.0930880755382 
Ce   -1.8878626220191    9.8449742444460    7.5337040177973 
Ce    9.5680022560654    1.1083418527658    0.9809643475031 
Ce    7.7191637176071    2.1900803598223    4.3055035380463 
Ce    7.6620365451486    0.0543582154216    7.4479022073709 
Ce    0.0026128429880    4.4218859692184    0.9809643475031 
Ce   -1.8522908589841    5.5149618782131    4.3067694989293 
Ce    9.3974490821167    3.4194776644866    7.5600702193227 
Ce    3.8287754952980    4.4218859692184    0.9809643475031 
Ce    2.0814968655668    5.4662968674438    4.4162951882020 
Ce    7.6549266691429    4.4218859692184    0.9809643475031 
Ce    5.6919003608646    5.4547381868083    4.2330816795973 
Ce    5.5515216035308    3.3317239606982    7.6096422821872 
Ce   -1.9104684831671    7.7354400263133    0.9809643475031 
Ce   -3.7931668863903    8.7727828296512    4.2642343537658 
Ce   -3.8240850501450    6.6362620540489    7.4949193102623 
Ce    1.9156941691429    7.7354400263133    0.9809643475031 
Ce    0.0379681221730    8.7808770970423    4.1734106704024 
Ce   -0.0460990076405    6.5563772632908    7.5211272096521 
Ce    5.7418453429879    7.7354400263133    0.9809643475031 
Ce    3.9288651848356    8.7336900609687    4.2959495251482 
Ce    3.7446392651252    6.5415299199665    7.8168262468842 
Cu    1.8920233934046    2.2996817066421    6.8315569480756 
81
FORCE:  3.271512  ...  ENERGY:  -632.20763718
 O    0.0026128429879    0.0038271472816    0.1999463180631 
 O    1.6994282379010    1.0883101662680    3.6454066706345 
 O    0.0644873363935    2.2505471993375    6.7073550085014 
 O    0.0026128429880    2.2128565582500    1.7619595668371 
 O    5.7433809320356    9.8645965752943    5.1048068327590 
 O    1.6377332676881    1.2314258915364    8.3054511077547 
 O    3.8287640168329    0.0038271472816    0.1999463180631 
 O    5.7302369417642    1.1630553467428    3.3258879521109 
 O    3.6677462333290    2.0391073520751    6.7183446894711 
 O    3.8287640168330    2.2128565582500    1.7619595668371 
 O   -1.9318692776670    9.8431279689535    4.9555835755092 
 O    5.6759547642482    1.1231942658178    8.4376119495144 
 O    7.6549266691429    0.0038271472816    0.1999463180631 
 O    9.5417778662185    1.0874249520721    3.6767167345344 
 O    7.4542338009358    2.2716140049170    6.7355469309110 
 O    7.6549266691430    2.2128565582500    1.7619595668371 
 O    7.3619291507150    0.0493780530407    5.0508946910259 
 O    9.5398603312480    1.0552092191322    8.1416421563242 
 O   -1.9104627439346    3.3173712637342    0.1999463180631 
 O    0.0985374567157    4.2216981337769    3.4261915155279 
 O   -1.9787614472389    5.6525450396086    6.5989771237625 
 O   -1.9104684831671    5.5264106153449    1.7619595668371 
 O   -1.8569121463854    3.2804721959923    5.2285694496917 
 O   -0.5755174940038    4.5303121333067    8.5828904270327 
 O    1.9156884299104    3.3173712637342    0.1999463180631 
 O    3.8033523597004    4.1786638010199    3.3846390297309 
 O    1.9985270770073    5.7089048033552    6.9462682868465 
 O    1.9156826906780    5.5264106153449    1.7619595668371 
 O    2.1456407088952    3.3197004556292    5.2372480107215 
 O    4.3160687038193    4.6233525688841    8.7801280450083 
 O    5.7418510822204    3.3173712637342    0.1999463180631 
 O    7.9019706694743    4.2174781323119    3.4148158875646 
 O    5.7539846232180    5.3708852904609    6.7254114884110 
 O    5.7418453429880    5.5264106153449    1.7619595668371 
 O    5.7091728106426    3.3622719520811    5.0783774472400 
 O    7.5650825426796    4.3552448973705    8.4795366962414 
 O   -3.8235440700895    6.6309253208291    0.1999463180631 
 O   -1.8395439662092    7.6405011268712    3.3152607237255 
 O   -3.7695195841129    8.7903709074614    6.6072742998200 
 O   -3.8235440700895    8.8399547317975    1.7619595668371 
 O    7.5653070614550    6.3989590413020    5.0923057541657 
 O   -1.9440889071521    7.7949626042173    8.3466007670797 
 O    0.0026071037555    6.6309253208291    0.1999463180631 
 O    1.9073752090265    7.6603411577857    3.3398212772599 
 O   -0.1216793621792    8.6736902328283    6.7637614353256 
 O    0.0026071037555    8.8399547317975    1.7619595668371 
 O    0.0324612711970    6.4726916679532    5.0375256878993 
 O    2.0637586196791    7.9655353775549    8.3760625280904 
 O    3.8287697560655    6.6309253208291    0.1999463180631 
 O    5.7538603688344    7.6553612936241    3.4164963080736 
 O    3.7236212200406    8.8214115570761    6.5826083635959 
 O    3.8287697560655    8.8399547317975    1.7619595668371 
 O    3.8709707343842    6.6598292293836    5.1486946172083 
 O    5.7913125340057    7.9189459728959    8.3078605392515 
Ce    1.9156884299104    1.1083418527658    0.9809643475031 
Ce    0.1203851652505    2.2925026741867    4.3132512186502 
Ce    5.6158901952039    9.8492187992974    7.5595925757031 
Ce    5.7418510822205    1.1083418527658    0.9809643475031 
Ce    3.8830737426649    2.0956119509799    4.0905007252146 
Ce   -1.8876113584202    9.8472759007618    7.5347035566422 
Ce    9.5680022560654    1.1083418527658    0.9809643475031 
Ce    7.7194993479237    2.1921929451218    4.3070402548875 
Ce    7.6628531805410    0.0557249543300    7.4491620095253 
Ce    0.0026128429880    4.4218859692184    0.9809643475031 
Ce   -1.8498092722434    5.5152228200732    4.3050872536118 
Ce    9.3987617593741    3.4177861647945    7.5591281619449 
Ce    3.8287754952980    4.4218859692184    0.9809643475031 
Ce    2.0796604833438    5.4664399132864    4.4191396084202 
Ce    7.6549266691429    4.4218859692184    0.9809643475031 
Ce    5.6935502754237    5.4581838122389    4.2362445288953 
Ce    5.5545033643839    3.3334609885320    7.6112599749047 
Ce   -1.9104684831671    7.7354400263133    0.9809643475031 
Ce   -3.7910632855021    8.7746332802135    4.2664898170470 
Ce   -3.8221587915410    6.6380478904363    7.4991973456426 
Ce    1.9156941691429    7.7354400263133    0.9809643475031 
Ce    0.0436658026298    8.7824043773237    4.1760155845076 
Ce   -0.0462152844909    6.5561794445093    7.5194956027699 
Ce    5.7418453429879    7.7354400263133    0.9809643475031 
Ce    3.9314977707834    8.7329705572798    4.2984018396442 
Ce    3.7436594633528    6.5434069120437    7.8171549405116 
Cu    1.8914839055496    2.2994894546202    6.8254997244273 
81
FORCE:  3.268853  ...  ENERGY:  -632.19002684
 O    0.0026128429879    0.0038271472816    0.1999463180631 
 O    1.6953570559348    1.0857971718971    3.6411331972754 
 O    0.0682880857243    2.2488475483188    6.7037827178007 
 O    0.0026128429880    2.2128565582500    1.7619595668371 
 O    5.7480155918487    9.8635349146978    5.1023638704064 
 O    1.6367520311075    1.2326940192733    8.3090026412589 
 O    3.8287640168329    0.0038271472816    0.1999463180631 
 O    5.7296212942939    1.1665644928776    3.3197481558789 
 O    3.6811696094386    2.0325085549101    6.7318099512451 
 O    3.8287640168330    2.2128565582500    1.7619595668371 
 O   -1.9290830524652    9.8430694185704    4.9543461272587 
 O    5.6708865628121    1.1223465278433    8.4339066758958 
 O    7.6549266691429    0.0038271472816    0.1999463180631 
 O    9.5327470117028    1.0926603901469    3.6735233196944 
 O    7.4538673509407    2.2731423786691    6.7395503326151 
 O    7.6549266691430    2.2128565582500    1.7619595668371 
 O    7.3698347713068    0.0495115558666    5.0483287822020 
 O    9.5420449700991    1.0518042509286    8.1415221751666 
 O   -1.9104627439346    3.3173712637342    0.1999463180631 
 O    0.0932411781801    4.2297667543108    3.4255213546136 
 O   -1.9790364712604    5.6472421045725    6.5807021230375 
 O   -1.9104684831671    5.5264106153449    1.7619595668371 
 O   -1.8658507714348    3.2830509974151    5.2222223095962 
 O   -0.5803129671116    4.5330448158722    8.5864052362662 
 O    1.9156884299104    3.3173712637342    0.1999463180631 
 O    3.8039293247436    4.1758176957259    3.3879551629411 
 O    1.9981489763702    5.7152407699380    6.9524550718968 
 O    1.9156826906780    5.5264106153449    1.7619595668371 
 O    2.1375500554476    3.3208119188436    5.2266285377722 
 O    4.3197020971303    4.6341506909781    8.7796754925053 
 O    5.7418510822204    3.3173712637342    0.1999463180631 
 O    7.9041085909729    4.2189951737318    3.4040714152344 
 O    5.7569904888475    5.3735131986567    6.7275168611948 
 O    5.7418453429880    5.5264106153449    1.7619595668371 
 O    5.7095525182648    3.3627071534005    5.0832111368025 
 O    7.5679125582254    4.3575421798037    8.4769769461461 
 O   -3.8235440700895    6.6309253208291    0.1999463180631 
 O   -1.8366556974536    7.6475529191053    3.3205129787331 
 O   -3.7681888856654    8.7848836729173    6.6146996736262 
 O   -3.8235440700895    8.8399547317975    1.7619595668371 
 O    7.5662288395868    6.4062301241050    5.0944334808534 
 O   -1.9401168417311    7.7986978005578    8.3397483831363 
 O    0.0026071037555    6.6309253208291    0.1999463180631 
 O    1.8999169616081    7.6601003954295    3.3325453096481 
 O   -0.1184197076885    8.6750300325962    6.7651914008708 
 O    0.0026071037555    8.8399547317975    1.7619595668371 
 O    0.0421201699252    6.4827822151289    5.0338559980460 
 O    2.0696213030702    7.9763747533144    8.3737395468954 
 O    3.8287697560655    6.6309253208291    0.1999463180631 
 O    5.7484891359223    7.6604381784545    3.4147223661300 
 O    3.7313861146515    8.8258288802905    6.5778387704313 
 O    3.8287697560655    8.8399547317975    1.7619595668371 
 O    3.8646377208898    6.6622211467314    5.1553928048352 
 O    5.7949267008879    7.9172277328760    8.3081230835715 
Ce    1.9156884299104    1.1083418527658    0.9809643475031 
Ce    0.1211561163522    2.2950994681721    4.3124733940356 
Ce    5.6187241708201    9.8461514153060    7.5602688953460 
Ce    5.7418510822205    1.1083418527658    0.9809643475031 
Ce    3.8847644057747    2.0985627312373    4.0880283378253 
Ce   -1.8873569382435    9.8495746742914    7.5356964805564 
Ce    9.5680022560654    1.1083418527658    0.9809643475031 
Ce    7.7198014037302    2.1943052322020    4.3085473185909 
Ce    7.6635982477042    0.0570548134556    7.4504238645892 
Ce    0.0026128429880    4.4218859692184    0.9809643475031 
Ce   -1.8473940310304    5.5153982724096    4.3033352093699 
Ce    9.4000854559579    3.4160435702011    7.5582020716413 
Ce    3.8287754952980    4.4218859692184    0.9809643475031 
Ce    2.0777465066974    5.4666048285420    4.4219087552886 
Ce    7.6549266691429    4.4218859692184    0.9809643475031 
Ce    5.6952590171159    5.4615577656385    4.2394094311028 
Ce    5.5575227172098    3.3351436410524    7.6128685435799 
Ce   -1.9104684831671    7.7354400263133    0.9809643475031 
Ce   -3.7890336633208    8.7764629548334    4.2687172238979 
Ce   -3.8203033550661    6.6397935666288    7.5034199524654 
Ce    1.9156941691429    7.7354400263133    0.9809643475031 
Ce    0.0492763615371    8.7839008416141    4.1785755627040 
Ce   -0.0463224359617    6.5559914669636    7.5179068788870 
Ce    5.7418453429879    7.7354400263133    0.9809643475031 
Ce    3.9340544840775    8.7323747151809    4.3007921106520 
Ce    3.7427469827776    6.5453138254542    7.8174407511398 
Cu    1.8908233198888    2.2993578405163    6.8195706935748 
81
FORCE:  3.232831  ...  ENERGY:  -632.17962590
 O    0.0026128429879    0.0038271472816    0.1999463180631 
 O    1.6929336650117    1.0829439093406    3.6358389716728 
 O    0.0721978804726    2.2473184787217    6.7000336487786 
 O    0.0026128429880    2.2128565582500    1.7619595668371 
 O    5.7526338948491    9.8621659888480    5.1002413900431 
 O    1.6363636572442    1.2335486162910    8.3122692765391 
 O    3.8287640168329    0.0038271472816    0.1999463180631 
 O    5.7290650478800    1.1697299910085    3.3136941256454 
 O    3.6949430787307    2.0261266625599    6.7451219291067 
 O    3.8287640168330    2.2128565582500    1.7619595668371 
 O   -1.9259658457252    9.8431073918239    4.9532120087883 
 O    5.6657242379630    1.1211814845669    8.4299041865960 
 O    7.6549266691429    0.0038271472816    0.1999463180631 
 O    9.5240673982161    1.0976431370948    3.6697471066461 
 O    7.4540066995057    2.2745609083239    6.7433425127376 
 O    7.6549266691430    2.2128565582500    1.7619595668371 
 O    7.3782895790565    0.0493517103386    5.0462535187581 
 O    9.5439574545451    1.0487734485008    8.1417735425347 
 O   -1.9104627439346    3.3173712637342    0.1999463180631 
 O    0.0880989406448    4.2388528989896    3.4248518780025 
 O   -1.9791897087681    5.6419093476096    6.5630632961687 
 O   -1.9104684831671    5.5264106153449    1.7619595668371 
 O   -1.8747336111444    3.2859331872407    5.2160964275288 
 O   -0.5849050992118    4.5363016685057    8.5896926287429 
 O    1.9156884299104    3.3173712637342    0.1999463180631 
 O    3.8044620403042    4.1743293827622    3.3911622638447 
 O    1.9972625519106    5.7211102221781    6.9580122980216 
 O    1.9156826906780    5.5264106153449    1.7619595668371 
 O    2.1290997816916    3.3219070794047    5.2162282699415 
 O    4.3228931104004    4.6451925576210    8.7793185143464 
 O    5.7418510822204    3.3173712637342    0.1999463180631 
 O    7.9056144507962    4.2212304265571    3.3933043608992 
 O    5.7597671869234    5.3769752261470    6.7294856014437 
 O    5.7418453429880    5.5264106153449    1.7619595668371 
 O    5.7096885954674    3.3628513921202    5.0877400833488 
 O    7.5709937225853    4.3602571680259    8.4741578451455 
 O   -3.8235440700895    6.6309253208291    0.1999463180631 
 O   -1.8341204488891    7.6546539175188    3.3262262259829 
 O   -3.7668562358789    8.7792948450090    6.6221458046289 
 O   -3.8235440700895    8.8399547317975    1.7619595668371 
 O    7.5672992064481    6.4140993353546    5.0963556884860 
 O   -1.9364468321167    7.8018440138426    8.3333387433503 
 O    0.0026071037555    6.6309253208291    0.1999463180631 
 O    1.8928121361271    7.6598532710621    3.3259440649717 
 O   -0.1148012363819    8.6765992623881    6.7661564964556 
 O    0.0026071037555    8.8399547317975    1.7619595668371 
 O    0.0521746739496    6.4929370782603    5.0305702022767 
 O    2.0751463474133    7.9867171963657    8.3719092639899 
 O    3.8287697560655    6.6309253208291    0.1999463180631 
 O    5.7432596620529    7.6654898140534    3.4129308604048 
 O    3.7392283167242    8.8302049498394    6.5731451349197 
 O    3.8287697560655    8.8399547317975    1.7619595668371 
 O    3.8583472925005    6.6636834152123    5.1617810031216 
 O    5.7984287805594    7.9143276498943    8.3088666930271 
Ce    1.9156884299104    1.1083418527658    0.9809643475031 
Ce    0.1217299822099    2.2975857222153    4.3117334341970 
Ce    5.6215543011505    9.8432384094893    7.5608252338313 
Ce    5.7418510822205    1.1083418527658    0.9809643475031 
Ce    3.8864443939121    2.1014852800705    4.0856702290670 
Ce   -1.8870974101498    9.8518695709705    7.5366823333377 
Ce    9.5680022560654    1.1083418527658    0.9809643475031 
Ce    7.7200690241417    2.1964181157207    4.3100224481459 
Ce    7.6642728370922    0.0583480910175    7.4516854915521 
Ce    0.0026128429880    4.4218859692184    0.9809643475031 
Ce   -1.8450440448910    5.5154935037627    4.3015094884857 
Ce    9.4014215492839    3.4142528628990    7.5572910360077 
Ce    3.8287754952980    4.4218859692184    0.9809643475031 
Ce    2.0757554521585    5.4667954900611    4.4245996634935 
Ce    7.6549266691429    4.4218859692184    0.9809643475031 
Ce    5.6970258972334    5.4648608422586    4.2425763862198 
Ce    5.5605783419852    3.3367724152916    7.6144682163136 
Ce   -1.9104684831671    7.7354400263133    0.9809643475031 
Ce   -3.7870758963304    8.7782709588531    4.2709163462174 
Ce   -3.8185167893812    6.6414972933109    7.5075839373157 
Ce    1.9156941691429    7.7354400263133    0.9809643475031 
Ce    0.0547971014558    8.7853661916940    4.1810887801830 
Ce   -0.0464237334153    6.5558146229372    7.5163585288917 
Ce    5.7418453429879    7.7354400263133    0.9809643475031 
Ce    3.9365328568480    8.7319052186456    4.3031182852618 
Ce    3.7419052669391    6.5472538412035    7.8176850473751 
Cu    1.8900793431799    2.2992730468376    6.8137871911985 
81
FORCE:  3.167758  ...  ENERGY:  -632.17716724
 O    0.0026128429879    0.0038271472816    0.1999463180631 
 O    1.6921349360246    1.0797886500713    3.6295479444380 
 O    0.0761648953689    2.2459634697712    6.6960970806851 
 O    0.0026128429880    2.2128565582500    1.7619595668371 
 O    5.7572272321882    9.8605110707196    5.0984403040734 
 O    1.6365566102409    1.2340233813668    8.3152058495856 
 O    3.8287640168329    0.0038271472816    0.1999463180631 
 O    5.7285760078787    1.1725586007721    3.3077625856812 
 O    3.7088810918185    2.0200579998483    6.7582089993231 
 O    3.8287640168330    2.2128565582500    1.7619595668371 
 O   -1.9225427952852    9.8432699213254    4.9521949061618 
 O    5.6605067590896    1.1197145439841    8.4256391529761 
 O    7.6549266691429    0.0038271472816    0.1999463180631 
 O    9.5157959589448    1.1023525163797    3.6653981318361 
 O    7.4546523631620    2.2758673075337    6.7469246117838 
 O    7.6549266691430    2.2128565582500    1.7619595668371 
 O    7.3872745197122    0.0489098487888    5.0446736908165 
 O    9.5456093204432    1.0461312257801    8.1423939774179 
 O   -1.9104627439346    3.3173712637342    0.1999463180631 
 O    0.0831157372420    4.2488912577933    3.4242022461836 
 O   -1.9791943001541    5.6365716203256    6.5461507430750 
 O   -1.9104684831671    5.5264106153449    1.7619595668371 
 O   -1.8835163012468    3.2890910310770    5.2102105077766 
 O   -0.5893113949637    4.5400841823034    8.5927307067611 
 O    1.9156884299104    3.3173712637342    0.1999463180631 
 O    3.8049635918324    4.1742131766539    3.3942496116918 
 O    1.9958517911698    5.7264828411166    6.9629372280081 
 O    1.9156826906780    5.5264106153449    1.7619595668371 
 O    2.1203374658645    3.3229462741497    5.2061019514838 
 O    4.3256531647019    4.6564474522281    8.7790653221698 
 O    5.7418510822204    3.3173712637342    0.1999463180631 
 O    7.9064756800252    4.2241774293704    3.3825541860425 
 O    5.7623168983538    5.3812502987703    6.7313015139823 
 O    5.7418453429880    5.5264106153449    1.7619595668371 
 O    5.7095866666982    3.3627291222200    5.0919553909376 
 O    7.5743272409983    4.3633832018069    8.4710935355055 
 O   -3.8235440700895    6.6309253208291    0.1999463180631 
 O   -1.8319449928099    7.6617683357993    3.3323651098107 
 O   -3.7655320801565    8.7736400112359    6.6295821272859 
 O   -3.8235440700895    8.8399547317975    1.7619595668371 
 O    7.5684833822898    6.4225360578726    5.0980445487343 
 O   -1.9330724503683    7.8043553183043    8.3273953421309 
 O    0.0026071037555    6.6309253208291    0.1999463180631 
 O    1.8861007924262    7.6595981941810    3.3200248424647 
 O   -0.1108207342892    8.6783907649416    6.7666578625855 
 O    0.0026071037555    8.8399547317975    1.7619595668371 
 O    0.0625836903655    6.5031131149597    5.0276844957667 
 O    2.0803396641178    7.9965540583502    8.3705853654377 
 O    3.8287697560655    6.6309253208291    0.1999463180631 
 O    5.7381914606168    7.6704748473490    3.4111354769615 
 O    3.7471348555931    8.8345365847173    6.5685486704596 
 O    3.8287697560655    8.8399547317975    1.7619595668371 
 O    3.8521240705238    6.6642163330454    5.1678441573975 
 O    5.8018129763953    7.9102635177005    8.3100975263469 
Ce    1.9156884299104    1.1083418527658    0.9809643475031 
Ce    0.1221075089237    2.2999627285997    4.3110254085067 
Ce    5.6243817914339    9.8404780919382    7.5612627316644 
Ce    5.7418510822205    1.1083418527658    0.9809643475031 
Ce    3.8881148549236    2.1043752235971    4.0834250303334 
Ce   -1.8868312245465    9.8541596961412    7.5376617992894 
Ce    9.5680022560654    1.1083418527658    0.9809643475031 
Ce    7.7203006021730    2.1985329873679    4.3114638187441 
Ce    7.6648778669824    0.0596059798929    7.4529452937064 
Ce    0.0026128429880    4.4218859692184    0.9809643475031 
Ce   -1.8427570181321    5.5155138820794    4.2996066694431 
Ce    9.4027713019832    3.4124168262680    7.5563941426398 
Ce    3.8287754952980    4.4218859692184    0.9809643475031 
Ce    2.0736875492964    5.4670158741007    4.4272105082262 
Ce    7.6549266691429    4.4218859692184    0.9809643475031 
Ce    5.6988499974989    5.4680952290405    4.2457460785496 
Ce    5.5636701813175    3.3383491999717    7.6160601336114 
Ce   -1.9104684831671    7.7354400263133    0.9809643475031 
Ce   -3.7851868279530    8.7800567952405    4.2730867278033 
Ce   -3.8167966266163    6.6431577781990    7.5116883877893 
Ce    1.9156941691429    7.7354400263133    0.9809643475031 
Ce    0.0602269893241    8.7868008251893    4.1835543245406 
Ce   -0.0465222760373    6.5556503041202    7.5148473593692 
Ce    5.7418453429879    7.7354400263133    0.9809643475031 
Ce    3.9389312247174    8.7315641552086    4.3053789948675 
Ce    3.7411376445922    6.5492301402972    7.8178885135206 
Cu    1.8892887065107    2.2992223495619    6.8081642719684 
81
FORCE:  3.075433  ...  ENERGY:  -632.18289890
 O    0.0026128429879    0.0038271472816    0.1999463180631 
 O    1.6929221291543    1.0763760275732    3.6222886282035 
 O    0.0801352964124    2.2447839131571    6.6919634332758 
 O    0.0026128429880    2.2128565582500    1.7619595668371 
 O    5.7617895202794    9.8585950119182    5.0969592438908 
 O    1.6373171159395    1.2341487328660    8.3177717584095 
 O    3.8287640168329    0.0038271472816    0.1999463180631 
 O    5.7281627831387    1.1750582746823    3.3019879792462 
 O    3.7228149152667    2.0143948159357    6.7710036439806 
 O    3.8287640168330    2.2128565582500    1.7619595668371 
 O   -1.9188374319985    9.8435848408731    4.9513087335437 
 O    5.6552731529729    1.1179632016255    8.4211460182962 
 O    7.6549266691429    0.0038271472816    0.1999463180631 
 O    9.5079849782969    1.1067729211932    3.6604855193069 
 O    7.4558027923166    2.2770614768920    6.7502977702591 
 O    7.6549266691430    2.2128565582500    1.7619595668371 
 O    7.3967722607918    0.0481990928651    5.0435881578720 
 O    9.5470154324057    1.0438886168795    8.1433798301992 
 O   -1.9104627439346    3.3173712637342    0.1999463180631 
 O    0.0782952984729    4.2598101586910    3.4235927601513 
 O   -1.9790251649723    5.6312510903527    6.5300468082390 
 O   -1.9104684831671    5.5264106153449    1.7619595668371 
 O   -1.8921561418523    3.2924953034356    5.2045777802009 
 O   -0.5935499903419    4.5443921584526    8.5954989412252 
 O    1.9156884299104    3.3173712637342    0.1999463180631 
 O    3.8054468352089    4.1754732524706    3.3972087667432 
 O    1.9939036660900    5.7313348686184    6.9672325990689 
 O    1.9156826906780    5.5264106153449    1.7619595668371 
 O    2.1113065539565    3.3238896411030    5.1962970274197 
 O    4.3279961489777    4.6678839623699    8.7789243557147 
 O    5.7418510822204    3.3173712637342    0.1999463180631 
 O    7.9066812593333    4.2278246510266    3.3718592116422 
 O    5.7646418614396    5.3863126702629    6.7329504565451 
 O    5.7418453429880    5.5264106153449    1.7619595668371 
 O    5.7092531598976    3.3623630083645    5.0958509008403 
 O    7.5779139169568    4.3669127262584    8.4677961065821 
 O   -3.8235440700895    6.6309253208291    0.1999463180631 
 O   -1.8301331171097    7.6688623757631    3.3388938183500 
 O   -3.7642278395709    8.7679566478194    6.6369794446617 
 O   -3.8235440700895    8.8399547317975    1.7619595668371 
 O    7.5697498587256    6.4315113643898    5.0994754266837 
 O   -1.9299835954368    7.8061931442509    8.3219377961694 
 O    0.0026071037555    6.6309253208291    0.1999463180631 
 O    1.8798192598473    7.6593342701282    3.3147880983292 
 O   -0.1064775127025    8.6803975818071    6.7666998331805 
 O    0.0026071037555    8.8399547317975    1.7619595668371 
 O    0.0733059540913    6.5132718549416    5.0252127926805 
 O    2.0852106081329    8.0058778837861    8.3697781157863 
 O    3.8287697560655    6.6309253208291    0.1999463180631 
 O    5.7333003145034    7.6753554044941    3.4093471646511 
 O    3.7550950562860    8.8388210015443    6.5640694499444 
 O    3.8287697560655    8.8399547317975    1.7619595668371 
 O    3.8459907823203    6.6638274551191    5.1735688097003 
 O    5.8050726308860    7.9050665499113    8.3118160397329 
Ce    1.9156884299104    1.1083418527658    0.9809643475031 
Ce    0.1222901313019    2.3022319784216    4.3103424739331 
Ce    5.6272081912632    9.8378669834279    7.5615838979569 
Ce    5.7418510822205    1.1083418527658    0.9809643475031 
Ce    3.8897772236172    2.1072294802178    4.0812904606140 
Ce   -1.8865567170560    9.8564439563330    7.5386353346135 
Ce    9.5680022560654    1.1083418527658    0.9809643475031 
Ce    7.7204946456239    2.2006514376464    4.3128698336779 
Ce    7.6654143704365    0.0608292753331    7.4542014462439 
Ce    0.0026128429880    4.4218859692184    0.9809643475031 
Ce   -1.8405307698453    5.5154655705579    4.2976221902211 
Ce    9.4041364932180    3.4105377466559    7.5555104791333 
Ce    3.8287754952980    4.4218859692184    0.9809643475031 
Ce    2.0715422815802    5.4672702551369    4.4297401489816 
Ce    7.6549266691429    4.4218859692184    0.9809643475031 
Ce    5.7007313179123    5.4712637093640    4.2489201047995 
Ce    5.5667989239149    3.3398765796595    7.6176449797763 
Ce   -1.9104684831671    7.7354400263133    0.9809643475031 
Ce   -3.7833628998645    8.7818202651828    4.2752292810599 
Ce   -3.8151403989014    6.6447743254482    7.5157330757852 
Ce    1.9156941691429    7.7354400263133    0.9809643475031 
Ce    0.0655664842805    8.7882057361642    4.1859728800798 
Ce   -0.0466208186593    6.5554999022023    7.5133710893089 
Ce    5.7418453429879    7.7354400263133    0.9809643475031 
Ce    3.9412484972316    8.7313526183407    4.3075737832668 
Ce    3.7404467557839    6.5512465001793    7.8180518338795 
Cu    1.8884867061611    2.2991941181378    6.8027149376450 
81
FORCE:  3.050626  ...  ENERGY:  -632.19693480
 O    0.0026128429879    0.0038271472816    0.1999463180631 
 O    1.6952442226238    1.0727582302181    3.6140920447135 
 O    0.0840542739327    2.2437785165958    6.6876222139019 
 O    0.0026128429880    2.2128565582500    1.7619595668371 
 O    5.7663174303680    9.8564462426808    5.0957961565859 
 O    1.6386303097278    1.2339526039937    8.3199284539318 
 O    3.8287640168329    0.0038271472816    0.1999463180631 
 O    5.7278342120780    1.1772385557558    3.2964022404889 
 O    3.7365875236739    2.0092265766027    6.7834429071867 
 O    3.8287640168330    2.2128565582500    1.7619595668371 
 O   -1.9148721962643    9.8440802824849    4.9505676331998 
 O    5.6500628481400    1.1159452512406    8.4164592258164 
 O    7.6549266691429    0.0038271472816    0.1999463180631 
 O    9.5006832971411    1.1108925221710    3.6550179368987 
 O    7.4574539695069    2.2781446092759    6.7534647253762 
 O    7.6549266691430    2.2128565582500    1.7619595668371 
 O    7.4067669620136    0.0472339559052    5.0429930422065 
 O    9.5481945577228    1.0420540713449    8.1447269950596 
 O   -1.9104627439346    3.3173712637342    0.1999463180631 
 O    0.0736389443610    4.2715319652665    3.4230453176073 
 O   -1.9786587149772    5.6259667443178    6.5148267650105 
 O   -1.9104684831671    5.5264106153449    1.7619595668371 
 O   -1.9006137618260    3.2961153871384    5.1992073688443 
 O   -0.5976389065365    4.5492222171349    8.5979793121517 
 O    1.9156884299104    3.3173712637342    0.1999463180631 
 O    3.8059239376067    4.1781036458269    3.4000331140681 
 O    1.9914106008843    5.7356458269603    6.9709050261349 
 O    1.9156826906780    5.5264106153449    1.7619595668371 
 O    2.1020485980107    3.3246980141341    5.1868559245463 
 O    4.3299381330788    4.6794696815525    8.7789013175076 
 O    5.7418510822204    3.3173712637342    0.1999463180631 
 O    7.9062218911640    4.2321571805623    3.3612573024745 
 O    5.7667442570890    5.3921319222595    6.7344189711693 
 O    5.7418453429880    5.5264106153449    1.7619595668371 
 O    5.7086957082449    3.3617736276831    5.0994220510356 
 O    7.5817534634993    4.3708364965831    8.4642769634284 
 O   -3.8235440700895    6.6309253208291    0.1999463180631 
 O   -1.8286852809269    7.6759040285421    3.3457763116334 
 O   -3.7629541317022    8.7622826286067    6.6443124375386 
 O   -3.8235440700895    8.8399547317975    1.7619595668371 
 O    7.5710689639234    6.4409975205143    5.1006239155208 
 O   -1.9271672392644    7.8073257810334    8.3169813882366 
 O    0.0026071037555    6.6309253208291    0.1999463180631 
 O    1.8740004241925    7.6590627911872    3.3102301829483 
 O   -0.1017728342530    8.6826133509735    6.7662894793736 
 O    0.0026071037555    8.8399547317975    1.7619595668371 
 O    0.0842988226295    6.5233784065514    5.0231667261723 
 O    2.0897696822540    8.0146838017587    8.3694954985730 
 O    3.8287697560655    6.6309253208291    0.1999463180631 
 O    5.7286005717937    7.6800966932408    3.4075761880213 
 O    3.7631008838772    8.8430560133791    6.5597289148736 
 O    3.8287697560655    8.8399547317975    1.7619595668371 
 O    3.8399690647967    6.6625323882415    5.1789451516845 
 O    5.8082005125986    7.8987798889142    8.3140176711640 
Ce    1.9156884299104    1.1083418527658    0.9809643475031 
Ce    0.1222808911376    2.3043945651518    4.3096773312421 
Ce    5.6300361980776    9.8354000142308    7.5617912418204 
Ce    5.7418510822205    1.1083418527658    0.9809643475031 
Ce    3.8914332217628    2.1100462606171    4.0792635545948 
Ce   -1.8862721085164    9.8587208604496    7.5396040798153 
Ce    9.5680022560654    1.1083418527658    0.9809643475031 
Ce    7.7206494327244    2.2027754546845    4.3142395805432 
Ce    7.6658830935547    0.0620192696216    7.4554530367601 
Ce    0.0026128429880    4.4218859692184    0.9809643475031 
Ce   -1.8383622582375    5.5153548318028    4.2955517168995 
Ce    9.4055190743272    3.4086180098169    7.5546395892862 
Ce    3.8287754952980    4.4218859692184    0.9809643475031 
Ce    2.0693194768330    5.4675629076459    4.4321879014565 
Ce    7.6549266691429    4.4218859692184    0.9809643475031 
Ce    5.7026700880432    5.4743696630475    4.2521002897780 
Ce    5.5699657750161    3.3413582323928    7.6192241234146 
Ce   -1.9104684831671    7.7354400263133    0.9809643475031 
Ce   -3.7815999224251    8.7835616668991    4.2773444621893 
Ce   -3.8135457531513    6.6463462392136    7.5197193699098 
Ce    1.9156941691429    7.7354400263133    0.9809643475031 
Ce    0.0708169063484    8.7895822169021    4.1883453592048 
Ce   -0.0467220013283    6.5553650076864    7.5119260690938 
Ce    5.7418453429879    7.7354400263133    0.9809643475031 
Ce    3.9434838708980    8.7312712044803    4.3097028785609 
Ce    3.7398349535994    6.5533065988875    7.8181754646541 
Cu    1.8877061705411    2.2991782131101    6.7974499089781 
