81
FORCE:  2.668025  ...  ENERGY:  -632.49506061
 O    0.0026128429879    0.0038271472816    0.1999463180631 
 O    1.9262254886035    1.0454282235574    3.3839440058010 
 O    0.1761163841880    2.1486272850345    6.7088768987737 
 O    0.0026128429880    2.2128565582500    1.7619595668371 
 O    0.0167494335203    0.0048316491851    5.1516774947700 
 O    1.9619159389666    1.1350065322381    8.0267554078382 
 O    3.8287640168329    0.0038271472816    0.1999463180631 
 O    5.6618339566052    1.0925150579567    3.2557512100810 
 O    3.8274578249083    2.2380182126081    6.3425938133331 
 O    3.8287640168330    2.2128565582500    1.7619595668371 
 O   -1.9234250301051    9.7624697962253    5.1113677035478 
 O    5.6924866808568    0.9135883676514    8.2757566836628 
 O    7.6549266691429    0.0038271472816    0.1999463180631 
 O    9.6797514833885    1.0296776734746    3.2866052999619 
 O    7.5927306065404    2.2055418360274    6.5936714931069 
 O    7.6549266691430    2.2128565582500    1.7619595668371 
 O    1.9808551766473    9.8066111189076    4.9575511752527 
 O    9.6148392142207    0.9755772189076    8.1257156841128 
 O   -1.9104627439346    3.3173712637342    0.1999463180631 
 O   -0.0542853340938    4.3728360567797    3.3545673264858 
 O   -2.2151296716277    5.3759174424010    6.5800743889203 
 O   -1.9104684831671    5.5264106153449    1.7619595668371 
 O   -1.7469945951147    3.3750739088478    5.2225019614957 
 O   -0.5495339797450    4.5410998177262    8.4502585565840 
 O    1.9156884299104    3.3173712637342    0.1999463180631 
 O    3.7232098892474    4.2382131192518    3.4778664420645 
 O    1.9985116958642    5.6822533449372    6.8256997690570 
 O    1.9156826906780    5.5264106153449    1.7619595668371 
 O    1.9454980609078    3.4273840537384    5.1290049337091 
 O    3.8299330411009    4.4770089182513    8.4232753416913 
 O    5.7418510822204    3.3173712637342    0.1999463180631 
 O    7.6871214677750    4.3071353696924    3.3647401775596 
 O    5.7194656076005    5.4894275491756    6.4829893314600 
 O    5.7418453429880    5.5264106153449    1.7619595668371 
 O    5.7827033982940    3.1774756107228    4.8913172423595 
 O    7.5379782710981    4.2874846086071    8.2746526745324 
 O   -3.8235440700895    6.6309253208291    0.1999463180631 
 O   -1.8987893172065    7.7167628517339    3.3360138143664 
 O   -3.8789894178562    8.6437192957304    6.6052001768815 
 O   -3.8235440700895    8.8399547317975    1.7619595668371 
 O    7.6180508376993    6.5221033203648    5.0350272969891 
 O   -2.0992315531304    7.6851764608574    8.4467088478883 
 O    0.0026071037555    6.6309253208291    0.1999463180631 
 O    1.9881673605985    7.6140309857686    3.2805638152868 
 O   -0.0032610319065    8.8613211483356    6.6799965673650 
 O    0.0026071037555    8.8399547317975    1.7619595668371 
 O    0.1472044265460    6.7270175335896    5.1510586565942 
 O    1.9314290211419    7.7083361692646    8.5255378370116 
 O    3.8287697560655    6.6309253208291    0.1999463180631 
 O    5.6321522531003    7.7163264575373    3.4063088585319 
 O    3.7340716163229    8.7691962459130    6.7265303241103 
 O    3.8287697560655    8.8399547317975    1.7619595668371 
 O    3.7258145825251    6.5622223609574    4.9800540291249 
 O    5.6551000003283    7.7158506983973    8.3083936114287 
Ce    1.9156884299104    1.1083418527658    0.9809643475031 
Ce    0.0746617329848    2.2967258566572    4.2280846696759 
Ce    5.7128152145488    9.8274638030522    7.4049804309107 
Ce    5.7418510822205    1.1083418527658    0.9809643475031 
Ce    3.7916241233020    2.2030800359642    4.0412320367599 
Ce   -1.8884052090596    9.8252213929644    7.3959371362859 
Ce    9.5680022560654    1.1083418527658    0.9809643475031 
Ce    7.5702219105987    2.1390989805867    4.1478152223587 
Ce    1.8813766579785    9.8134243357267    7.5311289849310 
Ce    0.0026128429880    4.4218859692184    0.9809643475031 
Ce   -1.9890740445489    5.4939788722481    4.2459992707262 
Ce    9.4822413639566    3.1106615716990    7.3998871623420 
Ce    3.8287754952980    4.4218859692184    0.9809643475031 
Ce    1.9324440044096    5.5964366747054    4.2119862092653 
Ce    7.6549266691429    4.4218859692184    0.9809643475031 
Ce    5.6471042737863    5.2967990751635    4.1801225440929 
Ce    5.7259041081883    3.3837531830377    7.5392726489751 
Ce   -1.9104684831671    7.7354400263133    0.9809643475031 
Ce   -3.9100960006139    8.7174000322289    4.1245924815412 
Ce    7.6650608337145    6.5584945206922    7.5034261111940 
Ce    1.9156941691429    7.7354400263133    0.9809643475031 
Ce   -0.1769470807001    8.8070015026061    4.1343047965749 
Ce   -0.1625385653318    6.3991259446861    7.5575075039136 
Ce    5.7418453429879    7.7354400263133    0.9809643475031 
Ce    3.7629428254141    8.7942746970951    4.2175609991717 
Ce    3.7099599527439    6.6283182879821    7.6080918792824 
Cu    2.0696367989979    2.3849781830628    6.6855672514523 
81
FORCE:  2.724764  ...  ENERGY:  -632.56676405
 O    0.0026128429879    0.0038271472816    0.1999463180631 
 O    1.9162942059008    1.0497945512768    3.3847852425103 
 O    0.1817348632362    2.1559261022295    6.7018185395731 
 O    0.0026128429880    2.2128565582500    1.7619595668371 
 O    0.0203851225244    0.0027940163285    5.1495572954173 
 O    1.9703675901384    1.1435364979807    8.0337615318961 
 O    3.8287640168329    0.0038271472816    0.1999463180631 
 O    5.6556755879558    1.0977194812276    3.2580801219036 
 O    3.8269575360112    2.2491892081943    6.3344829958417 
 O    3.8287640168330    2.2128565582500    1.7619595668371 
 O   -1.9178529814478    9.7607891318333    5.1062192345226 
 O    5.7056847920908    0.9179895870253    8.2717473513312 
 O    7.6549266691429    0.0038271472816    0.1999463180631 
 O    9.6819935719570    1.0236534454340    3.2906207910222 
 O    7.5944772271672    2.2087909349598    6.5980941445593 
 O    7.6549266691430    2.2128565582500    1.7619595668371 
 O    1.9847517137685    9.8057954892077    4.9556912392095 
 O    9.6181125280848    0.9810682308957    8.1260596605113 
 O   -1.9104627439346    3.3173712637342    0.1999463180631 
 O   -0.0551742264234    4.3780278554349    3.3593875580857 
 O   -2.2131181280288    5.3810683850164    6.5790855708252 
 O   -1.9104684831671    5.5264106153449    1.7619595668371 
 O   -1.7482095332426    3.3751497559485    5.2207647438228 
 O   -0.5526490055767    4.5488306552351    8.4499622533071 
 O    1.9156884299104    3.3173712637342    0.1999463180631 
 O    3.7190921047133    4.2494074753474    3.4713648775513 
 O    1.9993296512801    5.6914514212481    6.8165184732909 
 O    1.9156826906780    5.5264106153449    1.7619595668371 
 O    1.9338350221906    3.4254197828219    5.1302647358635 
 O    3.8286163463807    4.4743581465783    8.4120550505499 
 O    5.7418510822204    3.3173712637342    0.1999463180631 
 O    7.6912329391533    4.3203456880444    3.3687109608121 
 O    5.7249212646226    5.4813409360791    6.4832892843539 
 O    5.7418453429880    5.5264106153449    1.7619595668371 
 O    5.7873594080520    3.1794549914156    4.8916977149275 
 O    7.5287979095758    4.2864330874657    8.2752126626347 
 O   -3.8235440700895    6.6309253208291    0.1999463180631 
 O   -1.9047151895474    7.7169696170935    3.3420377352600 
 O   -3.8730428268860    8.6348591018509    6.6011443119336 
 O   -3.8235440700895    8.8399547317975    1.7619595668371 
 O    7.6160696546403    6.5345482092605    5.0378808412497 
 O   -2.0992586997002    7.6880774384969    8.4483648615839 
 O    0.0026071037555    6.6309253208291    0.1999463180631 
 O    1.9861243086132    7.6121840144311    3.2876723567206 
 O   -0.0117267441979    8.8586713707268    6.6841584993058 
 O    0.0026071037555    8.8399547317975    1.7619595668371 
 O    0.1305667932748    6.7169889166153    5.1502155950764 
 O    1.9396454211736    7.7032827443501    8.5234796811472 
 O    3.8287697560655    6.6309253208291    0.1999463180631 
 O    5.6314719818721    7.7232486237960    3.3963547563746 
 O    3.7500953238936    8.7548029911285    6.7433338448973 
 O    3.8287697560655    8.8399547317975    1.7619595668371 
 O    3.7243540052462    6.5612335652688    4.9812146073182 
 O    5.6595154214599    7.7161216803062    8.3058952205185 
Ce    1.9156884299104    1.1083418527658    0.9809643475031 
Ce    0.0754499017840    2.3009179249173    4.2291250386106 
Ce    5.7166192926344    9.8285045882999    7.4019213675950 
Ce    5.7418510822205    1.1083418527658    0.9809643475031 
Ce    3.7900289036286    2.2027359903346    4.0424213556868 
Ce   -1.8866791922776    9.8258106742393    7.3961964871912 
Ce    9.5680022560654    1.1083418527658    0.9809643475031 
Ce    7.5679881439174    2.1405601555969    4.1462803303260 
Ce    1.8826521450093    9.8158705289815    7.5298696389787 
Ce    0.0026128429880    4.4218859692184    0.9809643475031 
Ce   -1.9905938507072    5.4955760352448    4.2441172088801 
Ce    9.4863195477864    3.1123127123834    7.3979129476677 
Ce    3.8287754952980    4.4218859692184    0.9809643475031 
Ce    1.9342053174715    5.5951415084214    4.2115158648796 
Ce    7.6549266691429    4.4218859692184    0.9809643475031 
Ce    5.6451760638433    5.2963935963645    4.1799824900420 
Ce    5.7273516574094    3.3858236200138    7.5402845052773 
Ce   -1.9104684831671    7.7354400263133    0.9809643475031 
Ce   -3.9084666325072    8.7186680605594    4.1263308397194 
Ce    7.6668170388595    6.5604323495002    7.5009496179856 
Ce    1.9156941691429    7.7354400263133    0.9809643475031 
Ce   -0.1748590905242    8.8116589917382    4.1356232207017 
Ce   -0.1602077482289    6.3983744321289    7.5569237933011 
Ce    5.7418453429879    7.7354400263133    0.9809643475031 
Ce    3.7654283722253    8.7944643645500    4.2190409188490 
Ce    3.7122610980148    6.6291953508514    7.6050793485830 
Cu    2.0654989845424    2.3844862206759    6.6847734597635 
81
FORCE:  2.794403  ...  ENERGY:  -632.62909151
 O    0.0026128429879    0.0038271472816    0.1999463180631 
 O    1.9064102718663    1.0542854352442    3.3855845086246 
 O    0.1874071762853    2.1635235363189    6.6945019699725 
 O    0.0026128429880    2.2128565582500    1.7619595668371 
 O    0.0238516189544    0.0006388850800    5.1469227281743 
 O    1.9792528977179    1.1516763929199    8.0407414243321 
 O    3.8287640168329    0.0038271472816    0.1999463180631 
 O    5.6498666237809    1.1026189255931    3.2608196156342 
 O    3.8269540350794    2.2600761002239    6.3271844462248 
 O    3.8287640168330    2.2128565582500    1.7619595668371 
 O   -1.9126178831306    9.7594125516890    5.1005538884953 
 O    5.7187049871172    0.9229900283164    8.2678402082745 
 O    7.6549266691429    0.0038271472816    0.1999463180631 
 O    9.6838409161141    1.0182252583051    3.2951107322872 
 O    7.5960302060893    2.2116302806171    6.6022574451064 
 O    7.6549266691430    2.2128565582500    1.7619595668371 
 O    1.9878261058341    9.8056201362777    4.9539526529302 
 O    9.6210359209433    0.9867702827197    8.1267464728030 
 O   -1.9104627439346    3.3173712637342    0.1999463180631 
 O   -0.0558858338611    4.3834998807963    3.3642821506312 
 O   -2.2101821662511    5.3867069161361    6.5780217074814 
 O   -1.9104684831671    5.5264106153449    1.7619595668371 
 O   -1.7496164486977    3.3745936764188    5.2180400766611 
 O   -0.5556975710960    4.5566859495855    8.4495149471284 
 O    1.9156884299104    3.3173712637342    0.1999463180631 
 O    3.7153968424758    4.2614893319867    3.4641025960031 
 O    1.9991745198257    5.7000656836374    6.8070351717214 
 O    1.9156826906780    5.5264106153449    1.7619595668371 
 O    1.9220198364198    3.4230663357597    5.1313931518073 
 O    3.8279363047218    4.4716607532929    8.4008219857492 
 O    5.7418510822204    3.3173712637342    0.1999463180631 
 O    7.6952439165706    4.3335328446999    3.3727282766808 
 O    5.7301588308098    5.4728680296232    6.4839530584385 
 O    5.7418453429880    5.5264106153449    1.7619595668371 
 O    5.7917092871484    3.1816053511558    4.8922951116037 
 O    7.5195674445537    4.2854409119587    8.2761275759864 
 O   -3.8235440700895    6.6309253208291    0.1999463180631 
 O   -1.9109466186266    7.7168654391623    3.3479934539366 
 O   -3.8669862722211    8.6264392784249    6.5970368961462 
 O   -3.8235440700895    8.8399547317975    1.7619595668371 
 O    7.6141041970783    6.5470392227365    5.0399394533162 
 O   -2.0988100638956    7.6907986893238    8.4495039982775 
 O    0.0026071037555    6.6309253208291    0.1999463180631 
 O    1.9836343425931    7.6109023674207    3.2947053967036 
 O   -0.0200879450656    8.8554654141818    6.6880905053780 
 O    0.0026071037555    8.8399547317975    1.7619595668371 
 O    0.1133302136998    6.7065903089350    5.1491581185623 
 O    1.9473976894730    7.6986284362235    8.5212290079882 
 O    3.8287697560655    6.6309253208291    0.1999463180631 
 O    5.6313020431978    7.7299037844027    3.3863500157819 
 O    3.7659190766040    8.7405184869706    6.7593321689425 
 O    3.8287697560655    8.8399547317975    1.7619595668371 
 O    3.7233990543505    6.5602708140630    4.9824196652182 
 O    5.6641605266761    7.7162618433624    8.3035106520373 
Ce    1.9156884299104    1.1083418527658    0.9809643475031 
Ce    0.0761561717355    2.3049784784799    4.2301517214816 
Ce    5.7204189515111    9.8295071020749    7.3989035905712 
Ce    5.7418510822205    1.1083418527658    0.9809643475031 
Ce    3.7884498685909    2.2022814047627    4.0436861760645 
Ce   -1.8849675809691    9.8263845475187    7.3964948433776 
Ce    9.5680022560654    1.1083418527658    0.9809643475031 
Ce    7.5658817308052    2.1419570146515    4.1447791972501 
Ce    1.8838826938496    9.8182804388918    7.5286073277127 
Ce    0.0026128429880    4.4218859692184    0.9809643475031 
Ce   -1.9920718752530    5.4971376107421    4.2422609224538 
Ce    9.4904055943648    3.1140508336878    7.3960395536619 
Ce    3.8287754952980    4.4218859692184    0.9809643475031 
Ce    1.9358913891953    5.5938378925915    4.2110975275356 
Ce    7.6549266691429    4.4218859692184    0.9809643475031 
Ce    5.6433243004771    5.2961586989872    4.1799047075806 
Ce    5.7287410108130    3.3878316297564    7.5412379677081 
Ce   -1.9104684831671    7.7354400263133    0.9809643475031 
Ce   -3.9068810547444    8.7199518945111    4.1281554200984 
Ce    7.6684533514375    6.5623814112340    7.4984906885588 
Ce    1.9156941691429    7.7354400263133    0.9809643475031 
Ce   -0.1726299152289    8.8162588251451    4.1370055131253 
Ce   -0.1578408887459    6.3976632785795    7.5563711044327 
Ce    5.7418453429879    7.7354400263133    0.9809643475031 
Ce    3.7679521997171    8.7946533361599    4.2204930101970 
Ce    3.7146191764720    6.6300634671425    7.6021106132871 
Cu    2.0610858017115    2.3840141395736    6.6840467297864 
81
FORCE:  2.858783  ...  ENERGY:  -632.68039794
 O    0.0026128429879    0.0038271472816    0.1999463180631 
 O    1.8966606932646    1.0588911336300    3.3863388388300 
 O    0.1930620420675    2.1713474182397    6.6869956202900 
 O    0.0026128429880    2.2128565582500    1.7619595668371 
 O   -5.7121044679960    9.9390145098250    5.1438365208325 
 O    1.9885192329431    1.1593877467700    8.0476492368331 
 O    3.8287640168329    0.0038271472816    0.1999463180631 
 O    5.6444458039000    1.1071878436024    3.2639443720552 
 O    3.8273934881120    2.2706327641166    6.3207189216791 
 O    3.8287640168330    2.2128565582500    1.7619595668371 
 O   -1.9077537688022    9.7583944311056    5.0944314279439 
 O    5.7314981954984    0.9285367079014    8.2640420975244 
 O    7.6549266691429    0.0038271472816    0.1999463180631 
 O    9.6852785938553    1.0134167708166    3.3000317845557 
 O    7.5974120984907    2.2140347231742    6.6061219332649 
 O    7.6549266691430    2.2128565582500    1.7619595668371 
 O    1.9900664726328    9.8060801892029    4.9523851424458 
 O    9.6236165668369    0.9926365539543    8.1277430463341 
 O   -1.9104627439346    3.3173712637342    0.1999463180631 
 O   -0.0564117771274    4.3892139607974    3.3691972722720 
 O   -2.2063602391524    5.3927749824092    6.5768919229312 
 O   -1.9104684831671    5.5264106153449    1.7619595668371 
 O   -1.7512278530067    3.3734088512643    5.2143687901004 
 O   -0.5586707231003    4.5645943269658    8.4489460630848 
 O    1.9156884299104    3.3173712637342    0.1999463180631 
 O    3.7121472316420    4.2742802546405    3.4561576079822 
 O    1.9980450388696    5.7080661113652    6.7972656033216 
 O    1.9156826906780    5.5264106153449    1.7619595668371 
 O    1.9101454791619    3.4203618846183    5.1323712491526 
 O    3.8278660565160    4.4689213110906    8.3896213112989 
 O    5.7418510822204    3.3173712637342    0.1999463180631 
 O    7.6991020582264    4.3465934569791    3.3767563132994 
 O    5.7351582762406    5.4640711576351    6.4849407360283 
 O    5.7418453429880    5.5264106153449    1.7619595668371 
 O    5.7957235359282    3.1839070074716    4.8930770420374 
 O    7.5103816881528    4.2845329336919    8.2774085915393 
 O   -3.8235440700895    6.6309253208291    0.1999463180631 
 O   -1.9174119788225    7.7164805374928    3.3538285071524 
 O   -3.8608416777296    8.6185803060368    6.5929064421517 
 O   -3.8235440700895    8.8399547317975    1.7619595668371 
 O    7.6121389690857    6.5595024024140    5.0412001678749 
 O   -2.0978918440879    7.6933579076813    8.4501333291021 
 O    0.0026071037555    6.6309253208291    0.1999463180631 
 O    1.9807100888497    7.6102039378934    3.3016200522364 
 O   -0.0282696227406    8.8517282297129    6.6917784433161 
 O    0.0026071037555    8.8399547317975    1.7619595668371 
 O    0.0955839902789    6.6958970606173    5.1478816650305 
 O    1.9546396826108    7.6944209599678    8.5188047499225 
 O    3.8287697560655    6.6309253208291    0.1999463180631 
 O    5.6316252193799    7.7362597316765    3.3763502934126 
 O    3.7814443892244    8.7265043682830    6.7744249317796 
 O    3.8287697560655    8.8399547317975    1.7619595668371 
 O    3.7229905357812    6.5593546844695    4.9836635002983 
 O    5.6690556328600    7.7162864961553    8.3012533639475 
Ce    1.9156884299104    1.1083418527658    0.9809643475031 
Ce    0.0767764105918    2.3089003600826    4.2311597000658 
Ce    5.7242083371615    9.8304671693072    7.3959348552753 
Ce    5.7418510822205    1.1083418527658    0.9809643475031 
Ce    3.7868863294809    2.2017282080192    4.0450180581538 
Ce   -1.8832738760660    9.8269405276420    7.3968317486433 
Ce    9.5680022560654    1.1083418527658    0.9809643475031 
Ce    7.5639098453029    2.1432908500340    4.1433163851523 
Ce    1.8850691079920    9.8206475046339    7.5273457007498 
Ce    0.0026128429880    4.4218859692184    0.9809643475031 
Ce   -1.9935015180687    5.4986666803392    4.2404379387823 
Ce    9.4944875086957    3.1158740468902    7.3942678927289 
Ce    3.8287754952980    4.4218859692184    0.9809643475031 
Ce    1.9374922333165    5.5925307975368    4.2107337063449 
Ce    7.6549266691429    4.4218859692184    0.9809643475031 
Ce    5.6415536898586    5.2960971664114    4.1798894248096 
Ce    5.7300686100749    3.3897724407571    7.5421321238633 
Ce   -1.9104684831671    7.7354400263133    0.9809643475031 
Ce   -3.9053428830421    8.7212464643565    4.1300589234441 
Ce    7.6699680496789    6.5643347474440    7.4960563940464 
Ce    1.9156941691429    7.7354400263133    0.9809643475031 
Ce   -0.1702697132556    8.8207810221357    4.1384461994203 
Ce   -0.1554449887465    6.3969982496103    7.5558460157926 
Ce    5.7418453429879    7.7354400263133    0.9809643475031 
Ce    3.7705119548044    8.7948383315129    4.2219113425881 
Ce    3.7170318350304    6.6309143861226    7.5991947974371 
Cu    2.0564377694867    2.3835681029540    6.6833845524092 
81
FORCE:  2.916237  ...  ENERGY:  -632.71962135
 O    0.0026128429879    0.0038271472816    0.1999463180631 
 O    1.8871290907133    1.0636031968883    3.3870443554086 
 O    0.1986223826905    2.1793240878324    6.6793706580564 
 O    0.0026128429880    2.2128565582500    1.7619595668371 
 O   -5.7090379386789    9.9366429707939    5.1403666475077 
 O    1.9981120731052    1.1666399423526    8.0544409458946 
 O    3.8287640168329    0.0038271472816    0.1999463180631 
 O    5.6394460715076    1.1114049622811    3.2674267909382 
 O    3.8282134522592    2.2808184432390    6.3150985115607 
 O    3.8287640168330    2.2128565582500    1.7619595668371 
 O   -1.9032908842179    9.7577865608296    5.0879152649629 
 O    5.7440206842824    0.9345713736164    8.2603589497086 
 O    7.6549266691429    0.0038271472816    0.1999463180631 
 O    9.6862942084385    1.0092454784989    3.3053383276155 
 O    7.5986501083333    2.2159849777851    6.6096540781790 
 O    7.6549266691430    2.2128565582500    1.7619595668371 
 O    1.9914693132328    9.8071644150574    4.9510338717664 
 O    9.6258666903309    0.9986198265487    8.1290137973394 
 O   -1.9104627439346    3.3173712637342    0.1999463180631 
 O   -0.0567440212968    4.3951315257463    3.3740804597645 
 O   -2.2016990640852    5.3992123435434    6.5757062536213 
 O   -1.9104684831671    5.5264106153449    1.7619595668371 
 O   -1.7530579794663    3.3716026365602    5.2098017506770 
 O   -0.5615612301566    4.5724808349330    8.4482882196277 
 O    1.9156884299104    3.3173712637342    0.1999463180631 
 O    3.7093618099328    4.2876010135283    3.4476102050619 
 O    1.9959537199390    5.7154322267085    6.7872296128837 
 O    1.9156826906780    5.5264106153449    1.7619595668371 
 O    1.8983072216765    3.4173487765338    5.1331819203199 
 O    3.8283740359846    4.4661467784211    8.3784963664006 
 O    5.7418510822204    3.3173712637342    0.1999463180631 
 O    7.7027538170815    4.3594296095553    3.3807581182960 
 O    5.7399046789104    5.4550173200438    6.4862108027303 
 O    5.7418453429880    5.5264106153449    1.7619595668371 
 O    5.7993757539219    3.1863404767042    4.8940095191706 
 O    7.5013374612253    4.2837358929931    8.2790662019424 
 O   -3.8235440700895    6.6309253208291    0.1999463180631 
 O   -1.9240390131979    7.7158470203597    3.3594933969775 
 O   -3.8546315412030    8.6113953091960    6.5887812344816 
 O   -3.8235440700895    8.8399547317975    1.7619595668371 
 O    7.6101567529648    6.5718635911016    5.0416680031489 
 O   -2.0965140839340    7.6957732849449    8.4502640310095 
 O    0.0026071037555    6.6309253208291    0.1999463180631 
 O    1.9773659528566    7.6101013504649    3.3083802833517 
 O   -0.0362022177251    8.8474894404340    6.6952102237638 
 O    0.0026071037555    8.8399547317975    1.7619595668371 
 O    0.0774213281478    6.6849831300406    5.1463830410663 
 O    1.9613328903369    7.6907013704357    8.5162262955403 
 O    3.8287697560655    6.6309253208291    0.1999463180631 
 O    5.6324190700193    7.7422899241025    3.3664110178241 
 O    3.7965815001585    8.7129200829680    6.7885208929844 
 O    3.8287697560655    8.8399547317975    1.7619595668371 
 O    3.7231623684022    6.5585055548051    4.9849408662343 
 O    5.6742200812251    7.7162124383703    8.2991349894033 
Ce    1.9156884299104    1.1083418527658    0.9809643475031 
Ce    0.0773067730671    2.3126775059335    4.2321439561397 
Ce    5.7279822842765    9.8313812113658    7.3930220047391 
Ce    5.7418510822205    1.1083418527658    0.9809643475031 
Ce    3.7853370236675    2.2010887265007    4.0464097027209 
Ce   -1.8816010045769    9.8274763282615    7.3972065186848 
Ce    9.5680022560654    1.1083418527658    0.9809643475031 
Ce    7.5620781692505    2.1445631528407    4.1418959998517 
Ce    1.8862119039674    9.8229666564802    7.5260884077071 
Ce    0.0026128429880    4.4218859692184    0.9809643475031 
Ce   -1.9948761790371    5.5001667232608    4.2386553289984 
Ce    9.4985537549220    3.1177802644558    7.3925981929697 
Ce    3.8287754952980    4.4218859692184    0.9809643475031 
Ce    1.9389984374939    5.5912249947656    4.2104266823181 
Ce    7.6549266691429    4.4218859692184    0.9809643475031 
Ce    5.6398685364119    5.2962110861720    4.1799364136279 
Ce    5.7313311838326    3.3916413809140    7.5429653770354 
Ce   -1.9104684831671    7.7354400263133    0.9809643475031 
Ce   -3.9038550444088    8.7225472968066    4.1320329100173 
Ce    7.6713604448758    6.5662853996805    7.4936528931772 
Ce    1.9156941691429    7.7354400263133    0.9809643475031 
Ce   -0.1677889300075    8.8252070931153    4.1399398051612 
Ce   -0.1530261892094    6.3963852102003    7.5553444215616 
Ce    5.7418453429879    7.7354400263133    0.9809643475031 
Ce    3.7731043087324    8.7950165672292    4.2232902134958 
Ce    3.7194960318966    6.6317386641812    7.5963385159638 
Cu    2.0515985634274    2.3831537769834    6.6827839623182 
81
FORCE:  2.967502  ...  ENERGY:  -632.74637330
 O    0.0026128429879    0.0038271472816    0.1999463180631 
 O    1.8778936325589    1.0684114855640    3.3876974087433 
 O    0.2040084802147    2.1873800837507    6.6716980227011 
 O    0.0026128429880    2.2128565582500    1.7619595668371 
 O   -5.7062000603846    9.9341734170298    5.1365840476298 
 O    2.0079755180797    1.1734095197521    8.0610734404163 
 O    3.8287640168329    0.0038271472816    0.1999463180631 
 O    5.6348939992502    1.1152538795693    3.2712363067413 
 O    3.8293459750084    2.2905973512790    6.3103275497898 
 O    3.8287640168330    2.2128565582500    1.7619595668371 
 O   -1.8992552281009    9.7576361589118    5.0810694959501 
 O    5.7562325658036    0.9410342822012    8.2567937301408 
 O    7.6549266691429    0.0038271472816    0.1999463180631 
 O    9.6868784623070    1.0057211231814    3.3109851974569 
 O    7.5997753996496    2.2174680222084    6.6128265077215 
 O    7.6549266691430    2.2128565582500    1.7619595668371 
 O    1.9920410555744    9.8088549206853    4.9499378461731 
 O    9.6278031647687    1.0046729818583    8.1305238263566 
 O   -1.9104627439346    3.3173712637342    0.1999463180631 
 O   -0.0568738427359    4.4012140059507    3.3788810746733 
 O   -2.1962535655045    5.4059582622142    6.5744751922005 
 O   -1.9104684831671    5.5264106153449    1.7619595668371 
 O   -1.7551215205117    3.3691857682002    5.2043991770709 
 O   -0.5643647304482    4.5802713162956    8.4475756319163 
 O    1.9156884299104    3.3173712637342    0.1999463180631 
 O    3.7070533184443    4.3012784426616    3.4385420474216 
 O    1.9929257008720    5.7221528961479    6.7769493262106 
 O    1.9156826906780    5.5264106153449    1.7619595668371 
 O    1.8866009665386    3.4140718438029    5.1338123916497 
 O    3.8294252912016    4.4633475929586    8.3674866125376 
 O    5.7418510822204    3.3173712637342    0.1999463180631 
 O    7.7061461626276    4.3719486556425    3.3846971955012 
 O    5.7443873064545    5.4457750078747    6.4877208317475 
 O    5.7418453429880    5.5264106153449    1.7619595668371 
 O    5.8026441320460    3.1888870704460    4.8950592402488 
 O    7.4925307237387    4.2830772260350    8.2811086188336 
 O   -3.8235440700895    6.6309253208291    0.1999463180631 
 O   -1.9307562109160    7.7149996800109    3.3649413626946 
 O   -3.8483768682322    8.6049880682080    6.5846895576673 
 O   -3.8235440700895    8.8399547317975    1.7619595668371 
 O    7.6081391257795    6.5840505203299    5.0413598386169 
 O   -2.0946914758690    7.6980633107093    8.4499097900633 
 O    0.0026071037555    6.6309253208291    0.1999463180631 
 O    1.9736197262345    7.6106003707079    3.3149580336189 
 O   -0.0438238610928    8.8427812540262    6.6983771788809 
 O    0.0026071037555    8.8399547317975    1.7619595668371 
 O    0.0589328497876    6.6739201892361    5.1446611061644 
 O    1.9674470095038    7.6875036646239    8.5135114367241 
 O    3.8287697560655    6.6309253208291    0.1999463180631 
 O    5.6336558746230    7.7479735857382    3.3565846522604 
 O    3.8112528723752    8.6999202080133    6.8015399890849 
 O    3.8287697560655    8.8399547317975    1.7619595668371 
 O    3.7239400344060    6.5577431075415    4.9862474291060 
 O    5.6796717207845    7.7160562708799    8.2971655648512 
Ce    1.9156884299104    1.1083418527658    0.9809643475031 
Ce    0.0777428399525    2.3163056415565    4.2330983309747 
Ce    5.7317360866855    9.8322462460579    7.3901716538934 
Ce    5.7418510822205    1.1083418527658    0.9809643475031 
Ce    3.7838011476582    2.2003744913522    4.0478538105317 
Ce   -1.8799512048025    9.8279898618422    7.3976180129971 
Ce    9.5680022560654    1.1083418527658    0.9809643475031 
Ce    7.5603916957804    2.1457760106065    4.1405214628642 
Ce    1.8873116556991    9.8252337193608    7.5248384138983 
Ce    0.0026128429880    4.4218859692184    0.9809643475031 
Ce   -1.9961899467487    5.5016412187316    4.2369185675276 
Ce    9.5025940024250    3.1197674982560    7.3910286295758 
Ce    3.8287754952980    4.4218859692184    0.9809643475031 
Ce    1.9404016798401    5.5899249575669    4.2101775959606 
Ce    7.6549266691429    4.4218859692184    0.9809643475031 
Ce    5.6382723984613    5.2965014523333    4.1800445335304 
Ce    5.7325257476852    3.3934338775318    7.5437374991235 
Ce   -1.9104684831671    7.7354400263133    0.9809643475031 
Ce   -3.9024198919298    8.7238503161980    4.1340691681799 
Ce    7.6726308813820    6.5682270059326    7.4912854322755 
Ce    1.9156941691429    7.7354400263133    0.9809643475031 
Ce   -0.1651973221798    8.8295205366178    4.1414810840236 
Ce   -0.1505905163287    6.3958300253284    7.5548622159208 
Ce    5.7418453429879    7.7354400263133    0.9809643475031 
Ce    3.7757265640616    8.7951857569609    4.2246243765957 
Ce    3.7220083235311    6.6325263606763    7.5935486118989 
Cu    2.0466128921546    2.3827762313892    6.6822424504018 
81
FORCE:  3.012243  ...  ENERGY:  -632.76108960
 O    0.0026128429879    0.0038271472816    0.1999463180631 
 O    1.8690270348773    1.0733061584212    3.3882943492174 
 O    0.2091361400995    2.1954445292149    6.6640486536540 
 O    0.0026128429880    2.2128565582500    1.7619595668371 
 O   -5.7036077064567    9.9316122105438    5.1325601168303 
 O    2.0180540694883    1.1796794804701    8.0675065746114 
 O    3.8287640168329    0.0038271472816    0.1999463180631 
 O    5.6308109944651    1.1187221696643    3.2753407572149 
 O    3.8307198898766    2.2999392686838    6.3064017024461 
 O    3.8287640168330    2.2128565582500    1.7619595668371 
 O   -1.8956664860186    9.7579874612103    5.0739566205962 
 O    5.7681015281829    0.9478631058288    8.2533484917305 
 O    7.6549266691429    0.0038271472816    0.1999463180631 
 O    9.6870240666355    1.0028459912118    3.3169260895646 
 O    7.6008216617343    2.2184767985880    6.6156173241906 
 O    7.6549266691430    2.2128565582500    1.7619595668371 
 O    1.9917965068776    9.8111282461706    4.9491305965218 
 O    9.6294465366028    1.0107508893673    8.1322384620246 
 O   -1.9104627439346    3.3173712637342    0.1999463180631 
 O   -0.0567925178114    4.4074234281571    3.3835528124831 
 O   -2.1900849236289    5.4129532933808    6.5732105999239 
 O   -1.9104684831671    5.5264106153449    1.7619595668371 
 O   -1.7574345459938    3.3661725607092    5.1982274466905 
 O   -0.5670800187363    4.5878907192045    8.4468438837158 
 O    1.9156884299104    3.3173712637342    0.1999463180631 
 O    3.7052303086330    4.3151486208488    3.4290336547355 
 O    1.9889971388334    5.7282273244321    6.7664468691050 
 O    1.9156826906780    5.5264106153449    1.7619595668371 
 O    1.8751207223765    3.4105780062572    5.1342503456849 
 O    3.8309805084244    4.4605369757575    8.3566283177784 
 O    5.7418510822204    3.3173712637342    0.1999463180631 
 O    7.7092272122029    4.3840678890968    3.3885375049473 
 O    5.7486004770328    5.4364160919715    6.4894297648891 
 O    5.7418453429880    5.5264106153449    1.7619595668371 
 O    5.8055111082490    3.1915284979153    4.8961944992244 
 O    7.4840540495132    4.2825854624609    8.2835433695480 
 O   -3.8235440700895    6.6309253208291    0.1999463180631 
 O   -1.9374949881482    7.7139724140366    3.3701286089000 
 O   -3.8420984922311    8.5994505340139    6.5806603805435 
 O   -3.8235440700895    8.8399547317975    1.7619595668371 
 O    7.6060674350240    6.5959954943248    5.0403003091932 
 O   -2.0924412375904    7.7002458781305    8.4490877138430 
 O    0.0026071037555    6.6309253208291    0.1999463180631 
 O    1.9694909797663    7.6117007004030    3.3213314053363 
 O   -0.0510798005656    8.8376398544274    6.7012722375344 
 O    0.0026071037555    8.8399547317975    1.7619595668371 
 O    0.0402084889718    6.6627769280419    5.1427172289310 
 O    1.9729608049512    7.6848540858279    8.5106759124473 
 O    3.8287697560655    6.6309253208291    0.1999463180631 
 O    5.6353045265509    7.7532958056203    3.3469216070556 
 O    3.8253938247243    8.6876521631439    6.8134151583696 
 O    3.8287697560655    8.8399547317975    1.7619595668371 
 O    3.7253418419441    6.5570857328668    4.9875795392964 
 O    5.6854256457197    7.7158336004926    8.2953530738285 
Ce    1.9156884299104    1.1083418527658    0.9809643475031 
Ce    0.0780809955313    2.3197816853525    4.2340173501454 
Ce    5.7354665878105    9.8330601858486    7.3873876804561 
Ce    5.7418510822205    1.1083418527658    0.9809643475031 
Ce    3.7822772666448    2.1995967354994    4.0493430823525 
Ce   -1.8783261985124    9.8284793390685    7.3980655472768 
Ce    9.5680022560654    1.1083418527658    0.9809643475031 
Ce    7.5588541553936    2.1469317096791    4.1391966519077 
Ce    1.8883687649333    9.8274464069282    7.5235982284351 
Ce    0.0026128429880    4.4218859692184    0.9809643475031 
Ce   -1.9974374263249    5.5030943418216    4.2352326725931 
Ce    9.5065993553945    3.1218338595688    7.3895562372335 
Ce    3.8287754952980    4.4218859692184    0.9809643475031 
Ce    1.9416949010993    5.5886347616041    4.2099871315755 
Ce    7.6549266691429    4.4218859692184    0.9809643475031 
Ce    5.6367680882308    5.2969685631145    4.1802124159105 
Ce    5.7336498911549    3.3951459543534    7.5444482620265 
Ce   -1.9104684831671    7.7354400263133    0.9809643475031 
Ce   -3.9010386308440    8.7251518444930    4.1361592581927 
Ce    7.6737809661827    6.5701534030020    7.4889574328571 
Ce    1.9156941691429    7.7354400263133    0.9809643475031 
Ce   -0.1625044168985    8.8337070381182    4.1430647896832 
Ce   -0.1481430780214    6.3953383611607    7.5543946087478 
Ce    5.7418453429879    7.7354400263133    0.9809643475031 
Ce    3.7783758511759    8.7953443102055    4.2259092698667 
Ce    3.7245646924713    6.6332669385269    7.5908289629605 
Cu    2.0415266121361    2.3824403370862    6.6817577356493 
81
FORCE:  3.050078  ...  ENERGY:  -632.76497935
 O    0.0026128429879    0.0038271472816    0.1999463180631 
 O    1.8605931753263    1.0782777718497    3.3888317553147 
 O    0.2139216269427    2.2034499272638    6.6564902969299 
 O    0.0026128429880    2.2128565582500    1.7619595668371 
 O   -5.7012766597845    9.9289660115662    5.1283662507411 
 O    2.0282938933302    1.1854408779285    8.0737033961085 
 O    3.8287640168329    0.0038271472816    0.1999463180631 
 O    5.6272117495874    1.1218022776779    3.2797075239075 
 O    3.8322627103573    2.3088208349443    6.3033100206789 
 O    3.8287640168330    2.2128565582500    1.7619595668371 
 O   -1.8925402686835    9.7588792362301    5.0666384542882 
 O    5.7796016874818    0.9549963119232    8.2500241468821 
 O    7.6549266691429    0.0038271472816    0.1999463180631 
 O    9.6867271761383    1.0006160069269    3.3231174366361 
 O    7.6018241908674    2.2190100146404    6.6180098762089 
 O    7.6549266691430    2.2128565582500    1.7619595668371 
 O    1.9907575910105    9.8139565577149    4.9486392668385 
 O    9.6308205662556    1.0168106055008    8.1341234891844 
 O   -1.9104627439346    3.3173712637342    0.1999463180631 
 O   -0.0564898880817    4.4137229125827    3.3880534744980 
 O   -2.1832578196085    5.4201404771629    6.5719245661476 
 O   -1.9104684831671    5.5264106153449    1.7619595668371 
 O   -1.7600125518405    3.3625795155535    5.1913574989654 
 O   -0.5697075541595    4.5952676698479    8.4461292430948 
 O    1.9156884299104    3.3173712637342    0.1999463180631 
 O    3.7038963962153    4.3290609473594    3.4191625813640 
 O    1.9842146937835    5.7336627682298    6.7557445954709 
 O    1.9156826906780    5.5264106153449    1.7619595668371 
 O    1.8639574560254    3.4069152771990    5.1344882550905 
 O    3.8329984225715    4.4577299371877    8.3459527319683 
 O    5.7418510822204    3.3173712637342    0.1999463180631 
 O    7.7119469770923    4.3957140473845    3.3922462000819 
 O    5.7525420097368    5.4270125425844    6.4912965439641 
 O    5.7418453429880    5.5264106153449    1.7619595668371 
 O    5.8079626788037    3.1942472635817    4.8973847305555 
 O    7.4759958227293    4.2822886348821    8.2863763847132 
 O   -3.8235440700895    6.6309253208291    0.1999463180631 
 O   -1.9441912950598    7.7128002134978    3.3750154460095 
 O   -3.8358159265903    8.5948634246292    6.5767224438436 
 O   -3.8235440700895    8.8399547317975    1.7619595668371 
 O    7.6039218803461    6.6076357876335    5.0385224895315 
 O   -2.0897834564119    7.7023380851133    8.4478174190399 
 O    0.0026071037555    6.6309253208291    0.1999463180631 
 O    1.9650003172967    7.6133966733841    3.3274871686426 
 O   -0.0579245240297    8.8321019226076    6.7038922063095 
 O    0.0026071037555    8.8399547317975    1.7619595668371 
 O    0.0213361707420    6.6516195511356    5.1405546027812 
 O    1.9778615355829    7.6827719188939    8.5077329525712 
 O    3.8287697560655    6.6309253208291    0.1999463180631 
 O    5.6373296147386    7.7582453508229    3.3374668181186 
 O    3.8389535076058    8.6762501470309    6.8240939375946 
 O    3.8287697560655    8.8399547317975    1.7619595668371 
 O    3.7273785233814    6.5565504292795    4.9889337752896 
 O    5.6914964910736    7.7155592387654    8.2937025345583 
Ce    1.9156884299104    1.1083418527658    0.9809643475031 
Ce    0.0783171649487    2.3231043450379    4.2348955392264 
Ce    5.7391716067432    9.8338212414223    7.3846732778421 
Ce    5.7418510822205    1.1083418527658    0.9809643475031 
Ce    3.7807641753885    2.1987654989911    4.0508718156566 
Ce   -1.8767264448454    9.8289433682506    7.3985477529176 
Ce    9.5680022560654    1.1083418527658    0.9809643475031 
Ce    7.5574680159602    2.1480329340320    4.1379238479929 
Ce    1.8893837482009    9.8296034268987    7.5223699042270 
Ce    0.0026128429880    4.4218859692184    0.9809643475031 
Ce   -1.9986140263797    5.5045298699747    4.2336008376099 
Ce    9.5105621232587    3.1239779567043    7.3881766820226 
Ce    3.8287754952980    4.4218859692184    0.9809643475031 
Ce    1.9428719602927    5.5873580849148    4.2098559734660 
Ce    7.6549266691429    4.4218859692184    0.9809643475031 
Ce    5.6353577292362    5.2976119214835    4.1804384640610 
Ce    5.7347016055105    3.3967737345284    7.5450978938454 
Ce   -1.9104684831671    7.7354400263133    0.9809643475031 
Ce   -3.8997117202900    8.7264494959376    4.1382956527207 
Ce    7.6748133393247    6.5720594217547    7.4866720883370 
Ce    1.9156941691429    7.7354400263133    0.9809643475031 
Ce   -0.1597189377969    8.8377552652844    4.1446859039166 
Ce   -0.1456879491425    6.3949154862377    7.5539368099204 
Ce    5.7418453429879    7.7354400263133    0.9809643475031 
Ce    3.7810497595977    8.7954910340857    4.2271405593886 
Ce    3.7271606621157    6.6339502582779    7.5881834468667 
Cu    2.0363844319931    2.3821503685506    6.6813270808480 
81
FORCE:  3.081098  ...  ENERGY:  -632.75972147
 O    0.0026128429879    0.0038271472816    0.1999463180631 
 O    1.8526497331923    1.0833172798650    3.3893059774185 
 O    0.2182806314188    2.2113337512576    6.6490877332297 
 O    0.0026128429880    2.2128565582500    1.7619595668371 
 O   -5.6992203501721    9.9262413809209    5.1240706515792 
 O    2.0386437956514    1.1906911275604    8.0796317426579 
 O    3.8287640168329    0.0038271472816    0.1999463180631 
 O    5.6241056769584    1.1244908237916    3.2843037602665 
 O    3.8339036717137    2.3172240574977    6.3010353969086 
 O    3.8287640168330    2.2128565582500    1.7619595668371 
 O   -1.8898867345372    9.7603457791872    5.0591720222912 
 O    5.7907110050474    0.9623740578180    8.2468195550902 
 O    7.6549266691429    0.0038271472816    0.1999463180631 
 O    9.6859858968686    0.9990211302779    3.3295170399755 
 O    7.6028189720366    2.2190721436547    6.6199941273299 
 O    7.6549266691430    2.2128565582500    1.7619595668371 
 O    1.9889526023892    9.8173079458566    4.9484857548251 
 O    9.6319509654888    1.0228131629412    8.1361474298898 
 O   -1.9104627439346    3.3173712637342    0.1999463180631 
 O   -0.0559572873057    4.4200775675730    3.3923445116387 
 O   -2.1758390581097    5.4274669293435    6.5706291802279 
 O   -1.9104684831671    5.5264106153449    1.7619595668371 
 O   -1.7628708618025    3.3584262157983    5.1838625543360 
 O   -0.5722486567411    4.6023332795748    8.4454693467283 
 O    1.9156884299104    3.3173712637342    0.1999463180631 
 O    3.7030498020292    4.3428813229287    3.4090018196463 
 O    1.9786319701537    5.7384733432532    6.7448646311110 
 O    1.9156826906780    5.5264106153449    1.7619595668371 
 O    1.8531970264035    3.4031319681499    5.1345220140474 
 O    3.8354362763605    4.4549444698116    8.3354851743249 
 O    5.7418510822204    3.3173712637342    0.1999463180631 
 O    7.7142588547279    4.4068245044591    3.3957920310596 
 O    5.7562151759291    5.4176344412416    6.4932830760956 
 O    5.7418453429880    5.5264106153449    1.7619595668371 
 O    5.8099878817760    3.1970269653852    4.8986018778116 
 O    7.4684369665652    4.2822143782842    8.2896122263504 
 O   -3.8235440700895    6.6309253208291    0.1999463180631 
 O   -1.9507853862407    7.7115165783589    3.3795678869649 
 O   -3.8295457002995    8.5912929447315    6.5729035758971 
 O   -3.8235440700895    8.8399547317975    1.7619595668371 
 O    7.6016826613939    6.6189146391886    5.0360656130143 
 O   -2.0867408023021    7.7043563337174    8.4461185223450 
 O    0.0026071037555    6.6309253208291    0.1999463180631 
 O    1.9601686870243    7.6156768579125    3.3334182524047 
 O   -0.0643196934122    8.8262050341948    6.7062341198926 
 O    0.0026071037555    8.8399547317975    1.7619595668371 
 O    0.0023970478459    6.6405092928737    5.1381782459381 
 O    1.9821451839363    7.6812688937796    8.5046930497445 
 O    3.8287697560655    6.6309253208291    0.1999463180631 
 O    5.6396946376672    7.7628162569607    3.3282597469328 
 O    3.8518948455777    8.6658318568788    6.8335348123669 
 O    3.8287697560655    8.8399547317975    1.7619595668371 
 O    3.7300538092189    6.5561522071494    4.9903078560751 
 O    5.6978963092343    7.7152467049718    8.2922178247588 
Ce    1.9156884299104    1.1083418527658    0.9809643475031 
Ce    0.0784476177035    2.3262737200192    4.2357274237923 
Ce    5.7428502825987    9.8345287169341    7.3820300427588 
Ce    5.7418510822205    1.1083418527658    0.9809643475031 
Ce    3.7792607260428    2.1978895295925    4.0524345360187 
Ce   -1.8751519438013    9.8293807565114    7.3990630332122 
Ce    9.5680022560654    1.1083418527658    0.9809643475031 
Ce    7.5562349992499    2.1490826658578    4.1367055602314 
Ce    1.8903573516022    9.8317050774916    7.5211548098804 
Ce    0.0026128429880    4.4218859692184    0.9809643475031 
Ce   -1.9997159590197    5.5059521770735    4.2320260278916 
Ce    9.5144766241777    3.1261988950047    7.3868854019220 
Ce    3.8287754952980    4.4218859692184    0.9809643475031 
Ce    1.9439279216804    5.5860983073174    4.2097834373289 
Ce    7.6549266691429    4.4218859692184    0.9809643475031 
Ce    5.6340430432475    5.2984307321890    4.1807201688701 
Ce    5.7356797429055    3.3983138382384    7.5456866226812 
Ce   -1.9104684831671    7.7354400263133    0.9809643475031 
Ce   -3.8984387585216    8.7277411829967    4.1404708244288 
Ce    7.6757319034864    6.5739406883081    7.4844303111193 
Ce    1.9156941691429    7.7354400263133    0.9809643475031 
Ce   -0.1568481163081    8.8416560727254    4.1463400928037 
Ce   -0.1432284584470    6.3945665696933    7.5534838012152 
Ce    5.7418453429879    7.7354400263133    0.9809643475031 
Ce    3.7837461084185    8.7956255309759    4.2283145955444 
Ce    3.7297925019632    6.6345660810678    7.5856132041226 
Cu    2.0312301420695    2.3819098050072    6.6809491173916 
81
FORCE:  3.105218  ...  ENERGY:  -632.74752585
 O    0.0026128429879    0.0038271472816    0.1999463180631 
 O    1.8452460084827    1.0884166305469    3.3897133659116 
 O    0.2221289015947    2.2190383454709    6.6419016374355 
 O    0.0026128429880    2.2128565582500    1.7619595668371 
 O   -5.6974507726153    9.9234441835869    5.1197387843488 
 O    2.0490569443147    1.1954342056227    8.0852640140314 
 O    3.8287640168329    0.0038271472816    0.1999463180631 
 O    5.6214975401411    1.1267877085992    3.2890975321435 
 O    3.8355752231793    2.3251369081670    6.2995554772313 
 O    3.8287640168330    2.2128565582500    1.7619595668371 
 O   -1.8877114506350    9.7624174090404    5.0516109283543 
 O    5.8014150180138    0.9699390854136    8.2437326634452 
 O    7.6549266691429    0.0038271472816    0.1999463180631 
 O    9.6847999418648    0.9980469473335    3.3360858943014 
 O    7.6038421624067    2.2186727286475    6.6215646031280 
 O    7.6549266691430    2.2128565582500    1.7619595668371 
 O    1.9864145989931    9.8211470219090    4.9486876242632 
 O    9.6328652252261    1.0287230735955    8.1382806310029 
 O   -1.9104627439346    3.3173712637342    0.1999463180631 
 O   -0.0551851883575    4.4264555830727    3.3963919368474 
 O   -2.1678969359992    5.4348855312781    6.5693367596219 
 O   -1.9104684831671    5.5264106153449    1.7619595668371 
 O   -1.7660256605154    3.3537331391668    5.1758146927370 
 O   -0.5747074013365    4.6090242264938    8.4449000064825 
 O    1.9156884299104    3.3173712637342    0.1999463180631 
 O    3.7026855329425    4.3564903604430    3.3986202561025 
 O    1.9723091151008    5.7426809189153    6.7338275051208 
 O    1.9156826906780    5.5264106153449    1.7619595668371 
 O    1.8429222506357    3.3992758935992    5.1343502539492 
 O    3.8382513125094    4.4521995602561    8.3252466301457 
 O    5.7418510822204    3.3173712637342    0.1999463180631 
 O    7.7161197434737    4.4173462766974    3.3991462571469 
 O    5.7596262887655    5.4083515712519    6.4953537775183 
 O    5.7418453429880    5.5264106153449    1.7619595668371 
 O    5.8115792561636    3.1998534876140    4.8998192531688 
 O    7.4614513449431    4.2823894329950    8.2932540878744 
 O   -3.8235440700895    6.6309253208291    0.1999463180631 
 O   -1.9572235998669    7.7101538157074    3.3837560505276 
 O   -3.8233017023011    8.5887935690405    6.5692304645279 
 O   -3.8235440700895    8.8399547317975    1.7619595668371 
 O    7.5993294038920    6.6297802582437    5.0329741593481 
 O   -2.0833375522142    7.7063168271898    8.4440104123485 
 O    0.0026071037555    6.6309253208291    0.1999463180631 
 O    1.9550176110709    7.6185258459929    3.3391253409259 
 O   -0.0702350629576    8.8199854725332    6.7082986625866 
 O    0.0026071037555    8.8399547317975    1.7619595668371 
 O   -0.0165346714402    6.6295005285697    5.1355943171304 
 O    1.9858160544356    7.6803508754641    8.5015641875045 
 O    3.8287697560655    6.6309253208291    0.1999463180631 
 O    5.6423617164023    7.7670091204722    3.3193357491624 
 O    3.8641921268785    8.6564990848649    6.8417063047403 
 O    3.8287697560655    8.8399547317975    1.7619595668371 
 O    3.7333655759408    6.5559044863435    4.9917004130464 
 O    5.7046356029974    7.7149082261018    8.2909000849352 
Ce    1.9156884299104    1.1083418527658    0.9809643475031 
Ce    0.0784682215481    2.3292914007992    4.2365075294175 
Ce    5.7465035336543    9.8351822147582    7.3794582033073 
Ce    5.7418510822205    1.1083418527658    0.9809643475031 
Ce    3.7777653116226    2.1969765810046    4.0540273657206 
Ce   -1.8736015475338    9.8297907085994    7.3996102476551 
Ce    9.5680022560654    1.1083418527658    0.9809643475031 
Ce    7.5551558513629    2.1500841855685    4.1355431572297 
Ce    1.8912904360220    9.8337532474290    7.5199536296984 
Ce    0.0026128429880    4.4218859692184    0.9809643475031 
Ce   -2.0007399528824    5.5073655375943    4.2305091558426 
Ce    9.5183387259039    3.1284960780315    7.3856762382029 
Ce    3.8287754952980    4.4218859692184    0.9809643475031 
Ce    1.9448590547612    5.5848581127853    4.2097690669621 
Ce    7.6549266691429    4.4218859692184    0.9809643475031 
Ce    5.6328247189723    5.2994238023537    4.1810552493272 
Ce    5.7365840163782    3.3997631838842    7.5462153609383 
Ce   -1.9104684831671    7.7354400263133    0.9809643475031 
Ce   -3.8972185402997    8.7290260110127    4.1426779302854 
Ce    7.6765409056996    6.5757938228438    7.4822323293051 
Ce    1.9156941691429    7.7354400263133    0.9809643475031 
Ce   -0.1538982081954    8.8454033966495    4.1480237067276 
Ce   -0.1407667868431    6.3942963830359    7.5530305644090 
Ce    5.7418453429879    7.7354400263133    0.9809643475031 
Ce    3.7864634628303    8.7957479002824    4.2294290973235 
Ce    3.7324560797665    6.6351048638799    7.5831182347283 
Cu    2.0261048926624    2.3817221256808    6.6806222485726 
81
FORCE:  3.122513  ...  ENERGY:  -632.73088039
 O    0.0026128429879    0.0038271472816    0.1999463180631 
 O    1.8384235532406    1.0935692630715    3.3900502711772 
 O    0.2253852273305    2.2265115215317    6.6349885786100 
 O    0.0026128429880    2.2128565582500    1.7619595668371 
 O   -5.6959787742638    9.9205804833560    5.1154304115275 
 O    2.0594900655072    1.1996778658163    8.0905767158198 
 O    3.8287640168329    0.0038271472816    0.1999463180631 
 O    5.6193875113124    1.1286958148867    3.2940575896932 
 O    3.8372129131732    2.3325515338447    6.2988447143283 
 O    3.8287640168330    2.2128565582500    1.7619595668371 
 O   -1.8860155648236    9.7651193750212    5.0440023893970 
 O    5.8117033957626    0.9776377152415    8.2407605066334 
 O    7.6549266691429    0.0038271472816    0.1999463180631 
 O    9.6831697128732    0.9976750679054    3.3427897844548 
 O    7.6049292878269    2.2178257859244    6.6227201630979 
 O    7.6549266691430    2.2128565582500    1.7619595668371 
 O    1.9831796232021    9.8254376019342    4.9492576488122 
 O    9.6335921564145    1.0345093226596    8.1404966328008 
 O   -1.9104627439346    3.3173712637342    0.1999463180631 
 O   -0.0541630884416    4.4328270377485    3.4001672374914 
 O   -2.1594979135894    5.4423541346434    6.5680589374838 
 O   -1.9104684831671    5.5264106153449    1.7619595668371 
 O   -1.7694930178303    3.3485229503234    5.1672843973962 
 O   -0.5770887810777    4.6152819602217    8.4444558937187 
 O    1.9156884299104    3.3173712637342    0.1999463180631 
 O    3.7027926844133    4.3697862677251    3.3880815309284 
 O    1.9653088010436    5.7463121361374    6.7226505531808 
 O    1.9156826906780    5.5264106153449    1.7619595668371 
 O    1.8332093457297    3.3953941721914    5.1339738872002 
 O    3.8414011754824    4.4495158850570    8.3152519259997 
 O    5.7418510822204    3.3173712637342    0.1999463180631 
 O    7.7174896982715    4.4272362217117    3.4022849277325 
 O    5.7627849901565    5.3992313301701    6.4974755735784 
 O    5.7418453429880    5.5264106153449    1.7619595668371 
 O    5.8127315792650    3.2027144044650    4.9010142746222 
 O    7.4551031224825    4.2828400423100    8.2973051627000 
 O   -3.8235440700895    6.6309253208291    0.1999463180631 
 O   -1.9634574968161    7.7087425427214    3.3875539331766 
 O   -3.8170952388832    8.5874073464732    6.5657284289538 
 O   -3.8235440700895    8.8399547317975    1.7619595668371 
 O    7.5968408152877    6.6401860231864    5.0292969421598 
 O   -2.0795971222170    7.7082344764940    8.4415122495394 
 O    0.0026071037555    6.6309253208291    0.1999463180631 
 O    1.9495680950275    7.6219239551533    3.3446139086316 
 O   -0.0756469870281    8.8134788251223    6.7100869748970 
 O    0.0026071037555    8.8399547317975    1.7619595668371 
 O   -0.0353903458957    6.6186429614348    5.1328101155921 
 O    1.9888860846845    7.6800178639474    8.4983504716702 
 O    3.8287697560655    6.6309253208291    0.1999463180631 
 O    5.6452929720093    7.7708273211757    3.3107240217432 
 O    3.8758285355569    8.6483370222934    6.8485872013163 
 O    3.8287697560655    8.8399547317975    1.7619595668371 
 O    3.7373061903676    6.5558179033492    4.9931107619004 
 O    5.7117240716659    7.7145532457656    8.2897468059758 
Ce    1.9156884299104    1.1083418527658    0.9809643475031 
Ce    0.0783749590200    2.3321601707577    4.2372306097777 
Ce    5.7501333686412    9.8357824307397    7.3769566189823 
Ce    5.7418510822205    1.1083418527658    0.9809643475031 
Ce    3.7762760955735    2.1960330152384    4.0556466551456 
Ce   -1.8720734768807    9.8301725286698    7.4001882557412 
Ce    9.5680022560654    1.1083418527658    0.9809643475031 
Ce    7.5542304575147    2.1510410717954    4.1344380075940 
Ce    1.8921839197376    9.8357509189036    7.5187659074790 
Ce    0.0026128429880    4.4218859692184    0.9809643475031 
Ce   -2.0016840566286    5.5087745242325    4.2290506776650 
Ce    9.5221461901367    3.1308700028168    7.3845425759347 
Ce    3.8287754952980    4.4218859692184    0.9809643475031 
Ce    1.9456626047035    5.5836396882598    4.2098114937593 
Ce    7.6549266691429    4.4218859692184    0.9809643475031 
Ce    5.6317031581572    5.3005902373200    4.1814414244218 
Ce    5.7374148276749    3.4011188886797    7.5466857053240 
Ce   -1.9104684831671    7.7354400263133    0.9809643475031 
Ce   -3.8960491716779    8.7303038805791    4.1449112677639 
Ce    7.6772456260582    6.5776162407948    7.4800770023892 
Ce    1.9156941691429    7.7354400263133    0.9809643475031 
Ce   -0.1508741491988    8.8489934596125    4.1497344646776 
Ce   -0.1383039100004    6.3941095983673    7.5525720812784 
Ce    5.7418453429879    7.7354400263133    0.9809643475031 
Ce    3.7892010193405    8.7958587384440    4.2304813275133 
Ce    3.7351480667706    6.6355578589491    7.5806971700775 
Cu    2.0210469070601    2.3815901139511    6.6803448776836 
81
FORCE:  3.133460  ...  ENERGY:  -632.71242098
 O    0.0026128429879    0.0038271472816    0.1999463180631 
 O    1.8322164585072    1.0987700083048    3.3903139560026 
 O    0.2279720715953    2.2337070554533    6.6283994232898 
 O    0.0026128429880    2.2128565582500    1.7619595668371 
 O   -5.6948133657123    9.9176557475814    5.1112018740772 
 O    2.0699036159168    1.2034343351312    8.0955490908268 
 O    3.8287640168329    0.0038271472816    0.1999463180631 
 O    5.6177718025790    1.1302213058526    3.2991554202831 
 O    3.8387566519310    2.3394648529317    6.2988750517693 
 O    3.8287640168330    2.2128565582500    1.7619595668371 
 O   -1.8847963222713    9.7684735465427    5.0363886041152 
 O    5.8215697103533    0.9854208405288    8.2378994350378 
 O    7.6549266691429    0.0038271472816    0.1999463180631 
 O    9.6810972760174    0.9978830261421    3.3495981448937 
 O    7.6061142671611    2.2165489104222    6.6234633163514 
 O    7.6549266691430    2.2128565582500    1.7619595668371 
 O    1.9792864148357    9.8301426073365    4.9502054087165 
 O    9.6341603978243    1.0401465614959    8.1427714846722 
 O   -1.9104627439346    3.3173712637342    0.1999463180631 
 O   -0.0528805995471    4.4391653900854    3.4036462348585 
 O   -2.1507089103313    5.4498353626244    6.5668075750686 
 O   -1.9104684831671    5.5264106153449    1.7619595668371 
 O   -1.7732902088369    3.3428170216489    5.1583369052167 
 O   -0.5793988795513    4.6210528012904    8.4441709954947 
 O    1.9156884299104    3.3173712637342    0.1999463180631 
 O    3.7033578840299    4.3826836546579    3.3774458628038 
 O    1.9576963404479    5.7493978109107    6.7113499704662 
 O    1.9156826906780    5.5264106153449    1.7619595668371 
 O    1.8241298225224    3.3915329285067    5.1333956510131 
 O    3.8448443706284    4.4469150154083    8.3055115545356 
 O    5.7418510822204    3.3173712637342    0.1999463180631 
 O    7.7183338819799    4.4364592490348    3.4051852327104 
 O    5.7657041933753    5.3903386303903    6.4996185830371 
 O    5.7418453429880    5.5264106153449    1.7619595668371 
 O    5.8134418666792    3.2055989800447    4.9021657287731 
 O    7.4494481993080    4.2835912566478    8.3017675037367 
 O   -3.8235440700895    6.6309253208291    0.1999463180631 
 O   -1.9694450659064    7.7073123825152    3.3909410058165 
 O   -3.8109341727945    8.5871657888655    6.5624211916848 
 O   -3.8235440700895    8.8399547317975    1.7619595668371 
 O    7.5941966934826    6.6500901833192    5.0250848279859 
 O   -2.0755431579483    7.7101228009034    8.4386425101035 
 O    0.0026071037555    6.6309253208291    0.1999463180631 
 O    1.9438403409925    7.6258489183551    3.3498951324738 
 O   -0.0805389940265    8.8067185919265    6.7116011097333 
 O    0.0026071037555    8.8399547317975    1.7619595668371 
 O   -0.0541071883170    6.6079827160495    5.1298320281527 
 O    1.9913735828347    7.6802647895019    8.4950528146458 
 O    3.8287697560655    6.6309253208291    0.1999463180631 
 O    5.6484518455773    7.7742779169275    3.3024503400948 
 O    3.8867961514721    8.6414144584091    6.8541658689407 
 O    3.8287697560655    8.8399547317975    1.7619595668371 
 O    3.7418652644886    6.5559013053380    4.9945389026370 
 O    5.7191691188495    7.7141896170707    8.2887529696574 
Ce    1.9156884299104    1.1083418527658    0.9809643475031 
Ce    0.0781637552640    2.3348835091195    4.2378918747506 
Ce    5.7537432310991    9.8363301601299    7.3745234649753 
Ce    5.7418510822205    1.1083418527658    0.9809643475031 
Ce    3.7747916430874    2.1950639020216    4.0572903513839 
Ce   -1.8705653213643    9.8305262167224    7.4007954607629 
Ce    9.5680022560654    1.1083418527658    0.9809643475031 
Ce    7.5534582437818    2.1519571019824    4.1333905675264 
Ce    1.8930392949494    9.8377020681723    7.5175911870200 
Ce    0.0026128429880    4.4218859692184    0.9809643475031 
Ce   -2.0025467780580    5.5101833120578    4.2276492247524 
Ce    9.5258984429529    3.1333214646119    7.3834780282877 
Ce    3.8287754952980    4.4218859692184    0.9809643475031 
Ce    1.9463366201684    5.5824448230565    4.2099093491140 
Ce    7.6549266691429    4.4218859692184    0.9809643475031 
Ce    5.6306784755866    5.3019292418365    4.1818757288400 
Ce    5.7381733246421    3.4023787656836    7.5470983401416 
Ce   -1.9104684831671    7.7354400263133    0.9809643475031 
Ce   -3.8949278978243    8.7315755869472    4.1471653624388 
Ce    7.6778516890103    6.5794067492841    7.4779618212598 
Ce    1.9156941691429    7.7354400263133    0.9809643475031 
Ce   -0.1477792106809    8.8524247705181    4.1514698575420 
Ce   -0.1358401148804    6.3940104901636    7.5521035617012 
Ce    5.7418453429879    7.7354400263133    0.9809643475031 
Ce    3.7919586631644    8.7959594371504    4.2314699175074 
Ce    3.7378654785747    6.6359173125743    7.5783468167552 
Cu    2.0160909076194    2.3815164537918    6.6801163204215 
81
FORCE:  3.138150  ...  ENERGY:  -632.69502814
 O    0.0026128429879    0.0038271472816    0.1999463180631 
 O    1.8266519856368    1.1040157846477    3.3905016831750 
 O    0.2298176365903    2.2405846876345    6.6221807040910 
 O    0.0026128429880    2.2128565582500    1.7619595668371 
 O   -5.6939625818865    9.9146753442101    5.1071033542311 
 O    2.0802635618949    1.2067176298732    8.1001651719780 
 O    3.8287640168329    0.0038271472816    0.1999463180631 
 O    5.6166441581774    1.1313718357912    3.3043631955840 
 O    3.8401495636588    2.3458759707702    6.2996179769217 
 O    3.8287640168330    2.2128565582500    1.7619595668371 
 O   -1.8840479263533    9.7724993078573    5.0288067529819 
 O    5.8310104034619    0.9932429331340    8.2351446585362 
 O    7.6549266691429    0.0038271472816    0.1999463180631 
 O    9.6785844678520    0.9986463680636    3.3564838315919 
 O    7.6074293548962    2.2148623810513    6.6237990811117 
 O    7.6549266691430    2.2128565582500    1.7619595668371 
 O    1.9747743450289    9.8352242636751    4.9515370627048 
 O    9.6345990473643    1.0456114295948    8.1450837451174 
 O   -1.9104627439346    3.3173712637342    0.1999463180631 
 O   -0.0513262432091    4.4454457884778    3.4068077155501 
 O   -2.1415945499827    5.4572978027916    6.5655936212273 
 O   -1.9104684831671    5.5264106153449    1.7619595668371 
 O   -1.7774343364482    3.3366380178079    5.1490342596867 
 O   -0.5816446412285    4.6262889352102    8.4440770178580 
 O    1.9156884299104    3.3173712637342    0.1999463180631 
 O    3.7043643732334    4.3951141296223    3.3667679959830 
 O    1.9495373901336    5.7519711449803    6.6999385306366 
 O    1.9156826906780    5.5264106153449    1.7619595668371 
 O    1.8157500839338    3.3877358019647    5.1326198793080 
 O    3.8485412398510    4.4444195165678    8.2960307620777 
 O    5.7418510822204    3.3173712637342    0.1999463180631 
 O    7.7186214749205    4.4449882207132    3.4078282396926 
 O    5.7683980169338    5.3817355015205    6.5017570304746 
 O    5.7418453429880    5.5264106153449    1.7619595668371 
 O    5.8137077079286    3.2084980689622    4.9032560518399 
 O    7.4445335797336    4.2846660388922    8.3066417952879 
 O   -3.8235440700895    6.6309253208291    0.1999463180631 
 O   -1.9751495760497    7.7058907712613    3.3939001608679 
 O   -3.8048248745829    8.5880914614756    6.5593304223218 
 O   -3.8235440700895    8.8399547317975    1.7619595668371 
 O    7.5913762050628    6.6594558588592    5.0203918767774 
 O   -2.0711990754767    7.7119939280017    8.4354183016204 
 O    0.0026071037555    6.6309253208291    0.1999463180631 
 O    1.9378518536250    7.6302765798374    3.3549863481330 
 O   -0.0849004089802    8.7997355889371    6.7128422076008 
 O    0.0026071037555    8.8399547317975    1.7619595668371 
 O   -0.0726281507331    6.5975599526084    5.1266687226526 
 O    1.9933023667010    7.6810828049559    8.4916689354207 
 O    3.8287697560655    6.6309253208291    0.1999463180631 
 O    5.6518022947261    7.7773698543053    3.2945363738181 
 O    3.8970957781166    8.6357824881132    6.8584400266030 
 O    3.8287697560655    8.8399547317975    1.7619595668371 
 O    3.7470294832844    6.5561626448238    4.9959859757617 
 O    5.7269776890197    7.7138234038087    8.2879131015545 
Ce    1.9156884299104    1.1083418527658    0.9809643475031 
Ce    0.0778297893248    2.3374657897671    4.2384863061130 
Ce    5.7573375402368    9.8368268940251    7.3721555478714 
Ce    5.7418510822205    1.1083418527658    0.9809643475031 
Ce    3.7733099454328    2.1940731182045    4.0589570858294 
Ce   -1.8690734652682    9.8308514745382    7.4014311784171 
Ce    9.5680022560654    1.1083418527658    0.9809643475031 
Ce    7.5528384066718    2.1528360535737    4.1324015213303 
Ce    1.8938579390732    9.8396118643691    7.5164278716140 
Ce    0.0026128429880    4.4218859692184    0.9809643475031 
Ce   -2.0033277728166    5.5115964737658    4.2263032003973 
Ce    9.5295961730603    3.1358520539197    7.3824755241290 
Ce    3.8287754952980    4.4218859692184    0.9809643475031 
Ce    1.9468798385245    5.5812747100526    4.2100610363189 
Ce    7.6549266691429    4.4218859692184    0.9809643475031 
Ce    5.6297505564761    5.3034402194646    4.1823554253692 
Ce    5.7388616307959    3.4035403297352    7.5474548620984 
Ce   -1.9104684831671    7.7354400263133    0.9809643475031 
Ce   -3.8938519065152    8.7328428200264    4.1494363365921 
Ce    7.6783648337881    6.5811645530602    7.4758835925022 
Ce    1.9156941691429    7.7354400263133    0.9809643475031 
Ce   -0.1446152865883    8.8556976275857    4.1532292010178 
Ce   -0.1333746553831    6.3940033329012    7.5516199874540 
Ce    5.7418453429879    7.7354400263133    0.9809643475031 
Ce    3.7947372551870    8.7960514874980    4.2323939549014 
Ce    3.7406060768781    6.6361763657124    7.5760630689425 
Cu    2.0112681731573    2.3815032327375    6.6799363486852 
81
FORCE:  3.154382  ...  ENERGY:  -632.68131756
 O    0.0026128429879    0.0038271472816    0.1999463180631 
 O    1.8217508532588    1.1093033116881    3.3906116278859 
 O    0.2308559785342    2.2471103216722    6.6163718824971 
 O    0.0026128429880    2.2128565582500    1.7619595668371 
 O   -5.6934337690039    9.9116448400015    5.1031791035949 
 O    2.0905397724708    1.2095437544763    8.1044112732099 
 O    3.8287640168329    0.0038271472816    0.1999463180631 
 O    5.6159956822973    1.1321562518743    3.3096553682771 
 O    3.8413406265795    2.3517877701465    6.3010454333552 
 O    3.8287640168330    2.2128565582500    1.7619595668371 
 O   -1.8837614812592    9.7772130610248    5.0212892263475 
 O    5.8400247863803    1.0010648269263    8.2324920713094 
 O    7.6549266691429    0.0038271472816    0.1999463180631 
 O    9.6756338136391    0.9999394468127    3.3634228939381 
 O    7.6089042228640    2.2127889618825    6.6237352128149 
 O    7.6549266691430    2.2128565582500    1.7619595668371 
 O    1.9696815222853    9.8406457905737    4.9532574008993 
 O    9.6349361698813    1.0508859343939    8.1474158503549 
 O   -1.9104627439346    3.3173712637342    0.1999463180631 
 O   -0.0494883113933    4.4516455682613    3.4096352562899 
 O   -2.1322175623549    5.4647137207527    6.5644287091139 
 O   -1.9104684831671    5.5264106153449    1.7619595668371 
 O   -1.7819427331463    3.3300086034647    5.1394307488586 
 O   -0.5838322070882    4.6309485118772    8.4442040701484 
 O    1.9156884299104    3.3173712637342    0.1999463180631 
 O    3.7057941882261    4.4070235161178    3.3560974283962 
 O    1.9408965738586    5.7540665329686    6.6884260420373 
 O    1.9156826906780    5.5264106153449    1.7619595668371 
 O    1.8081298753742    3.3840450402953    5.1316518184094 
 O    3.8524550520620    4.4420542401413    8.2868116015357 
 O    5.7418510822204    3.3173712637342    0.1999463180631 
 O    7.7183254453081    4.4528031560559    3.4101966129986 
 O    5.7708826454677    5.3734813886014    6.5038683338860 
 O    5.7418453429880    5.5264106153449    1.7619595668371 
 O    5.8135267499279    3.2114038181100    4.9042704172537 
 O    7.4403970279092    4.2860858608305    8.3119268968481 
 O   -3.8235440700895    6.6309253208291    0.1999463180631 
 O   -1.9805388875442    7.7045039522554    3.3964167998629 
 O   -3.7987701564724    8.5901985794218    6.5564773342633 
 O   -3.8235440700895    8.8399547317975    1.7619595668371 
 O    7.5883588609682    6.6682499474675    5.0152710079804 
 O   -2.0665855934316    7.7138582954631    8.4318562754675 
 O    0.0026071037555    6.6309253208291    0.1999463180631 
 O    1.9316192766993    7.6351826844332    3.3599078566035 
 O   -0.0887250909105    8.7925593398615    6.7138118652068 
 O    0.0026071037555    8.8399547317975    1.7619595668371 
 O   -0.0909020391901    6.5874110538624    5.1233290950332 
 O    1.9947006159149    7.6824594845067    8.4881929033673 
 O    3.8287697560655    6.6309253208291    0.1999463180631 
 O    5.6553102858071    7.7801139686095    3.2870021958063 
 O    3.9067329825459    8.6314754066218    6.8614133239201 
 O    3.8287697560655    8.8399547317975    1.7619595668371 
 O    3.7527822603731    6.5566079855984    4.9974544903859 
 O    5.7351541439932    7.7134587810495    8.2872194462310 
Ce    1.9156884299104    1.1083418527658    0.9809643475031 
Ce    0.0773684124242    2.3399116848026    4.2390091137425 
Ce    5.7609216335407    9.8372745211474    7.3698489899527 
Ce    5.7418510822205    1.1083418527658    0.9809643475031 
Ce    3.7718292234479    2.1930635465736    4.0606461741787 
Ce   -1.8675945224453    9.8311486003362    7.4020940400975 
Ce    9.5680022560654    1.1083418527658    0.9809643475031 
Ce    7.5523702000844    2.1536818034197    4.1314710971065 
Ce    1.8946414590941    9.8414858742536    7.5152741364525 
Ce    0.0026128429880    4.4218859692184    0.9809643475031 
Ce   -2.0040270409044    5.5130179856133    4.2250098673871 
Ce    9.5332413317980    3.1384641564943    7.3815284485279 
Ce    3.8287754952980    4.4218859692184    0.9809643475031 
Ce    1.9472916858487    5.5801303433122    4.2102642743634 
Ce    7.6549266691429    4.4218859692184    0.9809643475031 
Ce    5.6289190564714    5.3051235678300    4.1828782329987 
Ce    5.7394822713984    3.4046017915189    7.5477570960029 
Ce   -1.9104684831671    7.7354400263133    0.9809643475031 
Ce   -3.8928175246417    8.7341079655706    4.1517203125059 
Ce   -3.7996738560218    6.5828900497489    7.4738379821961 
Ce    1.9156941691429    7.7354400263133    0.9809643475031 
Ce   -0.1413830656289    8.8588140189436    4.1550118108017 
Ce   -0.1309057523462    6.3940918046176    7.5511172527177 
Ce    5.7418453429879    7.7354400263133    0.9809643475031 
Ce    3.7975377136853    8.7961370764281    4.2332525272913 
Ce    3.7433683120880    6.6363293521972    7.5738404522139 
Cu    2.0066057928513    2.3815524389169    6.6798051905757 
81
FORCE:  3.190078  ...  ENERGY:  -632.67346970
 O    0.0026128429879    0.0038271472816    0.1999463180631 
 O    1.8175284999086    1.1146310983299    3.3906419653269 
 O    0.2310289590017    2.2532560243616    6.6110099108797 
 O    0.0026128429880    2.2128565582500    1.7619595668371 
 O   -5.6932336419667    9.9085695034963    5.0994683555508 
 O    2.1007059045674    1.2119299062516    8.1082764456716 
 O    3.8287640168329    0.0038271472816    0.1999463180631 
 O    5.6158164460663    1.1325834012735    3.3150082158521 
 O    3.8422824346327    2.3572036308789    6.3031295927404 
 O    3.8287640168330    2.2128565582500    1.7619595668371 
 O   -1.8839266563706    9.7826291205701    5.0138631682381 
 O    5.8486132608550    1.0088504373743    8.2299382518417 
 O    7.6549266691429    0.0038271472816    0.1999463180631 
 O    9.6722462890483    1.0017349256231    3.3703938904328 
 O    7.6105666489500    2.2103531068957    6.6232812917055 
 O    7.6549266691430    2.2128565582500    1.7619595668371 
 O    1.9640456533627    9.8463699106235    4.9553693886138 
 O    9.6351990267299    1.0559556619618    8.1497527457146 
 O   -1.9104627439346    3.3173712637342    0.1999463180631 
 O   -0.0473548091038    4.4577441523062    3.4121147148121 
 O   -2.1226402755128    5.4720582649023    6.5633231032761 
 O   -1.9104684831671    5.5264106153449    1.7619595668371 
 O   -1.7868324444516    3.3229517415030    5.1295747301570 
 O   -0.5859678328938    4.6349954467599    8.4445802087964 
 O    1.9156884299104    3.3173712637342    0.1999463180631 
 O    3.7076272990866    4.4183701628533    3.3454820612660 
 O    1.9318364492571    5.7557185683108    6.6768191195992 
 O    1.9156826906780    5.5264106153449    1.7619595668371 
 O    1.8013242934757    3.3804986167519    5.1304992237532 
 O    3.8565511996896    4.4398443359538    8.2778545291116 
 O    5.7418510822204    3.3173712637342    0.1999463180631 
 O    7.7174233527438    4.4598902375702    3.4122759822615 
 O    5.7731752392822    5.3656322574492    6.5059328765801 
 O    5.7418453429880    5.5264106153449    1.7619595668371 
 O    5.8128964674147    3.2143098654770    4.9051965075573 
 O    7.4370690191594    4.2878705043408    8.3176214398110 
 O   -3.8235440700895    6.6309253208291    0.1999463180631 
 O   -1.9855849929352    7.7031763794776    3.3984799739506 
 O   -3.7927727159022    8.5934945981859    6.5538826847058 
 O   -3.8235440700895    8.8399547317975    1.7619595668371 
 O    7.5851246886698    6.6764430248429    5.0097776501524 
 O   -2.0617237747962    7.7157247504595    8.4279714863146 
 O    0.0026071037555    6.6309253208291    0.1999463180631 
 O    1.9251589096357    7.6405421817239    3.3646836084968 
 O   -0.0920108015168    8.7852161874019    6.7145114511578 
 O    0.0026071037555    8.8399547317975    1.7619595668371 
 O   -0.1088805293503    6.5775686251182    5.1198238660441 
 O    1.9956004701786    7.6843795195650    8.4846158225444 
 O    3.8287697560655    6.6309253208291    0.1999463180631 
 O    5.6589425886641    7.7825224868299    3.2798653698411 
 O    3.9157183823402    8.6285127970001    6.8630942006312 
 O    3.8287697560655    8.8399547317975    1.7619595668371 
 O    3.7591058615263    6.5572423973893    4.9989478680258 
 O    5.7437015255631    7.7130988303922    8.2866633358467 
Ce    1.9156884299104    1.1083418527658    0.9809643475031 
Ce    0.0767744018604    2.3422262639534    4.2394555075169 
Ce    5.7645020537359    9.8376750296253    7.3675992291979 
Ce    5.7418510822205    1.1083418527658    0.9809643475031 
Ce    3.7703477553626    2.1920369764443    4.0623580726340 
Ce   -1.8661237867249    9.8314177929294    7.4027835896018 
Ce    9.5680022560654    1.1083418527658    0.9809643475031 
Ce    7.5520525335655    2.1544982283710    4.1305992948552 
Ce    1.8953917489589    9.8433307580562    7.5141272443228 
Ce    0.0026128429880    4.4218859692184    0.9809643475031 
Ce   -2.0046456727756    5.5144517244508    4.2237655761048 
Ce    9.5368370183516    3.1411605557154    7.3806299584525 
Ce    3.8287754952980    4.4218859692184    0.9809643475031 
Ce    1.9475718177870    5.5790123192738    4.2105170103379 
Ce    7.6549266691429    4.4218859692184    0.9809643475031 
Ce    5.6281839181805    5.3069799827776    4.1834409583138 
Ce    5.7400388047739    3.4055609640935    7.5480066385625 
Ce   -1.9104684831671    7.7354400263133    0.9809643475031 
Ce   -3.8918211364874    8.7353741051791    4.1540145529674 
Ce   -3.7993286411870    6.5845842334144    7.4718199721183 
Ce    1.9156941691429    7.7354400263133    0.9809643475031 
Ce   -0.1380821460565    8.8617774238167    4.1568181430959 
Ce   -0.1284312248615    6.3942800803825    7.5505905673702 
Ce    5.7418453429879    7.7354400263133    0.9809643475031 
Ce    3.8003622195679    8.7962187885077    4.2340454065758 
Ce    3.7461510363580    6.6363716993333    7.5716730359417 
Cu    2.0021270105930    2.3816657622390    6.6797235303962 
81
FORCE:  3.192983  ...  ENERGY:  -632.67337898
 O    0.0026128429879    0.0038271472816    0.1999463180631 
 O    1.8139967484050    1.1199979516958    3.3905922392958 
 O    0.2302874501627    2.2589973417226    6.6061260390840 
 O    0.0026128429880    2.2128565582500    1.7619595668371 
 O   -5.6933678826148    9.9054553984861    5.0960039566515 
 O    2.1107387142929    1.2138946742002    8.1117513372196 
 O    3.8287640168329    0.0038271472816    0.1999463180631 
 O    5.6160956023351    1.1326631252247    3.3203993844052 
 O    3.8429325174980    2.3621281256629    6.3058458201629 
 O    3.8287640168330    2.2128565582500    1.7619595668371 
 O   -1.8845304236296    9.7887595146704    5.0065525292651 
 O    5.8567755399242    1.0165674573904    8.2274793224149 
 O    7.6549266691429    0.0038271472816    0.1999463180631 
 O    9.6684241897726    1.0040039766322    3.3773785729911 
 O    7.6124416562077    2.2075810593867    6.6224480385334 
 O    7.6549266691430    2.2128565582500    1.7619595668371 
 O    1.9579027232486    9.8523611357317    4.9578748506569 
 O    9.6354134444561    1.0608088823406    8.1520821137393 
 O   -1.9104627439346    3.3173712637342    0.1999463180631 
 O   -0.0449135117752    4.4637231504243    3.4142351422659 
 O   -2.1129220331206    5.4793095658271    6.5622875244637 
 O   -1.9104684831671    5.5264106153449    1.7619595668371 
 O   -1.7921202863155    3.3154917864964    5.1195090865813 
 O   -0.5880570857008    4.6383996197121    8.4452309811206 
 O    1.9156884299104    3.3173712637342    0.1999463180631 
 O    3.7098414375928    4.4291226573991    3.3349643213894 
 O    1.9224166469549    5.7569611485970    6.6651214129392 
 O    1.9156826906780    5.5264106153449    1.7619595668371 
 O    1.7953838434843    3.3771315223954    5.1291700788766 
 O    3.8607976004240    4.4378161467074    8.2691565794917 
 O    5.7418510822204    3.3173712637342    0.1999463180631 
 O    7.7158965447218    4.4662408168971    3.4140542581253 
 O    5.7752936473903    5.3582426821901    6.5079346914826 
 O    5.7418453429880    5.5264106153449    1.7619595668371 
 O    5.8118134168496    3.2172106443037    4.9060245144051 
 O    7.4345730843375    4.2900368685151    8.3237201778522 
 O   -3.8235440700895    6.6309253208291    0.1999463180631 
 O   -1.9902639596231    7.7019310158115    3.4000807871897 
 O   -3.7868343320344    8.5979822017413    6.5515647217341 
 O   -3.8235440700895    8.8399547317975    1.7619595668371 
 O    7.5816548060926    6.6840083506577    5.0039663194468 
 O   -2.0566319851145    7.7176006490661    8.4237776202254 
 O    0.0026071037555    6.6309253208291    0.1999463180631 
 O    1.9184866501081    7.6463285301945    3.3693393792324 
 O   -0.0947582868991    8.7777308837575    6.7149405092517 
 O    0.0026071037555    8.8399547317975    1.7619595668371 
 O   -0.1265156986223    6.5680657687147    5.1161630721322 
 O    1.9960357909637    7.6868258122261    8.4809260597978 
 O    3.8287697560655    6.6309253208291    0.1999463180631 
 O    5.6626684410107    7.7846075365503    3.2731423191986 
 O    3.9240658664422    8.6268990331308    6.8634954303958 
 O    3.8287697560655    8.8399547317975    1.7619595668371 
 O    3.7659803716071    6.5580697570471    5.0004702145002 
 O    5.7526206372221    7.7127447447138    8.2862347339550 
Ce    1.9156884299104    1.1083418527658    0.9809643475031 
Ce    0.0760421905780    2.3444143981343    4.2398204692129 
Ce    5.7680855731166    9.8380310040257    7.3654017035859 
Ce    5.7418510822205    1.1083418527658    0.9809643475031 
Ce    3.7688637046228    2.1909942030681    4.0640934654984 
Ce   -1.8646567815055    9.8316596487564    7.4034986864249 
Ce    9.5680022560654    1.1083418527658    0.9809643475031 
Ce    7.5518847757996    2.1552892052780    4.1297863426774 
Ce    1.8961110469681    9.8451531760072    7.5129842299112 
Ce    0.0026128429880    4.4218859692184    0.9809643475031 
Ce   -2.0051852180229    5.5159013683159    4.2225662207313 
Ce    9.5403869058299    3.1439446314016    7.3797741232754 
Ce    3.8287754952980    4.4218859692184    0.9809643475031 
Ce    1.9477201769471    5.5779209361568    4.2108169632318 
Ce    7.6549266691429    4.4218859692184    0.9809643475031 
Ce    5.6275449694263    5.3090109554039    4.1840410922026 
Ce    5.7405351909928    3.4064161575497    7.5482048583836 
Ce   -1.9104684831671    7.7354400263133    0.9809643475031 
Ce   -3.8908584950202    8.7366448174830    4.1563165488649 
Ce   -3.7990583807285    6.5862485951530    7.4698243159443 
Ce    1.9156941691429    7.7354400263133    0.9809643475031 
Ce   -0.1347108061014    8.8645918184618    4.1586493384055 
Ce   -0.1259482607051    6.3945716394209    7.5500365098954 
Ce    5.7418453429879    7.7354400263133    0.9809643475031 
Ce    3.8032130685276    8.7962994071167    4.2347723646540 
Ce    3.7489542496879    6.6363002261153    7.5695537489933 
Cu    1.9978517415190    2.3818446938002    6.6796922805510 
81
FORCE:  3.164600  ...  ENERGY:  -632.68253214
 O    0.0026128429879    0.0038271472816    0.1999463180631 
 O    1.8111627153965    1.1254042694117    3.3904619935905 
 O    0.2285917365283    2.2643145912835    6.6017469549341 
 O    0.0026128429880    2.2128565582500    1.7619595668371 
 O   -5.6938402214496    9.9023079923242    5.0928151038327 
 O    2.1206174256259    1.2154563491039    8.1148275081148 
 O    3.8287640168329    0.0038271472816    0.1999463180631 
 O    5.6168215004617    1.1324056625894    3.3258060638304 
 O    3.8432516188250    2.3665662248197    6.3091708493145 
 O    3.8287640168330    2.2128565582500    1.7619595668371 
 O   -1.8855586645243    9.7956149792192    4.9993778385239 
 O    5.8645123696881    1.0241881525828    8.2251114053110 
 O    7.6549266691429    0.0038271472816    0.1999463180631 
 O    9.6641691801894    1.0067184678223    3.3843607464377 
 O    7.6145515702517    2.2045003549346    6.6212470864525 
 O    7.6549266691430    2.2128565582500    1.7619595668371 
 O    1.9512864786303    9.8585842760245    4.9607758399379 
 O    9.6356043887213    1.0654369471715    8.1543936898813 
 O   -1.9104627439346    3.3173712637342    0.1999463180631 
 O   -0.0421516783116    4.4695644706468    3.4159880989120 
 O   -2.1031203996801    5.4864488357134    6.5613313248201 
 O   -1.9104684831671    5.5264106153449    1.7619595668371 
 O   -1.7978223285889    3.3076543853022    5.1092723672107 
 O   -0.5901044421105    4.6411351850639    8.4461796534291 
 O    1.9156884299104    3.3173712637342    0.1999463180631 
 O    3.7124130728914    4.4392587327165    3.3245843545530 
 O    1.9126945592768    5.7578282708240    6.6533342906637 
 O    1.9156826906780    5.5264106153449    1.7619595668371 
 O    1.7903551853601    3.3739754678748    5.1276735078219 
 O    3.8651622293479    4.4359971085748    8.2607125063516 
 O    5.7418510822204    3.3173712637342    0.1999463180631 
 O    7.7137306731610    4.4718511165928    3.4155218603453 
 O    5.7772564075130    5.3513652488217    6.5098616892375 
 O    5.7418453429880    5.5264106153449    1.7619595668371 
 O    5.8102727772773    3.2201013830816    4.9067473666642 
 O    7.4329254654714    4.2926009577874    8.3302164960410 
 O   -3.8235440700895    6.6309253208291    0.1999463180631 
 O   -1.9945544950555    7.7007898300766    3.4012121684473 
 O   -3.7809551770461    8.6036585073017    6.5495416934330 
 O   -3.8235440700895    8.8399547317975    1.7619595668371 
 O    7.5779319955392    6.6909226638089    4.9978919882190 
 O   -2.0513280733997    7.7194926515131    8.4192860822530 
 O    0.0026071037555    6.6309253208291    0.1999463180631 
 O    1.9116174201212    7.6525150889237    3.3739023128367 
 O   -0.0969704166739    8.7701278829084    6.7150969865789 
 O    0.0026071037555    8.8399547317975    1.7619595668371 
 O   -0.1437608296537    6.5589354875842    5.1123560654408 
 O    1.9960429650044    7.6897792764569    8.4771101571651 
 O    3.8287697560655    6.6309253208291    0.1999463180631 
 O    5.6664584005844    7.7863827364504    3.2668494671553 
 O    3.9317909307795    8.6266249696228    6.8626336645911 
 O    3.8287697560655    8.8399547317975    1.7619595668371 
 O    3.7733837519628    6.5590926491388    5.0020270042347 
 O    5.7619098145926    7.7123964246080    8.2859224636038 
Ce    1.9156884299104    1.1083418527658    0.9809643475031 
Ce    0.0751658671676    2.3464807594471    4.2400994368093 
Ce    5.7716790787618    9.8383450289156    7.3632513948932 
Ce    5.7418510822205    1.1083418527658    0.9809643475031 
Ce    3.7673756364202    2.1899357234770    4.0658541775806 
Ce   -1.8631881693011    9.8318746648491    7.4042388743646 
Ce    9.5680022560654    1.1083418527658    0.9809643475031 
Ce    7.5518666398249    2.1560584121784    4.1290322405730 
Ce    1.8968015914225    9.8469601859627    7.5118418998027 
Ce    0.0026128429880    4.4218859692184    0.9809643475031 
Ce   -2.0056480871240    5.5173698994014    4.2214072392455 
Ce    9.5438954134417    3.1468202604032    7.3789550123689 
Ce    3.8287754952980    4.4218859692184    0.9809643475031 
Ce    1.9477369928984    5.5768561939611    4.2111616239334 
Ce    7.6549266691429    4.4218859692184    0.9809643475031 
Ce    5.6270027267397    5.3112185732437    4.1846758974526 
Ce    5.7409761936182    3.4071654831655    7.5483535802748 
Ce   -1.9104684831671    7.7354400263133    0.9809643475031 
Ce   -3.8899257549543    8.7379243769586    4.1586244753900 
Ce   -3.7988575075910    6.5878850236868    7.4678453111478 
Ce    1.9156941691429    7.7354400263133    0.9809643475031 
Ce   -0.1312668074628    8.8672622726066    4.1605067653371 
Ce   -0.1234535311220    6.3949702591767    7.5494509744744 
Ce    5.7418453429879    7.7354400263133    0.9809643475031 
Ce    3.8060928432191    8.7963820138541    4.2354336296270 
Ce    3.7517781242549    6.6361128450081    7.5674746078314 
Cu    1.9937955389497    2.3820909235097    6.6797132658485 
81
FORCE:  3.125361  ...  ENERGY:  -632.70166857
 O    0.0026128429879    0.0038271472816    0.1999463180631 
 O    1.8090311070537    1.1308482621618    3.3902516844132 
 O    0.2259135236822    2.2691907745460    6.5978952404350 
 O    0.0026128429880    2.2128565582500    1.7619595668371 
 O   -5.6946540446181    9.8991341440539    5.0899248353015 
 O    2.1303220086448    1.2166333211511    8.1174990277295 
 O    3.8287640168329    0.0038271472816    0.1999463180631 
 O    5.6179822602348    1.1318206557906    3.3312068126280 
 O    3.8432051310418    2.3705224016383    6.3130843792009 
 O    3.8287640168330    2.2128565582500    1.7619595668371 
 O   -1.8869967440118    9.8032031685113    4.9923571159981 
 O    5.8718210527075    1.0316885660034    8.2228333600248 
 O    7.6549266691429    0.0038271472816    0.1999463180631 
 O    9.6594836133841    1.0098494719244    3.3913260404058 
 O    7.6169153305492    2.2011404178406    6.6196909810211 
 O    7.6549266691430    2.2128565582500    1.7619595668371 
 O    1.9442287722481    9.8650046386604    4.9640741812655 
 O    9.6357951034173    1.0698331962243    8.1566797187047 
 O   -1.9104627439346    3.3173712637342    0.1999463180631 
 O   -0.0390579450325    4.4752508162559    3.4173667417186 
 O   -2.0932901274694    5.4934587778435    6.5604643126911 
 O   -1.9104684831671    5.5264106153449    1.7619595668371 
 O   -1.8039530915300    3.2994670734993    5.0988965061934 
 O   -0.5921131734855    4.6431823609371    8.4474465267163 
 O    1.9156884299104    3.3173712637342    0.1999463180631 
 O    3.7153171245364    4.4487629808100    3.3143809379371 
 O    1.9027253402473    5.7583516456405    6.6414600337833 
 O    1.9156826906780    5.5264106153449    1.7619595668371 
 O    1.7862801007158    3.3710586846141    5.1260184065306 
 O    3.8696175381454    4.4344160494185    8.2525172914679 
 O    5.7418510822204    3.3173712637342    0.1999463180631 
 O    7.7109159813660    4.4767199437800    3.4166696648792 
 O    5.7790814834479    5.3450509528391    6.5117054301055 
 O    5.7418453429880    5.5264106153449    1.7619595668371 
 O    5.8082687520730    3.2229780061475    4.9073607304146 
 O    7.4321359766487    4.2955765896504    8.3371010422339 
 O   -3.8235440700895    6.6309253208291    0.1999463180631 
 O   -1.9984384632575    7.6997729023703    3.4018684151969 
 O   -3.7751357100757    8.6105155623534    6.5478311635840 
 O   -3.8235440700895    8.8399547317975    1.7619595668371 
 O    7.5739398428045    6.6971640948835    4.9916091726224 
 O   -2.0458276503640    7.7214051316833    8.4145073650460 
 O    0.0026071037555    6.6309253208291    0.1999463180631 
 O    1.9045648790482    7.6590758134286    3.3784000095377 
 O   -0.0986515526578    8.7624286566420    6.7149781459266 
 O    0.0026071037555    8.8399547317975    1.7619595668371 
 O   -0.1605710990385    6.5502096911884    5.1084137948208 
 O    1.9956597564503    7.6932200309728    8.4731514632688 
 O    3.8287697560655    6.6309253208291    0.1999463180631 
 O    5.6702847468922    7.7878613075846    3.2610020964822 
 O    3.9389078086488    8.6276699299404    6.8605282918073 
 O    3.8287697560655    8.8399547317975    1.7619595668371 
 O    3.7812906351857    6.5603132606056    5.0036246240589 
 O    5.7715648680350    7.7120529754169    8.2857142073361 
Ce    1.9156884299104    1.1083418527658    0.9809643475031 
Ce    0.0741392332580    2.3484301194002    4.2402878482848 
Ce    5.7752902038508    9.8386199870814    7.3611437410988 
Ce    5.7418510822205    1.1083418527658    0.9809643475031 
Ce    3.7658820585544    2.1888611400455    4.0676418055878 
Ce   -1.8617126700177    9.8320634376462    7.4050036972188 
Ce    9.5680022560654    1.1083418527658    0.9809643475031 
Ce    7.5519978960721    2.1568094277034    4.1283372166432 
Ce    1.8974657354074    9.8487592434043    7.5106966043804 
Ce    0.0026128429880    4.4218859692184    0.9809643475031 
Ce   -2.0060369201259    5.5188601010871    4.2202829291207 
Ce    9.5473670751810    3.1497915183837    7.3781676075098 
Ce    3.8287754952980    4.4218859692184    0.9809643475031 
Ce    1.9476223804253    5.5758182914996    4.2115487114323 
Ce    7.6549266691429    4.4218859692184    0.9809643475031 
Ce    5.6265575918670    5.3136057190832    4.1853428649520 
Ce    5.7413672649207    3.4078068534060    7.5484544009433 
Ce   -1.9104684831671    7.7354400263133    0.9809643475031 
Ce   -3.8890186118654    8.7392174557077    4.1609369639363 
Ce   -3.7987202825419    6.5894959047699    7.4658772552021 
Ce    1.9156941691429    7.7354400263133    0.9809643475031 
Ce   -0.1277472231322    8.8697940547915    4.1623924768001 
Ce   -0.1209434777881    6.3954793194684    7.5488312238944 
Ce    5.7418453429879    7.7354400263133    0.9809643475031 
Ce    3.8090045854357    8.7964698891320    4.2360287452925 
Ce    3.7546234635515    6.6358083631348    7.5654278570200 
Cu    1.9899707422347    2.3824055448382    6.6797880829962 
81
FORCE:  3.201209  ...  ENERGY:  -632.73106113
 O    0.0026128429879    0.0038271472816    0.1999463180631 
 O    1.8076030138307    1.1363292341012    3.3899615398649 
 O    0.2222366269887    2.2736123722366    6.5945907403787 
 O    0.0026128429880    2.2128565582500    1.7619595668371 
 O   -5.6958110164978    9.8959401162797    5.0873518553447 
 O    2.1398328925668    1.2174437817170    8.1197590530320 
 O    3.8287640168329    0.0038271472816    0.1999463180631 
 O    5.6195654849122    1.1309168525936    3.3365799611973 
 O    3.8427614883695    2.3739998371242    6.3175690741416 
 O    3.8287640168330    2.2128565582500    1.7619595668371 
 O   -1.8888283626719    9.8115290528677    4.9855058725600 
 O    5.8786978010891    1.0390462318008    8.2206442741520 
 O    7.6549266691429    0.0038271472816    0.1999463180631 
 O    9.6543700720112    1.0133676640437    3.3982600845288 
 O    7.6195490643434    2.1975313682508    6.6177931802019 
 O    7.6549266691430    2.2128565582500    1.7619595668371 
 O    1.9367597924649    9.8715874313912    4.9677701027407 
 O    9.6360079715507    1.0739928579906    8.1589338133796 
 O   -1.9104627439346    3.3173712637342    0.1999463180631 
 O   -0.0356212926115    4.4807638964700    3.4183660524625 
 O   -2.0834844191739    5.5003225925319    6.5596956121189 
 O   -1.9104684831671    5.5264106153449    1.7619595668371 
 O   -1.8105260623353    3.2909591759825    5.0884095599599 
 O   -0.5940844276723    4.6445262363683    8.4490503052692 
 O    1.9156884299104    3.3173712637342    0.1999463180631 
 O    3.7185289138280    4.4576250634115    3.3043953578335 
 O    1.8925617908054    5.7585614925993    6.6294981860958 
 O    1.9156826906780    5.5264106153449    1.7619595668371 
 O    1.7831962389166    3.3684052289676    5.1242148114491 
 O    3.8741365524235    4.4331033876041    8.2445675133248 
 O    5.7418510822204    3.3173712637342    0.1999463180631 
 O    7.7074477631662    4.4808482925230    3.4174917410995 
 O    5.7807875277009    5.3393501932987    6.5134602115601 
 O    5.7418453429880    5.5264106153449    1.7619595668371 
 O    5.8057942245883    3.2258363384316    4.9078620965444 
 O    7.4322078892319    4.2989757922815    8.3443592179631 
 O   -3.8235440700895    6.6309253208291    0.1999463180631 
 O   -2.0019003683015    7.6988999151644    3.4020454216195 
 O   -3.7693770215776    8.6185415375319    6.5464484149583 
 O   -3.8235440700895    8.8399547317975    1.7619595668371 
 O    7.5696649180846    6.7027125637841    4.9851726169113 
 O   -2.0401454084427    7.7233410717693    8.4094510488490 
 O    0.0026071037555    6.6309253208291    0.1999463180631 
 O    1.8973432601858    7.6659838639752    3.3828616662713 
 O   -0.0998070897294    8.7546544779327    6.7145798814758 
 O    0.0026071037555    8.8399547317975    1.7619595668371 
 O   -0.1768989859317    6.5419209848342    5.1043492620327 
 O    1.9949255364366    7.6971252122964    8.4690319581252 
 O    3.8287697560655    6.6309253208291    0.1999463180631 
 O    5.6741203333643    7.7890572662585    3.2556168585567 
 O    3.9454297576772    8.6300018058087    6.8572012097461 
 O    3.8287697560655    8.8399547317975    1.7619595668371 
 O    3.7896743338448    6.5617328837310    5.0052710575100 
 O    5.7815781069778    7.7117124090120    8.2855965071891 
Ce    1.9156884299104    1.1083418527658    0.9809643475031 
Ce    0.0729559756935    2.3502662554375    4.2403809135173 
Ce    5.7789259502472    9.8388588607156    7.3590737239793 
Ce    5.7418510822205    1.1083418527658    0.9809643475031 
Ce    3.7643822823175    2.1877698563349    4.0694581743286 
Ce   -1.8602247165997    9.8322266629926    7.4057924706843 
Ce    9.5680022560654    1.1083418527658    0.9809643475031 
Ce    7.5522788888954    2.1575460292971    4.1277017270900 
Ce    1.8981062911467    9.8505576050010    7.5095444659264 
Ce    0.0026128429880    4.4218859692184    0.9809643475031 
Ce   -2.0063553327450    5.5203740609079    4.2191878159317 
Ce    9.5508065972182    3.1528623815999    7.3774066623737 
Ce    3.8287754952980    4.4218859692184    0.9809643475031 
Ce    1.9473766264897    5.5748069305530    4.2119750323134 
Ce    7.6549266691429    4.4218859692184    0.9809643475031 
Ce    5.6262103109084    5.3161758721473    4.1860390293872 
Ce    5.7417139145637    3.4083384789557    7.5485086889956 
Ce   -1.9104684831671    7.7354400263133    0.9809643475031 
Ce   -3.8881331056829    8.7405289246450    4.1632521896953 
Ce   -3.7986416550567    6.5910838229693    7.4639139893787 
Ce    1.9156941691429    7.7354400263133    0.9809643475031 
Ce   -0.1241483226084    8.8721926323696    4.1643087538052 
Ce   -0.1184143702023    6.3961022995207    7.5481738366395 
Ce    5.7418453429879    7.7354400263133    0.9809643475031 
Ce    3.8119515091475    8.7965666115815    4.2365579397517 
Ce    3.7574918171703    6.6353864822760    7.5634050568199 
Cu    1.9863865341461    2.3827897506627    6.6799194692067 
81
FORCE:  3.264466  ...  ENERGY:  -632.77033899
 O    0.0026128429879    0.0038271472816    0.1999463180631 
 O    1.8068754513267    1.1418455947272    3.3895920161477 
 O    0.2175573159468    2.2775683502423    6.5918482813344 
 O    0.0026128429880    2.2128565582500    1.7619595668371 
 O   -5.6973113092656    9.8927337621090    5.0851100781270 
 O    2.1491300474705    1.2179051269256    8.1216030220010 
 O    3.8287640168329    0.0038271472816    0.1999463180631 
 O    5.6215587203595    1.1297032989828    3.3419029275335 
 O    3.8418934294539    2.3770014140637    6.3226105637697 
 O    3.8287640168330    2.2128565582500    1.7619595668371 
 O   -1.8910356714914    9.8205953162619    4.9788398471825 
 O    5.8851361868922    1.0462428591931    8.2185430071873 
 O    7.6549266691429    0.0038271472816    0.1999463180631 
 O    9.6488319996103    1.0172440175047    3.4051496489450 
 O    7.6224656849076    2.1937057120655    6.6155682824627 
 O    7.6549266691430    2.2128565582500    1.7619595668371 
 O    1.9289090389358    9.8782978619691    4.9718645167677 
 O    9.6362633673970    1.0779110615556    8.1611502713796 
 O   -1.9104627439346    3.3173712637342    0.1999463180631 
 O   -0.0318320791380    4.4860856193199    3.4189830658298 
 O   -2.0737559609478    5.5070241759381    6.5590341190449 
 O   -1.9104684831671    5.5264106153449    1.7619595668371 
 O   -1.8175530064313    3.2821629998394    5.0778370758289 
 O   -0.5960183194555    4.6451564730895    8.4510060437576 
 O    1.9156884299104    3.3173712637342    0.1999463180631 
 O    3.7220225568278    4.4658387179165    3.2946693567361 
 O    1.8822540144508    5.7584871365950    6.6174482913992 
 O    1.9156826906780    5.5264106153449    1.7619595668371 
 O    1.7811361988030    3.3660359762842    5.1222720747211 
 O    3.8786944786981    4.4320887462456    8.2368611190127 
 O    5.7418510822204    3.3173712637342    0.1999463180631 
 O    7.7033256742078    4.4842393438274    3.4179826145806 
 O    5.7823926762465    5.3343110829090    6.5151244368938 
 O    5.7418453429880    5.5264106153449    1.7619595668371 
 O    5.8028410451131    3.2286720060512    4.9082523774581 
 O    7.4331386205665    4.3028082081036    8.3519734594470 
 O   -3.8235440700895    6.6309253208291    0.1999463180631 
 O   -2.0049257473216    7.6981895568664    3.4017422753107 
 O   -3.7636807185367    8.6277201301839    6.5454080460237 
 O   -3.8235440700895    8.8399547317975    1.7619595668371 
 O    7.5650961446606    6.7075498791353    4.9786377496434 
 O   -2.0342950644015    7.7253027581188    8.4041251171990 
 O    0.0026071037555    6.6309253208291    0.1999463180631 
 O    1.8899682316387    7.6732109097329    3.3873151113668 
 O   -0.1004435706136    8.7468262221293    6.7138964907001 
 O    0.0026071037555    8.8399547317975    1.7619595668371 
 O   -0.1926936407333    6.5341027690795    5.1001750126347 
 O    1.9938802500214    7.7014713605120    8.4647331655484 
 O    3.8287697560655    6.6309253208291    0.1999463180631 
 O    5.6779396204160    7.7899840323392    3.2507101766550 
 O    3.9513681415449    8.6335782500918    6.8526763690189 
 O    3.8287697560655    8.8399547317975    1.7619595668371 
 O    3.7985042578307    6.5633528107986    5.0069749724282 
 O    5.7919387416638    7.7113725384521    8.2855559052004 
Ce    1.9156884299104    1.1083418527658    0.9809643475031 
Ce    0.0716094943567    2.3519930444097    4.2403736142834 
Ce    5.7825932624224    9.8390649302303    7.3570370096146 
Ce    5.7418510822205    1.1083418527658    0.9809643475031 
Ce    3.7628755616092    2.1866609776874    4.0713060210156 
Ce   -1.8587184550301    9.8323651361397    7.4066047385590 
Ce    9.5680022560654    1.1083418527658    0.9809643475031 
Ce    7.5527101348254    2.1582712985586    4.1271264562167 
Ce    1.8987258986874    9.8523626268280    7.5083813786214 
Ce    0.0026128429880    4.4218859692184    0.9809643475031 
Ce   -2.0066069980901    5.5219131705536    4.2181155128486 
Ce    9.5542183987625    3.1560371245281    7.3766685273435 
Ce    3.8287754952980    4.4218859692184    0.9809643475031 
Ce    1.9470000180530    5.5738222105278    4.2124385336673 
Ce    7.6549266691429    4.4218859692184    0.9809643475031 
Ce    5.6259624334568    5.3189325116607    4.1867614254442 
Ce    5.7420227426645    3.4087580734668    7.5485180411390 
Ce   -1.9104684831671    7.7354400263133    0.9809643475031 
Ce   -3.8872649893750    8.7418639529045    4.1655692402628 
Ce   -3.7986162302567    6.5926511640392    7.4619498111510 
Ce    1.9156941691429    7.7354400263133    0.9809643475031 
Ce   -0.1204667197443    8.8744634726943    4.1662583335650 
Ce   -0.1158625926481    6.3968424797456    7.5474763035980 
Ce    5.7418453429879    7.7354400263133    0.9809643475031 
Ce    3.8149365413630    8.7966756604274    4.2370216692067 
Ce    3.7603840459964    6.6348482959024    7.5613973112898 
Cu    1.9830488834858    2.3832447338603    6.6801099335918 
81
FORCE:  3.313839  ...  ENERGY:  -632.81848014
 O    0.0026128429879    0.0038271472816    0.1999463180631 
 O    1.8068426229168    1.1473936660021    3.3891451661712 
 O    0.2118859785673    2.2810504578301    6.5896783559506 
 O    0.0026128429880    2.2128565582500    1.7619595668371 
 O   -5.6991527994056    9.8895239287136    5.0832093119940 
 O    2.1581917216648    1.2180345540883    8.1230266007165 
 O    3.8287640168329    0.0038271472816    0.1999463180631 
 O    5.6239492254804    1.1281893391621    3.3471533577326 
 O    3.8405771364800    2.3795284247402    6.3281951620217 
 O    3.8287640168330    2.2128565582500    1.7619595668371 
 O   -1.8936012805958    9.8303996723461    4.9723727259294 
 O    5.8911278308375    1.0532607538369    8.2165300153328 
 O    7.6549266691429    0.0038271472816    0.1999463180631 
 O    9.6428751354140    1.0214477163163    3.4119792227825 
 O    7.6256758672141    2.1896986391584    6.6130324829787 
 O    7.6549266691430    2.2128565582500    1.7619595668371 
 O    1.9207054947850    9.8851006411138    4.9763571952455 
 O    9.6365810339159    1.0815844271010    8.1633247587846 
 O   -1.9104627439346    3.3173712637342    0.1999463180631 
 O   -0.0276821549019    4.4911965011469    3.4192155008099 
 O   -2.0641577259071    5.5135455354996    6.5584885013094 
 O   -1.9104684831671    5.5264106153449    1.7619595668371 
 O   -1.8250401221892    3.2731141325692    5.0672004953000 
 O   -0.5979120940035    4.6450688960309    8.4533258315378 
 O    1.9156884299104    3.3173712637342    0.1999463180631 
 O    3.7257705626119    4.4734014591643    3.2852462738465 
 O    1.8718484415743    5.7581563120195    6.6053092091881 
 O    1.9156826906780    5.5264106153449    1.7619595668371 
 O    1.7801276434758    3.3639676268429    5.1201997765910 
 O    3.8832693357085    4.4314072158102    8.2293960556221 
 O    5.7418510822204    3.3173712637342    0.1999463180631 
 O    7.6985551093691    4.4868980680143    3.4181381795035 
 O    5.7839152372364    5.3299816349725    6.5166987904099 
 O    5.7418453429880    5.5264106153449    1.7619595668371 
 O    5.7994002030523    3.2314799392789    4.9085340822672 
 O    7.4349220296735    4.3070818890369    8.3599216408827 
 O   -3.8235440700895    6.6309253208291    0.1999463180631 
 O   -2.0075024331448    7.6976599194452    3.4009592043717 
 O   -3.7580502444926    8.6380294708965    6.5447235147426 
 O   -3.8235440700895    8.8399547317975    1.7619595668371 
 O    7.5602266354537    6.7116591418451    4.9720597712751 
 O   -2.0282906793600    7.7272904889511    8.3985375536333 
 O    0.0026071037555    6.6309253208291    0.1999463180631 
 O    1.8824572980659    7.6807282222455    3.3917856640417 
 O   -0.1005684563128    8.7389653610192    6.7129209024665 
 O    0.0026071037555    8.8399547317975    1.7619595668371 
 O   -0.2078992207112    6.5267915260816    5.0959056450947 
 O    1.9925647605400    7.7062324311368    8.4602361531505 
 O    3.8287697560655    6.6309253208291    0.1999463180631 
 O    5.6817181015247    7.7906552245067    3.2462996145589 
 O    3.9567335204398    8.6383481678883    6.8469793169444 
 O    3.8287697560655    8.8399547317975    1.7619595668371 
 O    3.8077460865331    6.5651744334982    5.0087457209570 
 O    5.8026305300650    7.7110312762023    8.2855764342958 
Ce    1.9156884299104    1.1083418527658    0.9809643475031 
Ce    0.0700935908764    2.3536134685094    4.2402620728651 
Ce    5.7862982813551    9.8392416748502    7.3550297202866 
Ce    5.7418510822205    1.1083418527658    0.9809643475031 
Ce    3.7613617816450    2.1855337088517    4.0731869423564 
Ce   -1.8571882608610    9.8324798511517    7.4074395884386 
Ce    9.5680022560654    1.1083418527658    0.9809643475031 
Ce    7.5532922077856    2.1589886153062    4.1266120883264 
Ce    1.8993276572150    9.8541812673350    7.5072034647476 
Ce    0.0026128429880    4.4218859692184    0.9809643475031 
Ce   -2.0067965075473    5.5234782252758    4.2170598611429 
Ce    9.5576063824919    3.1593193257994    7.3759497809034 
Ce    3.8287754952980    4.4218859692184    0.9809643475031 
Ce    1.9464929568616    5.5728640320174    4.2129357939781 
Ce    7.6549266691429    4.4218859692184    0.9809643475031 
Ce    5.6258154517124    5.3218796138804    4.1875068597083 
Ce    5.7423000049866    3.4090639470300    7.5484835978790 
Ce   -1.9104684831671    7.7354400263133    0.9809643475031 
Ce   -3.8864101880864    8.7432276102139    4.1678865189313 
Ce   -3.7986393593637    6.5942006119529    7.4599792460937 
Ce    1.9156941691429    7.7354400263133    0.9809643475031 
Ce   -0.1166989710004    8.8766121425253    4.1682439532923 
Ce   -0.1132845868015    6.3977028423358    7.5467367999615 
Ce    5.7418453429879    7.7354400263133    0.9809643475031 
Ce    3.8179626664833    8.7968010119267    4.2374194774553 
Ce    3.7633021587610    6.6341950962975    7.5593961806904 
Cu    1.9799608320468    2.3837713890888    6.6803626695663 
81
FORCE:  3.346535  ...  ENERGY:  -632.87396138
 O    0.0026128429879    0.0038271472816    0.1999463180631 
 O    1.8074939684132    1.1529680799791    3.3886228147438 
 O    0.2052497614199    2.2840518359567    6.5880887196634 
 O    0.0026128429880    2.2128565582500    1.7619595668371 
 O   -5.7013313546702    9.8863205567356    5.0816552594722 
 O    2.1669934086268    1.2178490617031    8.1240268238646 
 O    3.8287640168329    0.0038271472816    0.1999463180631 
 O    5.6267238000402    1.1263837208965    3.3523066168801 
 O    3.8387919482109    2.3815824596566    6.3343119200467 
 O    3.8287640168330    2.2128565582500    1.7619595668371 
 O   -1.8965049304946    9.8409332739487    4.9661181948642 
 O    5.8966610822831    1.0600837124855    8.2146062109927 
 O    7.6549266691429    0.0038271472816    0.1999463180631 
 O    9.6365076865245    1.0259468510167    3.4187335232701 
 O    7.6291858670265    2.1855486198152    6.6102035736326 
 O    7.6549266691430    2.2128565582500    1.7619595668371 
 O    1.9121780283518    9.8919598831068    4.9812479100729 
 O    9.6369789922974    1.0850105688727    8.1654540821797 
 O   -1.9104627439346    3.3173712637342    0.1999463180631 
 O   -0.0231663545939    4.4960754677893    3.4190629012008 
 O   -2.0547432610911    5.5198690762795    6.5580669705505 
 O   -1.9104684831671    5.5264106153449    1.7619595668371 
 O   -1.8329900496559    3.2638535296183    5.0565208036708 
 O   -0.5997616190690    4.6442639028182    8.4560190207533 
 O    1.9156884299104    3.3173712637342    0.1999463180631 
 O    3.7297445793718    4.4803118954650    3.2761726417807 
 O    1.8613909860361    5.7575958586072    6.5930816237658 
 O    1.9156826906780    5.5264106153449    1.7619595668371 
 O    1.7801915785258    3.3622121094145    5.1180070411012 
 O    3.8878412083180    4.4310928927010    8.2221711826476 
 O    5.7418510822204    3.3173712637342    0.1999463180631 
 O    7.6931470305844    4.4888315229397    3.4179561548576 
 O    5.7853731170761    5.3264065823793    6.5181882903317 
 O    5.7418453429880    5.5264106153449    1.7619595668371 
 O    5.7954633765190    3.2342538755099    4.9087122291951 
 O    7.4375448015337    4.3118014077769    8.3681752496377 
 O   -3.8235440700895    6.6309253208291    0.1999463180631 
 O   -2.0096208986452    7.6973282996184    3.3996994022174 
 O   -3.7524911665007    8.6494426205289    6.5444041732586 
 O   -3.8235440700895    8.8399547317975    1.7619595668371 
 O    7.5550536930245    6.7150261367952    4.9654941103640 
 O   -2.0221463718302    7.7293026737634    8.3926986226994 
 O    0.0026071037555    6.6309253208291    0.1999463180631 
 O    1.8748303746043    7.6885050849282    3.3962979592106 
 O   -0.1001893226139    8.7310949568925    6.7116446770358 
 O    0.0026071037555    8.8399547317975    1.7619595668371 
 O   -0.2224573578706    6.5200249308748    5.0915573545879 
 O    1.9910210791745    7.7113799939338    8.4555233571499 
 O    3.8287697560655    6.6309253208291    0.1999463180631 
 O    5.6854316145215    7.7910842626279    3.2424041046562 
 O    3.9615345606031    8.6442522135636    6.8401387942560 
 O    3.8287697560655    8.8399547317975    1.7619595668371 
 O    3.8173613097019    6.5671988453006    5.0105919709366 
 O    5.8136332700830    7.7106850436313    8.2856418993000 
Ce    1.9156884299104    1.1083418527658    0.9809643475031 
Ce    0.0684021816664    2.3551299134908    4.2400412710390 
Ce    5.7900466314931    9.8393926732066    7.3530484344794 
Ce    5.7418510822205    1.1083418527658    0.9809643475031 
Ce    3.7598415163481    2.1843870557636    4.0751029912604 
Ce   -1.8556283374675    9.8325717026865    7.4082967922220 
Ce    9.5680022560654    1.1083418527658    0.9809643475031 
Ce    7.5540261408376    2.1597007629199    4.1261599920255 
Ce    1.8999142067765    9.8560204849715    7.5060063903847 
Ce    0.0026128429880    4.4218859692184    0.9809643475031 
Ce   -2.0069287968564    5.5250694238871    4.2160137896818 
Ce    9.5609741067306    3.1627121664194    7.3752476858408 
Ce    3.8287754952980    4.4218859692184    0.9809643475031 
Ce    1.9458560742311    5.5719324944284    4.2134638479320 
Ce    7.6549266691429    4.4218859692184    0.9809643475031 
Ce    5.6257713170145    5.3250209562505    4.1882725949667 
Ce    5.7425526460012    3.4092540121106    7.5484069559228 
Ce   -1.9104684831671    7.7354400263133    0.9809643475031 
Ce   -3.8855652008855    8.7446253639263    4.1702022008924 
Ce   -3.7987065083840    6.5957342542454    7.4579972759833 
Ce    1.9156941691429    7.7354400263133    0.9809643475031 
Ce   -0.1128419771911    8.8786436121837    4.1702674377956 
Ce   -0.1106773108691    6.3986862700776    7.5459532728204 
Ce    5.7418453429879    7.7354400263133    0.9809643475031 
Ce    3.8210321228089    8.7969465429298    4.2377515925987 
Ce    3.7662474180953    6.6334292692155    7.5573927690804 
Cu    1.9771232407142    2.3843706110061    6.6806808705450 
81
FORCE:  3.362691  ...  ENERGY:  -632.93473672
 O    0.0026128429879    0.0038271472816    0.1999463180631 
 O    1.8088143362422    1.1585622758342    3.3880270147750 
 O    0.1976901591555    2.2865676137075    6.5870821096857 
 O    0.0026128429880    2.2128565582500    1.7619595668371 
 O   -5.7038393418804    9.8831360719780    5.0804481486627 
 O    2.1755089948486    1.2173654494557    8.1246030071422 
 O    3.8287640168329    0.0038271472816    0.1999463180631 
 O    5.6298683255270    1.1242957883899    3.3573362452531 
 O    3.8365228852497    2.3831636182192    6.3409508013980 
 O    3.8287640168330    2.2128565582500    1.7619595668371 
 O   -1.8997257877735    9.8521825023897    4.9600897119495 
 O    5.9017223966402    1.0666982158653    8.2127729627735 
 O    7.6549266691429    0.0038271472816    0.1999463180631 
 O    9.6297405574837    1.0307070269837    3.4253936180200 
 O    7.6329988983148    2.1812960130435    6.6071000306102 
 O    7.6549266691430    2.2128565582500    1.7619595668371 
 O    1.9033577462765    9.8988382111329    4.9865350645427 
 O    9.6374739437082    1.0881870017100    8.1675359605543 
 O   -1.9104627439346    3.3173712637342    0.1999463180631 
 O   -0.0182815216362    4.5006993575504    3.4185270918108 
 O   -2.0455656544003    5.5259754140254    6.5577768260022 
 O   -1.9104684831671    5.5264106153449    1.7619595668371 
 O   -1.8413996896458    3.2544291048824    5.0458187581377 
 O   -0.6015605241038    4.6427479548690    8.4590908577283 
 O    1.9156884299104    3.3173712637342    0.1999463180631 
 O    3.7339129839366    4.4865703250380    3.2674984146710 
 O    1.8509266434188    5.7568314232151    6.5807662194353 
 O    1.9156826906780    5.5264106153449    1.7619595668371 
 O    1.7813413763649    3.3607760842293    5.1157029922942 
 O    3.8923900092128    4.4311819608559    8.2151885529989 
 O    5.7418510822204    3.3173712637342    0.1999463180631 
 O    7.6871180816278    4.4900490528074    3.4174363125419 
 O    5.7867838204246    5.3236285704849    6.5196018326006 
 O    5.7418453429880    5.5264106153449    1.7619595668371 
 O    5.7910223584105    3.2369873533268    4.9087950298798 
 O    7.4409891445262    4.3169689512649    8.3767005267552 
 O   -3.8235440700895    6.6309253208291    0.1999463180631 
 O   -2.0112740845668    7.6972109006329    3.3979687994751 
 O   -3.7470109455635    8.6619249856460    6.5444577770077 
 O   -3.8235440700895    8.8399547317975    1.7619595668371 
 O    7.5495797852429    6.7176390346211    4.9589966516699 
 O   -2.0158760307546    7.7313355351117    8.3866179046419 
 O    0.0026071037555    6.6309253208291    0.1999463180631 
 O    1.8671110494995    7.6965085942551    3.4008736664742 
 O   -0.0993154670734    8.7232384696650    6.7100596027698 
 O    0.0026071037555    8.8399547317975    1.7619595668371 
 O   -0.2363052650083    6.5138421495897    5.0871479329970 
 O    1.9892908727527    7.7168834317248    8.4505776699670 
 O    3.8287697560655    6.6309253208291    0.1999463180631 
 O    5.6890570876918    7.7912852624150    3.2390416669307 
 O    3.9657794117447    8.6512210014346    6.8321876475065 
 O    3.8287697560655    8.8399547317975    1.7619595668371 
 O    3.8273053908931    6.5694258473928    5.0125235307127 
 O    5.8249221108412    7.7103307591401    8.2857347364315 
Ce    1.9156884299104    1.1083418527658    0.9809643475031 
Ce    0.0665298144556    2.3565444668886    4.2397075591882 
Ce    5.7938424450840    9.8395219015564    7.3510901868793 
Ce    5.7418510822205    1.1083418527658    0.9809643475031 
Ce    3.7583162005266    2.1832205213909    4.0770559925361 
Ce   -1.8540329456171    9.8326418836210    7.4091749813030 
Ce    9.5680022560654    1.1083418527658    0.9809643475031 
Ce    7.5549122783357    2.1604105247794    4.1257710797182 
Ce    1.9004888761267    9.8578864429357    7.5047865059158 
Ce    0.0026128429880    4.4218859692184    0.9809643475031 
Ce   -2.0070094904654    5.5266861699492    4.2149702273323 
Ce    9.5643239245639    3.1662179327358    7.3745604173470 
Ce    3.8287754952980    4.4218859692184    0.9809643475031 
Ce    1.9450900014770    5.5710278959801    4.2140195021142 
Ce    7.6549266691429    4.4218859692184    0.9809643475031 
Ce    5.6258320380943    5.3283596203700    4.1890547535014 
Ce    5.7427874953951    3.4093265787993    7.5482890276748 
Ce   -1.9104684831671    7.7354400263133    0.9809643475031 
Ce   -3.8847262398786    8.7460619855500    4.1725140051355 
Ce   -3.7988132581084    6.5972539796387    7.4559991106977 
Ce    1.9156941691429    7.7354400263133    0.9809643475031 
Ce   -0.1088932704464    8.8805625537714    4.1723317523886 
Ce   -0.1080377230576    6.3997952481314    7.5451248097705 
Ce    5.7418453429879    7.7354400263133    0.9809643475031 
Ce    3.8241468042867    8.7971161302872    4.2380180146368 
Ce    3.7692209144536    6.6325538962554    7.5553793210238 
Cu    1.9745340433641    2.3850431948634    6.6810677299428 
81
FORCE:  3.361143  ...  ENERGY:  -632.99816899
 O    0.0026128429879    0.0038271472816    0.1999463180631 
 O    1.8107834669129    1.1641658158931    3.3873609596798 
 O    0.1892645640992    2.2885946100768    6.5866564731077 
 O    0.0026128429880    2.2128565582500    1.7619595668371 
 O    5.7718006357061    9.8799853854042    5.0795841018474 
 O    2.1837093250293    1.2166008152508    8.1247546943471 
 O    3.8287640168329    0.0038271472816    0.1999463180631 
 O    5.6333676503668    1.1219358799103    3.3622141864212 
 O    3.8337601335089    2.3842721986474    6.3481019977300 
 O    3.8287640168330    2.2128565582500    1.7619595668371 
 O   -1.9032416416030    9.8641239971599    4.9543016475520 
 O    5.9062940970728    1.0730899494514    8.2110334640899 
 O    7.6549266691429    0.0038271472816    0.1999463180631 
 O    9.6225895311811    1.0356905691830    3.4319382936335 
 O    7.6371136410557    2.1769838618245    6.6037444359165 
 O    7.6549266691430    2.2128565582500    1.7619595668371 
 O    1.8942758699839    9.9056964590616    4.9922156933409 
 O    9.6380806379758    1.0911112404525    8.1695681128978 
 O   -1.9104627439346    3.3173712637342    0.1999463180631 
 O   -0.0130293777985    4.5050431200119    3.4176124065602 
 O   -2.0366789694050    5.5318434745756    6.5576244544941 
 O   -1.9104684831671    5.5264106153449    1.7619595668371 
 O   -1.8502589411098    3.2448937425786    5.0351146596951 
 O   -0.6033003150438    4.6405335773925    8.4625445358777 
 O    1.9156884299104    3.3173712637342    0.1999463180631 
 O    3.7382423739730    4.4921781395730    3.2592753714580 
 O    1.8404981710047    5.7558875592297    6.5683682425211 
 O    1.9156826906780    5.5264106153449    1.7619595668371 
 O    1.7835819153406    3.3596614400093    5.1132958418080 
 O    3.8968973154567    4.4317105048065    8.2084536411013 
 O    5.7418510822204    3.3173712637342    0.1999463180631 
 O    7.6804931707684    4.4905615923238    3.4165795649605 
 O    5.7881650241180    5.3216863677943    6.5209508222694 
 O    5.7418453429880    5.5264106153449    1.7619595668371 
 O    5.7860691138014    3.2396732154671    4.9087934331724 
 O    7.4452314704056    4.3225828295918    8.3854580107518 
 O   -3.8235440700895    6.6309253208291    0.1999463180631 
 O   -2.0124574569160    7.6973227328587    3.3957767482885 
 O   -3.7416201418685    8.6754350143631    6.5448882037079 
 O   -3.8235440700895    8.8399547317975    1.7619595668371 
 O    7.5438137505271    6.7194890875577    4.9526248766599 
 O   -2.0094962999076    7.7333835062363    8.3803079450191 
 O    0.0026071037555    6.6309253208291    0.1999463180631 
 O    1.8593268136751    7.7047020692562    3.4055324025237 
 O   -0.0979574498793    8.7154223414453    6.7081570118284 
 O    0.0026071037555    8.8399547317975    1.7619595668371 
 O   -0.2493778018352    6.5082840382661    5.0826967689122 
 O    1.9874171281262    7.7227084492939    8.4453826683255 
 O    3.8287697560655    6.6309253208291    0.1999463180631 
 O    5.6925718510671    7.7912724389864    3.2362312337705 
 O    3.9694727800355    8.6591783861813    6.8231641976740 
 O    3.8287697560655    8.8399547317975    1.7619595668371 
 O    3.8375291448839    6.5718555391813    5.0145504367319 
 O    5.8364680118231    7.7099656393488    8.2858371538074 
Ce    1.9156884299104    1.1083418527658    0.9809643475031 
Ce    0.0644718404657    2.3578584209865    4.2392570595947 
Ce   -5.6807762934715    9.8396333361564    7.3491533807789 
Ce    5.7418510822205    1.1083418527658    0.9809643475031 
Ce    3.7567874985579    2.1820342051400    4.0790468585878 
Ce   -1.8523968052160    9.8326917856453    7.4100732432773 
Ce    9.5680022560654    1.1083418527658    0.9809643475031 
Ce    7.5559510220258    2.1611203860453    4.1254471762130 
Ce    1.9010545922743    9.8597848073939    7.5035401617240 
Ce    0.0026128429880    4.4218859692184    0.9809643475031 
Ce   -2.0070444997836    5.5283267735527    4.2139221029616 
Ce    9.5676571560152    3.1698377182193    7.3738866068157 
Ce    3.8287754952980    4.4218859692184    0.9809643475031 
Ce    1.9441957716612    5.5701508331108    4.2145993350087 
Ce    7.6549266691429    4.4218859692184    0.9809643475031 
Ce    5.6260001976066    5.3318980913995    4.1898494575945 
Ce    5.7430118993859    3.4092800565934    7.5481309536402 
Ce   -1.9104684831671    7.7354400263133    0.9809643475031 
Ce   -3.8838900337034    8.7475421471870    4.1748194225489 
Ce   -3.7989555910745    6.5987613786356    7.4539815568220 
Ce    1.9156941691429    7.7354400263133    0.9809643475031 
Ce   -0.1048515881353    8.8823735399838    4.1744382656777 
Ce   -0.1053636424589    6.4010317646259    7.5442504984075 
Ce    5.7418453429879    7.7354400263133    0.9809643475031 
Ce    3.8273075144091    8.7973135514431    4.2382185154685 
Ce    3.7722232791513    6.6315726554550    7.5533471686803 
Cu    1.9721889355723    2.3857894388801    6.6815271254776 
81
FORCE:  3.341167  ...  ENERGY:  -633.06155024
 O    0.0026128429879    0.0038271472816    0.1999463180631 
 O    1.8133737547172    1.1697668707914    3.3866273866709 
 O    0.1800463236424    2.2901316321877    6.5868035982914 
 O    0.0026128429880    2.2128565582500    1.7619595668371 
 O    5.7686748775097    9.8768853961061    5.0790539949840 
 O    2.1915613411895    1.2155730522444    8.1244846226920 
 O    3.8287640168329    0.0038271472816    0.1999463180631 
 O    5.6372047290394    1.1193154271962    3.3669087343371 
 O    3.8305001920565    2.3849075050962    6.3557547882930 
 O    3.8287640168330    2.2128565582500    1.7619595668371 
 O   -1.9070282724219    9.8767239600753    4.9487720216554 
 O    5.9103564406209    1.0792459904087    8.2093911364579 
 O    7.6549266691429    0.0038271472816    0.1999463180631 
 O    9.6150765314846    1.0408561245425    3.4383426870951 
 O    7.6415250447245    2.1726578931128    6.6001602839608 
 O    7.6549266691430    2.2128565582500    1.7619595668371 
 O    1.8849642522143    9.9124935720403    4.9982831815369 
 O    9.6388117588039    1.0937813963780    8.1715496268061 
 O   -1.9104627439346    3.3173712637342    0.1999463180631 
 O   -0.0074154901363    4.5090804124716    3.4163259165818 
 O   -2.0281355479055    5.5374521837685    6.5576139618453 
 O   -1.9104684831671    5.5264106153449    1.7619595668371 
 O   -1.8595500124271    3.2353076829990    5.0244294936405 
 O   -0.6049706612706    4.6376402540476    8.4663780022921 
 O    1.9156884299104    3.3173712637342    0.1999463180631 
 O    3.7426969366702    4.4971371283858    3.2515580282951 
 O    1.8301480391142    5.7547879253796    6.5558981856720 
 O    1.9156826906780    5.5264106153449    1.7619595668371 
 O    1.7869079153590    3.3588645981233    5.1107944855840 
 O    3.9013459093521    4.4327147084906    8.2019732899867 
 O    5.7418510822204    3.3173712637342    0.1999463180631 
 O    7.6733046672775    4.4903830583883    3.4153881931242 
 O    5.7895339458539    5.3206151641811    6.5222507702103 
 O    5.7418453429880    5.5264106153449    1.7619595668371 
 O    5.7805984199900    3.2423026147592    4.9087213532375 
 O    7.4502429682246    4.3286386688749    8.3944009409102 
 O   -3.8235440700895    6.6309253208291    0.1999463180631 
 O   -2.0131696382769    7.6976771167563    3.3931369347212 
 O   -3.7363313817275    8.6899214129659    6.5456959095614 
 O   -3.8235440700895    8.8399547317975    1.7619595668371 
 O    7.5377703960970    6.7205735122251    4.9464367230032 
 O   -2.0030247413406    7.7354386346233    8.3737826579957 
 O    0.0026071037555    6.6309253208291    0.1999463180631 
 O    1.8515092329099    7.7130457473624    3.4102892220289 
 O   -0.0961277825583    8.7076757977215    6.7059273239669 
 O    0.0026071037555    8.8399547317975    1.7619595668371 
 O   -0.2616077619387    6.5033910553181    5.0782248476309 
 O    1.9854427747538    7.7288180674518    8.4399248942628 
 O    3.8287697560655    6.6309253208291    0.1999463180631 
 O    5.6959530051098    7.7910606038992    3.2339901408560 
 O    3.9726189125073    8.6680410652214    6.8131120120609 
 O    3.8287697560655    8.8399547317975    1.7619595668371 
 O    3.8479791394199    6.5744870260083    5.0166836378450 
 O    5.8482363080644    7.7095882925675    8.2859313595452 
Ce    1.9156884299104    1.1083418527658    0.9809643475031 
Ce    0.0622248161573    2.3590729686615    4.2386872631468 
Ce   -5.6768780919728    9.8397313508894    7.3472368756728 
Ce    5.7418510822205    1.1083418527658    0.9809643475031 
Ce    3.7552585670199    2.1808284052302    4.0810760456176 
Ce   -1.8507145787779    9.8327228998557    7.4109902095385 
Ce    9.5680022560654    1.1083418527658    0.9809643475031 
Ce    7.5571416258080    2.1618324342525    4.1251898782173 
Ce    1.9016147413663    9.8617206480734    7.5022632519901 
Ce    0.0026128429880    4.4218859692184    0.9809643475031 
Ce   -2.0070401953592    5.5299889483500    4.2128618892347 
Ce    9.5709741454386    3.1735713240570    7.3732262542470 
Ce    3.8287754952980    4.4218859692184    0.9809643475031 
Ce    1.9431751065534    5.5693017034464    4.2151999250997 
Ce    7.6549266691429    4.4218859692184    0.9809643475031 
Ce    5.6262776894980    5.3356378604355    4.1906528295278 
Ce    5.7432323433062    3.4091135508351    7.5479336462233 
Ce   -1.9104684831671    7.7354400263133    0.9809643475031 
Ce   -3.8830535405665    8.7490701233134    4.1771148035157 
Ce   -3.7991295472115    6.6002573458938    7.4519416490424 
Ce    1.9156941691429    7.7354400263133    0.9809643475031 
Ce   -0.1007165285114    8.8840804476714    4.1765888024714 
Ce   -0.1026531177338    6.4023972112509    7.5433298825293 
Ce    5.7418453429879    7.7354400263133    0.9809643475031 
Ce    3.8305139662145    8.7975426832479    4.2383530950939 
Ce    3.7752544547962    6.6304898212904    7.5512890128159 
Cu    1.9700816615752    2.3866094424626    6.6820627067665 
