81
FORCE:  3.122713  ...  ENERGY:  -632.95102952
 O    0.0026128429879    0.0038271472816    0.1999463180631 
 O    2.0708546067421    1.0017667356784    3.3540842084407 
 O    0.0779021610466    2.2570882413708    6.6124284713718 
 O    0.0026128429880    2.2128565582500    1.7619595668371 
 O   11.3947190376372    0.1099566253752    4.9389413221716 
 O    2.0781808518130    1.0957668408626    8.0289474590248 
 O    3.8287640168329    0.0038271472816    0.1999463180631 
 O    5.7456070081454    1.1894053054802    3.4029361562588 
 O    3.8121252931075    2.4279054551023    6.7663246069368 
 O    3.8287640168330    2.2128565582500    1.7619595668371 
 O    3.9912164936773    0.0119332440370    5.1230907294255 
 O    5.7442501387978    0.9780169507448    8.3140813113598 
 O    7.6549266691429    0.0038271472816    0.1999463180631 
 O    9.3779934282956    1.2021993097331    3.2388153906792 
 O    7.6872426803654    2.3638237010183    6.8731425085264 
 O    7.6549266691430    2.2128565582500    1.7619595668371 
 O    7.6558846044395    0.0910963441648    5.1195157015121 
 O    9.7175356057676    1.0271835663240    8.3626125490875 
 O   -1.9104627439346    3.3173712637342    0.1999463180631 
 O    0.0098179328608    4.3405668431843    3.3614721736730 
 O   -1.7025313261291    5.5453198045154    6.6016418003455 
 O   -1.9104684831671    5.5264106153449    1.7619595668371 
 O   -1.8813528401636    3.4303511366491    5.0918785208804 
 O   -0.3458280718676    4.4792211087866    8.4613086843347 
 O    1.9156884299104    3.3173712637342    0.1999463180631 
 O    3.7777610645906    4.4541059766344    3.6383809298855 
 O    1.9799983092350    5.5646897424560    6.7794080275363 
 O    1.9156826906780    5.5264106153449    1.7619595668371 
 O    1.7248318601080    3.2012659534769    5.1377751913651 
 O    4.5538748355186    4.8388261299750    8.6711789952152 
 O    5.7418510822204    3.3173712637342    0.1999463180631 
 O    7.7546116280048    4.3587587156071    3.4291773584033 
 O    5.6523518836303    5.6166020628421    6.4918134209661 
 O    5.7418453429880    5.5264106153449    1.7619595668371 
 O    5.7165940400114    3.4275359467526    5.1497215281805 
 O    7.5482826039133    4.6258121820060    8.1468839186830 
 O   -3.8235440700895    6.6309253208291    0.1999463180631 
 O   -1.8261520984861    7.8615940336422    3.3670934961957 
 O   -3.8878037885221    8.8104400701806    6.4418437779540 
 O   -3.8235440700895    8.8399547317975    1.7619595668371 
 O    7.6965258889341    6.5449073525909    4.9425377915846 
 O   -1.9756457326994    7.7838547317096    8.2766677192965 
 O    0.0026071037555    6.6309253208291    0.1999463180631 
 O    1.9205569634479    7.7688661318584    3.3184153613853 
 O    0.0940935689910    8.7487974514954    6.5321909582030 
 O    0.0026071037555    8.8399547317975    1.7619595668371 
 O   -0.0099708260146    6.6446218359955    4.8187272734293 
 O    2.0101192935955    7.8105253755673    8.2568724250065 
 O    3.8287697560655    6.6309253208291    0.1999463180631 
 O    5.7232020775273    7.6877763364419    3.3746064608089 
 O    3.7388778217954    9.0073121049799    6.5063005754888 
 O    3.8287697560655    8.8399547317975    1.7619595668371 
 O    3.6229254675509    6.6703517968733    5.0503556882211 
 O    5.8009844033993    7.8062011961711    8.2437397345780 
Ce    1.9156884299104    1.1083418527658    0.9809643475031 
Ce   -0.1263963799787    2.2691168161674    4.1866149845637 
Ce   -0.0148617425588    0.0633083721138    7.3621916373685 
Ce    5.7418510822205    1.1083418527658    0.9809643475031 
Ce    3.9630037467307    2.2628957634094    4.1947545427887 
Ce    3.9597929331086    0.0056084109736    7.4472119735633 
Ce    9.5680022560654    1.1083418527658    0.9809643475031 
Ce    7.7242377730604    2.2913236146047    4.4379942139388 
Ce    7.8038448305135    0.0257299608777    7.5093920944183 
Ce    0.0026128429880    4.4218859692184    0.9809643475031 
Ce   -1.8213186316592    5.5523893904992    4.1486676360199 
Ce    9.4503962567608    3.4933930995495    7.6483492072607 
Ce    3.8287754952980    4.4218859692184    0.9809643475031 
Ce    1.9201053432425    5.4433151959400    4.3505363898168 
Ce    7.6549266691429    4.4218859692184    0.9809643475031 
Ce    5.6857856677745    5.5782514625129    4.2427173526749 
Ce    5.8430784598166    3.3817457697336    7.4993278194490 
Ce   -1.9104684831671    7.7354400263133    0.9809643475031 
Ce   -3.7848586586386    8.8622977170342    4.0619356294708 
Ce   -3.7176891493286    6.7069128827773    7.2481910615006 
Ce    1.9156941691429    7.7354400263133    0.9809643475031 
Ce    0.1299369125079    8.8130996890253    4.1311455968939 
Ce    0.0439703836985    6.6750555099920    7.3865122285878 
Ce    5.7418453429879    7.7354400263133    0.9809643475031 
Ce    3.8220958321605    8.8608927066529    4.2476064707949 
Ce    3.7023883554836    6.6133960916213    7.4922760751791 
Cu    1.9108345314159    2.4213525837047    6.8226117369067 
81
FORCE:  3.117590  ...  ENERGY:  -632.92773392
 O    0.0026128429879    0.0038271472816    0.1999463180631 
 O    2.0717026357363    1.0063738257541    3.3605269228804 
 O    0.0804849878486    2.2654927562077    6.6132156481299 
 O    0.0026128429880    2.2128565582500    1.7619595668371 
 O   11.3938086231857    0.1101507661191    4.9341724133101 
 O    2.0763571532938    1.0958787724948    8.0265715583838 
 O    3.8287640168329    0.0038271472816    0.1999463180631 
 O    5.7514136766273    1.1800814800443    3.4054162990841 
 O    3.8208259121852    2.4226912900019    6.7621045092258 
 O    3.8287640168330    2.2128565582500    1.7619595668371 
 O    3.9900242829101    0.0120729100612    5.1217816574421 
 O    5.7513287933786    0.9806645414123    8.2962422117604 
 O    7.6549266691429    0.0038271472816    0.1999463180631 
 O    9.3756568145679    1.2092361910038    3.2406002814737 
 O    7.6945030390471    2.3670886055721    6.8688275207743 
 O    7.6549266691430    2.2128565582500    1.7619595668371 
 O    7.6596881659942    0.0946225882044    5.1232811938106 
 O    9.7202658734525    1.0143173930081    8.3655096606506 
 O   -1.9104627439346    3.3173712637342    0.1999463180631 
 O   -0.0003188143654    4.3412976792055    3.3611726769812 
 O   -1.6976392617384    5.5414776468638    6.5932036578329 
 O   -1.9104684831671    5.5264106153449    1.7619595668371 
 O   -1.8706737354662    3.4308028394348    5.0840557950277 
 O   -0.3355665537269    4.4828007340752    8.4499150363877 
 O    1.9156884299104    3.3173712637342    0.1999463180631 
 O    3.7789383533533    4.4549094787507    3.6372328972505 
 O    1.9803432945006    5.5694231780952    6.7798829339432 
 O    1.9156826906780    5.5264106153449    1.7619595668371 
 O    1.7187318020608    3.2049979688119    5.1387628689549 
 O    4.5593089704189    4.8454843721809    8.6663092656853 
 O    5.7418510822204    3.3173712637342    0.1999463180631 
 O    7.7631782360035    4.3553331702740    3.4342373242173 
 O    5.6530998778021    5.6142170045374    6.4883501625721 
 O    5.7418453429880    5.5264106153449    1.7619595668371 
 O    5.7206282613203    3.4217721635400    5.1435981552248 
 O    7.5497865697899    4.6280564808158    8.1564039445231 
 O   -3.8235440700895    6.6309253208291    0.1999463180631 
 O   -1.8282051367360    7.8713360618993    3.3572203699146 
 O   -3.8874175381748    8.8136622299725    6.4317988915748 
 O   -3.8235440700895    8.8399547317975    1.7619595668371 
 O    7.6968212872309    6.5496012244739    4.9421151203204 
 O   -1.9746466471058    7.7838708355502    8.2639727548022 
 O    0.0026071037555    6.6309253208291    0.1999463180631 
 O    1.9105515298613    7.7679993078507    3.3120520261145 
 O    0.0939219085469    8.7636971820046    6.5322092062878 
 O    0.0026071037555    8.8399547317975    1.7619595668371 
 O   -0.0052122561718    6.6485296018861    4.8141148418950 
 O    2.0114066608375    7.8040437785749    8.2472105203070 
 O    3.8287697560655    6.6309253208291    0.1999463180631 
 O    5.7261104335967    7.6916194881576    3.3722100310725 
 O    3.7427834842963    9.0095835417432    6.4964990729406 
 O    3.8287697560655    8.8399547317975    1.7619595668371 
 O    3.6187482245681    6.6783627616819    5.0535479625558 
 O    5.8017778522925    7.8111867264988    8.2413255129590 
Ce    1.9156884299104    1.1083418527658    0.9809643475031 
Ce   -0.1284801805147    2.2712160810062    4.1851955116673 
Ce   -0.0142914924176    0.0672208101063    7.3615832918415 
Ce    5.7418510822205    1.1083418527658    0.9809643475031 
Ce    3.9667720120056    2.2633367303014    4.1959500204442 
Ce    3.9605470108668    0.0081087807288    7.4479058569879 
Ce    9.5680022560654    1.1083418527658    0.9809643475031 
Ce    7.7239346267997    2.2900589660925    4.4371678037984 
Ce    7.8040769824681    0.0247709871160    7.5075960266718 
Ce    0.0026128429880    4.4218859692184    0.9809643475031 
Ce   -1.8180022161591    5.5526290593848    4.1477784980881 
Ce    9.4533888647632    3.4950652149891    7.6481309145463 
Ce    3.8287754952980    4.4218859692184    0.9809643475031 
Ce    1.9203503510779    5.4444550893914    4.3501937820246 
Ce    7.6549266691429    4.4218859692184    0.9809643475031 
Ce    5.6869890126527    5.5752822920673    4.2449903797378 
Ce    5.8433449897739    3.3800421424579    7.4973971720771 
Ce   -1.9104684831671    7.7354400263133    0.9809643475031 
Ce   -3.7830885645510    8.8613947090885    4.0621568874990 
Ce   -3.7143921324344    6.7096971572763    7.2477145583863 
Ce    1.9156941691429    7.7354400263133    0.9809643475031 
Ce    0.1288632168918    8.8157741194270    4.1284679185506 
Ce    0.0436100172899    6.6781885022226    7.3878956615167 
Ce    5.7418453429879    7.7354400263133    0.9809643475031 
Ce    3.8229366297217    8.8614356645348    4.2463133658858 
Ce    3.7038117999283    6.6175463097774    7.4938780289234 
Cu    1.9132619971941    2.4173679766492    6.8204226510339 
81
FORCE:  3.104821  ...  ENERGY:  -632.90388953
 O    0.0026128429879    0.0038271472816    0.1999463180631 
 O    2.0722982532851    1.0115129390052    3.3669408965865 
 O    0.0828247581542    2.2736228099110    6.6143636807648 
 O    0.0026128429880    2.2128565582500    1.7619595668371 
 O   11.3929471069952    0.1101981829829    4.9294233492409 
 O    2.0740266231525    1.0958007384528    8.0247953354296 
 O    3.8287640168329    0.0038271472816    0.1999463180631 
 O    5.7574014178946    1.1708665046415    3.4078841244523 
 O    3.8290957444714    2.4173675790235    6.7575990570887 
 O    3.8287640168330    2.2128565582500    1.7619595668371 
 O    3.9885742658189    0.0126197447936    5.1204541092729 
 O    5.7587019279791    0.9835953409787    8.2783631944754 
 O    7.6549266691429    0.0038271472816    0.1999463180631 
 O    9.3739433093127    1.2160306200090    3.2433826582036 
 O    7.7019643856511    2.3696898728465    6.8639764955313 
 O    7.6549266691430    2.2128565582500    1.7619595668371 
 O    7.6635538834369    0.0983990382103    5.1269175809091 
 O    9.7225906643613    1.0017568944425    8.3682448204610 
 O   -1.9104627439346    3.3173712637342    0.1999463180631 
 O   -0.0102284027692    4.3423847878463    3.3608086276895 
 O   -1.6935258390210    5.5380626386115    6.5844781079847 
 O   -1.9104684831671    5.5264106153449    1.7619595668371 
 O   -1.8601783436011    3.4306440873774    5.0766135417430 
 O   -0.3256254569367    4.4866760934719    8.4386630391989 
 O    1.9156884299104    3.3173712637342    0.1999463180631 
 O    3.7802037393349    4.4553878224577    3.6353070400009 
 O    1.9800817002833    5.5739827519008    6.7799472584422 
 O    1.9156826906780    5.5264106153449    1.7619595668371 
 O    1.7134791416921    3.2091191602925    5.1395359034472 
 O    4.5645723057600    4.8520489735363    8.6614810505483 
 O    5.7418510822204    3.3173712637342    0.1999463180631 
 O    7.7712672250737    4.3520269126484    3.4391202836087 
 O    5.6540078243836    5.6119372176346    6.4850358541703 
 O    5.7418453429880    5.5264106153449    1.7619595668371 
 O    5.7251393554576    3.4154253616571    5.1373728210952 
 O    7.5517814696146    4.6302922306732    8.1662688591660 
 O   -3.8235440700895    6.6309253208291    0.1999463180631 
 O   -1.8306799511823    7.8806091900595    3.3472158574230 
 O   -3.8868953828020    8.8170068584774    6.4217788682111 
 O   -3.8235440700895    8.8399547317975    1.7619595668371 
 O   -3.7811445717186    6.5545245263808    4.9417421750873 
 O   -1.9733529093156    7.7839247138314    8.2510355469821 
 O    0.0026071037555    6.6309253208291    0.1999463180631 
 O    1.9009123167006    7.7670860610435    3.3059354961906 
 O    0.0938541856034    8.7783811011697    6.5326286841372 
 O    0.0026071037555    8.8399547317975    1.7619595668371 
 O    0.0000607210798    6.6521332835291    4.8102441950079 
 O    2.0123811825160    7.7977668594073    8.2379489329678 
 O    3.8287697560655    6.6309253208291    0.1999463180631 
 O    5.7289449831361    7.6957342182207    3.3699999599022 
 O    3.7473800929979    9.0113035710786    6.4871578783315 
 O    3.8287697560655    8.8399547317975    1.7619595668371 
 O    3.6151890969256    6.6866303938745    5.0567701181294 
 O    5.8024052651893    7.8163576498053    8.2385474701493 
Ce    1.9156884299104    1.1083418527658    0.9809643475031 
Ce   -0.1305100896577    2.2732365165516    4.1837461575320 
Ce   -0.0136882416895    0.0710371220878    7.3609957035109 
Ce    5.7418510822205    1.1083418527658    0.9809643475031 
Ce    3.9704603297717    2.2636626839621    4.1971687644077 
Ce    3.9612966694159    0.0105649146258    7.4485365564188 
Ce    9.5680022560654    1.1083418527658    0.9809643475031 
Ce    7.7235771300073    2.2888021706878    4.4361910750595 
Ce    7.8042132892399    0.0238066454075    7.5058166103028 
Ce    0.0026128429880    4.4218859692184    0.9809643475031 
Ce   -1.8147868685433    5.5528630621043    4.1468736211830 
Ce    9.4565842398500    3.4967368333966    7.6479203772679 
Ce    3.8287754952980    4.4218859692184    0.9809643475031 
Ce    1.9205518555310    5.4456345465991    4.3498210648926 
Ce    7.6549266691429    4.4218859692184    0.9809643475031 
Ce    5.6882464211011    5.5723250503925    4.2472458430191 
Ce    5.8434505916519    3.3783961709076    7.4954993712579 
Ce   -1.9104684831671    7.7354400263133    0.9809643475031 
Ce   -3.7813079676679    8.8605005483145    4.0624668768396 
Ce   -3.7112061696889    6.7125330237088    7.2472850440903 
Ce    1.9156941691429    7.7354400263133    0.9809643475031 
Ce    0.1277122712063    8.8185312559726    4.1258301578927 
Ce    0.0432487899963    6.6812541963048    7.3893301890830 
Ce    5.7418453429879    7.7354400263133    0.9809643475031 
Ce    3.8237451154040    8.8619862767112    4.2449287924516 
Ce    3.7053701163367    6.6216983172491    7.4954758768487 
Cu    1.9157733705515    2.4134867522735    6.8180996698388 
81
FORCE:  3.082855  ...  ENERGY:  -632.87981829
 O    0.0026128429879    0.0038271472816    0.1999463180631 
 O    2.0726511586916    1.0171714508160    3.3732964764213 
 O    0.0849098213215    2.2814415226978    6.6158857991382 
 O    0.0026128429880    2.2128565582500    1.7619595668371 
 O   11.3921343742808    0.1101197513152    4.9247114656445 
 O    2.0712150879354    1.0955200147145    8.0236379506512 
 O    3.8287640168329    0.0038271472816    0.1999463180631 
 O    5.7635410766461    1.1618021299693    3.4103213842784 
 O    3.8368934100999    2.4119447598415    6.7528173745679 
 O    3.8287640168330    2.2128565582500    1.7619595668371 
 O    3.9868732720906    0.0135762333947    5.1191217709815 
 O    5.7663615076736    0.9868298271670    8.2605115493177 
 O    7.6549266691429    0.0038271472816    0.1999463180631 
 O    9.3728552656153    1.2225548623568    3.2471146196463 
 O    7.7096136921194    2.3716584182392    6.8586231917542 
 O    7.6549266691430    2.2128565582500    1.7619595668371 
 O    7.6674686713175    0.1024056140853    5.1304116329462 
 O    9.7245008531143    0.9895345765277    8.3708298897740 
 O   -1.9104627439346    3.3173712637342    0.1999463180631 
 O   -0.0198489634243    4.3438418871932    3.3603551627822 
 O   -1.6902020199110    5.5350885972512    6.5755027874758 
 O   -1.9104684831671    5.5264106153449    1.7619595668371 
 O   -1.8499206707462    3.4298811430816    5.0695982936427 
 O   -0.3160210235249    4.4908490756989    8.4275691160448 
 O    1.9156884299104    3.3173712637342    0.1999463180631 
 O    3.7815594608360    4.4555520418684    3.6326295897586 
 O    1.9792209875852    5.5783549445992    6.7795962109108 
 O    1.9156826906780    5.5264106153449    1.7619595668371 
 O    1.7091123892522    3.2136312178279    5.1401120867248 
 O    4.5696665059193    4.8584971699706    8.6566995961285 
 O    5.7418510822204    3.3173712637342    0.1999463180631 
 O    7.7788465129055    4.3488629056139    3.4438079884927 
 O    5.6550855948548    5.6097527614914    6.4818700395585 
 O    5.7418453429880    5.5264106153449    1.7619595668371 
 O    5.7301108508261    3.4085332161382    5.1310713012117 
 O    7.5542671312103    4.6325074034011    8.1764323580964 
 O   -3.8235440700895    6.6309253208291    0.1999463180631 
 O   -1.8335464108544    7.8893741525859    3.3371196483053 
 O   -3.8862364615186    8.8204559631328    6.4118452951491 
 O   -3.8235440700895    8.8399547317975    1.7619595668371 
 O   -3.7804403678909    6.5596475357914    4.9414228336033 
 O   -1.9717579192115    7.7840114956386    8.2379012598463 
 O    0.0026071037555    6.6309253208291    0.1999463180631 
 O    1.8916943058130    7.7661287771910    3.3000783171719 
 O    0.0938942454463    8.7927811155910    6.5334621654104 
 O    0.0026071037555    8.8399547317975    1.7619595668371 
 O    0.0058105137677    6.6554331791437    4.8071326684484 
 O    2.0130120389524    7.7917456135594    8.2291264401691 
 O    3.8287697560655    6.6309253208291    0.1999463180631 
 O    5.7316884510557    7.7000709228262    3.3679858275424 
 O    3.7526370003986    9.0124861098855    6.4783470186868 
 O    3.8287697560655    8.8399547317975    1.7619595668371 
 O    3.6122485437619    6.6951067795552    5.0599954671178 
 O    5.8028831710796    7.8217046218866    8.2354069747552 
Ce    1.9156884299104    1.1083418527658    0.9809643475031 
Ce   -0.1324839264991    2.2751747429853    4.1822664659558 
Ce   -0.0130521625515    0.0747542264593    7.3604238541535 
Ce    5.7418510822205    1.1083418527658    0.9809643475031 
Ce    3.9740656008436    2.2638696481346    4.1984073531635 
Ce    3.9620419087561    0.0129776079160    7.4490958602179 
Ce    9.5680022560654    1.1083418527658    0.9809643475031 
Ce    7.7231705053847    2.2875529301712    4.4350658525305 
Ce    7.8042582848227    0.0228374327842    7.5040470022793 
Ce    0.0026128429880    4.4218859692184    0.9809643475031 
Ce   -1.8116739088353    5.5530924921283    4.1459527772038 
Ce   -2.0184838806103    3.4984111357775    7.6477150863139 
Ce    3.8287754952980    4.4218859692184    0.9809643475031 
Ce    1.9207096270324    5.4468547604402    4.3494189227238 
Ce    7.6549266691429    4.4218859692184    0.9809643475031 
Ce    5.6895585818276    5.5693859006866    4.2494805491039 
Ce    5.8434028412375    3.3768108372752    7.4936341888903 
Ce   -1.9104684831671    7.7354400263133    0.9809643475031 
Ce   -3.7795192784669    8.8596194097820    4.0628619478755 
Ce   -3.7081352785552    6.7154176986950    7.2468981846925 
Ce    1.9156941691429    7.7354400263133    0.9809643475031 
Ce    0.1264848215515    8.8213711980684    4.1232329992236 
Ce    0.0428898010034    6.6842512005488    7.3908089682550 
Ce    5.7418453429879    7.7354400263133    0.9809643475031 
Ce    3.8245223222692    8.8625457360593    4.2434516099870 
Ce    3.7070648543016    6.6258488336244    7.4970646007316 
Cu    1.9183672740721    2.4097230262896    6.8156343535823 
81
FORCE:  3.050893  ...  ENERGY:  -632.85584583
 O    0.0026128429879    0.0038271472816    0.1999463180631 
 O    2.0727715677894    1.0233350466614    3.3795658340554 
 O    0.0867342659409    2.2889167862934    6.6177911272924 
 O    0.0026128429880    2.2128565582500    1.7619595668371 
 O   11.3913711137507    0.1099373405292    4.9200518171908 
 O    2.0679525064361    1.0950280523276    8.0231128620111 
 O    3.8287640168329    0.0038271472816    0.1999463180631 
 O    5.7698049323889    1.1529274227521    3.4127093742755 
 O    3.8441828092982    2.4064332701302    6.7477688138069 
 O    3.8287640168330    2.2128565582500    1.7619595668371 
 O    3.9849306566740    0.0149422764582    5.1177971881260 
 O    5.7742953652892    0.9903904658289    8.2427525131904 
 O    7.6549266691429    0.0038271472816    0.1999463180631 
 O    9.3723928556528    1.2287837682221    3.2517407372441 
 O    7.7174363808016    2.3730314197523    6.8528045618146 
 O    7.6549266691430    2.2128565582500    1.7619595668371 
 O    7.6714200755014    0.1066179612557    5.1337526291720 
 O    9.7259888065322    0.9776785712813    8.3732774141478 
 O   -1.9104627439346    3.3173712637342    0.1999463180631 
 O   -0.0291213248436    4.3456812042361    3.3597865068396 
 O   -1.6876760115107    5.5325657616444    6.5663182982949 
 O   -1.9104684831671    5.5264106153449    1.7619595668371 
 O   -1.8399520830323    3.4285276252274    5.0630543023324 
 O   -0.3067668554726    4.4953235576064    8.4166496902015 
 O    1.9156884299104    3.3173712637342    0.1999463180631 
 O    3.7830087892192    4.4554155568497    3.6292299715604 
 O    1.9777734383641    5.5825292191096    6.7788265979344 
 O    1.9156826906780    5.5264106153449    1.7619595668371 
 O    1.7056632826967    3.2185324515090    5.1405101230745 
 O    4.5745946126901    4.8648056009743    8.6519669553357 
 O    5.7418510822204    3.3173712637342    0.1999463180631 
 O    7.7858874033365    4.3458650067121    3.4482831031889 
 O    5.6563425441646    5.6076528008076    6.4788506658273 
 O    5.7418453429880    5.5264106153449    1.7619595668371 
 O    5.7355217992271    3.4011367818359    5.1247209677013 
 O    7.5572415458458    4.6346887779452    8.1868481367992 
 O   -3.8235440700895    6.6309253208291    0.1999463180631 
 O   -1.8367709986346    7.8975957596047    3.3269750817629 
 O   -3.8854393395167    8.8239921478146    6.4020579348667 
 O   -3.8235440700895    8.8399547317975    1.7619595668371 
 O   -3.7795315604245    6.5649390390888    4.9411598330811 
 O   -1.9698551340685    7.7841279999662    8.2246171103140 
 O    0.0026071037555    6.6309253208291    0.1999463180631 
 O    1.8829470267751    7.7651303390794    3.2944918941114 
 O    0.0940447855147    8.8068350962542    6.5347178617457 
 O    0.0026071037555    8.8399547317975    1.7619595668371 
 O    0.0119966603024    6.6584329667675    4.8047944044824 
 O    2.0132701322380    7.7860286507720    8.2207797661816 
 O    3.8287697560655    6.6309253208291    0.1999463180631 
 O    5.7343262023127    7.7045797993561    3.3661747051260 
 O    3.7585220667964    9.0131466655656    6.4701321871120 
 O    3.8287697560655    8.8399547317975    1.7619595668371 
 O    3.6099236954608    6.7037410226354    5.0631968654949 
 O    5.8032289598377    7.8272176026942    8.2319076763937 
Ce    1.9156884299104    1.1083418527658    0.9809643475031 
Ce   -0.1343989362073    2.2770273804889    4.1807552964333 
Ce   -0.0123838289269    0.0783701350923    7.3598629536469 
Ce    5.7418510822205    1.1083418527658    0.9809643475031 
Ce    3.9775850129972    2.2639541435940    4.1996630494988 
Ce    3.9627823271409    0.0153487493215    7.4495769253534 
Ce    9.5680022560654    1.1083418527658    0.9809643475031 
Ce    7.7227202625950    2.2863100516657    4.4337935048178 
Ce    7.8042166179948    0.0218636474655    7.5022805876707 
Ce    0.0026128429880    4.4218859692184    0.9809643475031 
Ce   -1.8086634518197    5.5533187411468    4.1450157380493 
Ce   -2.0148871036025    3.5000911043245    7.6475129887748 
Ce    3.8287754952980    4.4218859692184    0.9809643475031 
Ce    1.9208241247208    5.4481169237918    4.3489875836194 
Ce    7.6549266691429    4.4218859692184    0.9809643475031 
Ce    5.6909264705017    5.5664705091158    4.2516915326785 
Ce    5.8432101178102    3.3752889249406    7.4918007125700 
Ce   -1.9104684831671    7.7354400263133    0.9809643475031 
Ce   -3.7777252517798    8.8587558661862    4.0633395914951 
Ce   -3.7051829025725    6.7183483988549    7.2465489619697 
Ce    1.9156941691429    7.7354400263133    0.9809643475031 
Ce    0.1251819583817    8.8242940451209    4.1206766706442 
Ce    0.0425355181812    6.6871784214840    7.3923246997987 
Ce    5.7418453429879    7.7354400263133    0.9809643475031 
Ce    3.8252696277330    8.8631152354561    4.2418804498858 
Ce    3.7088977355928    6.6299954731493    7.4986403228541 
Cu    1.9210410103169    2.4060892245005    6.8130184906263 
81
FORCE:  3.010130  ...  ENERGY:  -632.83224275
 O    0.0026128429879    0.0038271472816    0.1999463180631 
 O    2.0726694668432    1.0299882191397    3.3857241064733 
 O    0.0882968293814    2.2960207668996    6.6200851396528 
 O    0.0026128429880    2.2128565582500    1.7619595668371 
 O   11.3906590471744    0.1096734164764    4.9154592304488 
 O    2.0642710757490    1.0943211732543    8.0232273687432 
 O    3.8287640168329    0.0038271472816    0.1999463180631 
 O    5.7761652072377    1.1442795609919    3.4150287058536 
 O    3.8509326632491    2.4008443428155    6.7424647798587 
 O    3.8287640168330    2.2128565582500    1.7619595668371 
 O    3.9827578406418    0.0167149911978    5.1164913095575 
 O    5.7824886362139    0.9942996234094    8.2251474452785 
 O    7.6549266691429    0.0038271472816    0.1999463180631 
 O    9.3725556776789    1.2346933806571    3.2572005642163 
 O    7.7254173575161    2.3738503298641    6.8465600671961 
 O    7.6549266691430    2.2128565582500    1.7619595668371 
 O    7.6753949531463    0.1110079477038    5.1369323579484 
 O    9.7270471210052    0.9662142273411    8.3756003953428 
 O   -1.9104627439346    3.3173712637342    0.1999463180631 
 O   -0.0379890129793    4.3479104926761    3.3590789373515 
 O   -1.6859517738908    5.5305011896472    6.5569627333190 
 O   -1.9104684831671    5.5264106153449    1.7619595668371 
 O   -1.8303202160892    3.4266022222223    5.0570219416996 
 O   -0.2978736277522    4.5001055035800    8.4059214130465 
 O    1.9156884299104    3.3173712637342    0.1999463180631 
 O    3.7845557993396    4.4549933777717    3.6251380666450 
 O    1.9757569590252    5.5864980205439    6.7776365947044 
 O    1.9156826906780    5.5264106153449    1.7619595668371 
 O    1.7031556972327    3.2238184874531    5.1407494010864 
 O    4.5793597252579    4.8709535900114    8.6472838124728 
 O    5.7418510822204    3.3173712637342    0.1999463180631 
 O    7.7923655620209    4.3430574711101    3.4525308011282 
 O    5.6577879698697    5.6056246115612    6.4759740833597 
 O    5.7418453429880    5.5264106153449    1.7619595668371 
 O    5.7413487271997    3.3932796981698    5.1183489645902 
 O    7.5607013847661    4.6368226362192    8.1974721717698 
 O   -3.8235440700895    6.6309253208291    0.1999463180631 
 O   -1.8403159503728    7.9052431951248    3.3168252688960 
 O   -3.8845012619646    8.8275999051209    6.3924726721233 
 O   -3.8235440700895    8.8399547317975    1.7619595668371 
 O   -3.7784202154432    6.5703682202819    4.9409554545314 
 O   -1.9676387572616    7.7842739285950    8.2112262094856 
 O    0.0026071037555    6.6309253208291    0.1999463180631 
 O    1.8747134090460    7.7640941265270    3.2891864915569 
 O    0.0943062075551    8.8204874749688    6.5363982822547 
 O    0.0026071037555    8.8399547317975    1.7619595668371 
 O    0.0185764607944    6.6611388095989    4.8032403519606 
 O    2.0131300375727    7.7806600080905    8.2129444947706 
 O    3.8287697560655    6.6309253208291    0.1999463180631 
 O    5.7368450366723    7.7092137291660    3.3645709265731 
 O    3.7650007994040    9.0133024354303    6.4625733741857 
 O    3.8287697560655    8.8399547317975    1.7619595668371 
 O    3.6082097884593    6.7124795430533    5.0663496783462 
 O    5.8034593326303    7.8328863533665    8.2280534527829 
Ce    1.9156884299104    1.1083418527658    0.9809643475031 
Ce   -0.1362524213432    2.2787917450889    4.1792119646614 
Ce   -0.0116838721312    0.0818829592648    7.3593079837680 
Ce    5.7418510822205    1.1083418527658    0.9809643475031 
Ce    3.9810163853243    2.2639129893350    4.2009328880999 
Ce    3.9635179245704    0.0176801281577    7.4499726806925 
Ce    9.5680022560654    1.1083418527658    0.9809643475031 
Ce    7.7222316817323    2.2850725411070    4.4323763129320 
Ce    7.8040933392807    0.0208856870770    7.5005107515461 
Ce    0.0026128429880    4.4218859692184    0.9809643475031 
Ce   -1.8057555548890    5.5535429026305    4.1440622756185 
Ce   -2.0110916917579    3.5017795224175    7.6473118036399 
Ce    3.8287754952980    4.4218859692184    0.9809643475031 
Ce    1.9208961520886    5.4494224283437    4.3485277318824 
Ce    7.6549266691429    4.4218859692184    0.9809643475031 
Ce    5.6923512923621    5.5635837465948    4.2538760565301 
Ce    5.8428808580417    3.3738327202515    7.4899984860950 
Ce   -1.9104684831671    7.7354400263133    0.9809643475031 
Ce   -3.7759285850456    8.8579143908164    4.0638963861826 
Ce   -3.7023520835342    6.7213228378409    7.2462325857995 
Ce    1.9156941691429    7.7354400263133    0.9809643475031 
Ce    0.1238043130124    8.8272996977238    4.1181609440534 
Ce    0.0421888685382    6.6900347656396    7.3938709968845 
Ce    5.7418453429879    7.7354400263133    0.9809643475031 
Ce    3.8259885813883    8.8636962659979    4.2402141716425 
Ce    3.7108702524107    6.6341362476952    7.5001987092960 
Cu    1.9237914801002    2.4025954863613    6.8102459222420 
81
FORCE:  2.960196  ...  ENERGY:  -632.80928884
 O    0.0026128429879    0.0038271472816    0.1999463180631 
 O    2.0723541534097    1.0371142679717    3.3917475711647 
 O    0.0896013569286    2.3027310980710    6.6227701172301 
 O    0.0026128429880    2.2128565582500    1.7619595668371 
 O   11.3900020198378    0.1093507432276    4.9109467071788 
 O    2.0602063791155    1.0933999739333    8.0239826113528 
 O    3.8287640168329    0.0038271472816    0.1999463180631 
 O    5.7825941233073    1.1358931381240    3.4172579375130 
 O    3.8571175471527    2.3951890120103    6.7369171339785 
 O    3.8287640168330    2.2128565582500    1.7619595668371 
 O    3.9803682537981    0.0188886120409    5.1152132593184 
 O    5.7909241601424    0.9985800639795    8.2077510898365 
 O    7.6549266691429    0.0038271472816    0.1999463180631 
 O    9.3733421821007    1.2402615320294    3.2634277231543 
 O    7.7335417002584    2.3741612731550    6.8399300817861 
 O    7.6549266691430    2.2128565582500    1.7619595668371 
 O    7.6793812518638    0.1155447574385    5.1399442043446 
 O    9.7276701146931    0.9551639111522    8.3778134318270 
 O   -1.9104627439346    3.3173712637342    0.1999463180631 
 O   -0.0463989973232    4.3505349216471    3.3582087318076 
 O   -1.6850313157824    5.5288997521743    6.5474764664357 
 O   -1.9104684831671    5.5264106153449    1.7619595668371 
 O   -1.8210714429154    3.4241301832976    5.0515390765204 
 O   -0.2893497196432    4.5052008780050    8.3953986549466 
 O    1.9156884299104    3.3173712637342    0.1999463180631 
 O    3.7862057138987    4.4543027019454    3.6203860372621 
 O    1.9731941047523    5.5902566768001    6.7760259731197 
 O    1.9156826906780    5.5264106153449    1.7619595668371 
 O    1.7016085723277    3.2294817707721    5.1408504498560 
 O    4.5839636227847    4.8769201623267    8.6426503956410 
 O    5.7418510822204    3.3173712637342    0.1999463180631 
 O    7.7982602703293    4.3404652498201    3.4565367119439 
 O    5.6594313417037    5.6036543762593    6.4732348177301 
 O    5.7418453429880    5.5264106153449    1.7619595668371 
 O    5.7475641438203    3.3850087855653    5.1119844888141 
 O    7.5646417696236    4.6388951607303    8.2082592989982 
 O   -3.8235440700895    6.6309253208291    0.1999463180631 
 O   -1.8441416653650    7.9122892217864    3.3067149175126 
 O   -3.8834187853228    8.8312657157782    6.3831465321842 
 O   -3.8235440700895    8.8399547317975    1.7619595668371 
 O   -3.7771094321325    6.5759058538824    4.9408110665604 
 O   -1.9651040252280    7.7844497785571    8.1977746337753 
 O    0.0026071037555    6.6309253208291    0.1999463180631 
 O    1.8670314463448    7.7630243146038    3.2841716897528 
 O    0.0946767324053    8.8336900396199    6.5385022864322 
 O    0.0026071037555    8.8399547317975    1.7619595668371 
 O    0.0255062396842    6.6635597536222    4.8024773539149 
 O    2.0125684536725    7.7756806409610    8.2056537005898 
 O    3.8287697560655    6.6309253208291    0.1999463180631 
 O    5.7392335904542    7.7139257924243    3.3631781415008 
 O    3.7720348601483    9.0129715114485    6.4557273770719 
 O    3.8287697560655    8.8399547317975    1.7619595668371 
 O    3.6070987304396    6.7212671702441    5.0694310955658 
 O    5.8035916219394    7.8387003368227    8.2238488659439 
Ce    1.9156884299104    1.1083418527658    0.9809643475031 
Ce   -0.1380412827211    2.2804650534056    4.1776353301346 
Ce   -0.0109529234800    0.0852918043189    7.3587546105964 
Ce    5.7418510822205    1.1083418527658    0.9809643475031 
Ce    3.9843578238782    2.2637435013839    4.2022141317539 
Ce    3.9642485862600    0.0199745278047    7.4502771956076 
Ce    9.5680022560654    1.1083418527658    0.9809643475031 
Ce    7.7217101002827    2.2838387085860    4.4308156454795 
Ce    7.8038939009513    0.0199036510252    7.4987306508739 
Ce    0.0026128429880    4.4218859692184    0.9809643475031 
Ce   -1.8029498736890    5.5537661694563    4.1430926180125 
Ce   -2.0070994242386    3.5034792728426    7.6471085655954 
Ce    3.8287754952980    4.4218859692184    0.9809643475031 
Ce    1.9209270291595    5.4507731628181    4.3480393675129 
Ce    7.6549266691429    4.4218859692184    0.9809643475031 
Ce    5.6938341952555    5.5607295893805    4.2560318396482 
Ce    5.8424237855653    3.3724446089621    7.4882263689598 
Ce   -1.9104684831671    7.7354400263133    0.9809643475031 
Ce   -3.7741318609192    8.8570992581486    4.0645291385230 
Ce   -3.6996456336642    6.7243389281181    7.2459444941607 
Ce    1.9156941691429    7.7354400263133    0.9809643475031 
Ce    0.1223528611131    8.8303880564704    4.1156858194514 
Ce    0.0418526069060    6.6928194377643    7.3954414726826 
Ce    5.7418453429879    7.7354400263133    0.9809643475031 
Ce    3.8266810197894    8.8642906170005    4.2384520909540 
Ce    3.7129840117405    6.6382699643850    7.5017361104404 
Cu    1.9266148955286    2.3992497643857    6.8073109459029 
81
FORCE:  2.900096  ...  ENERGY:  -632.78697304
 O    0.0026128429879    0.0038271472816    0.1999463180631 
 O    2.0718355563610    1.0446948029692    3.3976150147311 
 O    0.0906566870007    2.3090296878388    6.6258458319231 
 O    0.0026128429880    2.2128565582500    1.7619595668371 
 O   11.3894060005426    0.1089911901960    4.9065270210403 
 O    2.0557949754467    1.0922703193435    8.0253735716167 
 O    3.8287640168329    0.0038271472816    0.1999463180631 
 O    5.7890652801280    1.1277993677650    3.4193751715519 
 O    3.8627168571643    2.3894783118275    6.7311377374212 
 O    3.8287640168330    2.2128565582500    1.7619595668371 
 O    3.9777773346783    0.0214546894417    5.1139712490467 
 O    5.7995800132066    1.0032542533907    8.1906159101083 
 O    7.6549266691429    0.0038271472816    0.1999463180631 
 O    9.3747505897561    1.2454670487710    3.2703537837401 
 O    7.7417931670006    2.3740118653014    6.8329579447862 
 O    7.6549266691430    2.2128565582500    1.7619595668371 
 O    7.6833677227583    0.1201933993990    5.1427829220363 
 O    9.7278529092482    0.9445470069672    8.3799308939669 
 O   -1.9104627439346    3.3173712637342    0.1999463180631 
 O   -0.0543016335141    4.3535557834326    3.3571546768093 
 O   -1.6849141206548    5.5277631391349    6.5379007839369 
 O   -1.9104684831671    5.5264106153449    1.7619595668371 
 O   -1.8122486929702    3.4211415291931    5.0466396938527 
 O   -0.2812011573398    4.5106171363632    8.3850941895611 
 O    1.9156884299104    3.3173712637342    0.1999463180631 
 O    3.7879647312677    4.4533618201526    3.6150053613577 
 O    1.9701106446994    5.5938044920334    6.7739954174836 
 O    1.9156826906780    5.5264106153449    1.7619595668371 
 O    1.7010337308005    3.2355121620110    5.1408331141754 
 O    4.5884088879253    4.8826849396035    8.6380639676276 
 O    5.7418510822204    3.3173712637342    0.1999463180631 
 O    7.8035545401336    4.3381135920736    3.4602878338756 
 O    5.6612817850464    5.6017270845321    6.4706271664122 
 O    5.7418453429880    5.5264106153449    1.7619595668371 
 O    5.7541382624720    3.3763734490144    5.1056560530054 
 O    7.5690568464012    4.6408922357663    8.2191664073842 
 O   -3.8235440700895    6.6309253208291    0.1999463180631 
 O   -1.8482059602522    7.9187110755185    3.2966878230161 
 O   -3.8821884086594    8.8349781480478    6.3741351717078 
 O   -3.8235440700895    8.8399547317975    1.7619595668371 
 O   -3.7756023670703    6.5815232114340    4.9407268972692 
 O   -1.9622473222511    7.7846588302645    8.1843050380813 
 O    0.0026071037555    6.6309253208291    0.1999463180631 
 O    1.8599329914118    7.7619255754115    3.2794552441352 
 O    0.0951531460952    8.8464002442583    6.5410230312462 
 O    0.0026071037555    8.8399547317975    1.7619595668371 
 O    0.0327397387579    6.6657077276082    4.8025097442654 
 O    2.0115663836780    7.7711268327279    8.1989349838675 
 O    3.8287697560655    6.6309253208291    0.1999463180631 
 O    5.7414823365323    7.7186718526792    3.3619984028184 
 O    3.7795861979179    9.0121720849955    6.4496443780039 
 O    3.8287697560655    8.8399547317975    1.7619595668371 
 O    3.6065803055679    6.7300474413596    5.0724185351486 
 O    5.8036419550084    7.8446473260727    8.2193014432118 
Ce    1.9156884299104    1.1083418527658    0.9809643475031 
Ce   -0.1397623637632    2.2820450190912    4.1760247085500 
Ce   -0.0101919586428    0.0885959744096    7.3581978159089 
Ce    5.7418510822205    1.1083418527658    0.9809643475031 
Ce    3.9876074347120    2.2634431945803    4.2035038151471 
Ce    3.9649744843866    0.0222348310486    7.4504843113701 
Ce    9.5680022560654    1.1083418527658    0.9809643475031 
Ce    7.7211603965938    2.2826068641934    4.4291128710666 
Ce    7.8036239848469    0.0189178375293    7.4969334426221 
Ce    0.0026128429880    4.4218859692184    0.9809643475031 
Ce   -1.8002458916890    5.5539896350950    4.1421067652312 
Ce   -2.0029115062834    3.5051928407606    7.6469003093276 
Ce    3.8287754952980    4.4218859692184    0.9809643475031 
Ce    1.9209186498800    5.4521708171241    4.3475229467131 
Ce    7.6549266691429    4.4218859692184    0.9809643475031 
Ce    5.6953765565975    5.5579116161041    4.2581566010221 
Ce    5.8418480257610    3.3711264797945    7.4864827644572 
Ce   -1.9104684831671    7.7354400263133    0.9809643475031 
Ce   -3.7723377194474    8.8563150408783    4.0652351113037 
Ce   -3.6970657912631    6.7273945821517    7.2456801250321 
Ce    1.9156941691429    7.7354400263133    0.9809643475031 
Ce    0.1208282339995    8.8335590219545    4.1132508406359 
Ce    0.0415292585470    6.6955316426067    7.3970299684644 
Ce    5.7418453429879    7.7354400263133    0.9809643475031 
Ce    3.8273489516677    8.8648999783728    4.2365930673150 
Ce    3.7152404483902    6.6423959273739    7.5032493328725 
Cu    1.9295070095700    2.3960584205850    6.8042096838912 
81
FORCE:  2.832280  ...  ENERGY:  -632.76548271
 O    0.0026128429879    0.0038271472816    0.1999463180631 
 O    2.0711218254073    1.0527105392862    3.4033079609866 
 O    0.0914771102866    2.3149035139615    6.6293086341150 
 O    0.0026128429880    2.2128565582500    1.7619595668371 
 O   11.3888775894064    0.1086167262010    4.9022104365808 
 O    2.0510746288924    1.0909427465657    8.0273895287850 
 O    3.8287640168329    0.0038271472816    0.1999463180631 
 O    5.7955530807230    1.1200264813392    3.4213589664707 
 O    3.8677143512561    2.3837224811288    6.7251409605538 
 O    3.8287640168330    2.2128565582500    1.7619595668371 
 O    3.9750016696643    0.0244027857256    5.1127716655721 
 O    5.8084290488367    1.0083465462166    8.1737911759227 
 O    7.6549266691429    0.0038271472816    0.1999463180631 
 O    9.3767790640910    1.2502898507844    3.2779066660388 
 O    7.7501571226999    2.3734525053597    6.8256867672965 
 O    7.6549266691430    2.2128565582500    1.7619595668371 
 O    7.6873435186804    0.1249169938024    5.1454441771033 
 O    9.7275924054850    0.9343802150651    8.3819669240285 
 O   -1.9104627439346    3.3173712637342    0.1999463180631 
 O   -0.0616498024532    4.3569711893106    3.3558976118677 
 O   -1.6855983519534    5.5270919469674    6.5282772002155 
 O   -1.9104684831671    5.5264106153449    1.7619595668371 
 O   -1.8038930591581    3.4176708533440    5.0423550435416 
 O   -0.2734323600508    4.5163617341361    8.3750205624483 
 O    1.9156884299104    3.3173712637342    0.1999463180631 
 O    3.7898403698410    4.4521897190202    3.6090282011815 
 O    1.9665362506984    5.5971433549658    6.7715478931098 
 O    1.9156826906780    5.5264106153449    1.7619595668371 
 O    1.7014379449455    3.2418957442703    5.1407181512412 
 O    4.5926971850570    4.8882281399636    8.6335206507145 
 O    5.7418510822204    3.3173712637342    0.1999463180631 
 O    7.8082350564143    4.3360279459147    3.4637723056682 
 O    5.6633484826696    5.5998270301648    6.4681438301720 
 O    5.7418453429880    5.5264106153449    1.7619595668371 
 O    5.7610367051524    3.3674252804506    5.0993928540999 
 O    7.5739403593355    4.6428006402732    8.2301506139285 
 O   -3.8235440700895    6.6309253208291    0.1999463180631 
 O   -1.8524656760060    7.9244892726625    3.2867891494163 
 O   -3.8808043927421    8.8387272612875    6.3654921944434 
 O   -3.8235440700895    8.8399547317975    1.7619595668371 
 O   -3.7739043003506    6.5871928567641    4.9407036309611 
 O   -1.9590665822073    7.7849064516639    8.1708596210996 
 O    0.0026071037555    6.6309253208291    0.1999463180631 
 O    1.8534449612475    7.7608031774905    3.2750451382411 
 O    0.0957308572386    8.8585805132562    6.5439511645534 
 O    0.0026071037555    8.8399547317975    1.7619595668371 
 O    0.0402301832706    6.6675977419268    4.8033393478206 
 O    2.0101093647233    7.7670301946338    8.1928141200235 
 O    3.8287697560655    6.6309253208291    0.1999463180631 
 O    5.7435841008662    7.7234098610139    3.3610317105262 
 O    3.7876157285393    9.0109213533826    6.4443690847892 
 O    3.8287697560655    8.8399547317975    1.7619595668371 
 O    3.6066437240870    6.7387625018617    5.0752928366056 
 O    5.8036262295114    7.8507148953136    8.2144173433150 
Ce    1.9156884299104    1.1083418527658    0.9809643475031 
Ce   -0.1414121635377    2.2835295546108    4.1743789594021 
Ce   -0.0094019532892    0.0917953701307    7.3576332657854 
Ce    5.7418510822205    1.1083418527658    0.9809643475031 
Ce    3.9907636108407    2.2630098819829    4.2047989729658 
Ce    3.9656956763425    0.0244645171142    7.4505887816556 
Ce    9.5680022560654    1.1083418527658    0.9809643475031 
Ce    7.7205880803289    2.2813750198009    4.4272693582997 
Ce    7.8032892154151    0.0179284454021    7.4951127399612 
Ce    0.0026128429880    4.4218859692184    0.9809643475031 
Ce   -1.7976427480040    5.5542143930172    4.1411044891735 
Ce   -1.9985294300927    3.5069226119255    7.6466842976238 
Ce    3.8287754952980    4.4218859692184    0.9809643475031 
Ce    1.9208727934124    5.4536174787965    4.3469786975839 
Ce    7.6549266691429    4.4218859692184    0.9809643475031 
Ce    5.6969798685887    5.5551324113327    4.2602480596412 
Ce    5.8411624744388    3.3698802214706    7.4847663039807 
Ce   -1.9104684831671    7.7354400263133    0.9809643475031 
Ce   -3.7705488006771    8.8555663117011    4.0660106549077 
Ce   -3.6946145076701    6.7304882094387    7.2454351444937 
Ce    1.9156941691429    7.7354400263133    0.9809643475031 
Ce    0.1192310629871    8.8368120971439    4.1108557795059 
Ce    0.0412214061157    6.6981710819475    7.3986307817035 
Ce    5.7418453429879    7.7354400263133    0.9809643475031 
Ce    3.8279946727163    8.8655265370564    4.2346364164223 
Ce    3.7176409397756    6.6465141366618    7.5047349550763 
Cu    1.9324629438768    2.3930253318094    6.8009396270950 
81
FORCE:  2.756021  ...  ENERGY:  -632.74478336
 O    0.0026128429879    0.0038271472816    0.1999463180631 
 O    2.0702207659048    1.0611402039481    3.4088086180485 
 O    0.0920821401767    2.3203434310483    6.6331516807739 
 O    0.0026128429880    2.2128565582500    1.7619595668371 
 O   11.3884250509237    0.1082484254041    4.8980067621461 
 O    2.0460854566879    1.0894326635954    8.0300142876824 
 O    3.8287640168329    0.0038271472816    0.1999463180631 
 O    5.8020325020385    1.1125981375751    3.4231885650730 
 O    3.8720967718007    2.3779319575884    6.7189409456420 
 O    3.8287640168330    2.2128565582500    1.7619595668371 
 O    3.9720599686541    0.0277201768706    5.1116190709159 
 O    5.8174418821624    1.0138823905015    8.1573227355928 
 O    7.6549266691429    0.0038271472816    0.1999463180631 
 O    9.3794249650581    1.2547098579723    3.2860124653070 
 O    7.7586191044902    2.3725360775470    6.8181617133271 
 O    7.6549266691430    2.2128565582500    1.7619595668371 
 O    7.6912991125040    0.1296741875767    5.1479256885351 
 O    9.7268868816338    0.9246766570938    8.3839354361763 
 O   -1.9104627439346    3.3173712637342    0.1999463180631 
 O   -0.0684000007580    4.3607769642113    3.3544192888978 
 O   -1.6870806235312    5.5268836905115    6.5186479139676 
 O   -1.9104684831671    5.5264106153449    1.7619595668371 
 O   -1.7960417890981    3.4137568248487    5.0387127258156 
 O   -0.2660457382540    4.5224434190892    8.3651903191666 
 O    1.9156884299104    3.3173712637342    0.1999463180631 
 O    3.7918398610517    4.4508056833942    3.6024880875892 
 O    1.9625042102978    5.6002774406670    6.7686870496153 
 O    1.9156826906780    5.5264106153449    1.7619595668371 
 O    1.7028222478245    3.2486166125226    5.1405258620476 
 O    4.5968299489879    4.8935313732189    8.6290163390827 
 O    5.7418510822204    3.3173712637342    0.1999463180631 
 O    7.8122905128835    4.3342342564199    3.4669803189760 
 O    5.6656402155992    5.5979384075362    6.4657775097755 
 O    5.7418453429880    5.5264106153449    1.7619595668371 
 O    5.7682224538117    3.3582174623103    5.0932240890333 
 O    7.5792856509166    4.6446074514158    8.2411713166424 
 O   -3.8235440700895    6.6309253208291    0.1999463180631 
 O   -1.8568747839818    7.9296071129390    3.2770652012285 
 O   -3.8792613426921    8.8425039101063    6.3572705198367 
 O   -3.8235440700895    8.8399547317975    1.7619595668371 
 O   -3.7720210285980    6.5928898388605    4.9407408114339 
 O   -1.9555611163886    7.7851990047665    8.1574789848189 
 O    0.0026071037555    6.6309253208291    0.1999463180631 
 O    1.8475895092894    7.7596630852263    3.2709486713046 
 O    0.0964023474411    8.8701989371519    6.5472734564923 
 O    0.0026071037555    8.8399547317975    1.7619595668371 
 O    0.0479304541235    6.6692473915148    4.8049668488837 
 O    2.0081866070511    7.7634169699742    8.1873136910627 
 O    3.8287697560655    6.6309253208291    0.1999463180631 
 O    5.7455322259459    7.7280994584206    3.3602762398154 
 O    3.7960829904235    9.0092361162952    6.4399414151136 
 O    3.8287697560655    8.8399547317975    1.7619595668371 
 O    3.6072763022932    6.7473532049287    5.0780366642564 
 O    5.8035608596532    7.8568891276464    8.2092068308015 
Ce    1.9156884299104    1.1083418527658    0.9809643475031 
Ce   -0.1429866645818    2.2849166718359    4.1726971702867 
Ce   -0.0085841700503    0.0948901902948    7.3570568544068 
Ce    5.7418510822205    1.1083418527658    0.9809643475031 
Ce    3.9938249174562    2.2624418736825    4.2060970960983 
Ce    3.9664124490895    0.0266668664136    7.4505860444429 
Ce    9.5680022560654    1.1083418527658    0.9809643475031 
Ce    7.7199980872279    2.2801411872798    4.4252860195830 
Ce    7.8028955614579    0.0169358722695    7.4932616998593 
Ce    0.0026128429880    4.4218859692184    0.9809643475031 
Ce   -1.7951398113184    5.5544413378807    4.1400860179406 
Ce   -1.9939545730823    3.5086707732786    7.6464566527659 
Ce    3.8287754952980    4.4218859692184    0.9809643475031 
Ce    1.9207919850187    5.4551151359639    4.3464066201255 
Ce    7.6549266691429    4.4218859692184    0.9809643475031 
Ce    5.6986459677835    5.5523941620075    4.2623039344950 
Ce    5.8403761995863    3.3687076233060    7.4830756189240 
Ce   -1.9104684831671    7.7354400263133    0.9809643475031 
Ce   -3.7687678020477    8.8548573450929    4.0668532602234 
Ce   -3.6922935620470    6.7336181200702    7.2452047624231 
Ce    1.9156941691429    7.7354400263133    0.9809643475031 
Ce    0.1175619793914    8.8401467850065    4.1084997236571 
Ce    0.0409317470514    6.7007374575675    7.4002386660754 
Ce    5.7418453429879    7.7354400263133    0.9809643475031 
Ce    3.8286202490588    8.8661722811795    4.2325816820738 
Ce    3.7201868633126    6.6506251886873    7.5061900117380 
Cu    1.9354767296472    2.3901532814390    6.7974991788070 
81
FORCE:  2.673417  ...  ENERGY:  -632.72482403
 O    0.0026128429879    0.0038271472816    0.1999463180631 
 O    2.0691405849560    1.0699606352585    3.4141021593479 
 O    0.0924949057781    2.3253437729330    6.6373663040595 
 O    0.0026128429880    2.2128565582500    1.7619595668371 
 O   11.3880578548284    0.1079072625607    4.8939258060816 
 O    2.0408690108763    1.0877605481558    8.0332261787083 
 O    3.8287640168329    0.0038271472816    0.1999463180631 
 O    5.8084800706136    1.1055367029180    3.4248434382633 
 O    3.8758553377727    2.3721175765066    6.7125541159620 
 O    3.8287640168330    2.2128565582500    1.7619595668371 
 O    3.9689726633154    0.0313921507261    5.1105168865940 
 O    5.8265844221425    1.0198868366639    8.1412543845222 
 O    7.6549266691429    0.0038271472816    0.1999463180631 
 O    9.3826846195488    1.2587067914242    3.2945963643969 
 O    7.7671644199364    2.3713166589573    6.8104286311910 
 O    7.6549266691430    2.2128565582500    1.7619595668371 
 O    7.6952252066726    0.1344210430830    5.1502256315231 
 O    9.7257361655176    0.9154483612303    8.3858503445750 
 O   -1.9104627439346    3.3173712637342    0.1999463180631 
 O   -0.0745110781317    4.3649644597759    3.3527062499372 
 O   -1.6893565735714    5.5271345923229    6.5090558081925 
 O   -1.9104684831671    5.5264106153449    1.7619595668371 
 O   -1.7887295477545    3.4094415920306    5.0357385160942 
 O   -0.2590417510880    4.5288703425489    8.3556148647688 
 O    1.9156884299104    3.3173712637342    0.1999463180631 
 O    3.7939712972175    4.4492294951527    3.5954183233355 
 O    1.9580511398011    5.6032137075866    6.7654190457286 
 O    1.9156826906780    5.5264106153449    1.7619595668371 
 O    1.7051832532903    3.2556555813281    5.1402760913869 
 O    4.6008075814643    4.8985762491811    8.6245469269131 
 O    5.7418510822204    3.3173712637342    0.1999463180631 
 O    7.8157137355004    4.3327590651041    3.4699027497567 
 O    5.6681652483299    5.5960461068698    6.4635202216858 
 O    5.7418453429880    5.5264106153449    1.7619595668371 
 O    5.7756540711913    3.3488052645644    5.0871816919539 
 O    7.5850865801660    4.6463004422042    8.2521906507500 
 O   -3.8235440700895    6.6309253208291    0.1999463180631 
 O   -1.8613878868505    7.9340511764812    3.2675625110689 
 O   -3.8775529453538    8.8463007384290    6.3495221549296 
 O   -3.8235440700895    8.8399547317975    1.7619595668371 
 O   -3.7699594962840    6.5985909960267    4.9408377543844 
 O   -1.9517310969721    7.7855447403054    8.1442030469248 
 O    0.0026071037555    6.6309253208291    0.1999463180631 
 O    1.8423842549812    7.7585121576619    3.2671735987616 
 O    0.0971588356769    8.8812267874892    6.5509741680898 
 O    0.0026071037555    8.8399547317975    1.7619595668371 
 O    0.0557922843713    6.6706762594376    4.8073897383431 
 O    2.0057925436060    7.7603085311302    8.1824539979794 
 O    3.8287697560655    6.6309253208291    0.1999463180631 
 O    5.7473217760318    7.7327008823303    3.3597297096757 
 O    3.8049490141819    9.0071325769802    6.4363951279338 
 O    3.8287697560655    8.8399547317975    1.7619595668371 
 O    3.6084649547363    6.7557597078941    5.0806340510266 
 O    5.8034601935152    7.8631547144818    8.2036794859155 
Ce    1.9156884299104    1.1083418527658    0.9809643475031 
Ce   -0.1444819642173    2.2862047802639    4.1709782006985 
Ce   -0.0077401011265    0.0978808325278    7.3564647040551 
Ce    5.7418510822205    1.1083418527658    0.9809643475031 
Ce    3.9967899197504    2.2617374797698    4.2073952192307 
Ce    3.9671250895890    0.0288459546100    7.4504710815086 
Ce    9.5680022560654    1.1083418527658    0.9809643475031 
Ce    7.7193959843464    2.2789030802826    4.4231630830176 
Ce    7.8024491065618    0.0159405157570    7.4913741635878 
Ce    0.0026128429880    4.4218859692184    0.9809643475031 
Ce   -1.7927362207474    5.5546715631561    4.1390515796335 
Ce   -1.9891881978833    3.5104391141356    7.6462144094402 
Ce    3.8287754952980    4.4218859692184    0.9809643475031 
Ce    1.9206792091001    5.4566659755676    4.3458064862366 
Ce    7.6549266691429    4.4218859692184    0.9809643475031 
Ce    5.7003765759515    5.5496986574441    4.2643224007749 
Ce    5.8394980396215    3.3676102758037    7.4814086563775 
Ce   -1.9104684831671    7.7354400263133    0.9809643475031 
Ce   -3.7669972488215    8.8541927137494    4.0677599619369 
Ce   -3.6901047335562    6.7367828229496    7.2449851011023 
Ce    1.9156941691429    7.7354400263133    0.9809643475031 
Ce    0.1158214423511    8.8435622902909    4.1061826730896 
Ce    0.0406625196548    6.7032304712474    7.4018479190537 
Ce    5.7418453429879    7.7354400263133    0.9809643475031 
Ce    3.8292282633499    8.8668396959029    4.2304284080674 
Ce    3.7228794816323    6.6547300775145    7.5076119937460 
Cu    1.9385424554717    2.3874427665058    6.7938881109262 
81
FORCE:  2.583782  ...  ENERGY:  -632.70560101
 O    0.0026128429879    0.0038271472816    0.1999463180631 
 O    2.0678886287784    1.0791481744886    3.4191744426191 
 O    0.0927426110528    2.3299009609844    6.6419399584135 
 O    0.0026128429880    2.2128565582500    1.7619595668371 
 O   11.3877864465235    0.1076123237040    4.8899764643288 
 O    2.0354677043859    1.0859503571948    8.0369987421396 
 O    3.8287640168329    0.0038271472816    0.1999463180631 
 O    5.8148721408105    1.0988614622139    3.4263028288452 
 O    3.8789841951547    2.3662902725898    6.7059980352955 
 O    3.8287640168330    2.2128565582500    1.7619595668371 
 O    3.9657612757700    0.0354013111681    5.1094669374148 
 O    5.8358200524739    1.0263837422454    8.1256264965984 
 O    7.6549266691429    0.0038271472816    0.1999463180631 
 O    9.3865553301238    1.2622614657007    3.3035842304641 
 O    7.7757807296887    2.3698484260910    6.8025320005949 
 O    7.6549266691430    2.2128565582500    1.7619595668371 
 O    7.6991135940837    0.1391111375219    5.1523424093599 
 O    9.7241418067291    0.9067061627747    8.3877241947829 
 O   -1.9104627439346    3.3173712637342    0.1999463180631 
 O   -0.0799451556397    4.3695225424852    3.3507473180339 
 O   -1.6924200037029    5.5278388868291    6.4995444501926 
 O   -1.9104684831671    5.5264106153449    1.7619595668371 
 O   -1.7819872121981    3.4047700865929    5.0334529434730 
 O   -0.2524193080985    4.5356517493127    8.3463046919039 
 O    1.9156884299104    3.3173712637342    0.1999463180631 
 O    3.7962434593643    4.4474809361739    3.5878517549732 
 O    1.9532161807738    5.6059613011156    6.7617500401785 
 O    1.9156826906780    5.5264106153449    1.7619595668371 
 O    1.7085126394559    3.2629894889904    5.1399882278492 
 O    4.6046293363861    4.9033461669775    8.6201092207908 
 O    5.7418510822204    3.3173712637342    0.1999463180631 
 O    7.8184996737406    4.3316286152629    3.4725320706754 
 O    5.6709315010026    5.5941354160153    6.4613642104667 
 O    5.7418453429880    5.5264106153449    1.7619595668371 
 O    5.7832870782393    3.3392438577778    5.0812973689091 
 O    7.5913382113436    4.6478684791190    8.2631702952731 
 O   -3.8235440700895    6.6309253208291    0.1999463180631 
 O   -1.8659587837905    7.9378102303632    3.2583296644633 
 O   -3.8756724284329    8.8501119806830    6.3422972819551 
 O   -3.8235440700895    8.8399547317975    1.7619595668371 
 O   -3.7677271644108    6.6042748564753    4.9409930912063 
 O   -1.9475781309428    7.7859541953613    8.1310705845974 
 O    0.0026071037555    6.6309253208291    0.1999463180631 
 O    1.8378425707346    7.7573584467178    3.2637279041492 
 O    0.0979889582657    8.8916398091008    6.5550332264525 
 O    0.0026071037555    8.8399547317975    1.7619595668371 
 O    0.0637674644610    6.6719064139210    4.8106048227838 
 O    2.0029275187420    7.7577207831292    8.1782523764542 
 O    3.8287697560655    6.6309253208291    0.1999463180631 
 O    5.7489495945457    7.7371770541470    3.3593889266920 
 O    3.8141732808328    9.0046250499625    6.4337566829727 
 O    3.8287697560655    8.8399547317975    1.7619595668371 
 O    3.6101963090045    6.7639234603747    5.0830731356612 
 O    5.8033385791785    7.8694949555408    8.1978464856092 
Ce    1.9156884299104    1.1083418527658    0.9809643475031 
Ce   -0.1458934710583    2.2873924882047    4.1692211382334 
Ce   -0.0068712387183    0.1007678932680    7.3558531651132 
Ce    5.7418510822205    1.1083418527658    0.9809643475031 
Ce    3.9996569533457    2.2608956067743    4.2086903770494 
Ce    3.9678340569797    0.0310053603346    7.4502397870338 
Ce    9.5680022560654    1.1083418527658    0.9809643475031 
Ce    7.7187868796012    2.2776586112743    4.4209012329066 
Ce    7.8019561638824    0.0149425746775    7.4894444286202 
Ce    0.0026128429880    4.4218859692184    0.9809643475031 
Ce   -1.7904311727984    5.5549058640949    4.1380011742522 
Ce   -1.9842315097347    3.5122295232184    7.6459534618276 
Ce    3.8287754952980    4.4218859692184    0.9809643475031 
Ce    1.9205369335264    5.4582724827681    4.3451776116142 
Ce    7.6549266691429    4.4218859692184    0.9809643475031 
Ce    5.7021735870396    5.5470469911132    4.2663011774704 
Ce    5.8385366607854    3.3665898688726    7.4797640477349 
Ce   -1.9104684831671    7.7354400263133    0.9809643475031 
Ce   -3.7652401253992    8.8535767915531    4.0687277947345 
Ce   -3.6880492274363    6.7399808269807    7.2447720547123 
Ce    1.9156941691429    7.7354400263133    0.9809643475031 
Ce    0.1140102553588    8.8470578177458    4.1039037153992 
Ce    0.0404164213652    6.7056500235808    7.4034535224151 
Ce    5.7418453429879    7.7354400263133    0.9809643475031 
Ce    3.8298208964978    8.8675309681677    4.2281763663020 
Ce    3.7257198277966    6.6588303936463    7.5089983919887 
Cu    1.9416536360177    2.3848930911648    6.7901082482609 
81
FORCE:  2.543430  ...  ENERGY:  -632.68709448
 O    0.0026128429879    0.0038271472816    0.1999463180631 
 O    2.0664718418435    1.0886774730006    3.4240117817985 
 O    0.0928544686943    2.3340152934219    6.6468571329640 
 O    0.0026128429880    2.2128565582500    1.7619595668371 
 O   11.3876226488279    0.1073818996157    4.8861678609300 
 O    2.0299249832067    1.0840298251043    8.0413016405355 
 O    3.8287640168329    0.0038271472816    0.1999463180631 
 O    5.8211864444070    1.0925895133674    3.4275473482285 
 O    3.8814798430150    2.3604606823252    6.6992909517272 
 O    3.8287640168330    2.2128565582500    1.7619595668371 
 O    3.9624484185940    0.0397285721634    5.1084687671763 
 O    5.8451078524286    1.0333960701296    8.1104776209006 
 O    7.6549266691429    0.0038271472816    0.1999463180631 
 O    9.3910320462584    1.2653543971428    3.3129021587651 
 O    7.7844560387510    2.3681861518873    6.7945163012454 
 O    7.6549266691430    2.2128565582500    1.7619595668371 
 O    7.7029566415580    0.1436946682754    5.1542741972370 
 O    9.7221069618462    0.8984591077117    8.3895693042572 
 O   -1.9104627439346    3.3173712637342    0.1999463180631 
 O   -0.0846671665714    4.3744369972205    3.3485342815498 
 O   -1.6962636824928    5.5289892179549    6.4901571791694 
 O   -1.9104684831671    5.5264106153449    1.7619595668371 
 O   -1.7758421585680    3.3997903218377    5.0318742560368 
 O   -0.2461755396695    4.5427965859587    8.3372709775236 
 O    1.9156884299104    3.3173712637342    0.1999463180631 
 O    3.7986657024409    4.4455807824001    3.5798223695601 
 O    1.9480420331057    5.6085311559604    6.7576884727042 
 O    1.9156826906780    5.5264106153449    1.7619595668371 
 O    1.7127969765172    3.2705932850909    5.1396809757214 
 O    4.6082937789450    4.9078263150512    8.6156977462904 
 O    5.7418510822204    3.3173712637342    0.1999463180631 
 O    7.8206451136337    4.3308691501919    3.4748616668011 
 O    5.6739468363658    5.5921921198540    6.4593019487832 
 O    5.7418453429880    5.5264106153449    1.7619595668371 
 O    5.7910729210488    3.3295899036114    5.0756041945525 
 O    7.5980346904323    4.6493008262666    8.2740717011326 
 O   -3.8235440700895    6.6309253208291    0.1999463180631 
 O   -1.8705405852722    7.9408746321619    3.2494166155438 
 O   -3.8736119865731    8.8539330641728    6.3356447145402 
 O   -3.8235440700895    8.8399547317975    1.7619595668371 
 O   -3.7653322974732    6.6099211412960    4.9412052251921 
 O   -1.9431066375097    7.7864395969243    8.1181185502085 
 O    0.0026071037555    6.6309253208291    0.1999463180631 
 O    1.8339740984603    7.7562107001590    3.2606197991057 
 O    0.0988794575804    8.9014178224830    6.5594289619797 
 O    0.0026071037555    8.8399547317975    1.7619595668371 
 O    0.0718061204621    6.6729626071643    4.8146066277804 
 O    1.9995968125530    7.7556642630523    8.1747236530560 
 O    3.8287697560655    6.6309253208291    0.1999463180631 
 O    5.7504133284025    7.7414938774679    3.3592500131465 
 O    3.8237150418257    9.0017274521414    6.4320463812249 
 O    3.8287697560655    8.8399547317975    1.7619595668371 
 O    3.6124560744091    6.7717841226720    5.0853427412082 
 O    5.8032107664707    7.8758902677580    8.1917210597440 
Ce    1.9156884299104    1.1083418527658    0.9809643475031 
Ce   -0.1472163067573    2.2884785033749    4.1674250704869 
Ce   -0.0059794767725    0.1035522671735    7.3552190441664 
Ce    5.7418510822205    1.1083418527658    0.9809643475031 
Ce    4.0024247556112    2.2599154594445    4.2099793761395 
Ce    3.9685396956156    0.0331490598445    7.4498882833003 
Ce    9.5680022560654    1.1083418527658    0.9809643475031 
Ce    7.7181767417941    2.2764053945008    4.4184997849469 
Ce    7.8014228743985    0.0139429436888    7.4874667924300 
Ce    0.0026128429880    4.4218859692184    0.9809643475031 
Ce   -1.7882242657252    5.5551453341676    4.1369348017967 
Ce   -1.9790858286599    3.5140432928106    7.6456703884121 
Ce    3.8287754952980    4.4218859692184    0.9809643475031 
Ce    1.9203686592296    5.4599367451003    4.3445195400561 
Ce    7.6549266691429    4.4218859692184    0.9809643475031 
Ce    5.7040390671714    5.5444401570791    4.2682379835709 
Ce    5.8375007867115    3.3656479930156    7.4781399681877 
Ce   -1.9104684831671    7.7354400263133    0.9809643475031 
Ce   -3.7634990718281    8.8530137535738    4.0697540214034 
Ce   -3.6861284784955    6.7432106410672    7.2445619736360 
Ce    1.9156941691429    7.7354400263133    0.9809643475031 
Ce    0.1121292792992    8.8506318762747    4.1016621662826 
Ce    0.0401958626602    6.7079961145677    7.4050504579361 
Ce    5.7418453429879    7.7354400263133    0.9809643475031 
Ce    3.8304007311573    8.8682483843218    4.2258253286766 
Ce    3.7287087626903    6.6629280258047    7.5103469254554 
Cu    1.9448030398520    2.3825022672877    6.7861623280240 
81
FORCE:  2.567265  ...  ENERGY:  -632.66940347
 O    0.0026128429879    0.0038271472816    0.1999463180631 
 O    2.0648978573303    1.0985227845310    3.4286034561363 
 O    0.0928633071123    2.3376905476893    6.6521004920302 
 O    0.0026128429880    2.2128565582500    1.7619595668371 
 O   11.3875787436993    0.1072328893878    4.8825084356244 
 O    2.0242857855292    1.0820298672820    8.0461002025347 
 O    3.8287640168329    0.0038271472816    0.1999463180631 
 O    5.8274001392578    1.0867363637806    3.4285592045307 
 O    3.8833426257075    2.3546413309222    6.6924524819484 
 O    3.8287640168330    2.2128565582500    1.7619595668371 
 O    3.9590578522100    0.0443532571759    5.1075210072720 
 O    5.8544029412087    1.0409462861681    8.0958408320825 
 O    7.6549266691429    0.0038271472816    0.1999463180631 
 O    9.3961087991509    1.2679657044660    3.3224760164554 
 O    7.7931794425817    2.3663833170016    6.7864276095568 
 O    7.6549266691430    2.2128565582500    1.7619595668371 
 O    7.7067473472319    0.1481183535008    5.1560193984471 
 O    9.7196365092166    0.8907170372770    8.3913952532425 
 O   -1.9104627439346    3.3173712637342    0.1999463180631 
 O   -0.0886459468943    4.3796918195479    3.3460625784637 
 O   -1.7008797471926    5.5305763409029    6.4809375624253 
 O   -1.9104684831671    5.5264106153449    1.7619595668371 
 O   -1.7703178029329    3.3945514045380    5.0310175084554 
 O   -0.2403051083145    4.5503119103428    8.3285242142769 
 O    1.9156884299104    3.3173712637342    0.1999463180631 
 O    3.8012479553196    4.4435486168968    3.5713636979522 
 O    1.9425740367337    5.6109346044533    6.7532446078533 
 O    1.9156826906780    5.5264106153449    1.7619595668371 
 O    1.7180192763459    3.2784379429541    5.1393728111893 
 O    4.6117970638553    4.9120016830323    8.6113065727843 
 O    5.7418510822204    3.3173712637342    0.1999463180631 
 O    7.8221489073334    4.3305065155612    3.4768858356076 
 O    5.6772187154217    5.5902032955510    6.4573259093004 
 O    5.7418453429880    5.5264106153449    1.7619595668371 
 O    5.7989602334889    3.3199011571970    5.0701359278412 
 O    7.6051700486302    4.6505883382560    8.2848567754515 
 O   -3.8235440700895    6.6309253208291    0.1999463180631 
 O   -1.8750875496127    7.9432383180856    3.2408744589478 
 O   -3.8713636996335    8.8577610067058    6.3296109853011 
 O   -3.8235440700895    8.8399547317975    1.7619595668371 
 O   -3.7627845947741    6.6155124543649    4.9414711910280 
 O   -1.9383235611442    7.7870143648615    8.1053827556244 
 O    0.0026071037555    6.6309253208291    0.1999463180631 
 O    1.8307846347831    7.7550797532856    3.2578590919765 
 O    0.0998138046314    8.9105445249822    6.5641367397571 
 O    0.0026071037555    8.8399547317975    1.7619595668371 
 O    0.0798591245445    6.6738716789017    4.8193883103012 
 O    1.9958119608962    7.7541446370654    8.1718801452420 
 O    3.8287697560655    6.6309253208291    0.1999463180631 
 O    5.7517117149710    7.7456195422375    3.3593079508157 
 O    3.8335332616481    8.9984518116940    6.4312779087537 
 O    3.8287697560655    8.8399547317975    1.7619595668371 
 O    3.6152303620072    6.7792840390605    5.0874348841305 
 O    5.8030906443345    7.8823205710362    8.1853182629898 
Ce    1.9156884299104    1.1083418527658    0.9809643475031 
Ce   -0.1484455929665    2.2894621299295    4.1655890850550 
Ce   -0.0050671109819    0.1062347494954    7.3545589196988 
Ce    5.7418510822205    1.1083418527658    0.9809643475031 
Ce    4.0050912604230    2.2587966401547    4.2112592511871 
Ce    3.9692424646352    0.0352808305836    7.4494129206913 
Ce    9.5680022560654    1.1083418527658    0.9809643475031 
Ce    7.7175710805884    2.2751414418336    4.4159587391385 
Ce    7.8008556086581    0.0129423186359    7.4854362367939 
Ce    0.0026128429880    4.4218859692184    0.9809643475031 
Ce   -1.7861149829968    5.5553906692194    4.1358526903681 
Ce   -1.9737533929594    3.5158817151958    7.6453608552737 
Ce    3.8287754952980    4.4218859692184    0.9809643475031 
Ce    1.9201776575720    5.4616612477247    4.3438313591581 
Ce    7.6549266691429    4.4218859692184    0.9809643475031 
Ce    5.7059746807244    5.5418790499995    4.2701303099646 
Ce    5.8363987392868    3.3647865369548    7.4765348210285 
Ce   -1.9104684831671    7.7354400263133    0.9809643475031 
Ce   -3.7617770151164    8.8525078742877    4.0708363609331 
Ce   -3.6843437493650    6.7464708735190    7.2443509801555 
Ce    1.9156941691429    7.7354400263133    0.9809643475031 
Ce    0.1101791454881    8.8542827759686    4.0994580257398 
Ce    0.0400028522713    6.7102690424273    7.4066343916968 
Ce    5.7418453429879    7.7354400263133    0.9809643475031 
Ce    3.8309701778059    8.8689945289321    4.2233755232922 
Ce    3.7318472619829    6.6670248627116    7.5116559974388 
Cu    1.9479830337956    2.3802674120880    6.7820546841355 
81
FORCE:  2.585579  ...  ENERGY:  -632.65247191
 O    0.0026128429879    0.0038271472816    0.1999463180631 
 O    2.0631728162178    1.1086583628164    3.4329387448827 
 O    0.0928036190943    2.3409321911401    6.6576490503147 
 O    0.0026128429880    2.2128565582500    1.7619595668371 
 O   11.3876678165877    0.1071811980479    4.8790068562523 
 O    2.0185953938977    1.0799833872538    8.0513577038666 
 O    3.8287640168329    0.0038271472816    0.1999463180631 
 O    5.8334903832175    1.0813147374757    3.4293206058690 
 O    3.8845755850255    2.3488444453708    6.6855033831555 
 O    3.8287640168330    2.2128565582500    1.7619595668371 
 O    3.9556144848870    0.0492521051029    5.1066204642871 
 O    5.8636576831842    1.0490556633354    8.0817473799894 
 O    7.6549266691429    0.0038271472816    0.1999463180631 
 O    9.4017770947373    1.2700757051984    3.3322337236001 
 O    7.8019401514237    2.3644920103995    6.7783106333367 
 O    7.6549266691430    2.2128565582500    1.7619595668371 
 O    7.7104784222802    0.1523288119492    5.1575761881816 
 O    9.7167361880727    0.8834894944872    8.3932107095791 
 O   -1.9104627439346    3.3173712637342    0.1999463180631 
 O   -0.0918540056849    4.3852672275890    3.3433326649776 
 O   -1.7062584411069    5.5325899174052    6.4719271143531 
 O   -1.9104684831671    5.5264106153449    1.7619595668371 
 O   -1.7654334865060    3.3891041313759    5.0308934214788 
 O   -0.2348053739867    4.5582040844761    8.3200758072166 
 O    1.9156884299104    3.3173712637342    0.1999463180631 
 O    3.8040006060112    4.4414034262906    3.5625088148030 
 O    1.9368595977181    5.6131851658677    6.7484298506788 
 O    1.9156826906780    5.5264106153449    1.7619595668371 
 O    1.7241598533746    3.2864911554924    5.1390806137315 
 O    4.6151351162620    4.9158598451179    8.6069315944535 
 O    5.7418510822204    3.3173712637342    0.1999463180631 
 O    7.8230122600784    4.3305654635699    3.4786006993767 
 O    5.6807537956801    5.5881570143356    6.4554306175929 
 O    5.7418453429880    5.5264106153449    1.7619595668371 
 O    5.8068939189276    3.3102344790085    5.0649263277318 
 O    7.6127390058436    4.6517234601991    8.2954890220602 
 O   -3.8235440700895    6.6309253208291    0.1999463180631 
 O   -1.8795538777365    7.9448955225618    3.2327545174140 
 O   -3.8689193605117    8.8615935219343    6.3242405739445 
 O   -3.8235440700895    8.8399547317975    1.7619595668371 
 O   -3.7600947886783    6.6210333876863    4.9417884796025 
 O   -1.9332387159338    7.7876941059813    8.0928981003075 
 O    0.0026071037555    6.6309253208291    0.1999463180631 
 O    1.8282761310420    7.7539771372428    3.2554542225009 
 O    0.1007748391135    8.9190086836729    6.5691285033541 
 O    0.0026071037555    8.8399547317975    1.7619595668371 
 O    0.0878768897393    6.6746608664931    4.8249402901016 
 O    1.9915901240769    7.7531620045750    8.1697314332568 
 O    3.8287697560655    6.6309253208291    0.1999463180631 
 O    5.7528446968589    7.7495257176254    3.3595570371733 
 O    3.8435859291181    8.9948096597654    6.4314576523890 
 O    3.8287697560655    8.8399547317975    1.7619595668371 
 O    3.6185049958948    6.7863666472857    5.0893413527900 
 O    5.8029914130046    7.8887618090208    8.1786540624208 
Ce    1.9156884299104    1.1083418527658    0.9809643475031 
Ce   -0.1495759921996    2.2903426720235    4.1637124976344 
Ce   -0.0041360352935    0.1088164337046    7.3538702825986 
Ce    5.7418510822205    1.1083418527658    0.9809643475031 
Ce    4.0076548034038    2.2575394471243    4.2125263525754 
Ce    3.9699429953542    0.0374043505895    7.4488102776908 
Ce    9.5680022560654    1.1083418527658    0.9809643475031 
Ce    7.7169760369628    2.2738646657379    4.4132769549761 
Ce    7.8002606798172    0.0119414947701    7.4833481996907 
Ce    0.0026128429880    4.4218859692184    0.9809643475031 
Ce   -1.7841033246132    5.5556426645014    4.1347552961684 
Ce   -1.9682353504800    3.5177457844380    7.6450214408964 
Ce    3.8287754952980    4.4218859692184    0.9809643475031 
Ce    1.9199676590548    5.4634482769892    4.3431119284148 
Ce    7.6549266691429    4.4218859692184    0.9809643475031 
Ce    5.7079827807838    5.5393639680937    4.2719754194390 
Ce    5.8352389551832    3.3640069917864    7.4749470095498 
Ce   -1.9104684831671    7.7354400263133    0.9809643475031 
Ce   -3.7600772266269    8.8520632293581    4.0719720761108 
Ce   -3.6826958435373    6.7497597350207    7.2441358808559 
Ce    1.9156941691429    7.7354400263133    0.9809643475031 
Ce    0.1081611165564    8.8580085286989    4.0972906094677 
Ce    0.0398399154606    6.7124688071596    7.4082000773726 
Ce    5.7418453429879    7.7354400263133    0.9809643475031 
Ce    3.8315317617061    8.8697713901270    4.2208280906541 
Ce    3.7351357848130    6.6711236877471    7.5129233269281 
Cu    1.9511852385690    2.3781847481219    6.7777903348188 
81
FORCE:  2.597726  ...  ENERGY:  -632.63642310
 O    0.0026128429879    0.0038271472816    0.1999463180631 
 O    2.0613026873077    1.1190569704967    3.4370080677931 
 O    0.0927120209436    2.3437485739137    6.6634813663178 
 O    0.0026128429880    2.2128565582500    1.7619595668371 
 O   11.3879037564358    0.1072411401209    4.8756722468562 
 O    2.0129004108803    1.0779255748933    8.0570333144415 
 O    3.8287640168329    0.0038271472816    0.1999463180631 
 O    5.8394346211024    1.0763354697526    3.4298144446639 
 O    3.8851840010628    2.3430839425702    6.6784657811513 
 O    3.8287640168330    2.2128565582500    1.7619595668371 
 O    3.9521441431712    0.0544000655256    5.1057618918973 
 O    5.8728194495933    1.0577425918198    8.0682291987695 
 O    7.6549266691429    0.0038271472816    0.1999463180631 
 O    9.4080263728295    1.2716653133070    3.3421025159610 
 O    7.8107255963577    2.3625652157044    6.7702112208982 
 O    7.6549266691430    2.2128565582500    1.7619595668371 
 O    7.7141437257240    0.1562700778043    5.1589429697331 
 O    9.7134141481247    0.8767850282947    8.3950234287029 
 O   -1.9104627439346    3.3173712637342    0.1999463180631 
 O   -0.0942661477123    4.3911412525246    3.3403479626075 
 O   -1.7123889744787    5.5350180186910    6.4631694022555 
 O   -1.9104684831671    5.5264106153449    1.7619595668371 
 O   -1.7612046478231    3.3835014859749    5.0315076976333 
 O   -0.2296677852297    4.5664785757118    8.3119378456990 
 O    1.9156884299104    3.3173712637342    0.1999463180631 
 O    3.8069330094648    4.4391632031441    3.5532891980588 
 O    1.9309490491280    5.6152964588837    6.7432585715475 
 O    1.9156826906780    5.5264106153449    1.7619595668371 
 O    1.7311966115582    3.2947180310517    5.1388214909273 
 O    4.6183015656169    4.9193887731308    8.6025659682662 
 O    5.7418510822204    3.3173712637342    0.1999463180631 
 O    7.8232382136619    4.3310701499790    3.4800030646935 
 O    5.6845575868041    5.5860425403141    6.4536083182245 
 O    5.7418453429880    5.5264106153449    1.7619595668371 
 O    5.8148142893469    3.3006481212098    5.0600100655856 
 O    7.6207358228398    4.6526994324591    8.3059317166881 
 O   -3.8235440700895    6.6309253208291    0.1999463180631 
 O   -1.8838948610225    7.9458431639913    3.2251099384891 
 O   -3.8662704751437    8.8654308086711    6.3195754510654 
 O   -3.8235440700895    8.8399547317975    1.7619595668371 
 O   -3.7572748741818    6.6264691297033    4.9421532131974 
 O   -1.9278661629982    7.7884942282792    8.0807015366293 
 O    0.0026071037555    6.6309253208291    0.1999463180631 
 O    1.8264476689598    7.7529155760527    3.2534156833277 
 O    0.1017435067749    8.9268027436668    6.5743766525426 
 O    0.0026071037555    8.8399547317975    1.7619595668371 
 O    0.0958099438625    6.6753599918654    4.8312520745328 
 O    1.9869545459867    7.7527116934793    8.1682841320311 
 O    3.8287697560655    6.6309253208291    0.1999463180631 
 O    5.7538134793049    7.7531852656780    3.3599911134904 
 O    3.8538293686765    8.9908118316556    6.4325856121307 
 O    3.8287697560655    8.8399547317975    1.7619595668371 
 O    3.6222651688518    6.7929762797507    5.0910569008622 
 O    5.8029269614236    7.8951887324806    8.1717464780208 
Ce    1.9156884299104    1.1083418527658    0.9809643475031 
Ce   -0.1506018800090    2.2911197320313    4.1617953082251 
Ce   -0.0031888897540    0.1112981150523    7.3531508518554 
Ce    5.7418510822205    1.1083418527658    0.9809643475031 
Ce    4.0101132036451    2.2561442779789    4.2137774868895 
Ce    3.9706415173417    0.0395231984937    7.4480773889850 
Ce    9.5680022560654    1.1083418527658    0.9809643475031 
Ce    7.7163982110347    2.2725731774916    4.4104532919544 
Ce    7.7996446879930    0.0109417643750    7.4811983472002 
Ce    0.0026128429880    4.4218859692184    0.9809643475031 
Ce   -1.7821894627514    5.5559022146716    4.1336430753999 
Ce   -1.9625342838761    3.5196359975694    7.6446475832591 
Ce    3.8287754952980    4.4218859692184    0.9809643475031 
Ce    1.9197425089638    5.4653001192414    4.3423596511189 
Ce    7.6549266691429    4.4218859692184    0.9809643475031 
Ce    5.7100649743348    5.5368955078003    4.2737701185791 
Ce    5.8340294119339    3.3633114450453    7.4733751651453 
Ce   -1.9104684831671    7.7354400263133    0.9809643475031 
Ce   -3.7584028055450    8.8516837950419    4.0731588859260 
Ce   -3.6811860810358    6.7530755356629    7.2439137104235 
Ce    1.9156941691429    7.7354400263133    0.9809643475031 
Ce    0.1060763403508    8.8618065498986    4.0951599174662 
Ce    0.0397089461749    6.7145957069840    7.4097434091446 
Ce    5.7418453429879    7.7354400263133    0.9809643475031 
Ce    3.8320875489814    8.8705813536608    4.2181834869645 
Ce    3.7385749051040    6.6752266878523    7.5141477734182 
Cu    1.9544011027157    2.3762496032873    6.7733768074089 
81
FORCE:  2.604119  ...  ENERGY:  -632.62140468
 O    0.0026128429879    0.0038271472816    0.1999463180631 
 O    2.0592919472013    1.1296891832708    3.4408027570272 
 O    0.0926263342024    2.3461499348717    6.6695728051251 
 O    0.0026128429880    2.2128565582500    1.7619595668371 
 O   11.3883013130711    0.1074245449711    4.8725146438826 
 O    2.0072477833987    1.0758928129514    8.0630850636644 
 O    3.8287640168329    0.0038271472816    0.1999463180631 
 O    5.8452100681594    1.0718078054088    3.4300252100433 
 O    3.8851774009454    2.3373733417938    6.6713627141429 
 O    3.8287640168330    2.2128565582500    1.7619595668371 
 O    3.9486727110013    0.0597698016778    5.1049386751717 
 O    5.8818360134200    1.0670205908948    8.0553163977629 
 O    7.6549266691429    0.0038271472816    0.1999463180631 
 O    9.4148422279542    1.2727161386035    3.3520100855021 
 O    7.8195254467653    2.3606522385021    6.7621729395438 
 O    7.6549266691430    2.2128565582500    1.7619595668371 
 O    7.7177368296230    0.1598860858437    5.1601167777878 
 O    9.7096795147523    0.8706122870583    8.3968386569384 
 O   -1.9104627439346    3.3173712637342    0.1999463180631 
 O   -0.0958611952087    4.3972891421553    3.3371169110926 
 O   -1.7192590079582    5.5378474237060    6.4547059405253 
 O   -1.9104684831671    5.5264106153449    1.7619595668371 
 O   -1.7576420766410    3.3777971478032    5.0328623898287 
 O   -0.2248851680028    4.5751386644620    8.3041221909791 
 O    1.9156884299104    3.3173712637342    0.1999463180631 
 O    3.8100534301751    4.4368444489236    3.5437404314851 
 O    1.9248930109939    5.6172822015875    6.7377458251294 
 O    1.9156826906780    5.5264106153449    1.7619595668371 
 O    1.7391033226042    3.3030814910359    5.1386100412447 
 O    4.6212878030713    4.9225781288032    8.5982030792915 
 O    5.7418510822204    3.3173712637342    0.1999463180631 
 O    7.8228317612162    4.3320427424207    3.4810908786487 
 O    5.6886352541030    5.5838507280956    6.4518537648710 
 O    5.7418453429880    5.5264106153449    1.7619595668371 
 O    5.8226601071360    3.2911998389324    5.0554213565616 
 O    7.6291545882094    4.6535107876828    8.3161483631655 
 O   -3.8235440700895    6.6309253208291    0.1999463180631 
 O   -1.8880674552270    7.9460792542457    3.2179938697203 
 O   -3.8634079755420    8.8692732645419    6.3156543938440 
 O   -3.8235440700895    8.8399547317975    1.7619595668371 
 O   -3.7543377645576    6.6318084474901    4.9425610578927 
 O   -1.9222222017577    7.7894310344086    8.0688286483552 
 O    0.0026071037555    6.6309253208291    0.1999463180631 
 O    1.8252946571506    7.7519085889887    3.2517537390045 
 O    0.1027001794403    8.9339217346428    6.5798501655784 
 O    0.0026071037555    8.8399547317975    1.7619595668371 
 O    0.1036093312607    6.6759999704160    4.8383104337335 
 O    1.9819332914724    7.7527840613552    8.1675428035861 
 O    3.8287697560655    6.6309253208291    0.1999463180631 
 O    5.7546209893176    7.7565736330090    3.3606042491397 
 O    3.8642181829940    8.9864689638520    6.4346535763407 
 O    3.8287697560655    8.8399547317975    1.7619595668371 
 O    3.6264972788973    6.7990597540194    5.0925787911346 
 O    5.8029108915726    7.9015728117720    8.1646160388852 
Ce    1.9156884299104    1.1083418527658    0.9809643475031 
Ce   -0.1515176893390    2.2917936081722    4.1598372887260 
Ce   -0.0022282570181    0.1136806881963    7.3523990307616 
Ce    5.7418510822205    1.1083418527658    0.9809643475031 
Ce    4.0124641654541    2.2546125244084    4.2150083202093 
Ce    3.9713386045212    0.0416405553014    7.4472119735633 
Ce    9.5680022560654    1.1083418527658    0.9809643475031 
Ce    7.7158441455291    2.2712651877791    4.4074866095680 
Ce    7.7990138315566    0.0099445191405    7.4789834859076 
Ce    0.0026128429880    4.4218859692184    0.9809643475031 
Ce   -1.7803738565500    5.5561699161685    4.1325160280624 
Ce   -1.9566532349410    3.5215526528094    7.6442356327447 
Ce    3.8287754952980    4.4218859692184    0.9809643475031 
Ce    1.9195059378001    5.4672190608291    4.3415729305630 
Ce    7.6549266691429    4.4218859692184    0.9809643475031 
Ce    5.7122232701087    5.5344739673384    4.2755114420711 
Ce    5.8327780870719    3.3627021830794    7.4718181473098 
Ce   -1.9104684831671    7.7354400263133    0.9809643475031 
Ce   -3.7567569658410    8.8513731499703    4.0743947374691 
Ce   -3.6798150931762    6.7564159890980    7.2436819597465 
Ce    1.9156941691429    7.7354400263133    0.9809643475031 
Ce    0.1039263090716    8.8656736585623    4.0930659497354 
Ce    0.0396120679303    6.7166500401197    7.4112595968904 
Ce    5.7418453429879    7.7354400263133    0.9809643475031 
Ce    3.8326404092481    8.8714262088491    4.2154435370318 
Ce    3.7421647950328    6.6793361493750    7.5153279683027 
Cu    1.9576216156408    2.3744571066695    6.7688220854428 
81
FORCE:  2.605424  ...  ENERGY:  -632.60746741
 O    0.0026128429879    0.0038271472816    0.1999463180631 
 O    2.0571459907772    1.1405243839604    3.4443141447449 
 O    0.0925854134746    2.3481483021912    6.6758962227104 
 O    0.0026128429880    2.2128565582500    1.7619595668371 
 O   11.3888755232827    0.1077415520537    4.8695438556772 
 O    2.0016849175135    1.0739224782431    8.0694661908179 
 O    3.8287640168329    0.0038271472816    0.1999463180631 
 O    5.8507927917892    1.0677390011131    3.4299378473373 
 O    3.8845674927077    2.3317273551924    6.6642195013480 
 O    3.8287640168330    2.2128565582500    1.7619595668371 
 O    3.9452267610236    0.0653317898519    5.1041419181691 
 O    5.8906519336787    1.0769015893310    8.0430395425116 
 O    7.6549266691429    0.0038271472816    0.1999463180631 
 O    9.4222064667443    1.2732097908996    3.3618850365916 
 O    7.8283284537508    2.3587997998114    6.7542382160706 
 O    7.6549266691430    2.2128565582500    1.7619595668371 
 O    7.7212522243138    0.1631197767807    5.1610935065268 
 O    9.7055437090282    0.8649779310083    8.3986598158014 
 O   -1.9104627439346    3.3173712637342    0.1999463180631 
 O   -0.0966218156919    4.4036836591212    3.3336520559912 
 O   -1.7268536195408    5.5410626250482    6.4465780154543 
 O   -1.9104684831671    5.5264106153449    1.7619595668371 
 O   -1.7547508234845    3.3720461880191    5.0349536203468 
 O   -0.2204478803954    4.5841855436037    8.2966409324132 
 O    1.9156884299104    3.3173712637342    0.1999463180631 
 O    3.8133681812978    4.4344640627208    3.5338980988472 
 O    1.9187459486325    5.6191560126592    6.7319096314083 
 O    1.9156826906780    5.5264106153449    1.7619595668371 
 O    1.7478520938425    3.3115419716889    5.1384610912525 
 O    4.6240844162839    4.9254189655568    8.5938365407000 
 O    5.7418510822204    3.3173712637342    0.1999463180631 
 O    7.8217988715432    4.3335041162437    3.4818636850400 
 O    5.6929911593936    5.5815744204176    6.4501617112079 
 O    5.7418453429880    5.5264106153449    1.7619595668371 
 O    5.8303661172215    3.2819471884953    5.0511962406272 
 O    7.6379897922892    4.6541533508004    8.3261040620303 
 O   -3.8235440700895    6.6309253208291    0.1999463180631 
 O   -1.8920291326371    7.9456046879828    3.2114603710587 
 O   -3.8603228511116    8.8731221818302    6.3125127579446 
 O   -3.8235440700895    8.8399547317975    1.7619595668371 
 O   -3.7512971191791    6.6370423944687    4.9430058549597 
 O   -1.9163273212723    7.7905211252422    8.0573154754528 
 O    0.0026071037555    6.6309253208291    0.1999463180631 
 O    1.8248096346120    7.7509712858272    3.2504791102813 
 O    0.1036232202033    8.9403641655045    6.5855157397066 
 O    0.0026071037555    8.8399547317975    1.7619595668371 
 O    0.1112251780035    6.6766125127939    4.8461000849325 
 O    1.9765605089675    7.7533646942713    8.1675090446292 
 O    3.8287697560655    6.6309253208291    0.1999463180631 
 O    5.7552704408673    7.7596687513924    3.3613891448872 
 O    3.8747056547182    8.9817904005582    6.4376462622479 
 O    3.8287697560655    8.8399547317975    1.7619595668371 
 O    3.6311864040268    6.8045651799388    5.0939047425963 
 O    5.8029569202172    7.9078831314977    8.1572841865137 
Ce    1.9156884299104    1.1083418527658    0.9809643475031 
Ce   -0.1523179105265    2.2923644992589    4.1578384391372 
Ce   -0.0012567197405    0.1159650477946    7.3516132226099 
Ce    5.7418510822205    1.1083418527658    0.9809643475031 
Ce    4.0147054505300    2.2529458763221    4.2162154310188 
Ce    3.9720345438542    0.0437593037991    7.4462115223142 
Ce    9.5680022560654    1.1083418527658    0.9809643475031 
Ce    7.7153211866637    2.2699393049104    4.4043759954128 
Ce    7.7983744810561    0.0089514489757    7.4767011067012 
Ce    0.0026128429880    4.4218859692184    0.9809643475031 
Ce   -1.7786572521093    5.5564464648370    4.1313752946613 
Ce   -1.9505955324296    3.5234957501578    7.6437814835342 
Ce    3.8287754952980    4.4218859692184    0.9809643475031 
Ce    1.9192621925959    5.4692070898807    4.3407499419385 
Ce    7.6549266691429    4.4218859692184    0.9809643475031 
Ce    5.7144592750907    5.5320999431467    4.2771959683992 
Ce    5.8314929007382    3.3621813928298    7.4702748155378 
Ce   -1.9104684831671    7.7354400263133    0.9809643475031 
Ce   -3.7551434954083    8.8511348727746    4.0756771216284 
Ce   -3.6785839130203    6.7597789083847    7.2434381197134 
Ce    1.9156941691429    7.7354400263133    0.9809643475031 
Ce    0.1017131462350    8.8696059778393    4.0910091624774 
Ce    0.0395509451042    6.7186323035987    7.4127445347910 
Ce    5.7418453429879    7.7354400263133    0.9809643475031 
Ce    3.8331922938453    8.8723077450073    4.2126100656644 
Ce    3.7459055693839    6.6834542592564    7.5164625429751 
Cu    1.9608375371798    2.3728019897282    6.7641357491651 
81
FORCE:  2.602042  ...  ENERGY:  -632.59490587
 O    0.0026128429879    0.0038271472816    0.1999463180631 
 O    2.0548692946368    1.1515293708204    3.4475344755100 
 O    0.0926283429337    2.3497578909908    6.6824233345423 
 O    0.0026128429880    2.2128565582500    1.7619595668371 
 O   11.3896419403907    0.1082002132890    4.8667699186865 
 O    1.9962596210312    1.0720524446155    8.0761290227805 
 O    3.8287640168329    0.0038271472816    0.1999463180631 
 O    5.8561591463536    1.0641356176894    3.4295393547855 
 O    3.8833705757698    2.3261624842320    6.6570628305905 
 O    3.8287640168330    2.2128565582500    1.7619595668371 
 O    3.9418340137312    0.0710529277091    5.1033611282408 
 O    5.8992113676368    1.0873916509204    8.0314257770417 
 O    7.6549266691429    0.0038271472816    0.1999463180631 
 O    9.4300971079392    1.2731296693228    3.3716582546084 
 O    7.8371221057873    2.3570510420197    6.7464494772759 
 O    7.6549266691430    2.2128565582500    1.7619595668371 
 O    7.7246850888414    0.1659156818312    5.1618685939286 
 O    9.7010203329333    0.8598890180008    8.4004889582016 
 O   -1.9104627439346    3.3173712637342    0.1999463180631 
 O   -0.0965349237118    4.4102951803083    3.3299705048828 
 O   -1.7351550176058    5.5446467236259    6.4388255447281 
 O   -1.9104684831671    5.5264106153449    1.7619595668371 
 O   -1.7525308883535    3.3663022860911    5.0377720370441 
 O   -0.2163461657123    4.5936188155113    8.2895072998628 
 O    1.9156884299104    3.3173712637342    0.1999463180631 
 O    3.8168832316347    4.4320377507506    3.5238005211231 
 O    1.9125624421447    5.6209317095915    6.7257693789741 
 O    1.9156826906780    5.5264106153449    1.7619595668371 
 O    1.7574113594945    3.3200571258746    5.1383890113175 
 O    4.6266806154976    4.9279043249421    8.5894606499649 
 O    5.7418510822204    3.3173712637342    0.1999463180631 
 O    7.8201475795683    4.3354717669786    3.4823223962716 
 O    5.6976285740382    5.5792081499269    6.4485291919215 
 O    5.7418453429880    5.5264106153449    1.7619595668371 
 O    5.8378666053910    3.2729459369017    5.0473687048404 
 O    7.6472335149383    4.6546243384321    8.3357630014160 
 O   -3.8235440700895    6.6309253208291    0.1999463180631 
 O   -1.8957408090795    7.9444221491759    3.2055619057482 
 O   -3.8570062060422    8.8769798468836    6.3101808808082 
 O   -3.8235440700895    8.8399547317975    1.7619595668371 
 O   -3.7481688931127    6.6421632169379    4.9434809894677 
 O   -1.9102051671799    7.7917823939359    8.0461985140915 
 O    0.0026071037555    6.6309253208291    0.1999463180631 
 O    1.8249820985486    7.7501192733765    3.2496025179077 
 O    0.1044910495496    8.9461324220061    6.5913391597684 
 O    0.0026071037555    8.8399547317975    1.7619595668371 
 O    0.1186072084143    6.6772286338031    4.8546020957419 
 O    1.9708757417839    7.7544350032267    8.1681819427562 
 O    3.8287697560655    6.6309253208291    0.1999463180631 
 O    5.7557666549093    7.7624509383565    3.3623387296000 
 O    3.8852423690573    8.9767851877587    6.4415401754431 
 O    3.8287697560655    8.8399547317975    1.7619595668371 
 O    3.6363169335278    6.8094442459876    5.0950342990455 
 O    5.8030788215155    7.9140864899124    8.1497746434163 
Ce    1.9156884299104    1.1083418527658    0.9809643475031 
Ce   -0.1529969191236    2.2928333993557    4.1557996718630 
Ce   -0.0002773197144    0.1181516908791    7.3507925149960 
Ce    5.7418510822205    1.1083418527658    0.9809643475031 
Ce    4.0168343040413    2.2511471170997    4.2173940291958 
Ce    3.9727292779483    0.0458821279601    7.4450746666311 
Ce    9.5680022560654    1.1083418527658    0.9809643475031 
Ce    7.7148363936944    2.2685944354150    4.4011198527813 
Ce    7.7977330070396    0.0079644426027    7.4743487004694 
Ce    0.0026128429880    4.4218859692184    0.9809643475031 
Ce   -1.7770407398833    5.5567325565221    4.1302215594999 
Ce   -1.9443657103355    3.5254649913954    7.6432810298086 
Ce    3.8287754952980    4.4218859692184    0.9809643475031 
Ce    1.9190156925600    5.4712660951182    4.3398886323360 
Ce    7.6549266691429    4.4218859692184    0.9809643475031 
Ce    5.7167740797350    5.5297739322573    4.2788195917443 
Ce    5.8301817156812    3.3617515594572    7.4687444855263 
Ce   -1.9104684831671    7.7354400263133    0.9809643475031 
Ce   -3.7535657803940    8.8509720450539    4.0770042135955 
Ce   -3.6774931718837    6.7631614107368    7.2431801374145 
Ce    1.9156941691429    7.7354400263133    0.9809643475031 
Ce    0.0994390327492    8.8735989350344    4.0889897837932 
Ce    0.0395272994663    6.7205428950468    7.4141936608252 
Ce    5.7418453429879    7.7354400263133    0.9809643475031 
Ce    3.8337459002122    8.8732272544192    4.2096860381763 
Ce    3.7497967116266    6.6875831050316    7.5175508131324 
Cu    1.9640389384607    2.3712789839230    6.7593289755277 
81
FORCE:  2.595069  ...  ENERGY:  -632.58377937
 O    0.0026128429879    0.0038271472816    0.1999463180631 
 O    2.0524663353814    1.1626693516027    3.4504575905939 
 O    0.0927943215376    2.3509947057046    6.6891222064724 
 O    0.0026128429880    2.2128565582500    1.7619595668371 
 O   11.3906162324999    0.1088059960302    4.8642042379636 
 O    1.9910200461127    1.0703197906644    8.0830242897232 
 O    3.8287640168329    0.0038271472816    0.1999463180631 
 O    5.8612853714303    1.0610018302074    3.4288176430317 
 O    3.8816051878528    2.3206967214753    6.6499221269072 
 O    3.8287640168330    2.2128565582500    1.7619595668371 
 O    3.9385218452632    0.0768991188463    5.1025835317272 
 O    5.9074569803619    1.0984916703207    8.0205015610762 
 O    7.6549266691429    0.0038271472816    0.1999463180631 
 O    9.4384863162614    1.2724609623159    3.3812606249312 
 O    7.8458923417552    2.3554470199798    6.7388466408450 
 O    7.6549266691430    2.2128565582500    1.7619595668371 
 O    7.7280299135424    0.1682187298369    5.1624356531638 
 O    9.6961255137110    0.8553510153890    8.4023256279367 
 O   -1.9104627439346    3.3173712637342    0.1999463180631 
 O   -0.0955922547737    4.4170918956612    3.3260946116713 
 O   -1.7441417374236    5.5485816274700    6.4314879898300 
 O   -1.9104684831671    5.5264106153449    1.7619595668371 
 O   -1.7509771633311    3.3606200161453    5.0413005323413 
 O   -0.2125691194118    4.6034337086763    8.2827345231893 
 O    1.9156884299104    3.3173712637342    0.1999463180631 
 O    3.8206037464952    4.4295804239766    3.5134878440994 
 O    1.9063995395015    5.6226224140322    6.7193481060341 
 O    1.9156826906780    5.5264106153449    1.7619595668371 
 O    1.7677451345724    3.3285837117988    5.1384077156045 
 O    4.6290637170086    4.9300283419803    8.5850701607620 
 O    5.7418510822204    3.3173712637342    0.1999463180631 
 O    7.8178879289484    4.3379601085566    3.4824690652532 
 O    5.7025504824379    5.5767477415537    6.4469530135969 
 O    5.7418453429880    5.5264106153449    1.7619595668371 
 O    5.8450945948015    3.2642504594649    5.0439720519560 
 O    7.6568772620927    4.6549209671981    8.3450900537594 
 O   -3.8235440700895    6.6309253208291    0.1999463180631 
 O   -1.8991643760504    7.9425370057721    3.2003500246282 
 O   -3.8534488575617    8.8808498383336    6.3086838535514 
 O   -3.8235440700895    8.8399547317975    1.7619595668371 
 O   -3.7449698449171    6.6471651493254    4.9439791621827 
 O   -1.9038841486814    7.7932324354268    8.0355154009464 
 O    0.0026071037555    6.6309253208291    0.1999463180631 
 O    1.8257982748024    7.7493686554772    3.2491346826336 
 O    0.1052821453574    8.9512321703138    6.5972857544026 
 O    0.0026071037555    8.8399547317975    1.7619595668371 
 O    0.1257068111938    6.6778796464666    4.8637931998535 
 O    1.9649234689736    7.7559726217761    8.1695573921480 
 O    3.8287697560655    6.6309253208291    0.1999463180631 
 O    5.7561154280683    7.7649037918416    3.3634457040441 
 O    3.8957770746650    8.9714621726253    6.4463042941823 
 O    3.8287697560655    8.8399547317975    1.7619595668371 
 O    3.6418728549418    6.8136523186818    5.0959686009872 
 O    5.8032901400562    7.9201478959551    8.1421145536194 
Ce    1.9156884299104    1.1083418527658    0.9809643475031 
Ce   -0.1535491480747    2.2932016007461    4.1537221274085 
Ce    0.0007071308363    0.1202411144820    7.3499369079200 
Ce    5.7418510822205    1.1083418527658    0.9809643475031 
Ce    4.0188477989792    2.2492195271533    4.2185400089213 
Ce    3.9734230937652    0.0480111153194    7.4438002660089 
Ce    9.5680022560654    1.1083418527658    0.9809643475031 
Ce    7.7143975145851    2.2672298834479    4.3977179535725 
Ce    7.7970957800551    0.0069857863693    7.4719255829090 
Ce    0.0026128429880    4.4218859692184    0.9809643475031 
Ce   -1.7755255251110    5.5570286882559    4.1290559630833 
Ce   -1.9379691061450    3.5274594818645    7.6427303938498 
Ce    3.8287754952980    4.4218859692184    0.9809643475031 
Ce    1.9187704551553    5.4733978658573    4.3389867207447 
Ce    7.6549266691429    4.4218859692184    0.9809643475031 
Ce    5.7191688892802    5.5274968293279    4.2803784343883 
Ce    5.8288520502956    3.3614151681221    7.4672267010730 
Ce   -1.9104684831671    7.7354400263133    0.9809643475031 
Ce   -3.7520276660840    8.8508875495944    4.0783741885619 
Ce   -3.6765430419434    6.7665604145550    7.2429066442436 
Ce    1.9156941691429    7.7354400263133    0.9809643475031 
Ce    0.0971066660535    8.8776474604198    4.0870089541882 
Ce    0.0395425658248    6.7223823114962    7.4156030972749 
Ce    5.7418453429879    7.7354400263133    0.9809643475031 
Ce    3.8343032370803    8.8741858305552    4.2066741917801 
Ce    3.7538373034836    6.6917242772032    7.5185918663702 
Cu    1.9672151445108    2.3698827213069    6.7544138538868 
81
FORCE:  2.586593  ...  ENERGY:  -632.57435348
 O    0.0026128429879    0.0038271472816    0.1999463180631 
 O    2.0499420487509    1.1739075459308    3.4530766469648 
 O    0.0931218595364    2.3518761424564    6.6959597638470 
 O    0.0026128429880    2.2128565582500    1.7619595668371 
 O   11.3918137807534    0.1095626777213    4.8618584466626 
 O    1.9860146318801    1.0687607003276    8.0901018094129 
 O    3.8287640168329    0.0038271472816    0.1999463180631 
 O    5.8661485100892    1.0583396267958    3.4277633599323 
 O    3.8792944580636    2.3153494511747    6.6428279558401 
 O    3.8287640168330    2.2128565582500    1.7619595668371 
 O    3.9353182630740    0.0828327876356    5.1017952144639 
 O    5.9153313795289    1.1101954843337    8.0102949510454 
 O    7.6549266691429    0.0038271472816    0.1999463180631 
 O    9.4473396563159    1.2711927351726    3.3906239453431 
 O    7.8546241822576    2.3540242158489    6.7314684839582 
 O    7.6549266691430    2.2128565582500    1.7619595668371 
 O    7.7312801556918    0.1699760365809    5.1627864725941 
 O    9.6908771577667    0.8513692911197    8.4041686845015 
 O   -1.9104627439346    3.3173712637342    0.1999463180631 
 O   -0.0937903653380    4.4240396093705    3.3220503798775 
 O   -1.7537903055333    5.5528473558895    6.4246020750307 
 O   -1.9104684831671    5.5264106153449    1.7619595668371 
 O   -1.7500781125600    3.3550517653666    5.0455160680311 
 O   -0.2091062386982    4.6136211771144    8.2763372008605 
 O    1.9156884299104    3.3173712637342    0.1999463180631 
 O    3.8245336859495    4.4271070927684    3.5030002135627 
 O    1.9003154939129    5.6242403529713    6.7126706756036 
 O    1.9156826906780    5.5264106153449    1.7619595668371 
 O    1.7788144496875    3.3370757042879    5.1385292934694 
 O    4.6312200614435    4.9317874380399    8.5806605110701 
 O    5.7418510822204    3.3173712637342    0.1999463180631 
 O    7.8150322590334    4.3409793798394    3.4823077978038 
 O    5.7077586637547    5.5741909089503    6.4454318076278 
 O    5.7418453429880    5.5264106153449    1.7619595668371 
 O    5.8519831086097    3.2559127457442    5.0410389004254 
 O    7.6669109327032    4.6550436347239    8.3540500914972 
 O   -3.8235440700895    6.6309253208291    0.1999463180631 
 O   -1.9022641929160    7.9399563156272    3.1958739975279 
 O   -3.8496429429217    8.8847358342176    6.3080422052696 
 O   -3.8235440700895    8.8399547317975    1.7619595668371 
 O   -3.7417187418829    6.6520437183421    4.9444912490624 
 O   -1.8973962906941    7.7948889440580    8.0253030883892 
 O    0.0026071037555    6.6309253208291    0.1999463180631 
 O    1.8272415769915    7.7487362318147    3.2490854128047 
 O    0.1059743541893    8.9556749415724    6.6033192555407 
 O    0.0026071037555    8.8399547317975    1.7619595668371 
 O    0.1324739402345    6.6785971620271    4.8736457970391 
 O    1.9587531627205    7.7579509089982    8.1716285497728 
 O    3.8287697560655    6.6309253208291    0.1999463180631 
 O    5.7563236474234    7.7670125996970    3.3647020846826 
 O    3.9062566262484    8.9658306993616    6.4518993850830 
 O    3.8287697560655    8.8399547317975    1.7619595668371 
 O    3.6478376392790    6.8171480449495    5.0967090170280 
 O    5.8036033873660    7.9260281834954    8.1343347107660 
Ce    1.9156884299104    1.1083418527658    0.9809643475031 
Ce   -0.1539692598938    2.2934709921522    4.1516078586833 
Ce    0.0016934753338    0.1222338156355    7.3490461732807 
Ce    5.7418510822205    1.1083418527658    0.9809643475031 
Ce    4.0207430657277    2.2471674803653    4.2196483519718 
Ce    3.9741156469510    0.0501476575668    7.4423876361443 
Ce    9.5680022560654    1.1083418527658    0.9809643475031 
Ce    7.7140122972997    2.2658451519769    4.3941693853820 
Ce    7.7964687115121    0.0060181642488    7.4694315259190 
Ce    0.0026128429880    4.4218859692184    0.9809643475031 
Ce   -1.7741131573851    5.5573353570705    4.1278801021190 
Ce   -1.9314123199753    3.5294783269072    7.6421259260408 
Ce    3.8287754952980    4.4218859692184    0.9809643475031 
Ce    1.9185313013370    5.4756037937879    4.3380421542553 
Ce    7.6549266691429    4.4218859692184    0.9809643475031 
Ce    5.7216443924344    5.5252694296100    4.2818679343101 
Ce    5.8275118821145    3.3611751016108    7.4657212340770 
Ce   -1.9104684831671    7.7354400263133    0.9809643475031 
Ce   -3.7505332847257    8.8508839709632    4.0797852217190 
Ce   -3.6757338101609    6.7699724406146    7.2426162715942 
Ce    1.9156941691429    7.7354400263133    0.9809643475031 
Ce    0.0947193175105    8.8817452913910    4.0850680422686 
Ce    0.0395980068107    6.7241511493853    7.4169687383211 
Ce    5.7418453429879    7.7354400263133    0.9809643475031 
Ce    3.8348668297118    8.8751836722283    4.2035788603959 
Ce    3.7580260249314    6.6958788692419    7.5195850183854 
Cu    1.9703553081808    2.3686075357140    6.7494047546092 
81
FORCE:  2.576846  ...  ENERGY:  -632.56660090
 O    0.0026128429879    0.0038271472816    0.1999463180631 
 O    2.0473010261314    1.1852051852998    3.4553866263994 
 O    0.0936488358646    2.3524218837181    6.7029004229007 
 O    0.0026128429880    2.2128565582500    1.7619595668371 
 O   11.3932494497632    0.1104707553945    4.8597455465438 
 O    1.9812906122170    1.0674104628854    8.0973098029089 
 O    3.8287640168329    0.0038271472816    0.1999463180631 
 O    5.8707272123854    1.0561490074543    3.4263685219504 
 O    3.8764654181874    2.3101412504597    6.6358120234366 
 O    3.8287640168330    2.2128565582500    1.7619595668371 
 O    3.9322509876567    0.0888138732886    5.1009799812754 
 O    5.9227780910899    1.1224885796216    8.0008317223692 
 O    7.6549266691429    0.0038271472816    0.1999463180631 
 O    9.4566163221596    1.2693155442825    3.3996804698294 
 O    7.8633006391665    2.3528148373079    6.7243501341788 
 O    7.6549266691430    2.2128565582500    1.7619595668371 
 O    7.7344295021339    0.1711392905417    5.1629114719750 
 O    9.6852957541605    0.8479485172949    8.4060137939758 
 O   -1.9104627439346    3.3173712637342    0.1999463180631 
 O   -0.0911322971980    4.4311026345304    3.3178692874477 
 O   -1.7640727718726    5.5574225365034    6.4182038402977 
 O   -1.9104684831671    5.5264106153449    1.7619595668371 
 O   -1.7498150261422    3.3496468393407    5.0503880785717 
 O   -0.2059453563989    4.6241661110492    8.2703315280518 
 O    1.9156884299104    3.3173712637342    0.1999463180631 
 O    3.8286755178678    4.4246315746189    3.4923809687144 
 O    1.8943694194736    5.6257962623025    6.7057651441132 
 O    1.9156826906780    5.5264106153449    1.7619595668371 
 O    1.7905763753806    3.3454853882588    5.1387651499655 
 O    4.6331346694054    4.9331801220247    8.5762280512722 
 O    5.7418510822204    3.3173712637342    0.1999463180631 
 O    7.8115954344354    4.3445350481801    3.4818438402477 
 O    5.7132538066964    5.5715374533038    6.4439662583173 
 O    5.7418453429880    5.5264106153449    1.7619595668371 
 O    5.8584658586801    3.2479829959830    5.0386000438919 
 O    7.6773221874198    4.6549918439776    8.3626095837737 
 O   -3.8235440700895    6.6309253208291    0.1999463180631 
 O   -1.9050071443047    7.9366907152285    3.1921814975686 
 O   -3.8455807141582    8.8886423078247    6.3082696220265 
 O   -3.8235440700895    8.8399547317975    1.7619595668371 
 O   -3.7384360156775    6.6567967370466    4.9450074417612 
 O   -1.8907784390907    7.7967690177343    8.0155978444883 
 O    0.0026071037555    6.6309253208291    0.1999463180631 
 O    1.8292922047638    7.7482390008873    3.2494640605643 
 O    0.1065467278465    8.9594761437777    6.6094013422045 
 O    0.0026071037555    8.8399547317975    1.7619595668371 
 O    0.1388603285912    6.6794124935077    4.8841268126451 
 O    1.9524180831023    7.7603410370305    8.1743858353861 
 O    3.8287697560655    6.6309253208291    0.1999463180631 
 O    5.7563990609384    7.7687661289969    3.3660994317762 
 O    3.9166255828215    8.9599003109842    6.4582789155291 
 O    3.8287697560655    8.8399547317975    1.7619595668371 
 O    3.6541930357802    6.8198948432271    5.0972576000773 
 O    5.8040320506415    7.9316866953061    8.1264677333077 
Ce    1.9156884299104    1.1083418527658    0.9809643475031 
Ce   -0.1542519170944    2.2936436611087    4.1494586904960 
Ce    0.0026786719847    0.1241300925587    7.3481214515834 
Ce    5.7418510822205    1.1083418527658    0.9809643475031 
Ce    4.0225168903165    2.2449961458699    4.2207142682252 
Ce    3.9748065931517    0.0522927487665    7.4408370051385 
Ce    9.5680022560654    1.1083418527658    0.9809643475031 
Ce    7.7136884898021    2.2644405392213    4.3904752887153 
Ce    7.7958577702125    0.0050645584339    7.4668667576004 
Ce    0.0026128429880    4.4218859692184    0.9809643475031 
Ce   -1.7728053584753    5.5576531594046    4.1266953452133 
Ce   -1.9247032145752    3.5315198366143    7.6414644329668 
Ce    3.8287754952980    4.4218859692184    0.9809643475031 
Ce    1.9183025355296    5.4778847735677    4.3370521956549 
Ce    7.6549266691429    4.4218859692184    0.9809643475031 
Ce    5.7242005318053    5.5230930253870    4.2832833013874 
Ce    5.8261686147479    3.3610342427095    7.4642283126393 
Ce   -1.9104684831671    7.7354400263133    0.9809643475031 
Ce   -3.7490866537817    8.8509634961015    4.0812357163596 
Ce   -3.6750654765362    6.7733935126587    7.2423083351632 
Ce    1.9156941691429    7.7354400263133    0.9809643475031 
Ce    0.0922806602289    8.8858856683112    4.0831684166409 
Ce    0.0396946554860    6.7258502039655    7.4182864781447 
Ce    5.7418453429879    7.7354400263133    0.9809643475031 
Ce    3.8354388590151    8.8762207794384    4.2004048341460 
Ce    3.7623609820233    6.7000473781797    7.5205293567738 
Cu    1.9734476640442    2.3674483574165    6.7443167323649 
81
FORCE:  2.567045  ...  ENERGY:  -632.56065022
 O    0.0026128429879    0.0038271472816    0.1999463180631 
 O    2.0445484902244    1.1965212148571    3.4573820544723 
 O    0.0944105468020    2.3526529042450    6.7099058626554 
 O    0.0026128429880    2.2128565582500    1.7619595668371 
 O   11.3949371858645    0.1115277438892    4.8578792236709 
 O    1.9768938435911    1.0663019818636    8.1045964912706 
 O    3.8287640168329    0.0038271472816    0.1999463180631 
 O    5.8750002431586    1.0544281828675    3.4246278827616 
 O    3.8731494044335    2.3050929946791    6.6289069481483 
 O    3.8287640168330    2.2128565582500    1.7619595668371 
 O    3.9293479116812    0.0947996310435    5.1001198121782 
 O    5.9297410427436    1.1353477944879    7.9921360537599 
 O    7.6549266691429    0.0038271472816    0.1999463180631 
 O    9.4662684485935    1.2668246181375    3.4083642771836 
 O    7.8719013955987    2.3518465193424    6.7175251223626 
 O    7.6549266691430    2.2128565582500    1.7619595668371 
 O    7.7374719840667    0.1716651505189    5.1628003867587 
 O    9.6794046041762    0.8450924713586    8.4078552538332 
 O   -1.9104627439346    3.3173712637342    0.1999463180631 
 O   -0.0876272905179    4.4382426996681    3.3135878305515 
 O   -1.7749568245626    5.5622830135511    6.4123261321836 
 O   -1.9104684831671    5.5264106153449    1.7619595668371 
 O   -1.7501627662393    3.3444535495891    5.0558775586816 
 O   -0.2030742479484    4.6350493250411    8.2647325594330 
 O    1.9156884299104    3.3173712637342    0.1999463180631 
 O    3.8330292996423    4.4221662953310    3.4816748173623 
 O    1.8886210615939    5.6272997844489    6.6986609365995 
 O    1.9156826906780    5.5264106153449    1.7619595668371 
 O    1.8029853421459    3.3537648498157    5.1391250934382 
 O    4.6347919875745    4.9342076862182    8.5717705003577 
 O    5.7418510822204    3.3173712637342    0.1999463180631 
 O    7.8075946728520    4.3486279088301    3.4810842637179 
 O    5.7190347060244    5.5687904562134    6.4425584185750 
 O    5.7418453429880    5.5264106153449    1.7619595668371 
 O    5.8644798282398    3.2405081300131    5.0366844511900 
 O    7.6880965059844    4.6547688753710    8.3707361402383 
 O   -3.8235440700895    6.6309253208291    0.1999463180631 
 O   -1.9073626401074    7.9327540220688    3.1893147234465 
 O   -3.8412555711539    8.8925739312568    6.3093727187526 
 O   -3.8235440700895    8.8399547317975    1.7619595668371 
 O   -3.7351425571074    6.6614246030647    4.9455167914282 
 O   -1.8840714572066    7.7988887602962    8.0064338844028 
 O    0.0026071037555    6.6309253208291    0.1999463180631 
 O    1.8319264550890    7.7478943588191    3.2502781532474 
 O    0.1069803268619    8.9626562546527    6.6154918686076 
 O    0.0026071037555    8.8399547317975    1.7619595668371 
 O    0.1448182258495    6.6803560592739    4.8951956446826 
 O    1.9459759667980    7.7631109970046    8.1778160191264 
 O    3.8287697560655    6.6309253208291    0.1999463180631 
 O    5.7563509087777    7.7701557313826    3.3676293055856 
 O    3.9268252894282    8.9536813457612    6.4653888255693 
 O    3.8287697560655    8.8399547317975    1.7619595668371 
 O    3.6609194736625    6.8218617981170    5.0976189121563 
 O    5.8045886414093    7.9370804878127    8.1185485207066 
Ce    1.9156884299104    1.1083418527658    0.9809643475031 
Ce   -0.1543922987213    2.2937225898085    4.1472780443624 
Ce    0.0036600233499    0.1259300446582    7.3471636552325 
Ce    5.7418510822205    1.1083418527658    0.9809643475031 
Ce    4.0241656570291    2.2427119850845    4.2217320551549 
Ce    3.9754951862670    0.0544468859508    7.4391492853955 
Ce    9.5680022560654    1.1083418527658    0.9809643475031 
Ce    7.7134336104868    2.2630167410261    4.3866363478755 
Ce    7.7952683510347    0.0041281499302    7.4642333308627 
Ce    0.0026128429880    4.4218859692184    0.9809643475031 
Ce   -1.7716039649361    5.5579824928836    4.1255042014780 
Ce   -1.9178510875011    3.5335820228573    7.6407422650108 
Ce    3.8287754952980    4.4218859692184    0.9809643475031 
Ce    1.9180889786882    5.4802416004483    4.3360147920340 
Ce    7.6549266691429    4.4218859692184    0.9809643475031 
Ce    5.7268369056465    5.5209689089425    4.2846195173969 
Ce    5.8248300535520    3.3609953747982    7.4627479367599 
Ce   -1.9104684831671    7.7354400263133    0.9809643475031 
Ce   -3.7476922498535    8.8511281131378    4.0827236195739 
Ce   -3.6745375819309    6.7768188591790    7.2419821506474 
Ce    1.9156941691429    7.7354400263133    0.9809643475031 
Ce    0.0897949986332    8.8900605392602    4.0813123583157 
Ce    0.0398329709893    6.7274806681139    7.4195526671288 
Ce    5.7418453429879    7.7354400263133    0.9809643475031 
Ce    3.8360213911138    8.8772961581213    4.1971573593547 
Ce    3.7668393625354    6.7042297046104    7.5214246534343 
Cu    1.9764803318895    2.3664001166871    6.7391668947332 
81
FORCE:  2.560032  ...  ENERGY:  -632.55623031
 O    0.0026128429879    0.0038271472816    0.1999463180631 
 O    2.0416892045929    1.2078127904343    3.4590608782739 
 O    0.0954408538204    2.3525922663270    6.7169363935267 
 O    0.0026128429880    2.2128565582500    1.7619595668371 
 O   11.3968900171150    0.1127283746649    4.8562733922085 
 O    1.9728689198389    1.0654661726599    8.1119082707489 
 O    3.8287640168329    0.0038271472816    0.1999463180631 
 O    5.8789477446644    1.0531729779655    3.4225382489509 
 O    3.8693832626747    2.3002265532460    6.6221469451342 
 O    3.8287640168330    2.2128565582500    1.7619595668371 
 O    3.9266364686789    0.1007443339458    5.0991953185820 
 O    5.9361673187662    1.1487403248131    7.9842293867171 
 O    7.6549266691429    0.0038271472816    0.1999463180631 
 O    9.4762420868320    1.2637197579246    3.4166124115132 
 O    7.8804057903172    2.3511411313655    6.7110226454451 
 O    7.6549266691430    2.2128565582500    1.7619595668371 
 O    7.7404011161578    0.1715153450395    5.1624415837914 
 O    9.6732297639295    0.8428037378777    8.4096846243344 
 O   -1.9104627439346    3.3173712637342    0.1999463180631 
 O   -0.0832914725411    4.4454201416207    3.3092470673797 
 O   -1.7864048142380    5.5674031401754    6.4069999724326 
 O   -1.9104684831671    5.5264106153449    1.7619595668371 
 O   -1.7510887914032    3.3395159331572    5.0619370633405 
 O   -0.2004795409351    4.6462472597679    8.2595564901795 
 O    1.9156884299104    3.3173712637342    0.1999463180631 
 O    3.8375929651493    4.4197239789268    3.4709292045267 
 O    1.8831301656842    5.6287605618334    6.6913915839184 
 O    1.9156826906780    5.5264106153449    1.7619595668371 
 O    1.8159926812915    3.3618655786243    5.1396184760309 
 O    4.6361753147839    4.9348736098452    8.5672871740234 
 O    5.7418510822204    3.3173712637342    0.1999463180631 
 O    7.8030505781278    4.3532526932491    3.4800381922568 
 O    5.7250993530071    5.5659543909681    6.4412135347252 
 O    5.7418453429880    5.5264106153449    1.7619595668371 
 O    5.8699648127401    3.2335301967512    5.0353172134364 
 O    7.6992174741920    4.6543775122841    8.3783982829448 
 O   -3.8235440700895    6.6309253208291    0.1999463180631 
 O   -1.9093030172233    7.9281629364271    3.1873115399376 
 O   -3.8366621190301    8.8965356748351    6.3113501268418 
 O   -3.8235440700895    8.8399547317975    1.7619595668371 
 O   -3.7318609787485    6.6659300997762    4.9460051557976 
 O   -1.8773206275861    7.8012641761778    7.9978486167065 
 O    0.0026071037555    6.6309253208291    0.1999463180631 
 O    1.8351168370434    7.7477191052956    3.2515336214816 
 O    0.1072574743993    8.9652415174931    6.6215488641548 
 O    0.0026071037555    8.8399547317975    1.7619595668371 
 O    0.1503012590107    6.6814560907497    4.9068057605356 
 O    1.9394874201028    7.7662259966726    8.1819022215152 
 O    3.8287697560655    6.6309253208291    0.1999463180631 
 O    5.7561891772059    7.7711764365330    3.3692814415632 
 O    3.9367930162572    8.9471860306825    6.4731686684227 
 O    3.8287697560655    8.8399547317975    1.7619595668371 
 O    3.6679958899427    6.8230235609815    5.0977981995895 
 O    5.8052864746890    7.9421652257504    8.1106149377387 
Ce    1.9156884299104    1.1083418527658    0.9809643475031 
Ce   -0.1543858133886    2.2937109592570    4.1450695698995 
Ce    0.0046343154591    0.1276338707467    7.3461750652385 
Ce    5.7418510822205    1.1083418527658    0.9809643475031 
Ce    4.0256860371106    2.2403221552716    4.2226962383355 
Ce    3.9761803358428    0.0566095720874    7.4373263017240 
Ce    9.5680022560654    1.1083418527658    0.9809643475031 
Ce    7.7132549481790    2.2615750496748    4.3826553000754 
Ce    7.7947057914651    0.0032126167753    7.4615342110197 
Ce    0.0026128429880    4.4218859692184    0.9809643475031 
Ce   -1.7705109854988    5.5583238545399    4.1243091800247 
Ce   -1.9108669580795    3.5356624998822    7.6399569130612 
Ce    3.8287754952980    4.4218859692184    0.9809643475031 
Ce    1.9178951648067    5.4826743738359    4.3349276623820 
Ce    7.6549266691429    4.4218859692184    0.9809643475031 
Ce    5.7295521365423    5.5188990684049    4.2858717922163 
Ce    5.8235037743135    3.3610614800694    7.4612807907420 
Ce   -1.9104684831671    7.7354400263133    0.9809643475031 
Ce   -3.7463542625808    8.8513791143557    4.0842475627558 
Ce   -3.6741490932829    6.7802433110415    7.2416379461479 
Ce    1.9156941691429    7.7354400263133    0.9809643475031 
Ce    0.0872671536785    8.8942613552855    4.0795023764046 
Ce    0.0400135272437    6.7290435358947    7.4207638837574 
Ce    5.7418453429879    7.7354400263133    0.9809643475031 
Ce    3.8366167217011    8.8784082177743    4.1938428228519 
Ce    3.7714576655358    6.7084251526889    7.5222704521648 
Cu    1.9794406854053    2.3654580420172    6.7339734897992 
81
FORCE:  2.555476  ...  ENERGY:  -632.55311371
 O    0.0026128429879    0.0038271472816    0.1999463180631 
 O    2.0387280475845    1.2190348809219    3.4604201324904 
 O    0.0967704618137    2.3522645233507    6.7239500449196 
 O    0.0026128429880    2.2128565582500    1.7619595668371 
 O   11.3991195367643    0.1140648940208    4.8549421944223 
 O    1.9692584834578    1.0649317637304    8.1191922218979 
 O    3.8287640168329    0.0038271472816    0.1999463180631 
 O    5.8825524992054    1.0523780248016    3.4200991643163 
 O    3.8652085449542    2.2955635967606    6.6155657733510 
 O    3.8287640168330    2.2128565582500    1.7619595668371 
 O    3.9241434608656    0.1066003663189    5.0981852870883 
 O    5.9420093409202    1.1626213383005    7.9771308817299 
 O    7.6549266691429    0.0038271472816    0.1999463180631 
 O    9.4864752531641    1.2600053375266    3.4243639698352 
 O    7.8887887428760    2.3507152742498    6.7048682507453 
 O    7.6549266691430    2.2128565582500    1.7619595668371 
 O    7.7432091504430    0.1706589587063    5.1618213770092 
 O    9.6667997000134    0.8410831121037    8.4114916409317 
 O   -1.9104627439346    3.3173712637342    0.1999463180631 
 O   -0.0781471688821    4.4525952972256    3.3048923900432 
 O   -1.7983726062010    5.5727529950431    6.4022511364645 
 O   -1.9104684831671    5.5264106153449    1.7619595668371 
 O   -1.7525536157142    3.3348747466785    5.0685118482940 
 O   -0.1981479777320    4.6577301927092    8.2548195154665 
 O    1.9156884299104    3.3173712637342    0.1999463180631 
 O    3.8423612916873    4.4173164547705    3.4601938562389 
 O    1.8779559606238    5.6301855529057    6.6839919855320 
 O    1.9156826906780    5.5264106153449    1.7619595668371 
 O    1.8295462231943    3.3697401578207    5.1402528250788 
 O    4.6372674333364    4.9351840561040    8.5627794408757 
 O    5.7418510822204    3.3173712637342    0.1999463180631 
 O    7.7979868532930    4.3583961803828    3.4787156623109 
 O    5.7314440745359    5.5630370112688    6.4399382216987 
 O    5.7418453429880    5.5264106153449    1.7619595668371 
 O    5.8748677816725    3.2270857777610    5.0345193159285 
 O    7.7106655212597    4.6538228244443    8.3855668149574 
 O   -3.8235440700895    6.6309253208291    0.1999463180631 
 O   -1.9108041708760    7.9229383336524    3.1862054778976 
 O   -3.8317976029555    8.9005319124421    6.3141931784536 
 O   -3.8235440700895    8.8399547317975    1.7619595668371 
 O   -3.7286155575544    6.6703173028445    4.9464577083007 
 O   -1.8705741023900    7.8039078899948    7.9898794499733 
 O    0.0026071037555    6.6309253208291    0.1999463180631 
 O    1.8388329326948    7.7477295429700    3.2532341148839 
 O    0.1073632484542    8.9672633447284    6.6275301301502 
 O    0.0026071037555    8.8399547317975    1.7619595668371 
 O    0.1552664986157    6.6827376383537    4.9189040126569 
 O    1.9330148858663    7.7696508461607    8.1866236853562 
 O    3.8287697560655    6.6309253208291    0.1999463180631 
 O    5.7559250003339    7.7718264551323    3.3710460313633 
 O    3.9464637951967    8.9404282826473    6.4815500137714 
 O    3.8287697560655    8.8399547317975    1.7619595668371 
 O    3.6753997294370    6.8233609463808    5.0978000243980 
 O    5.8061382915766    7.9468959774162    8.1027073582917 
Ce    1.9156884299104    1.1083418527658    0.9809643475031 
Ce   -0.1542279271025    2.2936124474920    4.1428378291285 
Ce    0.0055989656577    0.1292414714178    7.3451577345109 
Ce    5.7418510822205    1.1083418527658    0.9809643475031 
Ce    4.0270744148447    2.2378351059771    4.2236008871395 
Ce    3.9768610662097    0.0587799125186    7.4353707913366 
Ce    9.5680022560654    1.1083418527658    0.9809643475031 
Ce    7.7131595621349    2.2601173538894    4.3785357949318 
Ce    7.7941749124588    0.0023217364133    7.4587725914863 
Ce    0.0026128429880    4.4218859692184    0.9809643475031 
Ce   -1.7695281993255    5.5586775425925    4.1231132461671 
Ce   -1.9037632230526    3.5377584843091    7.6391058680064 
Ce    3.8287754952980    4.4218859692184    0.9809643475031 
Ce    1.9177260296249    5.4851828949178    4.3337887537894 
Ce    7.6549266691429    4.4218859692184    0.9809643475031 
Ce    5.7323443305458    5.5168851936833    4.2870344233191 
Ce    5.8221974676042    3.3612353419031    7.4598275588888 
Ce   -1.9104684831671    7.7354400263133    0.9809643475031 
Ce   -3.7450771111726    8.8517177920385    4.0858059491977 
Ce   -3.6738988627460    6.7836613014865    7.2412766340688 
Ce    1.9156941691429    7.7354400263133    0.9809643475031 
Ce    0.0847025202436    8.8984783745578    4.0777412081204 
Ce    0.0402363816417    6.7305404972172    7.4219164784136 
Ce    5.7418453429879    7.7354400263133    0.9809643475031 
Ce    3.8372268595081    8.8795544732367    4.1904685238713 
Ce    3.7762115866002    6.7126318336932    7.5230658405610 
Cu    1.9823154669646    2.3646174613052    6.7287559061527 
