81
FORCE:  2.385226  ...  ENERGY:  -631.62253679
 O    0.0026128429879    0.0038271472816    0.1999463180631 
 O    1.8259394025296    1.1064067079312    3.5244768407660 
 O   -0.0241955137658    2.2127242483011    6.8375804127671 
 O    0.0026128429880    2.2128565582500    1.7619595668371 
 O    5.5984897605411    9.8223508336903    5.1141094782890 
 O    1.7315464751714    0.7346849384491    8.1462413579969 
 O    3.8287640168329    0.0038271472816    0.1999463180631 
 O    5.7450743499771    1.0219775525503    3.3832740729878 
 O    3.6657375019540    2.2196840895941    6.6252482071459 
 O    3.8287640168330    2.2128565582500    1.7619595668371 
 O   -1.9088621867750    9.8386501072275    4.8938911347205 
 O    5.5294174660880    0.7435342970285    8.0954649215356 
 O    7.6549266691429    0.0038271472816    0.1999463180631 
 O    9.4814283442806    1.1020772599947    3.2281124327419 
 O    7.3888899414840    2.3125122924587    6.6403373203660 
 O    7.6549266691430    2.2128565582500    1.7619595668371 
 O    1.9254851276110    9.8637811444073    5.1059972921912 
 O    9.2959940865596    1.0565047830419    8.3191848444762 
 O   -1.9104627439346    3.3173712637342    0.1999463180631 
 O    0.0673290599735    4.2993730203474    3.3218811288909 
 O   -2.0671524000333    5.4417761857007    6.6427907753673 
 O   -1.9104684831671    5.5264106153449    1.7619595668371 
 O    9.5927283618759    3.2121801822728    5.1824880173484 
 O   -0.4579880560607    4.4704906402889    8.5991344159195 
 O    1.9156884299104    3.3173712637342    0.1999463180631 
 O    3.7296618196392    4.3251822081442    3.3461070581704 
 O    1.7469424254913    5.4339392815385    6.6228992224300 
 O    1.9156826906780    5.5264106153449    1.7619595668371 
 O    1.8434647802840    3.3133089208560    5.1680416929154 
 O    3.9510292398658    4.5507591398394    8.4007120410382 
 O    5.7418510822204    3.3173712637342    0.1999463180631 
 O    7.7526795153836    4.3607489316000    3.3792401057417 
 O    5.5800830662441    5.2946927524686    6.5915569962807 
 O    5.7418453429880    5.5264106153449    1.7619595668371 
 O    5.7532368012232    3.2829229619425    4.8896108183296 
 O    7.3704641929351    4.6474312896711    8.3176392316937 
 O   -3.8235440700895    6.6309253208291    0.1999463180631 
 O   -1.9238547264424    7.6353193682647    3.2857097752004 
 O   -3.7958018828157    8.5868172699468    6.3193288738195 
 O   -3.8235440700895    8.8399547317975    1.7619595668371 
 O    7.6221226509811    6.5028811997751    4.9847332942697 
 O   -1.9462292391283    7.7103986537270    8.2125017506132 
 O    0.0026071037555    6.6309253208291    0.1999463180631 
 O    2.0580268481813    7.6174957966388    3.5673920022954 
 O   -0.1962315906080    8.7716579465697    6.4956840678532 
 O    0.0026071037555    8.8399547317975    1.7619595668371 
 O   -0.0879677991821    6.3479487347973    5.0531823165567 
 O    1.3121367938755    7.8870973478758    8.1400050750165 
 O    3.8287697560655    6.6309253208291    0.1999463180631 
 O    5.5859974601200    7.6391876698055    3.4749880347884 
 O    3.5436786043295    8.7394495697051    6.4899258846946 
 O    3.8287697560655    8.8399547317975    1.7619595668371 
 O    4.0017076959026    6.4480905664139    4.9883256578637 
 O    5.4447333113884    7.7435756467763    8.2270701091132 
Ce    1.9156884299104    1.1083418527658    0.9809643475031 
Ce   -0.0208782373808    2.1883014818845    4.1221385703377 
Ce    5.4148153810739    9.8190881160779    7.5041072209591 
Ce    5.7418510822205    1.1083418527658    0.9809643475031 
Ce    3.8301664556867    1.9989673367273    4.1788784809116 
Ce   -2.0702135344718    9.8071117296533    7.4716274548236 
Ce    9.5680022560654    1.1083418527658    0.9809643475031 
Ce    7.6561717382415    2.1812985976105    4.2599517563643 
Ce    1.6779324017108    9.9321270364080    7.4082260808934 
Ce    0.0026128429880    4.4218859692184    0.9809643475031 
Ce   -1.8968012470685    5.4677899519158    4.1810358607371 
Ce    9.5450638637864    3.3443431090533    7.5192170913757 
Ce    3.8287754952980    4.4218859692184    0.9809643475031 
Ce    2.0016194902630    5.4813219494523    4.1655915941666 
Ce    7.6549266691429    4.4218859692184    0.9809643475031 
Ce    5.8534902310642    5.3772955136416    4.2411441396641 
Ce    5.6445357376733    3.3685124884979    7.4865651089398 
Ce   -1.9104684831671    7.7354400263133    0.9809643475031 
Ce   -3.9804611719723    8.7244604728217    4.1669403557344 
Ce   -3.7784479359361    6.5743177368701    7.3690786926731 
Ce    1.9156941691429    7.7354400263133    0.9809643475031 
Ce   -0.0490761197152    8.8200091312618    4.1153591787334 
Ce   -0.0670846260613    6.4164893639804    7.4844832305652 
Ce    5.7418453429879    7.7354400263133    0.9809643475031 
Ce    3.8204674397233    8.7932868954707    4.3017047429930 
Ce    3.6833824279213    6.4174049965418    7.3978077930790 
Cu    1.7612164132497    2.4707559853833    6.8991813850307 
81
FORCE:  2.423079  ...  ENERGY:  -631.57075589
 O    0.0026128429879    0.0038271472816    0.1999463180631 
 O    1.8207765611496    1.1066666557271    3.5232190915211 
 O   -0.0257038988515    2.2136723867628    6.8392809061694 
 O    0.0026128429880    2.2128565582500    1.7619595668371 
 O    5.5936147416710    9.8213923569607    5.1106925244102 
 O    1.7355917731991    0.7393664839355    8.1478239231512 
 O    3.8287640168329    0.0038271472816    0.1999463180631 
 O    5.7567652239719    1.0173139002200    3.3960666647358 
 O    3.6716032845306    2.2214168429516    6.6230344863586 
 O    3.8287640168330    2.2128565582500    1.7619595668371 
 O   -1.9158738071202    9.8313051654523    4.8966860570087 
 O    5.5321977224880    0.7363208699507    8.0923034408440 
 O    7.6549266691429    0.0038271472816    0.1999463180631 
 O    9.4775575189210    1.0999262044095    3.2189591934062 
 O    7.3871376390171    2.3155086008577    6.6362244301531 
 O    7.6549266691430    2.2128565582500    1.7619595668371 
 O    1.9174445202708    9.8613239170396    5.1062196907247 
 O    9.2944656141601    1.0465599656821    8.3175849436414 
 O   -1.9104627439346    3.3173712637342    0.1999463180631 
 O    0.0718116301253    4.3079496077024    3.3350726693929 
 O   -2.0744579838672    5.4353779906971    6.6519453833094 
 O   -1.9104684831671    5.5264106153449    1.7619595668371 
 O    9.5869809222734    3.2060783178160    5.1765288771559 
 O   -0.4615235954577    4.4723327407117    8.6048134480103 
 O    1.9156884299104    3.3173712637342    0.1999463180631 
 O    3.7328688453679    4.3248856787847    3.3487863332211 
 O    1.7442580716664    5.4349255920665    6.6235153233931 
 O    1.9156826906780    5.5264106153449    1.7619595668371 
 O    1.8387983251228    3.3075206836634    5.1680282349529 
 O    3.9435815526352    4.5460136760230    8.4074081757556 
 O    5.7418510822204    3.3173712637342    0.1999463180631 
 O    7.7516439856636    4.3597257412891    3.3814948847198 
 O    5.5747901164633    5.3011297159771    6.5878489854494 
 O    5.7418453429880    5.5264106153449    1.7619595668371 
 O    5.7506971908420    3.2897358805423    4.8857109745068 
 O    7.3722875471003    4.6467002548371    8.3080644615991 
 O   -3.8235440700895    6.6309253208291    0.1999463180631 
 O   -1.9263325826819    7.6318095262850    3.2920331927857 
 O   -3.7871700197434    8.5813168143485    6.3133795419726 
 O   -3.8235440700895    8.8399547317975    1.7619595668371 
 O    7.6240345615038    6.5036783398803    4.9901928931408 
 O   -1.9457606307947    7.6955935581323    8.2075033720854 
 O    0.0026071037555    6.6309253208291    0.1999463180631 
 O    2.0542987001416    7.6157228830863    3.5683555011729 
 O   -0.1940987770263    8.7710118048209    6.4914623734347 
 O    0.0026071037555    8.8399547317975    1.7619595668371 
 O   -0.0990458379306    6.3516547056494    5.0447881975487 
 O    1.3084372846060    7.8817395404943    8.1402167528002 
 O    3.8287697560655    6.6309253208291    0.1999463180631 
 O    5.5829305864490    7.6410967701573    3.4671915405576 
 O    3.5432724388455    8.7243858185981    6.4905057175891 
 O    3.8287697560655    8.8399547317975    1.7619595668371 
 O    4.0016120228969    6.4516313237912    4.9880861517507 
 O    5.4484651899292    7.7383679430934    8.2240840381368 
Ce    1.9156884299104    1.1083418527658    0.9809643475031 
Ce   -0.0239965919674    2.1873734235203    4.1184374025381 
Ce    5.4174386120726    9.8184730885394    7.5060723115910 
Ce    5.7418510822205    1.1083418527658    0.9809643475031 
Ce    3.8295880558353    1.9964851583475    4.1792712709370 
Ce   -2.0738254056610    9.8078281517432    7.4679630112947 
Ce    9.5680022560654    1.1083418527658    0.9809643475031 
Ce    7.6565119025518    2.1822207909957    4.2590541786932 
Ce    1.6769666610581    9.9289035843326    7.4073668242004 
Ce    0.0026128429880    4.4218859692184    0.9809643475031 
Ce   -1.8959541363515    5.4669406234385    4.1784371053605 
Ce    9.5447697855131    3.3431377067692    7.5186746670550 
Ce    3.8287754952980    4.4218859692184    0.9809643475031 
Ce    2.0025845422079    5.4814997875429    4.1619620500999 
Ce    7.6549266691429    4.4218859692184    0.9809643475031 
Ce    5.8568239790465    5.3751714966035    4.2408190956536 
Ce    5.6438155787791    3.3683548299112    7.4857181697041 
Ce   -1.9104684831671    7.7354400263133    0.9809643475031 
Ce   -3.9789298299566    8.7222695552610    4.1642822940822 
Ce   -3.7785530212832    6.5736549942487    7.3689698884674 
Ce    1.9156941691429    7.7354400263133    0.9809643475031 
Ce   -0.0494465297807    8.8170233599436    4.1146137444694 
Ce   -0.0693383652718    6.4131989119760    7.4818233441046 
Ce    5.7418453429879    7.7354400263133    0.9809643475031 
Ce    3.8197545122621    8.7954927239949    4.3019075248354 
Ce    3.6814907768893    6.4181294705519    7.3986563290222 
Cu    1.7545149410288    2.4730864695617    6.8978059356389 
81
FORCE:  2.449455  ...  ENERGY:  -631.52826473
 O    0.0026128429879    0.0038271472816    0.1999463180631 
 O    1.8158580962894    1.1066355415168    3.5214360255351 
 O   -0.0274828887495    2.2144194260309    6.8406691292205 
 O    0.0026128429880    2.2128565582500    1.7619595668371 
 O    5.5892048875949    9.8211339996676    5.1074806333844 
 O    1.7393811014572    0.7446536133503    8.1493047552327 
 O    3.8287640168329    0.0038271472816    0.1999463180631 
 O    5.7683011386893    1.0128643693245    3.4085353529786 
 O    3.6769637276856    2.2229494911799    6.6209136027027 
 O    3.8287640168330    2.2128565582500    1.7619595668371 
 O   -1.9230154784739    9.8242817040487    4.8995938893216 
 O    5.5348529210118    0.7303690097860    8.0900370287119 
 O    7.6549266691429    0.0038271472816    0.1999463180631 
 O    9.4741209812846    1.0979088504632    3.2108629743826 
 O    7.3859879559627    2.3182027137312    6.6322522782943 
 O    7.6549266691430    2.2128565582500    1.7619595668371 
 O    1.9088638511524    9.8596929558591    5.1059005773417 
 O    9.2933558187716    1.0366078916535    8.3156850899126 
 O   -1.9104627439346    3.3173712637342    0.1999463180631 
 O    0.0759979984878    4.3164571075934    3.3480306344093 
 O   -2.0813067821864    5.4289226370004    6.6605885886749 
 O   -1.9104684831671    5.5264106153449    1.7619595668371 
 O    9.5813107327404    3.1999557768231    5.1702008975494 
 O   -0.4653071844833    4.4742812060070    8.6100926189430 
 O    1.9156884299104    3.3173712637342    0.1999463180631 
 O    3.7362642900995    4.3243367565175    3.3513538387525 
 O    1.7422733876755    5.4363583368398    6.6242466153915 
 O    1.9156826906780    5.5264106153449    1.7619595668371 
 O    1.8340592686706    3.3012202051735    5.1680172861020 
 O    3.9363134459895    4.5413687121001    8.4141492463818 
 O    5.7418510822204    3.3173712637342    0.1999463180631 
 O    7.7506005931952    4.3584964814635    3.3835975202909 
 O    5.5699280682586    5.3082750496552    6.5838610946174 
 O    5.7418453429880    5.5264106153449    1.7619595668371 
 O    5.7478922557423    3.2957552376682    4.8820476714832 
 O    7.3745841583775    4.6454067784623    8.2988781476097 
 O   -3.8235440700895    6.6309253208291    0.1999463180631 
 O   -1.9287879411301    7.6286080430291    3.2985320200862 
 O   -3.7788398107312    8.5763666727074    6.3084742286773 
 O   -3.8235440700895    8.8399547317975    1.7619595668371 
 O    7.6260603383993    6.5043293525439    4.9954567813025 
 O   -1.9457140856191    7.6808854832065    8.2028234226374 
 O    0.0026071037555    6.6309253208291    0.1999463180631 
 O    2.0497160951674    7.6142970967627    3.5686166768866 
 O   -0.1920351211963    8.7701452790324    6.4865566039373 
 O    0.0026071037555    8.8399547317975    1.7619595668371 
 O   -0.1097974291345    6.3559640734886    5.0363347722651 
 O    1.3058956081010    7.8761515078374    8.1411918848317 
 O    3.8287697560655    6.6309253208291    0.1999463180631 
 O    5.5808714646126    7.6432515037800    3.4588624303517 
 O    3.5433200170829    8.7092379696574    6.4922331269165 
 O    3.8287697560655    8.8399547317975    1.7619595668371 
 O    4.0006663695578    6.4552253630111    4.9884399364947 
 O    5.4523695897990    7.7333425507901    8.2209937249759 
Ce    1.9156884299104    1.1083418527658    0.9809643475031 
Ce   -0.0271231536564    2.1864691232912    4.1148350024976 
Ce    5.4200307938236    9.8178631307285    7.5079917820109 
Ce    5.7418510822205    1.1083418527658    0.9809643475031 
Ce    3.8290032280436    1.9941856889730    4.1796770627227 
Ce   -2.0773503274779    9.8084947712151    7.4642650369100 
Ce    9.5680022560654    1.1083418527658    0.9809643475031 
Ce    7.6568579782715    2.1831019295283    4.2581447397669 
Ce    1.6760600918924    9.9257193977943    7.4064758614601 
Ce    0.0026128429880    4.4218859692184    0.9809643475031 
Ce   -1.8950960063081    5.4660958676567    4.1758741618504 
Ce    9.5444532668408    3.3419186858051    7.5181958829300 
Ce    3.8287754952980    4.4218859692184    0.9809643475031 
Ce    2.0035010402458    5.4816350796845    4.1584508904833 
Ce    7.6549266691429    4.4218859692184    0.9809643475031 
Ce    5.8599799256059    5.3731307821478    4.2404354296707 
Ce    5.6430440537542    3.3681863360244    7.4849086390421 
Ce   -1.9104684831671    7.7354400263133    0.9809643475031 
Ce   -3.9773685291473    8.7201026940547    4.1616424805149 
Ce   -3.7787652581011    6.5730126299439    7.3688955275219 
Ce    1.9156941691429    7.7354400263133    0.9809643475031 
Ce   -0.0497698207474    8.8139855990662    4.1139586382250 
Ce   -0.0716383626961    6.4099269495663    7.4791671072609 
Ce    5.7418453429879    7.7354400263133    0.9809643475031 
Ce    3.8190051406746    8.7976346341891    4.3020206629611 
Ce    3.6796509511267    6.4188441033261    7.3994626662693 
Cu    1.7481515096021    2.4752181408944    6.8963971834923 
81
FORCE:  2.491107  ...  ENERGY:  -631.49615406
 O    0.0026128429879    0.0038271472816    0.1999463180631 
 O    1.8112085718642    1.1063149558029    3.5191280990100 
 O   -0.0295672058165    2.2149557236824    6.8417485034364 
 O    0.0026128429880    2.2128565582500    1.7619595668371 
 O    5.5852708158932    9.8215756624045    5.1045025459450 
 O    1.7428987918411    0.7505223697455    8.1506786079171 
 O    3.8287640168329    0.0038271472816    0.1999463180631 
 O    5.7796125920235    1.0086557001918    3.4206395357275 
 O    3.6817908813567    2.2242779586155    6.6188782569444 
 O    3.8287640168330    2.2128565582500    1.7619595668371 
 O   -1.9302700979232    9.8176314143567    4.9025842942182 
 O    5.5373435757398    0.7256671853893    8.0886588421074 
 O    7.6549266691429    0.0038271472816    0.1999463180631 
 O    9.4711216583801    1.0960227129951    3.2038440766653 
 O    7.3854256259623    2.3205892631321    6.6284329541456 
 O    7.6549266691430    2.2128565582500    1.7619595668371 
 O    1.8998272574041    9.8588600294416    5.1050682365738 
 O    9.2926769823515    1.0266525372129    8.3134877924017 
 O   -1.9104627439346    3.3173712637342    0.1999463180631 
 O    0.0798805892741    4.3248442263064    3.3606863655213 
 O   -2.0876502984763    5.4223774198974    6.6686656472095 
 O   -1.9104684831671    5.5264106153449    1.7619595668371 
 O    9.5757455711621    3.1938167343641    5.1635291696454 
 O   -0.4693445623701    4.4763105881305    8.6149698758079 
 O    1.9156884299104    3.3173712637342    0.1999463180631 
 O    3.7398247377656    4.3235344472782    3.3537961168019 
 O    1.7409760341689    5.4382181316058    6.6250634452873 
 O    1.9156826906780    5.5264106153449    1.7619595668371 
 O    1.8292522597056    3.2944294542060    5.1679928792886 
 O    3.9292563135305    4.5368263356057    8.4209010377578 
 O    5.7418510822204    3.3173712637342    0.1999463180631 
 O    7.7495553641723    4.3570713909848    3.3855229213384 
 O    5.5654814830946    5.3160483337067    6.5796517176562 
 O    5.7418453429880    5.5264106153449    1.7619595668371 
 O    5.7448278499412    3.3009478315748    4.8786327705139 
 O    7.3773159182629    4.6435105015391    8.2901028717305 
 O   -3.8235440700895    6.6309253208291    0.1999463180631 
 O   -1.9312340020216    7.6257276425191    3.3051419326028 
 O   -3.7708283012998    8.5720082975017    6.3046247951887 
 O   -3.8235440700895    8.8399547317975    1.7619595668371 
 O    7.6281796647846    6.5048133624170    5.0004882344839 
 O   -1.9460760590129    7.6663444110711    8.1984543749341 
 O    0.0026071037555    6.6309253208291    0.1999463180631 
 O    2.0443092216214    7.6132257937431    3.5681771261440 
 O   -0.1900599643314    8.7690588662366    6.4810002902168 
 O    0.0026071037555    8.8399547317975    1.7619595668371 
 O   -0.1201865878060    6.3608765400954    5.0278685733221 
 O    1.3044956945096    7.8703559145695    8.1429183817549 
 O    3.8287697560655    6.6309253208291    0.1999463180631 
 O    5.5798113135852    7.6456418306251    3.4500264795905 
 O    3.5438017108666    8.6940527439016    6.4950743537198 
 O    3.8287697560655    8.8399547317975    1.7619595668371 
 O    3.9988897901375    6.4588601588645    4.9893450415008 
 O    5.4564542589616    7.7285351567722    8.2178064688645 
Ce    1.9156884299104    1.1083418527658    0.9809643475031 
Ce   -0.0302603329256    2.1855881835715    4.1113279487001 
Ce    5.4225920985037    9.8172531729176    7.5098674570273 
Ce    5.7418510822205    1.1083418527658    0.9809643475031 
Ce    3.8284123166654    1.9920621689670    4.1800981372795 
Ce   -2.0807869798989    9.8091071147802    7.4605298820525 
Ce    9.5680022560654    1.1083418527658    0.9809643475031 
Ce    7.6572078418847    2.1839419138018    4.2572248081920 
Ce    1.6752114315826    9.9225657290277    7.4055502273586 
Ce    0.0026128429880    4.4218859692184    0.9809643475031 
Ce   -1.8942297265546    5.4652546905062    4.1733470302066 
Ce    9.5441120694686    3.3406865431933    7.5177805108998 
Ce    3.8287754952980    4.4218859692184    0.9809643475031 
Ce    2.0043716244237    5.4817292175670    4.1550578872158 
Ce    7.6549266691429    4.4218859692184    0.9809643475031 
Ce    5.8629603090431    5.3711778435635    4.2399940541196 
Ce    5.6422204164981    3.3680130706292    7.4841330954381 
Ce   -1.9104684831671    7.7354400263133    0.9809643475031 
Ce   -3.9757779582523    8.7179567081971    4.1590186340217 
Ce   -3.7790857942362    6.5723912403943    7.3688558379374 
Ce    1.9156941691429    7.7354400263133    0.9809643475031 
Ce   -0.0500473126388    8.8108915741535    4.1133963691121 
Ce   -0.0739869140275    6.4066712898099    7.4765133795288 
Ce    5.7418453429879    7.7354400263133    0.9809643475031 
Ce    3.8182153648903    8.7997103397057    4.3020462102798 
Ce    3.6778590479556    6.4195480996131    7.4002284015277 
Cu    1.7421380565732    2.4771555720767    6.8949583220058 
81
FORCE:  2.564380  ...  ENERGY:  -631.47519745
 O    0.0026128429879    0.0038271472816    0.1999463180631 
 O    1.8068489934649    1.1057074831526    3.5162946276427 
 O   -0.0319876697311    2.2152740230485    6.8425233627373 
 O    0.0026128429880    2.2128565582500    1.7619595668371 
 O    5.5818172901286    9.8227122754440    5.1017819846024 
 O    1.7461334806704    0.7569512813337    8.1519397786779 
 O    3.8287640168329    0.0038271472816    0.1999463180631 
 O    5.7906329514853    1.0047110545183    3.4323431730150 
 O    3.6860636825606    2.2253997600980    6.6169200093443 
 O    3.8287640168330    2.2128565582500    1.7619595668371 
 O   -1.9376244652333    9.8114020114593    4.9056283028639 
 O    5.5396333573303    0.7221989947007    8.0881581602807 
 O    7.6549266691429    0.0038271472816    0.1999463180631 
 O    9.4685623050391    1.0942628216841    3.1979161863180 
 O    7.3854328000030    2.3226653662744    6.6247785470634 
 O    7.6549266691430    2.2128565582500    1.7619595668371 
 O    1.8904211144752    9.8587910413841    5.1037546025693 
 O    9.2924398372646    1.0166934053282    8.3109946478159 
 O   -1.9104627439346    3.3173712637342    0.1999463180631 
 O    0.0834557867676    4.3330641434160    3.3729812407564 
 O   -2.0934456606702    5.4157110263649    6.6761261485789 
 O   -1.9104684831671    5.5264106153449    1.7619595668371 
 O    9.5703113788695    3.1876659619471    5.1565365035501 
 O   -0.4736408370349    4.4783983218242    8.6194463591104 
 O    1.9156884299104    3.3173712637342    0.1999463180631 
 O    3.7435264853357    4.3224804409762    3.3561017623164 
 O    1.7403514908883    5.4404843992351    6.6259357037408 
 O    1.9156826906780    5.5264106153449    1.7619595668371 
 O    1.8243816026521    3.2871715924572    5.1679383631352 
 O    3.9224378757512    4.5323844590049    8.4276343529479 
 O    5.7418510822204    3.3173712637342    0.1999463180631 
 O    7.7485124308424    4.3554618021852    3.3872489620594 
 O    5.5614347502588    5.3243704406190    6.5752751426179 
 O    5.7418453429880    5.5264106153449    1.7619595668371 
 O    5.7415081630786    3.3052883136243    4.8754779047531 
 O    7.3804447756449    4.6409719597175    8.2817552853387 
 O   -3.8235440700895    6.6309253208291    0.1999463180631 
 O   -1.9336863760688    7.6231784642103    3.3118022554538 
 O   -3.7631511595539    8.5682777732631    6.3018376283366 
 O   -3.8235440700895    8.8399547317975    1.7619595668371 
 O    7.6303729124845    6.5051108858407    5.0052544061326 
 O   -1.9468319159331    7.6520310790506    8.1943898421460 
 O    0.0026071037555    6.6309253208291    0.1999463180631 
 O    2.0381105061675    7.6125150378194    3.5670404985620 
 O   -0.1881897780290    8.7677546539681    6.4748285598363 
 O    0.0026071037555    8.8399547317975    1.7619595668371 
 O   -0.1301789359424    6.3663926025022    5.0194329399212 
 O    1.3042188913261    7.8643697591889    8.1453814170007 
 O    3.8287697560655    6.6309253208291    0.1999463180631 
 O    5.5797342930850    7.6482590029272    3.4407094636937 
 O    3.5446966867827    8.6788753712532    6.4989858306967 
 O    3.8287697560655    8.8399547317975    1.7619595668371 
 O    3.9963026015188    6.4625273612117    4.9907542498495 
 O    5.4607298723894    7.7239771734694    8.2145295690366 
Ce    1.9156884299104    1.1083418527658    0.9809643475031 
Ce   -0.0334114011374    2.1847297097033    4.1079119072255 
Ce    5.4251241330980    9.8166386424112    7.5117018457518 
Ce    5.7418510822205    1.1083418527658    0.9809643475031 
Ce    3.8278153790930    1.9901073416607    4.1805365475168 
Ce   -2.0841349611778    9.8096619020264    7.4567525284989 
Ce    9.5680022560654    1.1083418527658    0.9809643475031 
Ce    7.6575597142293    2.1847404455970    4.2562941558672 
Ce    1.6744186140050    9.9194326373908    7.4045876408854 
Ce    0.0026128429880    4.4218859692184    0.9809643475031 
Ce   -1.8933580519225    5.4644157002969    4.1708554823283 
Ce    9.5437439550961    3.3394411795272    7.5174278666610 
Ce    3.8287754952980    4.4218859692184    0.9809643475031 
Ce    2.0051993939272    5.4817833940674    4.1517823559942 
Ce    7.6549266691429    4.4218859692184    0.9809643475031 
Ce    5.8657681711514    5.3693161600754    4.2394965657077 
Ce    5.6413438635184    3.3678404016727    7.4833872049719 
Ce   -1.9104684831671    7.7354400263133    0.9809643475031 
Ce   -3.9741577729175    8.7158276214314    4.1564075611879 
Ce   -3.7795160071044    6.5717910244129    7.3688505916131 
Ce    1.9156941691429    7.7354400263133    0.9809643475031 
Ce   -0.0502804976553    8.8077359172585    4.1129296743434 
Ce   -0.0763864297434    6.4034297457655    7.4738598798978 
Ce    5.7418453429879    7.7354400263133    0.9809643475031 
Ce    3.8173803065615    8.8017187470739    4.3019859916000 
Ce    3.6761104759898    6.4202416582256    7.4009551315049 
Cu    1.7364817559828    2.4789032363977    6.8934920883921 
81
FORCE:  2.633578  ...  ENERGY:  -631.46575765
 O    0.0026128429879    0.0038271472816    0.1999463180631 
 O    1.8027984727357    1.1048152111006    3.5129344709279 
 O   -0.0347697052931    2.2153686579631    6.8429975848410 
 O    0.0026128429880    2.2128565582500    1.7619595668371 
 O    5.5788420720006    9.8245347928014    5.0993374255424 
 O    1.7490780512968    0.7639242442744    8.1530825649885 
 O    3.8287640168329    0.0038271472816    0.1999463180631 
 O    5.8012973637475    1.0010525005299    3.4436120496822 
 O    3.6897674388622    2.2263123110602    6.6150308763653 
 O    3.8287640168330    2.2128565582500    1.7619595668371 
 O   -1.9450668149777    9.8056381288402    4.9086992274346 
 O    5.5416907000046    0.7199435623715    8.0885187880565 
 O    7.6549266691429    0.0038271472816    0.1999463180631 
 O    9.4664446430312    1.0926216216420    3.1930875149789 
 O    7.3859901942634    2.3244300290937    6.6213002339994 
 O    7.6549266691430    2.2128565582500    1.7619595668371 
 O    1.8807326013073    9.8594487142780    5.1019927499818 
 O    9.2926534514983    1.0067273149940    8.3082079371658 
 O   -1.9104627439346    3.3173712637342    0.1999463180631 
 O    0.0867199178597    4.3410743129732    3.3848648497803 
 O   -2.0986526941405    5.4088958214173    6.6829231039648 
 O   -1.9104684831671    5.5264106153449    1.7619595668371 
 O    9.5650331789162    3.1815080322678    5.1492436564598 
 O   -0.4781993946251    4.4805254204614    8.6235248060632 
 O    1.9156884299104    3.3173712637342    0.1999463180631 
 O    3.7473472071956    4.3211786144619    3.3582618793546 
 O    1.7403828270977    5.4431371590366    6.6268337376140 
 O    1.9156826906780    5.5264106153449    1.7619595668371 
 O    1.8194503393035    3.2794701792494    5.1678357176582 
 O    3.9158837296285    4.5280375155379    8.4343234165324 
 O    5.7418510822204    3.3173712637342    0.1999463180631 
 O    7.7474739167215    4.3536807373061    3.3887544290554 
 O    5.5577750138705    5.3331652250722    6.5707838327465 
 O    5.7418453429880    5.5264106153449    1.7619595668371 
 O    5.7379368682631    3.3087583930349    4.8725951635568 
 O    7.3839325072352    4.6377537761825    8.2738479339927 
 O   -3.8235440700895    6.6309253208291    0.1999463180631 
 O   -1.9361615922614    7.6209700511191    3.3184550509697 
 O   -3.7558212987665    8.5652052201377    6.3001156934346 
 O   -3.8235440700895    8.8399547317975    1.7619595668371 
 O    7.6326201663622    6.5052051231296    5.0097258712118 
 O   -1.9479655291365    7.6379966814527    8.1906241217464 
 O    0.0026071037555    6.6309253208291    0.1999463180631 
 O    2.0311536381003    7.6121706939704    3.5652104437576 
 O   -0.1864383364469    8.7662356244198    6.4680811023805 
 O    0.0026071037555    8.8399547317975    1.7619595668371 
 O   -0.1397422764495    6.3725141494308    5.0110700707584 
 O    1.3050432746824    7.8582069585948    8.1485645672930 
 O    3.8287697560655    6.6309253208291    0.1999463180631 
 O    5.5806186514210    7.6510951675790    3.4309401233950 
 O    3.5459820452934    8.6637502863833    6.5039164632097 
 O    3.8287697560655    8.8399547317975    1.7619595668371 
 O    3.9929251205849    6.4662219997316    4.9926166950044 
 O    5.4652099172789    7.7196959376479    8.2111705528270 
Ce    1.9156884299104    1.1083418527658    0.9809643475031 
Ce   -0.0365805479315    2.1838922105904    4.1045814036484 
Ce    5.4276290785150    9.8160147677011    7.5134972291951 
Ce    5.7418510822205    1.1083418527658    0.9809643475031 
Ce    3.8272125301112    1.9883138509787    4.1809945744453 
Ce   -2.0873949026301    9.8101566477932    7.4529275018238 
Ce    9.5680022560654    1.1083418527658    0.9809643475031 
Ce    7.6579119883201    2.1854977237266    4.2553532389947 
Ce    1.6736789991128    9.9163091881768    7.4035855929288 
Ce    0.0026128429880    4.4218859692184    0.9809643475031 
Ce   -1.8924834502818    5.4635772071197    4.1683972372046 
Ce    9.5433462836761    3.3381816007426    7.5171372659106 
Ce    3.8287754952980    4.4218859692184    0.9809643475031 
Ce    2.0059876201187    5.4817989014694    4.1486215596058 
Ce    7.6549266691429    4.4218859692184    0.9809643475031 
Ce    5.8684067259010    5.3675483162506    4.2389436487383 
Ce    5.6404137634994    3.3676732000693    7.4826670899255 
Ce   -1.9104684831671    7.7354400263133    0.9809643475031 
Ce   -3.9725065383349    8.7137117557200    4.1538062966996 
Ce   -3.7800580202217    6.5712118825930    7.3688797885487 
Ce    1.9156941691429    7.7354400263133    0.9809643475031 
Ce   -0.0504711549590    8.8045127634024    4.1125601506262 
Ce   -0.0788395498909    6.4001995340534    7.4712036430541 
Ce    5.7418453429879    7.7354400263133    0.9809643475031 
Ce    3.8164956038717    8.8036590610425    4.3018427441343 
Ce    3.6744003568818    6.4209254750088    7.4016449091103 
Cu    1.7311862809397    2.4804647124886    6.8920012198640 
81
FORCE:  2.695395  ...  ENERGY:  -631.46806250
 O    0.0026128429879    0.0038271472816    0.1999463180631 
 O    1.7990717595041    1.1036400283691    3.5090439792485 
 O   -0.0379315058697    2.2152353539500    6.8431748193646 
 O    0.0026128429880    2.2128565582500    1.7619595668371 
 O    5.5763374709376    9.8270294963905    5.0971825548285 
 O    1.7517283140807    0.7714288327649    8.1541021767267 
 O    3.8287640168329    0.0038271472816    0.1999463180631 
 O    5.8115437877068    0.9976990248533    3.4544149158838 
 O    3.6928921639968    2.2270150150637    6.6132042430769 
 O    3.8287640168330    2.2128565582500    1.7619595668371 
 O   -1.9525881939536    9.8003805231331    4.9117722049150 
 O    5.5434886293699    0.7188778261116    8.0897224773501 
 O    7.6549266691429    0.0038271472816    0.1999463180631 
 O    9.4647704515186    1.0910896692587    3.1893614841638 
 O    7.3870774918605    2.3258840468415    6.6180103324111 
 O    7.6549266691430    2.2128565582500    1.7619595668371 
 O    1.8708511925351    9.8607929873349    5.0998162096673 
 O    9.2933266060782    0.9967491964825    8.3051278885527 
 O   -1.9104627439346    3.3173712637342    0.1999463180631 
 O    0.0896711459958    4.3488351712219    3.3962929409873 
 O   -2.1032364469613    5.4019068540425    6.6890122617615 
 O   -1.9104684831671    5.5264106153449    1.7619595668371 
 O    9.5599363961023    3.1753488103049    5.1416697888635 
 O   -0.4830224160487    4.4826755813888    8.6272093224854 
 O    1.9156884299104    3.3173712637342    0.1999463180631 
 O    3.7512649794771    4.3196347333079    3.3602700810868 
 O    1.7410528250998    5.4461553368487    6.6277276656681 
 O    1.9156826906780    5.5264106153449    1.7619595668371 
 O    1.8144623149454    3.2713477798407    5.1676669228738 
 O    3.9096179225467    4.5237764592203    8.4409458746074 
 O    5.7418510822204    3.3173712637342    0.1999463180631 
 O    7.7464402809482    4.3517429084981    3.3900201618373 
 O    5.5544913119956    5.3423596233455    6.5662266016688 
 O    5.7418453429880    5.5264106153449    1.7619595668371 
 O    5.7341162611879    3.3113463398487    4.8699973205844 
 O    7.3877415784531    4.6338199658091    8.2663890293307 
 O   -3.8235440700895    6.6309253208291    0.1999463180631 
 O   -1.9386777865741    7.6191099581338    3.3250462591995 
 O   -3.7488535261576    8.5628158873569    6.2994583061797 
 O   -3.8235440700895    8.8399547317975    1.7619595668371 
 O    7.6349027165198    6.5050807656946    5.0138770824028 
 O   -1.9494599678872    7.6242872434513    8.1871537922196 
 O    0.0026071037555    6.6309253208291    0.1999463180631 
 O    2.0234760372157    7.6121981301432    3.5626908394488 
 O   -0.1848176919736    8.7645061514742    6.4607985198379 
 O    0.0026071037555    8.8399547317975    1.7619595668371 
 O   -0.1488465931412    6.3792428707904    5.0028182868118 
 O    1.3069461746102    7.8518749682689    8.1524504969512 
 O    3.8287697560655    6.6309253208291    0.1999463180631 
 O    5.5824389064007    7.6541445590078    3.4207471994278 
 O    3.5476347146841    8.6487216257436    6.5098083135895 
 O    3.8287697560655    8.8399547317975    1.7619595668371 
 O    3.9887772624724    6.4699407940123    4.9948785451154 
 O    5.4699103486964    7.7157131199080    8.2077371756719 
Ce    1.9156884299104    1.1083418527658    0.9809643475031 
Ce   -0.0397725368710    2.1830737975107    4.1013309635434 
Ce    5.4301099765477    9.8153770754982    7.5152577131762 
Ce    5.7418510822205    1.1083418527658    0.9809643475031 
Ce    3.8266030236197    1.9866746390651    4.1814738147723 
Ce   -2.0905677799254    9.8105892645456    7.4490479589953 
Ce    9.5680022560654    1.1083418527658    0.9809643475031 
Ce    7.6582629997798    2.1862134499715    4.2544016013723 
Ce    1.6729888564046    9.9131841484601    7.4025411181751 
Ce    0.0026128429880    4.4218859692184    0.9809643475031 
Ce   -1.8916081599332    5.4627373222526    4.1659702419262 
Ce    9.5429158986310    3.3369061169304    7.5169080243453 
Ce    3.8287754952980    4.4218859692184    0.9809643475031 
Ce    2.0067394595762    5.4817772308692    4.1455729889389 
Ce    7.6549266691429    4.4218859692184    0.9809643475031 
Ce    5.8708794168313    5.3658759025917    4.2383357594134 
Ce    5.6394296573026    3.3675154420762    7.4819684163787 
Ce   -1.9104684831671    7.7354400263133    0.9809643475031 
Ce   -3.9708221883808    8.7116051348059    4.1512109628389 
Ce   -3.7807136701425    6.5706532184964    7.3689436568455 
Ce    1.9156941691429    7.7354400263133    0.9809643475031 
Ce   -0.0506211784965    8.8012158499805    4.1122900789711 
Ce   -0.0813491440862    6.3969784677321    7.4685421598861 
Ce    5.7418453429879    7.7354400263133    0.9809643475031 
Ce    3.8155566654346    8.8055310827986    4.3016189769945 
Ce    3.6727232957530    6.4216013392781    7.4023006996578 
Cu    1.7262522053672    2.4818425849164    6.8904882255330 
81
FORCE:  2.749291  ...  ENERGY:  -631.48191633
 O    0.0026128429879    0.0038271472816    0.1999463180631 
 O    1.7956812505124    1.1021841218993    3.5046183624824 
 O   -0.0414847221028    2.2148712282229    6.8430584878240 
 O    0.0026128429880    2.2128565582500    1.7619595668371 
 O    5.5742910901974    9.8301788906808    5.0953280932107 
 O    1.7540827194292    0.7794567960718    8.1549922270628 
 O    3.8287640168329    0.0038271472816    0.1999463180631 
 O    5.8213122483834    0.9946674271742    3.4647207498757 
 O    3.6954299952160    2.2275071762635    6.6114341788513 
 O    3.8287640168330    2.2128565582500    1.7619595668371 
 O   -1.9601805098432    9.7956688575004    4.9148248814009 
 O    5.5450048772041    0.7189775307538    8.0917477866619 
 O    7.6549266691429    0.0038271472816    0.1999463180631 
 O    9.4635415096634    1.0896559304212    3.1867385500749 
 O    7.3886746628729    2.3270289106140    6.6149207035534 
 O    7.6549266691430    2.2128565582500    1.7619595668371 
 O    1.8608671662858    9.8627818116379    5.0972612496942 
 O    9.2944645810983    0.9867522901572    8.3017554143806 
 O   -1.9104627439346    3.3173712637342    0.1999463180631 
 O    0.0923083233295    4.3563113294753    3.4072249123889 
 O   -2.1071657551000    5.3947237459237    6.6943521075761 
 O   -1.9104684831671    5.5264106153449    1.7619595668371 
 O    9.5550461108737    3.1691957515402    5.1338310959366 
 O   -0.4881120248221    4.4848359811776    8.6305046984992 
 O    1.9156884299104    3.3173712637342    0.1999463180631 
 O    3.7552588539815    4.3178568494343    3.3621211211887 
 O    1.7423429471735    5.4495175602904    6.6285876066643 
 O    1.9156826906780    5.5264106153449    1.7619595668371 
 O    1.8094195383093    3.2628271583018    5.1674128182930 
 O    3.9036624357661    4.5195910511905    8.4474832509870 
 O    5.7418510822204    3.3173712637342    0.1999463180631 
 O    7.7454095721836    4.3496648172274    3.3910283685225 
 O    5.5515768723398    5.3518856414456    6.5616488414957 
 O    5.7418453429880    5.5264106153449    1.7619595668371 
 O    5.7300484653688    3.3130466867124    4.8676980618996 
 O    7.3918370373728    4.6291388179483    8.2593842738792 
 O   -3.8235440700895    6.6309253208291    0.1999463180631 
 O   -1.9412544723973    7.6176041496397    3.3315243293035 
 O   -3.7422615584927    8.5611291591731    6.2998622731570 
 O   -3.8235440700895    8.8399547317975    1.7619595668371 
 O    7.6372029435134    6.5047255865456    5.0176854577005 
 O   -1.9512979570953    7.6109426270219    8.1839756601506 
 O    0.0026071037555    6.6309253208291    0.1999463180631 
 O    2.0151142050325    7.6126023166587    3.5594851071516 
 O   -0.1833373717348    8.7625718018910    6.4530241514099 
 O    0.0026071037555    8.8399547317975    1.7619595668371 
 O   -0.1574635916014    6.3865818481803    4.9947154528575 
 O    1.3099041176483    7.8453768698103    8.1570198173851 
 O    3.8287697560655    6.6309253208291    0.1999463180631 
 O    5.5851669357849    7.6574016104542    3.4101617135364 
 O    3.5496313362785    8.6338348180693    6.5165995664488 
 O    3.8287697560655    8.8399547317975    1.7619595668371 
 O    3.9838778518642    6.4736835452409    4.9974834592206 
 O    5.4748487860857    7.7120479056893    8.2042378773104 
Ce    1.9156884299104    1.1083418527658    0.9809643475031 
Ce   -0.0429923036959    2.1822720847100    4.0981551124851 
Ce    5.4325706150898    9.8147211919199    7.5169860349078 
Ce    5.7418510822205    1.1083418527658    0.9809643475031 
Ce    3.8259866300492    1.9851825486574    4.1819765495086 
Ce   -2.0936551426565    9.8109586588131    7.4451063726785 
Ce    9.5680022560654    1.1083418527658    0.9809643475031 
Ce    7.6586112564080    2.1868876243316    4.2534385586970 
Ce    1.6723443405949    9.9100456888763    7.4014521637146 
Ce    0.0026128429880    4.4218859692184    0.9809643475031 
Ce   -1.8907341896081    5.4618937593479    4.1635715311793 
Ce    9.5424496433827    3.3356124417428    7.5167394576619 
Ce    3.8287754952980    4.4218859692184    0.9809643475031 
Ce    2.0074580114852    5.4817197739568    4.1426332224776 
Ce    7.6549266691429    4.4218859692184    0.9809643475031 
Ce    5.8731898596588    5.3643000125695    4.2376735820362 
Ce    5.6383909136125    3.3673706069180    7.4812866223104 
Ce   -1.9104684831671    7.7354400263133    0.9809643475031 
Ce   -3.9691019682236    8.7095039812451    4.1486183661910 
Ce   -3.7814858264830    6.5701142368714    7.3690419684024 
Ce    1.9156941691429    7.7354400263133    0.9809643475031 
Ce   -0.0507326917840    8.7978385167625    4.1121212841867 
Ce   -0.0839175080222    6.3937643598605    7.4658722369788 
Ce    5.7418453429879    7.7354400263133    0.9809643475031 
Ce    3.8145588424722    8.8073349117485    4.3013171992921 
Ce    3.6710743568634    6.4222710403491    7.4029254684612 
Cu    1.7216776353184    2.4830381459647    6.8889553864098 
81
FORCE:  2.793147  ...  ENERGY:  -631.50699232
 O    0.0026128429879    0.0038271472816    0.1999463180631 
 O    1.7926383668332    1.1004495792261    3.4996514619009 
 O   -0.0454338305937    2.2142750879048    6.8426504150277 
 O    0.0026128429880    2.2128565582500    1.7619595668371 
 O    5.5726861712211    9.8339626967621    5.0937808837208 
 O    1.7561424725811    0.7880024680293    8.1557470134703 
 O    3.8287640168329    0.0038271472816    0.1999463180631 
 O    5.8305423116592    0.9919721214236    3.4744985299136 
 O    3.6973745045793    2.2277887946595    6.6097163497684 
 O    3.8287640168330    2.2128565582500    1.7619595668371 
 O   -1.9678366459982    9.7915411051959    4.9178364996961 
 O    5.5462222832020    0.7202167312217    8.0945707653804 
 O    7.6549266691429    0.0038271472816    0.1999463180631 
 O    9.4627598835893    1.0883074822946    3.1852157473983 
 O    7.3907606443174    2.3278665091334    6.6120450334899 
 O    7.6549266691430    2.2128565582500    1.7619595668371 
 O    1.8508717189638    9.8653713489544    5.0943643662322 
 O    9.2960725418678    0.9767296375683    8.2980905146495 
 O   -1.9104627439346    3.3173712637342    0.1999463180631 
 O    0.0946311628993    4.3634706794590    3.4176249521185 
 O   -2.1104139885181    5.3873303932205    6.6989022675210 
 O   -1.9104684831671    5.5264106153449    1.7619595668371 
 O    9.5503901585080    3.1630569078940    5.1257437728543 
 O   -0.4934672452755    4.4869955857151    8.6334161804290 
 O    1.9156884299104    3.3173712637342    0.1999463180631 
 O    3.7593069068408    4.3158553011092    3.3638113500433 
 O    1.7442339094975    5.4532021587616    6.6293832231616 
 O    1.9156826906780    5.5264106153449    1.7619595668371 
 O    1.8043257398963    3.2539328680193    5.1670544715277 
 O    3.8980380453084    4.5154695614906    8.4539195785970 
 O    5.7418510822204    3.3173712637342    0.1999463180631 
 O    7.7443786912419    4.3474645554629    3.3917623977336 
 O    5.5490289974638    5.3616781681655    6.5570934352264 
 O    5.7418453429880    5.5264106153449    1.7619595668371 
 O    5.7257354895374    3.3138601294710    4.8657113016670 
 O    7.3961842764222    4.6236810077054    8.2528357205477 
 O   -3.8235440700895    6.6309253208291    0.1999463180631 
 O   -1.9439117370448    7.6164577947708    3.3378399914528 
 O   -3.7360611212690    8.5601611394269    6.3013232604463 
 O   -3.8235440700895    8.8399547317975    1.7619595668371 
 O    7.6395030557225    6.5041290486018    5.0211311523129 
 O   -1.9534624512404    7.5979967297548    8.1810883569331 
 O    0.0026071037555    6.6309253208291    0.1999463180631 
 O    2.0061074552933    7.6133875279932    3.5555973526850 
 O   -0.1820042628098    8.7604395341197    6.4448058983191 
 O    0.0026071037555    8.8399547317975    1.7619595668371 
 O   -0.1655649774137    6.3945325726967    4.9867971526606 
 O    1.3138927120589    7.8387133590641    8.1622519994994 
 O    3.8287697560655    6.6309253208291    0.1999463180631 
 O    5.5887721494644    7.6608608545647    3.3992160560712 
 O    3.5519478053002    8.6191393677592    6.5242233881772 
 O    3.8287697560655    8.8399547317975    1.7619595668371 
 O    3.9782449099501    6.4774512474817    5.0003725872465 
 O    5.4800461202530    7.7087160012065    8.2006817817850 
Ce    1.9156884299104    1.1083418527658    0.9809643475031 
Ce   -0.0462447841459    2.1814844876213    4.0950486041489 
Ce    5.4350147820346    9.8140429418964    7.5186860721080 
Ce    5.7418510822205    1.1083418527658    0.9809643475031 
Ce    3.8253624885149    1.9838313171509    4.1825046034625 
Ce   -2.0966583108467    9.8112641347507    7.4410956717405 
Ce    9.5680022560654    1.1083418527658    0.9809643475031 
Ce    7.6589550364347    2.1875198491813    4.2524638828676 
Ce    1.6717408602975    9.9068820794675    7.4003159923348 
Ce    0.0026128429880    4.4218859692184    0.9809643475031 
Ce   -1.8898634906456    5.4610443314642    4.1611983677510 
Ce    9.5419433856839    3.3342977917999    7.5166311096584 
Ce    3.8287754952980    4.4218859692184    0.9809643475031 
Ce    2.0081466619929    5.4816278230156    4.1397995230093 
Ce    7.6549266691429    4.4218859692184    0.9809643475031 
Ce    5.8753408666075    5.3628209444032    4.2369571166067 
Ce    5.6372974176443    3.3672412791618    7.4806178300025 
Ce   -1.9104684831671    7.7354400263133    0.9809643475031 
Ce   -3.9673426638931    8.7074049152191    4.1460246290377 
Ce   -3.7823772440749    6.5695935460282    7.3691749513204 
Ce    1.9156941691429    7.7354400263133    0.9809643475031 
Ce   -0.0508079905144    8.7943744017372    4.1120553629804 
Ce   -0.0865474539230    6.3905555205293    7.4631906809174 
Ce    5.7418453429879    7.7354400263133    0.9809643475031 
Ce    3.8134976009906    8.8090708461116    4.3009406044420 
Ce    3.6694481453345    6.4229369639761    7.4035224089352 
Cu    1.7174588976846    2.4840513956333    6.8874049835050 
81
FORCE:  2.828628  ...  ENERGY:  -631.54257199
 O    0.0026128429879    0.0038271472816    0.1999463180631 
 O    1.7899521190616    1.0984378914459    3.4941359782701 
 O   -0.0497769373957    2.2134470324021    6.8419526538851 
 O    0.0026128429880    2.2128565582500    1.7619595668371 
 O    5.5715018232024    9.8383570570928    5.0925443478745 
 O    1.7579092953062    0.7970632640702    8.1563594648164 
 O    3.8287640168329    0.0038271472816    0.1999463180631 
 O    5.8391740025545    0.9896257322175    3.4837154094450 
 O    3.6987211580931    2.2278605660969    6.6080468781103 
 O    3.8287640168330    2.2128565582500    1.7619595668371 
 O   -1.9755504040475    9.7880332513447    4.9207883555136 
 O    5.5471277045212    0.7225686871875    8.0981644975807 
 O    7.6549266691429    0.0038271472816    0.1999463180631 
 O    9.4624279837738    1.0870294139153    3.1847864612034 
 O    7.3933137992873    2.3283981346830    6.6093967801833 
 O    7.6549266691430    2.2128565582500    1.7619595668371 
 O    1.8409574817817    9.8685174628328    5.0911650207647 
 O    9.2981537023570    0.9666750755176    8.2941345579660 
 O   -1.9104627439346    3.3173712637342    0.1999463180631 
 O    0.0966400090589    4.3702835980589    3.4274618103310 
 O   -2.1129595103088    5.3797173523227    6.7026216834053 
 O   -1.9104684831671    5.5264106153449    1.7619595668371 
 O    9.5459955133982    3.1569438105114    5.1174224180845 
 O   -0.4990861834623    4.4891473371452    8.6359492427003 
 O    1.9156884299104    3.3173712637342    0.1999463180631 
 O    3.7633875011483    4.3136421165098    3.3653375742358 
 O    1.7467048212658    5.4571880581007    6.6300855463253 
 O    1.9156826906780    5.5264106153449    1.7619595668371 
 O    1.7991838467148    3.2446880706896    5.1665713534827 
 O    3.8927662732955    4.5113981726279    8.4602402589696 
 O    5.7418510822204    3.3173712637342    0.1999463180631 
 O    7.7433428745603    4.3451617062700    3.3922074229017 
 O    5.5468478021522    5.3716757703358    6.5525982476370 
 O    5.7418453429880    5.5264106153449    1.7619595668371 
 O    5.7211804328791    3.3137934277612    4.8640525507587 
 O    7.4007504097992    4.6174207888169    8.2467438255382 
 O   -3.8235440700895    6.6309253208291    0.1999463180631 
 O   -1.9466697826150    7.6156742733455    3.3439458006269 
 O   -3.7302700061072    8.5599225640120    6.3038346531169 
 O   -3.8235440700895    8.8399547317975    1.7619595668371 
 O    7.6417859502340    6.5032837957878    5.0241972867614 
 O   -1.9559352569553    7.5854774848548    8.1784918825672 
 O    0.0026071037555    6.6309253208291    0.1999463180631 
 O    1.9964956756640    7.6145564481200    3.5510316818680 
 O   -0.1808235878998    8.7581168036423    6.4361950833041 
 O    0.0026071037555    8.8399547317975    1.7619595668371 
 O   -0.1731234318316    6.4030952431525    4.9790973732793 
 O    1.3188868773957    7.8318819508695    8.1681260579965 
 O    3.8287697560655    6.6309253208291    0.1999463180631 
 O    5.5932218338140    7.6645187127081    3.3879460388987 
 O    3.5545609352498    8.6046893519072    6.5326111203555 
 O    3.8287697560655    8.8399547317975    1.7619595668371 
 O    3.9718957118200    6.4812453918309    5.0034838857049 
 O    5.4855230124355    7.7057301304819    8.1970786974413 
Ce    1.9156884299104    1.1083418527658    0.9809643475031 
Ce   -0.0495353157075    2.1807079246456    4.0920061922106 
Ce    5.4374468965911    9.8133382497645    7.5203610181916 
Ce    5.7418510822205    1.1083418527658    0.9809643475031 
Ce    3.8247297955240    1.9826147813474    4.1830591171393 
Ce   -2.0995787193043    9.8115053941391    7.4370081007453 
Ce    9.5680022560654    1.1083418527658    0.9809643475031 
Ce    7.6592926754827    2.1881096274883    4.2514764333789 
Ce    1.6711733075956    9.9036818884951    7.3991310073281 
Ce    0.0026128429880    4.4218859692184    0.9809643475031 
Ce   -1.8889978422076    5.4601867522539    4.1588473301256 
Ce    9.5413934524257    3.3329585884706    7.5165822960316 
Ce    3.8287754952980    4.4218859692184    0.9809643475031 
Ce    2.0088083381078    5.4815028691420    4.1370684690179 
Ce    7.6549266691429    4.4218859692184    0.9809643475031 
Ce    5.8773351925089    5.3614384992799    4.2361861350239 
Ce    5.6361490546133    3.3671292481232    7.4799572493327 
Ce   -1.9104684831671    7.7354400263133    0.9809643475031 
Ce   -3.9655406596727    8.7053048551289    4.1434265579643 
Ce   -3.7833907351421    6.5690892572449    7.3693430618016 
Ce    1.9156941691429    7.7354400263133    0.9809643475031 
Ce   -0.0508494851654    8.7908169440809    4.1120941401606 
Ce   -0.0892410479123    6.3873505580486    7.4604952106914 
Ce    5.7418453429879    7.7354400263133    0.9809643475031 
Ce    3.8123690957042    8.8107391841071    4.3004910172528 
Ce    3.6678396680341    6.4236015953197    7.4040956268990 
Cu    1.7135907123719    2.4848805446067    6.8858395259302 
81
FORCE:  2.854586  ...  ENERGY:  -631.58759893
 O    0.0026128429879    0.0038271472816    0.1999463180631 
 O    1.7876303699461    1.0961517425320    3.4880655247603 
 O   -0.0545028510056    2.2123887516239    6.8409658886996 
 O    0.0026128429880    2.2128565582500    1.7619595668371 
 O    5.5707132526569    9.8433335414360    5.0916193980762 
 O    1.7593868033210    0.8066378919111    8.1568222818672 
 O    3.8287640168329    0.0038271472816    0.1999463180631 
 O    5.8471467147742    0.9876397907008    3.4923376295130 
 O    3.6994651921944    2.2277241804846    6.6064237109673 
 O    3.8287640168330    2.2128565582500    1.7619595668371 
 O   -1.9833148969121    9.7851790941303    4.9236619726675 
 O    5.5477133931978    0.7260050678207    8.1024995582260 
 O    7.6549266691429    0.0038271472816    0.1999463180631 
 O    9.4625484502639    1.0858054226302    3.1854408831445 
 O    7.3963128352302    2.3286254771722    6.6069900858993 
 O    7.6549266691430    2.2128565582500    1.7619595668371 
 O    1.8312182337985    9.8721750227570    5.0877033590781 
 O    9.3007091530199    0.9565825402134    8.2898886848351 
 O   -1.9104627439346    3.3173712637342    0.1999463180631 
 O    0.0983351487701    4.3767231461344    3.4367044652822 
 O   -2.1147843566745    5.3718819392569    6.7054697532405 
 O   -1.9104684831671    5.5264106153449    1.7619595668371 
 O    9.5418897238600    3.1508709727300    5.1088811738928 
 O   -0.5049644201735    4.4912863645532    8.6381095878396 
 O    1.9156884299104    3.3173712637342    0.1999463180631 
 O    3.7674789999975    4.3112319083801    3.3666972846544 
 O    1.7497333568637    5.4614532894880    6.6306653792199 
 O    1.9156826906780    5.5264106153449    1.7619595668371 
 O    1.7939993684283    3.2351188107955    5.1659429350624 
 O    3.8878674940028    4.5073640611738    8.4664318341423 
 O    5.7418510822204    3.3173712637342    0.1999463180631 
 O    7.7422958663753    4.3427778408425    3.3923499860642 
 O    5.5450363281982    5.3818183070707    6.5481981781896 
 O    5.7418453429880    5.5264106153449    1.7619595668371 
 O    5.7163869685028    3.3128597032309    4.8627380043499 
 O    7.4055033551941    4.6103367889017    8.2411067640425 
 O   -3.8235440700895    6.6309253208291    0.1999463180631 
 O   -1.9495501312298    7.6152560705244    3.3497956804116 
 O   -3.7249085872827    8.5604198943457    6.3073875552274 
 O   -3.8235440700895    8.8399547317975    1.7619595668371 
 O    7.6440349258814    6.5021847583762    5.0268690344772 
 O   -1.9586983530501    7.5734093463019    8.1761873775580 
 O    0.0026071037555    6.6309253208291    0.1999463180631 
 O    1.9863226564884    7.6161103693228    3.5457922005198 
 O   -0.1797973557365    8.7556120600045    6.4272485035288 
 O    0.0026071037555    8.8399547317975    1.7619595668371 
 O   -0.1801121526391    6.4122667779485    4.9716480488618 
 O    1.3248600984047    7.8248782713441    8.1746180422652 
 O    3.8287697560655    6.6309253208291    0.1999463180631 
 O    5.5984808073384    7.6683701151569    3.3763911235023 
 O    3.5574462769968    8.5905432214900    6.5416899987457 
 O    3.8287697560655    8.8399547317975    1.7619595668371 
 O    3.9648470734251    6.4850694575134    5.0067541706021 
 O    5.4913025343476    7.7030992400934    8.1934393450290 
Ce    1.9156884299104    1.1083418527658    0.9809643475031 
Ce   -0.0528683175895    2.1799393141838    4.0890233146490 
Ce    5.4398711483991    9.8126036362993    7.5220145227755 
Ce    5.7418510822205    1.1083418527658    0.9809643475031 
Ce    3.8240876901920    1.9815276727066    4.1836416872466 
Ce   -2.1024174010912    9.8116826357911    7.4328365885600 
Ce    9.5680022560654    1.1083418527658    0.9809643475031 
Ce    7.6596225665668    2.1886559651886    4.2504757540287 
Ce    1.6706368615338    9.9004339824397    7.3978953838860 
Ce    0.0026128429880    4.4218859692184    0.9809643475031 
Ce   -1.8881387938870    5.4593189341820    4.1565161372924 
Ce    9.5407955965762    3.3315910543108    7.5165932448825 
Ce    3.8287754952980    4.4218859692184    0.9809643475031 
Ce    2.0094457946616    5.4813461052131    4.1344370951897 
Ce    7.6549266691429    4.4218859692184    0.9809643475031 
Ce    5.8791743869559    5.3601521801676    4.2353608653888 
Ce    5.6349461114813    3.3670358060857    7.4793012306841 
Ce   -1.9104684831671    7.7354400263133    0.9809643475031 
Ce   -3.9636918233152    8.7032016140332    4.1408218719602 
Ce   -3.7845296858318    6.5685990841735    7.3695462998461 
Ce    1.9156941691429    7.7354400263133    0.9809643475031 
Ce   -0.0508596436069    8.7871604776274    4.1122389843337 
Ce   -0.0920002413289    6.3841488759798    7.4577828609869 
Ce    5.7418453429879    7.7354400263133    0.9809643475031 
Ce    3.8111691369730    8.8123404227672    4.2999716311391 
Ce    3.6662443335760    6.4242673201338    7.4046490000705 
Cu    1.7100670531862    2.4855223124729    6.8842617508982 
81
FORCE:  2.871586  ...  ENERGY:  -631.64078563
 O    0.0026128429879    0.0038271472816    0.1999463180631 
 O    1.7856786865421    1.0935938164580    3.4814318897334 
 O   -0.0595927467405    2.2111030289501    6.8396910318752 
 O    0.0026128429880    2.2128565582500    1.7619595668371 
 O    5.5702933130149    9.8488586498272    5.0910042095174 
 O    1.7605794732269    0.8167259539262    8.1571279372876 
 O    3.8287640168329    0.0038271472816    0.1999463180631 
 O    5.8543994976691    0.9860246351415    3.5003293782512 
 O    3.6996027615974    2.2273819241706    6.6048457078342 
 O    3.8287640168330    2.2128565582500    1.7619595668371 
 O   -1.9911243279672    9.7830115370790    4.9264409278814 
 O    5.5479759630847    0.7304963494138    8.1075431007637 
 O    7.6549266691429    0.0038271472816    0.1999463180631 
 O    9.4631236361451    1.0846175158765    3.1871644147539 
 O    7.3997359430625    2.3285493318523    6.6048406896109 
 O    7.6549266691430    2.2128565582500    1.7619595668371 
 O    1.8217489019197    9.8762965124568    5.0840208955655 
 O    9.3037390086413    0.9464466637089    8.2853542638634 
 O   -1.9104627439346    3.3173712637342    0.1999463180631 
 O    0.0997162376789    4.3827642732668    3.4453230357333 
 O   -2.1158746386725    5.3638305160341    6.7074054188357 
 O   -1.9104684831671    5.5264106153449    1.7619595668371 
 O    9.5381021747639    3.1448556912675    5.1001348668481 
 O   -0.5110945517990    4.4934095863399    8.6399033745754 
 O    1.9156884299104    3.3173712637342    0.1999463180631 
 O    3.7715594795204    4.3086419734379    3.3678882002887 
 O    1.7532958132611    5.4659744924144    6.6310944373137 
 O    1.9156826906780    5.5264106153449    1.7619595668371 
 O    1.7887786755847    3.2252530215420    5.1651489152725 
 O    3.8833606468976    4.5033533102290    8.4724817585566 
 O    5.7418510822204    3.3173712637342    0.1999463180631 
 O    7.7412300909001    4.3403366179089    3.3921775416628 
 O    5.5435999704804    5.3920481226450    6.5439253891337 
 O    5.7418453429880    5.5264106153449    1.7619595668371 
 O    5.7113604912870    3.3110780419133    4.8617847700202 
 O    7.4104108581202    4.6024136993709    8.2359227112518 
 O   -3.8235440700895    6.6309253208291    0.1999463180631 
 O   -1.9525741328340    7.6152049756230    3.3553460635046 
 O   -3.7200003382564    8.5616554167760    6.3119707898260 
 O   -3.8235440700895    8.8399547317975    1.7619595668371 
 O    7.6462341997754    6.5008300476450    5.0291343061040 
 O   -1.9617326278805    7.5618140841027    8.1741773510173 
 O    0.0026071037555    6.6309253208291    0.1999463180631 
 O    1.9756349429422    7.6180489933822    3.5398839268637 
 O   -0.1789262550277    8.7529350450358    6.4180252371677 
 O    0.0026071037555    8.8399547317975    1.7619595668371 
 O   -0.1865042228360    6.4220399204159    4.9644804292534 
 O    1.3317851711239    7.8176955608511    8.1817033173909 
 O    3.8287697560655    6.6309253208291    0.1999463180631 
 O    5.6045115354571    7.6724100915900    3.3645982987003 
 O    3.5605786353106    8.5767658889017    6.5513856624020 
 O    3.8287697560655    8.8399547317975    1.7619595668371 
 O    3.9571160402860    6.4889265261284    5.0101182050350 
 O    5.4974090203353    7.7008300896779    8.1897767263085 
Ce    1.9156884299104    1.1083418527658    0.9809643475031 
Ce   -0.0562478072549    2.1791750776045    4.0860965499482 
Ce    5.4422919566676    9.8118356222759    7.5236488668704 
Ce    5.7418510822205    1.1083418527658    0.9809643475031 
Ce    3.8234353116337    1.9805653191265    4.1842532261884 
Ce   -2.1051749875228    9.8117965555517    7.4285740640518 
Ce    9.5680022560654    1.1083418527658    0.9809643475031 
Ce    7.6599424139940    2.1891578682178    4.2494611605138 
Ce    1.6701257254873    9.8971275260012    7.3966075253013 
Ce    0.0026128429880    4.4218859692184    0.9809643475031 
Ce   -1.8872878952765    5.4584387897136    4.1542018239377 
Ce    9.5401450545723    3.3301911136571    7.5166639562111 
Ce    3.8287754952980    4.4218859692184    0.9809643475031 
Ce    2.0100614995242    5.4811592211380    4.1319028924131 
Ce    7.6549266691429    4.4218859692184    0.9809643475031 
Ce    5.8808597125795    5.3589607941891    4.2344808514994 
Ce    5.6336889899945    3.3669612512685    7.4786458963388 
Ce   -1.9104684831671    7.7354400263133    0.9809643475031 
Ce   -3.9617924243193    8.7010935020228    4.1382076057115 
Ce   -3.7857969657601    6.5681202434344    7.3697848935548 
Ce    1.9156941691429    7.7354400263133    0.9809643475031 
Ce   -0.0508412780629    8.7834001314619    4.1124910360050 
Ce   -0.0948260098427    6.3809509713551    7.4550522631977 
Ce    5.7418453429879    7.7354400263133    0.9809643475031 
Ce    3.8098946256118    8.8138747609047    4.2993842709096 
Ce    3.6646577801438    6.4249371206113    7.4051866342689 
Cu    1.7068809756562    2.4859722259430    6.8826739394195 
81
FORCE:  2.879622  ...  ENERGY:  -631.70056609
 O    0.0026128429879    0.0038271472816    0.1999463180631 
 O    1.7841024637283    1.0907680894806    3.4742298268649 
 O   -0.0650199945618    2.2095944370761    6.8381278553111 
 O    0.0026128429880    2.2128565582500    1.7619595668371 
 O    5.5702127915829    9.8548955024835    5.0906951325811 
 O    1.7614932738255    0.8273268536771    8.1572686756416 
 O    3.8287640168329    0.0038271472816    0.1999463180631 
 O    5.8608711136285    0.9847887150856    3.5076530189846 
 O    3.6991299062318    2.2268372763795    6.6033133249131 
 O    3.8287640168330    2.2128565582500    1.7619595668371 
 O   -1.9989709492489    9.7815601038982    4.9291094821824 
 O    5.5479171359515    0.7360105230984    8.1132581728220 
 O    7.6549266691429    0.0038271472816    0.1999463180631 
 O    9.4641554927563    1.0834468064340    3.1899388079467 
 O    7.4035611415237    2.3281701957553    6.6029627335839 
 O    7.6549266691430    2.2128565582500    1.7619595668371 
 O    1.8126453313283    9.8808334215980    5.0801618818324 
 O    9.3072387926198    0.9362636685598    8.2805338041624 
 O   -1.9104627439346    3.3173712637342    0.1999463180631 
 O    0.1007839071009    4.3883848118240    3.4532890090516 
 O   -2.1162207143923    5.3555771983664    6.7083889906064 
 O   -1.9104684831671    5.5264106153449    1.7619595668371 
 O    9.5346606439953    3.1389200343497    5.0911996921258 
 O   -0.5174670512131    4.4955166048797    8.6413363054344 
 O    1.9156884299104    3.3173712637342    0.1999463180631 
 O    3.7756067862794    4.3058921929676    3.3689091806333 
 O    1.7573655604192    5.4707278093382    6.6313432955702 
 O    1.9156826906780    5.5264106153449    1.7619595668371 
 O    1.7835301474634    3.2151213201072    5.1641685369166 
 O    3.8792662210397    4.4993538916165    8.4783763461492 
 O    5.7418510822204    3.3173712637342    0.1999463180631 
 O    7.7401371114628    4.3378639825457    3.3916800532509 
 O    5.5425483135171    5.4023064678625    6.5398093055060 
 O    5.7418453429880    5.5264106153449    1.7619595668371 
 O    5.7061090361572    3.3084746871039    4.8612106396522 
 O    7.4154423284683    4.5936432694913    8.2311875613473 
 O   -3.8235440700895    6.6309253208291    0.1999463180631 
 O   -1.9557614729952    7.6155206904222    3.3605529264012 
 O   -3.7155718890671    8.5636263479228    6.3175704427480 
 O   -3.8235440700895    8.8399547317975    1.7619595668371 
 O    7.6483683907729    6.4992208564711    5.0309837494985 
 O   -1.9650182237021    7.5507133688575    8.1724659087641 
 O    0.0026071037555    6.6309253208291    0.1999463180631 
 O    1.9644831550561    7.6203689404798    3.5333116510219 
 O   -0.1782093101038    8.7500965940363    6.4085932583367 
 O    0.0026071037555    8.8399547317975    1.7619595668371 
 O   -0.1922739306606    6.4324011512812    4.9576246237940 
 O    1.3396324811135    7.8103290478821    8.1893535988422 
 O    3.8287697560655    6.6309253208291    0.1999463180631 
 O    5.6112737861502    7.6766315841513    3.3526195715344 
 O    3.5639319540757    8.5634291255798    6.5616205569642 
 O    3.8287697560655    8.8399547317975    1.7619595668371 
 O    3.9487211501236    6.4928214685905    5.0135082429887 
 O    5.5038669769213    7.6989259596472    8.1861052116468 
Ce    1.9156884299104    1.1083418527658    0.9809643475031 
Ce   -0.0596771134582    2.1784118350895    4.0832229327943 
Ce    5.4447134536440    9.8110312255018    7.5252667876890 
Ce    5.7418510822205    1.1083418527658    0.9809643475031 
Ce    3.8227715693950    1.9797234461310    4.1848946463691 
Ce   -2.1078515933838    9.8118481474852    7.4242155089973 
Ce    9.5680022560654    1.1083418527658    0.9809643475031 
Ce    7.6602502664253    2.1896137460732    4.2484319685311 
Ce    1.6696341602237    9.8937529761630    7.3952672034727 
Ce    0.0026128429880    4.4218859692184    0.9809643475031 
Ce   -1.8864464663997    5.4575444301268    4.1519023371518 
Ce    9.5394373498127    3.3287541938141    7.5167939738153 
Ce    3.8287754952980    4.4218859692184    0.9809643475031 
Ce    2.0106577483886    5.4809434097939    4.1294635796775 
Ce    7.6549266691429    4.4218859692184    0.9809643475031 
Ce    5.8823913415568    5.3578628502482    4.2335458652544 
Ce    5.6323785510378    3.3669052854524    7.4779875966796 
Ce   -1.9104684831671    7.7354400263133    0.9809643475031 
Ce   -3.9598385026147    8.6989798232526    4.1355826187130 
Ce   -3.7871954445433    6.5676495540220    7.3700588429279 
Ce    1.9156941691429    7.7354400263133    0.9809643475031 
Ce   -0.0507973155419    8.7795322275469    4.1128512075787 
Ce   -0.0977188125920    6.3777578382387    7.4523020487172 
Ce    5.7418453429879    7.7354400263133    0.9809643475031 
Ce    3.8085424624348    8.8153427949581    4.2987314456759 
Ce    3.6630765068053    6.4256132830999    7.4057137758186 
Cu    1.7040250761718    2.4862238235993    6.8810792849091 
81
FORCE:  2.879329  ...  ENERGY:  -631.76533469
 O    0.0026128429879    0.0038271472816    0.1999463180631 
 O    1.7829048580825    1.0876780408248    3.4664554584370 
 O   -0.0707501590745    2.2078697356388    6.8362777276134 
 O    0.0026128429880    2.2128565582500    1.7619595668371 
 O    5.5704408112901    9.8614009570174    5.0906855523366 
 O    1.7621347478420    0.8384390006610    8.1572362852911 
 O    3.8287640168329    0.0038271472816    0.1999463180631 
 O    5.8665011859263    0.9839389889827    3.5142688621289 
 O    3.6980427808116    2.2260945115876    6.6018286151136 
 O    3.8287640168330    2.2128565582500    1.7619595668371 
 O   -2.0068466684393    9.7808519325415    4.9316544057088 
 O    5.5475438562698    0.7425136912846    8.1196032600080 
 O    7.6549266691429    0.0038271472816    0.1999463180631 
 O    9.4656444218437    1.0822727171732    3.1937398840105 
 O    7.4077651293300    2.3274878700685    6.6013717286904 
 O    7.6549266691430    2.2128565582500    1.7619595668371 
 O    1.8040045150532    9.8857352517176    5.0761717099898 
 O    9.3112004126376    0.9260324612957    8.2754309553491 
 O   -1.9104627439346    3.3173712637342    0.1999463180631 
 O    0.1015382144284    4.3935649799278    3.4605743288070 
 O   -2.1158180498401    5.3471459432018    6.7083798665640 
 O   -1.9104684831671    5.5264106153449    1.7619595668371 
 O    9.5315944590322    3.1330897482402    5.0820936697095 
 O   -0.5240683164346    4.4976081160175    8.6424147672460 
 O    1.9156884299104    3.3173712637342    0.1999463180631 
 O    3.7795977911675    4.3030053310402    3.3697599975871 
 O    1.7619118360517    5.4756877922152    6.6313841256599 
 O    1.9156826906780    5.5264106153449    1.7619595668371 
 O    1.7782634259752    3.2047575046749    5.1629808146972 
 O    3.8756041315661    4.4953543735975    8.4841021389573 
 O    5.7418510822204    3.3173712637342    0.1999463180631 
 O    7.7390078026837    4.3353874703320    3.3908493091904 
 O    5.5418922044577    5.4125347923404    6.5358759308273 
 O    5.7418453429880    5.5264106153449    1.7619595668371 
 O    5.7006430485165    3.3050836357996    4.8610338613307 
 O    7.4205680370140    4.5840247040115    8.2268976647119 
 O   -3.8235440700895    6.6309253208291    0.1999463180631 
 O   -1.9591313781422    7.6162015250126    3.3653754390117 
 O   -3.7116525098005    8.5663247352724    6.3241680378074 
 O   -3.8235440700895    8.8399547317975    1.7619595668371 
 O    7.6504216585921    6.4973619563628    5.0324100654267 
 O   -1.9685341349240    7.5401278771021    8.1710564723143 
 O    0.0026071037555    6.6309253208291    0.1999463180631 
 O    1.9529250869014    7.6230635503854    3.5260831284305 
 O   -0.1776429626407    8.7471096298410    6.3990262436782 
 O    0.0026071037555    8.8399547317975    1.7619595668371 
 O   -0.1973969417671    6.4433301916341    4.9511105137226 
 O    1.3483685686480    7.8027752532123    8.1975351276623 
 O    3.8287697560655    6.6309253208291    0.1999463180631 
 O    5.6187231377582    7.6810256462628    3.3405140201792 
 O    3.5674792015070    8.5506115620046    6.5723150751623 
 O    3.8287697560655    8.8399547317975    1.7619595668371 
 O    3.9396826624286    6.4967583605630    5.0168549417411 
 O    5.5107009680207    7.6973870488143    8.1824409962189 
Ce    1.9156884299104    1.1083418527658    0.9809643475031 
Ce   -0.0631584745004    2.1776457097882    4.0804006383789 
Ce    5.4471396567910    9.8101878614100    7.5268698819387 
Ce    5.7418510822205    1.1083418527658    0.9809643475031 
Ce    3.8220957173759    1.9789987733080    4.1855661758898 
Ce   -2.1104467021433    9.8118393003136    7.4197561332743 
Ce    9.5680022560654    1.1083418527658    0.9809643475031 
Ce    7.6605434264214    2.1900219088457    4.2473879499795 
Ce    1.6691563691181    9.8903016845664    7.3938739621982 
Ce    0.0026128429880    4.4218859692184    0.9809643475031 
Ce   -1.8856159420646    5.4566345631380    4.1496165364295 
Ce    9.5386678909114    3.3272757220863    7.5169839819983 
Ce    3.8287754952980    4.4218859692184    0.9809643475031 
Ce    2.0112363778093    5.4807004604964    4.1271180164775 
Ce    7.6549266691429    4.4218859692184    0.9809643475031 
Ce    5.8837688721414    5.3568566584356    4.2325559066540 
Ce    5.6310161146346    3.3668670139796    7.4773229101908 
Ce   -1.9104684831671    7.7354400263133    0.9809643475031 
Ce   -3.9578262703078    8.6968607765357    4.1329459985605 
Ce   -3.7887277048362    6.5671833378986    7.3703686041674 
Ce    1.9156941691429    7.7354400263133    0.9809643475031 
Ce   -0.0507309126219    8.7755544795345    4.1133199552570 
Ce   -0.1006783626152    6.3745713653527    7.4495322175457 
Ce    5.7418453429879    7.7354400263133    0.9809643475031 
Ce    3.8071105813184    8.8167445249274    4.2980149802465 
Ce    3.6614972421983    6.4262980939472    7.4062345305386 
Cu    1.7014912624154    2.4862698487731    6.8794805245795 
81
FORCE:  2.872246  ...  ENERGY:  -631.83323706
 O    0.0026128429879    0.0038271472816    0.1999463180631 
 O    1.7820869600590    1.0843299330951    3.4581087844494 
 O   -0.0767403682117    2.2059379706226    6.8341413330854 
 O    0.0026128429880    2.2128565582500    1.7619595668371 
 O    5.5709433384878    9.8683254096237    5.0909670290446 
 O    1.7625119875943    0.8500589156531    8.1570225545978 
 O    3.8287640168329    0.0038271472816    0.1999463180631 
 O    5.8712298543677    0.9834801289346    3.5201353932910 
 O    3.6963387452900    2.2251587989289    6.6003954561536 
 O    3.8287640168330    2.2128565582500    1.7619595668371 
 O   -2.0147416140587    9.7809098864861    4.9340629248013 
 O    5.5468677172889    0.7499672842800    8.1265325140087 
 O    7.6549266691429    0.0038271472816    0.1999463180631 
 O    9.4675885294608    1.0810732792744    3.1985379898076 
 O    7.4123246625896    2.3265018577598    6.6000820452972 
 O    7.6549266691430    2.2128565582500    1.7619595668371 
 O    1.7959241348318    9.8909485221602    5.0720973688561 
 O    9.3156109554215    0.9157543342000    8.2700523323543 
 O   -1.9104627439346    3.3173712637342    0.1999463180631 
 O    0.1019791022690    4.3982869838284    3.4671513947710 
 O   -2.1146673911161    5.3385698528789    6.7073392695283 
 O   -1.9104684831671    5.5264106153449    1.7619595668371 
 O    9.5289316847215    3.1273951518979    5.0728368724926 
 O   -0.5308813593353    4.4996867043204    8.6431451468402 
 O    1.9156884299104    3.3173712637342    0.1999463180631 
 O    3.7835083894084    4.3000072333255    3.3704406511501 
 O    1.7668997456251    5.4808270048727    6.6311888711526 
 O    1.9156826906780    5.5264106153449    1.7619595668371 
 O    1.7729915965700    3.1941999461244    5.1615654476199 
 O    3.8723952692830    4.4913454119684    8.4896436261089 
 O    5.7418510822204    3.3173712637342    0.1999463180631 
 O    7.7378319487292    4.3329363067561    3.3896793788537 
 O    5.5416447861446    5.4226739492569    6.5321480752037 
 O    5.7418453429880    5.5264106153449    1.7619595668371 
 O    5.6949769912309    3.3009460422592    4.8612735955447 
 O    7.4257581971408    4.5735662536646    8.2230473188191 
 O   -3.8235440700895    6.6309253208291    0.1999463180631 
 O   -1.9627009511879    7.6172431055118    3.3697727712464 
 O   -3.7082750862589    8.5697369601449    6.3317409929994 
 O   -3.8235440700895    8.8399547317975    1.7619595668371 
 O    7.6523791960132    6.4952611010213    5.0334086918674 
 O   -1.9722580359316    7.5300769930891    8.1699533755882 
 O    0.0026071037555    6.6309253208291    0.1999463180631 
 O    1.9410249030973    7.6261234788951    3.5182079393340 
 O   -0.1772222195061    8.7439885663812    6.3894053971695 
 O    0.0026071037555    8.8399547317975    1.7619595668371 
 O   -0.2018496679099    6.4547979153927    4.9449666116715 
 O    1.3579561287162    7.7950321887134    8.2062100390752 
 O    3.8287697560655    6.6309253208291    0.1999463180631 
 O    5.6268113807281    7.6855807467793    3.3283482501441 
 O    3.5711925997192    8.5383976936357    6.5833850477052 
 O    3.8287697560655    8.8399547317975    1.7619595668371 
 O    3.9300241080544    6.5007413771157    5.0200859932560 
 O    5.5179356723332    7.6962113690507    8.1788018719077 
Ce    1.9156884299104    1.1083418527658    0.9809643475031 
Ce   -0.0666926938739    2.1768729242566    4.0776285261967 
Ce    5.4495738374713    9.8093034424654    7.5284592901247 
Ce    5.7418510822205    1.1083418527658    0.9809643475031 
Ce    3.8214065503373    1.9783882190586    4.1862678147503 
Ce   -2.1129589363855    9.8117720021653    7.4151927434680 
Ce    9.5680022560654    1.1083418527658    0.9809643475031 
Ce    7.6608194261123    2.1903802690002    4.2463288767579 
Ce    1.6686864981533    9.8867666927616    7.3924282576800 
Ce    0.0026128429880    4.4218859692184    0.9809643475031 
Ce   -1.8847972979408    5.4557078964637    4.1473435093666 
Ce    9.5378320290901    3.3257508275590    7.5172339807600 
Ce    3.8287754952980    4.4218859692184    0.9809643475031 
Ce    2.0117985356326    5.4804319637481    4.1248648342068 
Ce    7.6549266691429    4.4218859692184    0.9809643475031 
Ce    5.8849910417023    5.3559400318100    4.2315114319003 
Ce    5.6296033451624    3.3668447469409    7.4766490996595 
Ce   -1.9104684831671    7.7354400263133    0.9809643475031 
Ce   -3.9557523986440    8.6947377535618    4.1302975171528 
Ce   -3.7903958701547    6.5667175194009    7.3707137210711 
Ce    1.9156941691429    7.7354400263133    0.9809643475031 
Ce   -0.0506453406653    8.7714661915799    4.1138970509388 
Ce   -0.1037031677120    6.3713947337025    7.4467432258850 
Ce    5.7418453429879    7.7354400263133    0.9809643475031 
Ce    3.8055974326697    8.8180802490319    4.2972371556319 
Ce    3.6599177480220    6.4269934418754    7.4067548290564 
Cu    1.6992713846767    2.4861019513249    6.8778817642500 
81
FORCE:  2.858421  ...  ENERGY:  -631.90246075
 O    0.0026128429879    0.0038271472816    0.1999463180631 
 O    1.7816479087727    1.0807318182118    3.4491923140140 
 O   -0.0829401167275    2.2038106731726    6.8317220932431 
 O    0.0026128429880    2.2128565582500    1.7619595668371 
 O    5.5716852490731    9.8756129938930    5.0915290700564 
 O    1.7626336593233    0.8621795407973    8.1566197281259 
 O    3.8287640168329    0.0038271472816    0.1999463180631 
 O    5.8749993248814    0.9834154153533    3.5252099575728 
 O    3.6940162500742    2.2240369974464    6.5990190943576 
 O    3.8287640168330    2.2128565582500    1.7619595668371 
 O   -2.0226429302260    9.7817516600752    4.9363240906091 
 O    5.5459043871138    0.7583286567294    8.1339936996813 
 O    7.6549266691429    0.0038271472816    0.1999463180631 
 O    9.4699824207289    1.0798258280735    3.2042964010673 
 O    7.4172154069568    2.3252111647649    6.5991071413667 
 O    7.6549266691430    2.2128565582500    1.7619595668371 
 O    1.7885006671624    9.8964178635481    5.0679874439570 
 O    9.3204507927964    0.9054356492837    8.2644063749172 
 O   -1.9104627439346    3.3173712637342    0.1999463180631 
 O    0.1021069723691    4.4025358131560    3.4729942034229 
 O   -2.1127753957302    5.3298920697854    6.7052307033296 
 O   -1.9104684831671    5.5264106153449    1.7619595668371 
 O    9.5266991232790    3.1218703417260    5.0634518824800 
 O   -0.5378847151858    4.5017571412965    8.6435345153496 
 O    1.9156884299104    3.3173712637342    0.1999463180631 
 O    3.7873141892638    4.2969268270927    3.3709529661309 
 O    1.7722902623584    5.4861156253838    6.6307310723251 
 O    1.9156826906780    5.5264106153449    1.7619595668371 
 O    1.7677309586681    3.1834921844688    5.1599030470946 
 O    3.8696598362889    4.4873184577767    8.4949852967320 
 O    5.7418510822204    3.3173712637342    0.1999463180631 
 O    7.7365985876649    4.3305414072156    3.3881672969269 
 O    5.5418194309896    5.4326649906034    6.5286451272253 
 O    5.7418453429880    5.5264106153449    1.7619595668371 
 O    5.6891291150597    3.2961112120686    4.8619483184802 
 O    7.4309832518011    4.5622873027031    8.2196315054456 
 O   -3.8235440700895    6.6309253208291    0.1999463180631 
 O   -1.9664839662903    7.6186380758443    3.3737066021272 
 O   -3.7054746851528    8.5738422465978    6.3402596551862 
 O   -3.8235440700895    8.8399547317975    1.7619595668371 
 O    7.6542267697396    6.4929300204043    5.0339789445174 
 O   -1.9761662236948    7.5205781129425    8.1691598120004 
 O    0.0026071037555    6.6309253208291    0.1999463180631 
 O    1.9288557788582    7.6295333180134    3.5097002259981 
 O   -0.1769402510134    8.7407509985938    6.3798212749315 
 O    0.0026071037555    8.8399547317975    1.7619595668371 
 O   -0.2056126530908    6.4667636653300    4.9392200616669 
 O    1.3683551014753    7.7870990591338    8.2153345376773 
 O    3.8287697560655    6.6309253208291    0.1999463180631 
 O    5.6354852549824    7.6902817759247    3.3161945694651 
 O    3.5750425342725    8.5268773838794    6.5947440242911 
 O    3.8287697560655    8.8399547317975    1.7619595668371 
 O    3.9197737240247    6.5047740968799    5.0231290894974 
 O    5.5255926119807    7.6953928565645    8.1752072273032 
Ce    1.9156884299104    1.1083418527658    0.9809643475031 
Ce   -0.0702790828708    2.1760898998634    4.0749070524499 
Ce    5.4520192096549    9.8083765769783    7.5300352403483 
Ce    5.7418510822205    1.1083418527658    0.9809643475031 
Ce    3.8207033221790    1.9778890994092    4.1869984224455 
Ce   -2.1153862299868    9.8116492352330    7.4105246552751 
Ce    9.5680022560654    1.1083418527658    0.9809643475031 
Ce    7.6610748793509    2.1906865401892    4.2452549769674 
Ce    1.6682190950585    9.8831425333955    7.3909319147264 
Ce    0.0026128429880    4.4218859692184    0.9809643475031 
Ce   -1.8839917966594    5.4547640324783    4.1450834840642 
Ce    9.5369252877475    3.3241749375368    7.5175444263027 
Ce    3.8287754952980    4.4218859692184    0.9809643475031 
Ce    2.0123453697052    5.4801395100519    4.1227040328654 
Ce    7.6549266691429    4.4218859692184    0.9809643475031 
Ce    5.8860558415080    5.3551104852109    4.2304126690943 
Ce    5.6281425957065    3.3668361979885    7.4759636559742 
Ce   -1.9104684831671    7.7354400263133    0.9809643475031 
Ce   -3.9536144197531    8.6926136371173    4.1276383149954 
Ce    7.6862640838318    6.5662476252398    7.3710944217403 
Ce    1.9156941691429    7.7354400263133    0.9809643475031 
Ce   -0.0505443875657    8.7672693518115    4.1145813541188 
Ce   -0.1067907026201    6.3682319195451    7.4439366704428 
Ce    5.7418453429879    7.7354400263133    0.9809643475031 
Ce    3.8040023277810    8.8193503648973    4.2963997966406 
Ce    3.6583367042529    6.4277008179808    7.4072796895955 
Cu    1.6973574080303    2.4857107870508    6.8762861973353 
81
FORCE:  2.839185  ...  ENERGY:  -631.97141989
 O    0.0026128429879    0.0038271472816    0.1999463180631 
 O    1.7815843754690    1.0768936368172    3.4397151711732 
 O   -0.0892931027510    2.2015012631557    6.8290232015012 
 O    0.0026128429880    2.2128565582500    1.7619595668371 
 O    5.5726299267426    9.8832002885272    5.0923584455106 
 O    1.7625100362552    0.8747876550394    8.1560205066413 
 O    3.8287640168329    0.0038271472816    0.1999463180631 
 O    5.8777550747586    0.9837450470516    3.5294496719750 
 O    3.6910766725801    2.2227374572799    6.5977061446562 
 O    3.8287640168330    2.2128565582500    1.7619595668371 
 O   -2.0305349488368    9.7833882874218    4.9384294633929 
 O    5.5446742400198    0.7675490000791    8.1419279669523 
 O    7.6549266691429    0.0038271472816    0.1999463180631 
 O    9.4728171998376    1.0785058101838    3.2109690413755 
 O    7.4224107323928    2.3236143993938    6.5984586500532 
 O    7.6549266691430    2.2128565582500    1.7619595668371 
 O    1.7818270876114    9.9020846260920    5.0638916613237 
 O    9.3256946147470    0.8950884347240    8.2585069972024 
 O   -1.9104627439346    3.3173712637342    0.1999463180631 
 O    0.1019233169291    4.4063005332040    3.4780785760503 
 O   -2.1101550917400    5.3211653787319    6.7020224619207 
 O   -1.9104684831671    5.5264106153449    1.7619595668371 
 O    9.5249219125430    3.1165546826678    5.0539642469903 
 O   -0.5450524426550    4.5038255901442    8.6435901720082 
 O    1.9156884299104    3.3173712637342    0.1999463180631 
 O    3.7909902824647    4.2937961212099    3.3713003640452 
 O    1.7780385054535    5.4915224401318    6.6299858661621 
 O    1.9156826906780    5.5264106153449    1.7619595668371 
 O    1.7625001647753    3.1726826306363    5.1579767336429 
 O    3.8674177477204    4.4832680436692    8.5001100432470 
 O    5.7418510822204    3.3173712637342    0.1999463180631 
 O    7.7352971019109    4.3282346811722    3.3863128353091 
 O    5.5424305444662    5.4424487695580    6.5253832820673 
 O    5.7418453429880    5.5264106153449    1.7619595668371 
 O    5.6831236969563    3.2906374967980    4.8630762782219 
 O    7.4362131848090    4.5502185677117    8.2166447501659 
 O   -3.8235440700895    6.6309253208291    0.1999463180631 
 O   -1.9704913853834    7.6203757995230    3.3771411197876 
 O   -3.7032886688859    8.5786126614264    6.3496870719960 
 O   -3.8235440700895    8.8399547317975    1.7619595668371 
 O    7.6559509499672    6.4903838242881    5.0341228762862 
 O   -1.9802339621215    7.5116480363477    8.1686776063596 
 O    0.0026071037555    6.6309253208291    0.1999463180631 
 O    1.9164966860234    7.6332717947658    3.5005791489119 
 O   -0.1767881039598    8.7374158136990    6.3703715042178 
 O    0.0026071037555    8.8399547317975    1.7619595668371 
 O   -0.2086702292052    6.4791752530740    4.9338964110275 
 O    1.3795204913424    7.7789780514150    8.2248600379429 
 O    3.8287697560655    6.6309253208291    0.1999463180631 
 O    5.6446869664496    7.6951107411363    3.3041332697155 
 O    3.5789959471878    8.5161470569659    6.6063025893044 
 O    3.8287697560655    8.8399547317975    1.7619595668371 
 O    3.9089650274575    6.5088606949254    5.0259107819241 
 O    5.5336912429615    7.6949222665585    8.1716796444103 
Ce    1.9156884299104    1.1083418527658    0.9809643475031 
Ce   -0.0739151162289    2.1752928591646    4.0722378138457 
Ce    5.4544782986041    9.8074062708844    7.5315975045082 
Ce    5.7418510822205    1.1083418527658    0.9809643475031 
Ce    3.8199853441933    1.9774992274186    4.1877573146721 
Ce   -2.1177260576847    9.8114743793351    7.4057525529988 
Ce    9.5680022560654    1.1083418527658    0.9809643475031 
Ce    7.6613069165209    2.1909381378455    4.2441669349112 
Ce    1.6677485353858    9.8794256278369    7.3893872143480 
Ce    0.0026128429880    4.4218859692184    0.9809643475031 
Ce   -1.8832002991054    5.4538028717752    4.1428371448253 
Ce    9.5359438789900    3.3225434793241    7.5179150905252 
Ce    3.8287754952980    4.4218859692184    0.9809643475031 
Ce    2.0128770522040    5.4798249881299    4.1206356124534 
Ce    7.6549266691429    4.4218859692184    0.9809643475031 
Ce    5.8869610906502    5.3543650364456    4.2292603025391 
Ce    5.6266369080602    3.3668384843363    7.4752642981243 
Ce   -1.9104684831671    7.7354400263133    0.9809643475031 
Ce   -3.9514102675115    8.6904924034590    4.1249704449976 
Ce    7.6843216979845    6.5657688839072    7.3715095656695 
Ce    1.9156941691429    7.7354400263133    0.9809643475031 
Ce   -0.0504317838240    8.7629678370798    4.1153710399886 
Ce   -0.1099372942305    6.3650880920144    7.4411157446338 
Ce    5.7418453429879    7.7354400263133    0.9809643475031 
Ce    3.8023257257908    8.8205550713364    4.2955054123843 
Ce    3.6567537091447    6.4284211169211    7.4078148146823 
Cu    1.6957398053502    2.4850872105599    6.8746981577556 
81
FORCE:  2.816174  ...  ENERGY:  -632.03839086
 O    0.0026128429879    0.0038271472816    0.1999463180631 
 O    1.7818898174226    1.0728277153077    3.4296924105968 
 O   -0.0957369408251    2.1990259438191    6.8260501322851 
 O    0.0026128429880    2.2128565582500    1.7619595668371 
 O    5.5737396073465    9.8910173114048    5.0934396445350 
 O    1.7621532281707    0.8878644705654    8.1552196438196 
 O    3.8287640168329    0.0038271472816    0.1999463180631 
 O    5.8794495257619    0.9844663400562    3.5328143907111 
 O    3.6875246041935    2.2212703178843    6.5964657310919 
 O    3.8287640168330    2.2128565582500    1.7619595668371 
 O   -2.0383990747776    9.7858233471572    4.9403722001209 
 O    5.5432014955679    0.7775734419836    8.1502691665144 
 O    7.6549266691429    0.0038271472816    0.1999463180631 
 O    9.4760796091599    1.0770882745932    3.2185007102756 
 O    7.4278829757969    2.3217095735182    6.5981456953988 
 O    7.6549266691430    2.2128565582500    1.7619595668371 
 O    1.7759932151675    9.9078872772159    5.0598613436945 
 O    9.3313094780788    0.8847303848642    8.2523706224863 
 O   -1.9104627439346    3.3173712637342    0.1999463180631 
 O    0.1014304316420    4.4095745831487    3.4823821587493 
 O   -2.1068252464358    5.3124509146683    6.6976869450733 
 O   -1.9104684831671    5.5264106153449    1.7619595668371 
 O    9.5236210007123    3.1114916153303    5.0444029348583 
 O   -0.5523535498876    4.5058996057516    8.6433214689595 
 O    1.9156884299104    3.3173712637342    0.1999463180631 
 O    3.7945119903113    4.2906505043636    3.3714869507123 
 O    1.7840941418412    5.4970135515264    6.6289308987596 
 O    1.9156826906780    5.5264106153449    1.7619595668371 
 O    1.7573222866061    3.1618249640950    5.1557714525948 
 O    3.8656861064906    4.4791903922019    8.5050025828830 
 O    5.7418510822204    3.3173712637342    0.1999463180631 
 O    7.7339161851791    4.3260490321519    3.3841198717183 
 O    5.5434909824552    5.4519670339571    6.5223750852880 
 O    5.7418453429880    5.5264106153449    1.7619595668371 
 O    5.6769894904756    3.2845917969701    4.8646743542483 
 O    7.4414172912707    4.5374038869228    8.2140797537462 
 O   -3.8235440700895    6.6309253208291    0.1999463180631 
 O   -1.9747284885612    7.6224415643973    3.3800437057761 
 O   -3.7017550311773    8.5840136111954    6.3599796761263 
 O   -3.8235440700895    8.8399547317975    1.7619595668371 
 O    7.6575388808153    6.4876419963317    5.0338466459026 
 O   -1.9844342194266    7.5033021713003    8.1685069867667 
 O    0.0026071037555    6.6309253208291    0.1999463180631 
 O    1.9040327948032    7.6373136599210    3.4908686586866 
 O   -0.1767545868420    8.7340047817036    6.3611603272129 
 O    0.0026071037555    8.8399547317975    1.7619595668371 
 O   -0.2110107456110    6.4919659769150    4.9290189260616 
 O    1.3914026539564    7.7706738376588    8.2347311113144 
 O    3.8287697560655    6.6309253208291    0.1999463180631 
 O    5.6543530966108    7.7000460712205    3.2922494325906 
 O    3.5830181735008    8.5063035347511    6.6179699585234 
 O    3.8287697560655    8.8399547317975    1.7619595668371 
 O    3.8976377338415    6.5130039546318    5.0283599030053 
 O    5.5422470038109    7.6947853839142    8.1682423895371 
Ce    1.9156884299104    1.1083418527658    0.9809643475031 
Ce   -0.0775965469160    2.1744782235289    4.0696233194960 
Ce    5.4569532278351    9.8063926235901    7.5331447139982 
Ce    5.7418510822205    1.1083418527658    0.9809643475031 
Ce    3.8192517554951    1.9772165155518    4.1885419823185 
Ce   -2.1199749185475    9.8112517089478    7.4008800862561 
Ce    9.5680022560654    1.1083418527658    0.9809643475031 
Ce    7.6615116923365    2.1911325768087    4.2430654348925 
Ce    1.6672697686107    9.8756145843957    7.3877968937577 
Ce    0.0026128429880    4.4218859692184    0.9809643475031 
Ce   -1.8824238383405    5.4528250107932    4.1406063164585 
Ce    9.5348840149242    3.3208524766642    7.5183459734275 
Ce    3.8287754952980    4.4218859692184    0.9809643475031 
Ce    2.0133935831291    5.4794901872976    4.1186602572738 
Ce    7.6549266691429    4.4218859692184    0.9809643475031 
Ce    5.8877041490820    5.3537007033214    4.2280559289423 
Ce    5.6250898405474    3.3668478285400    7.4745498856043 
Ce   -1.9104684831671    7.7354400263133    0.9809643475031 
Ce   -3.9491387940726    8.6883794205338    4.1222966443723 
Ce    7.6822427184037    6.5652766233010    7.3719591528587 
Ce    1.9156941691429    7.7354400263133    0.9809643475031 
Ce   -0.0503117764724    8.7585686058343    4.1162629151332 
Ce   -0.1131376624495    6.3619694143088    7.4382843261760 
Ce    5.7418453429879    7.7354400263133    0.9809643475031 
Ce    3.8005689467225    8.8216948653814    4.2945558276716 
Ce    3.6551691070515    6.4291549351350    7.4083659068432 
Cu    1.6944087625488    2.4842217782421    6.8731210670267 
81
FORCE:  2.789958  ...  ENERGY:  -632.10204059
 O    0.0026128429879    0.0038271472816    0.1999463180631 
 O    1.7825553388233    1.0685484676147    3.4191454737845 
 O   -0.1022042523600    2.1964034035702    6.8228120096374 
 O    0.0026128429880    2.2128565582500    1.7619595668371 
 O    5.5749760102039    9.8989880166122    5.0947551033480 
 O    1.7615768370507    0.9013840422991    8.1542139462461 
 O    3.8287640168329    0.0038271472816    0.1999463180631 
 O    5.8800422736945    0.9855729323559    3.5352667052072 
 O    3.6833684241940    2.2196469115919    6.5953065215050 
 O    3.8287640168330    2.2128565582500    1.7619595668371 
 O   -2.0462129250417    9.7890514713344    4.9421486511762 
 O    5.5415141612129    0.7883411457121    8.1589461308368 
 O    7.6549266691429    0.0038271472816    0.1999463180631 
 O    9.4797495613820    1.0755475744447    3.2268261708646 
 O    7.4336028670834    2.3194946990096    6.5981744361324 
 O    7.6549266691430    2.2128565582500    1.7619595668371 
 O    1.7710809486784    9.9137620974029    5.0559462171007 
 O    9.3372552655565    0.8743824744596    8.2460177798643 
 O   -1.9104627439346    3.3173712637342    0.1999463180631 
 O    0.1006321617936    4.4123560742678    3.4858867034352 
 O   -2.1028126620334    5.3038183614973    6.6922059047026 
 O   -1.9104684831671    5.5264106153449    1.7619595668371 
 O    9.5228127445993    3.1067279601385    5.0348001083334 
 O   -0.5597531423498    4.5079881346967    8.6427379864481 
 O    1.9156884299104    3.3173712637342    0.1999463180631 
 O    3.7978548062810    4.2875282480268    3.3715177443554 
 O    1.7904001235506    5.5025533720682    6.6275456410222 
 O    1.9156826906780    5.5264106153449    1.7619595668371 
 O    1.7522230933145    3.1509771387896    5.1532748864931 
 O    3.8644829911816    4.4750867956581    8.5096421584434 
 O    5.7418510822204    3.3173712637342    0.1999463180631 
 O    7.7324447033584    4.3240170654614    3.3815968458936 
 O    5.5450117642831    5.4611631221396    6.5196294328288 
 O    5.7418453429880    5.5264106153449    1.7619595668371 
 O    5.6707604144818    3.2780499596855    4.8667585136335 
 O    7.4465650384693    4.5239001208103    8.2119287607504 
 O   -3.8235440700895    6.6309253208291    0.1999463180631 
 O   -1.9791962514932    7.6248169802789    3.3823856193591 
 O   -3.7009115361767    8.5900015558916    6.3710852324346 
 O   -3.8235440700895    8.8399547317975    1.7619595668371 
 O    7.6589784525033    6.4847278970444    5.0331605179141 
 O   -1.9887385864093    7.4955545341059    8.1686459003123 
 O    0.0026071037555    6.6309253208291    0.1999463180631 
 O    1.8915548424633    7.6416287933326    3.4805995489654 
 O   -0.1768274177024    8.7305419589619    6.3523004258404 
 O    0.0026071037555    8.8399547317975    1.7619595668371 
 O   -0.2126287500374    6.5050558146824    4.9246085920665 
 O    1.4039441969924    7.7621967561331    8.2448886796173 
 O    3.8287697560655    6.6309253208291    0.1999463180631 
 O    5.6644134546524    7.7050614234750    3.2806356671207 
 O    3.5870731134390    8.4974433408716    6.6296516981092 
 O    3.8287697560655    8.8399547317975    1.7619595668371 
 O    3.8858397083759    6.5172060629407    5.0304075662210 
 O    5.5512706268936    7.6949638184433    8.1649205538003 
Ce    1.9156884299104    1.1083418527658    0.9809643475031 
Ce   -0.0813170043842    2.1736427125444    4.0670672190177 
Ce    5.4594452599790    9.8053364303467    7.5346750440097 
Ce    5.7418510822205    1.1083418527658    0.9809643475031 
Ce    3.8185018673767    1.9770391744934    4.1893501443741 
Ce   -2.1221287951124    9.8109861943923    7.3959127294725 
Ce    9.5680022560654    1.1083418527658    0.9809643475031 
Ce    7.6616856484736    2.1912672725118    4.2419518455175 
Ce    1.6667782033471    9.8717107947620    7.3861657430777 
Ce    0.0026128429880    4.4218859692184    0.9809643475031 
Ce   -1.8816631030726    5.4518316424091    4.1383939642775 
Ce    9.5337429407185    3.3190979533000    7.5188370750097 
Ce    3.8287754952980    4.4218859692184    0.9809643475031 
Ce    2.0138939294184    5.4791370956834    4.1167788797309 
Ce    7.6549266691429    4.4218859692184    0.9809643475031 
Ce    5.8882823767564    5.3531137083941    4.2268006888092 
Ce    5.6235056402005    3.3668602543429    7.4738195060102 
Ce   -1.9104684831671    7.7354400263133    0.9809643475031 
Ce   -3.9468002863982    8.6862815473850    4.1196210189385 
Ce    7.6800291538207    6.5647659725065    7.3724418147017 
Ce    1.9156941691429    7.7354400263133    0.9809643475031 
Ce   -0.0501887273276    8.7540812010918    4.1172526456325 
Ce   -0.1163854941212    6.3588826460649    7.4354474332928 
Ce    5.7418453429879    7.7354400263133    0.9809643475031 
Ce    3.7987347454079    8.8227703434707    4.2935537797150 
Ce    3.6535846197429    6.4299018749966    7.4089386686049 
Cu    1.6933540637923    2.4831059411451    6.8715592590689 
81
FORCE:  2.761811  ...  ENERGY:  -632.16097039
 O    0.0026128429879    0.0038271472816    0.1999463180631 
 O    1.7835686003212    1.0640736874879    3.4081035576720 
 O   -0.1086237560882    2.1936549153834    6.8193197824088 
 O    0.0026128429880    2.2128565582500    1.7619595668371 
 O    5.5763010842036    9.9070319843533    5.0962847490564 
 O    1.7607954979381    0.9153122738373    8.1530040982238 
 O    3.8287640168329    0.0038271472816    0.1999463180631 
 O    5.8795041058630    0.9870545850892    3.5367755937191 
 O    3.6786212180316    2.2178803600505    6.5942390085442 
 O    3.8287640168330    2.2128565582500    1.7619595668371 
 O   -2.0539503861212    9.7930566555195    4.9437579041545 
 O    5.5396432862026    0.7997844154907    8.1678806212560 
 O    7.6549266691429    0.0038271472816    0.1999463180631 
 O    9.4838008856038    1.0738584605068    3.2358706059946 
 O    7.4395386682965    2.3169684835844    6.5985471532644 
 O    7.6549266691430    2.2128565582500    1.7619595668371 
 O    1.7671650129513    9.9196424843495    5.0521946389669 
 O    9.3434841119810    0.8640721396829    8.2394747009582 
 O   -1.9104627439346    3.3173712637342    0.1999463180631 
 O    0.0995339596547    4.4146486845992    3.4885771554379 
 O   -2.0981501669428    5.2953430692873    6.6855677076544 
 O   -1.9104684831671    5.5264106153449    1.7619595668371 
 O    9.5225067287224    3.1023127244589    5.0251908949788 
 O   -0.5672126523994    4.5101009188091    8.6418515857289 
 O    1.9156884299104    3.3173712637342    0.1999463180631 
 O    3.8009949125587    4.2844706058648    3.3714002723095 
 O    1.7968937781627    5.5081045249422    6.6258141258758 
 O    1.9156826906780    5.5264106153449    1.7619595668371 
 O    1.7472315680246    3.1402008861087    5.1504783674975 
 O    3.8638219463822    4.4709606338564    8.5140100656413 
 O    5.7418510822204    3.3173712637342    0.1999463180631 
 O    7.7308726127920    4.3221710881882    3.3787563033935 
 O    5.5469998344211    5.4699814659151    6.5171517991151 
 O    5.7418453429880    5.5264106153449    1.7619595668371 
 O    5.6644748070478    3.2710934982109    4.8693440391486 
 O    7.4516261232571    4.5097786431860    8.2101819628330 
 O   -3.8235440700895    6.6309253208291    0.1999463180631 
 O   -1.9838900827933    7.6274791836906    3.3841440504307 
 O   -3.7007947427954    8.5965251023944    6.3829423817355 
 O   -3.8235440700895    8.8399547317975    1.7619595668371 
 O    7.6602588752740    6.4816683661603    5.0320788626876 
 O   -1.9931170468835    7.4884159600646    8.1690904692782 
 O    0.0026071037555    6.6309253208291    0.1999463180631 
 O    1.8791611994489    7.6461822039400    3.4698099126253 
 O   -0.1769926502061    8.7270540858016    6.3439085878430 
 O    0.0026071037555    8.8399547317975    1.7619595668371 
 O   -0.2135242998767    6.5183510261196    4.9206832009249 
 O    1.4170823332468    7.7535603261116    8.2552679621504 
 O    3.8287697560655    6.6309253208291    0.1999463180631 
 O    5.6747913644281    7.7101265783475    3.2693896005595 
 O    3.5911236341682    8.4896590227071    6.6412494965049 
 O    3.8287697560655    8.8399547317975    1.7619595668371 
 O    3.8736268511852    6.5214664234133    5.0319876222636 
 O    5.5607668183804    7.6954333149786    8.1617401407208 
Ce    1.9156884299104    1.1083418527658    0.9809643475031 
Ce   -0.0850678223922    2.1727832446120    4.0645745306340 
Ce    5.4619552559205    9.8042391822508    7.5361850730269 
Ce    5.7418510822205    1.1083418527658    0.9809643475031 
Ce    3.8177351633070    1.9769653155212    4.1901786074240 
Ce   -2.1241832107781    9.8106836012410    7.3908593785893 
Ce    9.5680022560654    1.1083418527658    0.9809643475031 
Ce    7.6618251118233    2.1913396403876    4.2408282196960 
Ce    1.6662701090939    9.8677179369734    7.3844983243291 
Ce    0.0026128429880    4.4218859692184    0.9809643475031 
Ce   -1.8809188967943    5.4508245559387    4.1362037378994 
Ce    9.5325187050340    3.3172771258517    7.5193870266654 
Ce    3.8287754952980    4.4218859692184    0.9809643475031 
Ce    2.0143769432256    5.4787677014159    4.1149926203300 
Ce    7.6549266691429    4.4218859692184    0.9809643475031 
Ce    5.8886930188417    5.3526004730327    4.2254973193523 
Ce    5.6218888410129    3.3668714872687    7.4730727031398 
Ce   -1.9104684831671    7.7354400263133    0.9809643475031 
Ce   -3.9443960645116    8.6842066371198    4.1169490431216 
Ce    7.6776844477752    6.5642319612027    7.3729566387941 
Ce    1.9156941691429    7.7354400263133    0.9809643475031 
Ce   -0.0500665964600    8.7495178498421    4.1183343008590 
Ce   -0.1196730412819    6.3558352427645    7.4326112247127 
Ce    5.7418453429879    7.7354400263133    0.9809643475031 
Ce    3.7968269097402    8.8237823008559    4.2925017776263 
Ce    3.6520030020506    6.4306607436290    7.4095385743927 
Cu    1.6925643454003    2.4817323431934    6.8700161553980 
81
FORCE:  2.732855  ...  ENERGY:  -632.21418902
 O    0.0026128429879    0.0038271472816    0.1999463180631 
 O    1.7849147946964    1.0594234550246    3.3966042989342 
 O   -0.1149223341877    2.1908055296774    6.8155878209661 
 O    0.0026128429880    2.2128565582500    1.7619595668371 
 O    5.5776776965110    9.9150626316337    5.0980069120594 
 O    1.7598255676456    0.9296065198246    8.1515930650667 
 O    3.8287640168329    0.0038271472816    0.1999463180631 
 O    5.8778176323929    0.9888972819505    3.5373168775344 
 O    3.6733020973506    2.2159850771915    6.5932734567572 
 O    3.8287640168330    2.2128565582500    1.7619595668371 
 O   -2.0615837375232    9.7978123581974    4.9452024681675 
 O    5.5376219285161    0.8118284976892    8.1769902932892 
 O    7.6549266691429    0.0038271472816    0.1999463180631 
 O    9.4882007534152    1.0719960811738    3.2455489339704 
 O    7.4456582397343    2.3141293367400    6.5992615657844 
 O    7.6549266691430    2.2128565582500    1.7619595668371 
 O    1.7643084821514    9.9254611399076    5.0486526857072 
 O    9.3499391989508    0.8538325822792    8.2327719513101 
 O   -1.9104627439346    3.3173712637342    0.1999463180631 
 O    0.0981439175432    4.4164612613143    3.4904434783108 
 O   -2.0928774192604    5.2871036685188    6.6777723539289 
 O   -1.9104684831671    5.5264106153449    1.7619595668371 
 O    9.5227065114057    3.0982962079417    5.0156131595704 
 O   -0.5746898392850    4.5122492904208    8.6406750404614 
 O    1.9156884299104    3.3173712637342    0.1999463180631 
 O    3.8039106722380    4.2815204220460    3.3711427462128 
 O    1.8035060627106    5.5136279434242    6.6237240358630 
 O    1.9156826906780    5.5264106153449    1.7619595668371 
 O    1.7423780138840    3.1295614166658    5.1473766492837 
 O    3.8637132453187    4.4668171753371    8.5180878282909 
 O    5.7418510822204    3.3173712637342    0.1999463180631 
 O    7.7291905011386    4.3205417175104    3.3756171766057 
 O    5.5494580624855    5.4783695786922    6.5149437808543 
 O    5.7418453429880    5.5264106153449    1.7619595668371 
 O    5.6581769176562    3.2638107848564    4.8724414234423 
 O    7.4565729973181    4.4951223590065    8.2088286392440 
 O   -3.8235440700895    6.6309253208291    0.1999463180631 
 O   -1.9887981022503    7.6304012354918    3.3853009790070 
 O   -3.7014382255432    8.6035249050693    6.3954804127005 
 O   -3.8235440700895    8.8399547317975    1.7619595668371 
 O    7.6613713107095    6.4784936232322    5.0306206126110 
 O   -1.9975378055013    7.4818955945673    8.1698317977232 
 O    0.0026071037555    6.6309253208291    0.1999463180631 
 O    1.8669537945290    7.6509337315482    3.4585453698783 
 O   -0.1772340997174    8.7235705865239    6.3361068472878 
 O    0.0026071037555    8.8399547317975    1.7619595668371 
 O   -0.2137046839542    6.5317457433861    4.9172562105995 
 O    1.4307467571214    7.7447831365952    8.2657987037875 
 O    3.8287697560655    6.6309253208291    0.1999463180631 
 O    5.6854045827365    7.7152070418090    3.2586120535756 
 O    3.5951324880695    8.4830375608778    6.6526636735473 
 O    3.8287697560655    8.8399547317975    1.7619595668371 
 O    3.8610620642576    6.5257848372369    5.0330407648576 
 O    5.5707342008555    7.6961652444704    8.1587273819203 
Ce    1.9156884299104    1.1083418527658    0.9809643475031 
Ce   -0.0888387851063    2.1718972351647    4.0621502725683 
Ce    5.4644834452291    9.8031034638691    7.5376716076350 
Ce    5.7418510822205    1.1083418527658    0.9809643475031 
Ce    3.8169509545782    1.9769931493196    4.1910225813460 
Ce   -2.1261332871970    9.8103503909114    7.3857307543562 
Ce    9.5680022560654    1.1083418527658    0.9809643475031 
Ce    7.6619262944923    2.1913474934950    4.2396963822363 
Ce    1.6657423292731    9.8636418760088    7.3828012524427 
Ce    0.0026128429880    4.4218859692184    0.9809643475031 
Ce   -1.8801917934289    5.4498059383233    4.1340395150421 
Ce    9.5312103322010    3.3153875091588    7.5199949159903 
Ce    3.8287754952980    4.4218859692184    0.9809643475031 
Ce    2.0148406158193    5.4783836944043    4.1133030757786 
Ce    7.6549266691429    4.4218859692184    0.9809643475031 
Ce    5.8889340092144    5.3521568221673    4.2241481015824 
Ce    5.6202452396095    3.3668760599641    7.4723099331951 
Ce   -1.9104684831671    7.7354400263133    0.9809643475031 
Ce   -3.9419284241059    8.6821638351292    4.1142861913472 
Ce    7.6752132490453    6.5636703149133    7.3735015722265 
Ce    1.9156941691429    7.7354400263133    0.9809643475031 
Ce   -0.0499500326480    8.7448939600810    4.1195010377809 
Ce   -0.1229912933364    6.3528354551406    7.4297829996698 
Ce    5.7418453429879    7.7354400263133    0.9809643475031 
Ce    3.7948503754595    8.8247319304138    4.2914030148202 
Ce    3.6504276401216    6.4314306463744    7.4101710986321 
Cu    1.6920270384536    2.4800953182211    6.8684947213278 
81
FORCE:  2.703655  ...  ENERGY:  -632.26126128
 O    0.0026128429879    0.0038271472816    0.1999463180631 
 O    1.7865752120510    1.0546202360765    3.3846940020863 
 O   -0.1210288775677    2.1878831796570    6.8116334609899 
 O    0.0026128429880    2.2128565582500    1.7619595668371 
 O    5.5790700917078    9.9229909897049    5.0998980979478 
 O    1.7586851247556    0.9442155859533    8.1499876898064 
 O    3.8287640168329    0.0038271472816    0.1999463180631 
 O    5.8749807297681    0.9910822351258    3.5368752738823 
 O    3.6674353964968    2.2139767692297    6.5924199025907 
 O    3.8287640168330    2.2128565582500    1.7619595668371 
 O   -2.0690817004305    9.8032801090826    4.9464887300448 
 O    5.5354846383331    0.8243942647952    8.1861900652411 
 O    7.6549266691429    0.0038271472816    0.1999463180631 
 O    9.4929080145194    1.0699360818720    3.2557664928521 
 O    7.4519277199250    2.3109766620377    6.6003108306604 
 O    7.6549266691430    2.2128565582500    1.7619595668371 
 O    1.7625591640854    9.9311505671158    5.0453614155124 
 O    9.3565583131853    0.8437019743150    8.2259464832917 
 O   -1.9104627439346    3.3173712637342    0.1999463180631 
 O    0.0964717921543    4.4178083177511    3.4914806538306 
 O   -2.0870402180616    5.2791798831430    6.6688317047812 
 O   -1.9104684831671    5.5264106153449    1.7619595668371 
 O    9.5234065255937    3.0947280143917    5.0061070478949 
 O   -0.5821402239549    4.5144440848320    8.6392236334166 
 O    1.9156884299104    3.3173712637342    0.1999463180631 
 O    3.8065825719284    4.2787208389578    3.3707554306129 
 O    1.8101637445876    5.5190842625707    6.6212676155479 
 O    1.9156826906780    5.5264106153449    1.7619595668371 
 O    1.7376945705947    3.1191263268282    5.1439690475483 
 O    3.8641669890401    4.4626681500581    8.5218526362862 
 O    5.7418510822204    3.3173712637342    0.1999463180631 
 O    7.7273905056496    4.3191568866330    3.3722015913333 
 O    5.5523831771138    5.4862788507302    6.5130035532379 
 O    5.7418453429880    5.5264106153449    1.7619595668371 
 O    5.6519141523676    3.2562944664081    4.8760586500518 
 O    7.4613791453983    4.4800221257423    8.2078555601220 
 O   -3.8235440700895    6.6309253208291    0.1999463180631 
 O   -1.9939018295356    7.6335521208784    3.3858454562372 
 O   -3.7028698770904    8.6109351568644    6.4086178932512 
 O   -3.8235440700895    8.8399547317975    1.7619595668371 
 O    7.6623090439077    6.4752365717859    5.0288090339925 
 O   -2.0019713052152    7.4759981097159    8.1708593929985 
 O    0.0026071037555    6.6309253208291    0.1999463180631 
 O    1.8550380574049    7.6558397367376    3.4468592963724 
 O   -0.1775365572701    8.7201237682163    6.3290163258377 
 O    0.0026071037555    8.8399547317975    1.7619595668371 
 O   -0.2131841929588    6.5451227663094    4.9143367451325 
 O    1.4448636046939    7.7358875540292    8.2764044906732 
 O    3.8287697560655    6.6309253208291    0.1999463180631 
 O    5.6961671932667    7.7202659340769    3.2484045311406 
 O    3.5990624275238    8.4776528143557    6.6637956895785 
 O    3.8287697560655    8.8399547317975    1.7619595668371 
 O    3.8482157679759    6.5301602109409    5.0335165836688 
 O    5.5811627306620    7.6971255105157    8.1559089652229 
Ce    1.9156884299104    1.1083418527658    0.9809643475031 
Ce   -0.0926174957843    2.1709824972612    4.0598010597514 
Ce    5.4670296557277    9.8019327544266    7.5391296296105 
Ce    5.7418510822205    1.1083418527658    0.9809643475031 
Ce    3.8161486672670    1.9771208865730    4.1918779603210 
Ce   -2.1279743755907    9.8099940188853    7.3805407709381 
Ce    9.5680022560654    1.1083418527658    0.9809643475031 
Ce    7.6619854659793    2.1912887442991    4.2385595265532 
Ce    1.6651926255843    9.8594914590399    7.3810811423492 
Ce    0.0026128429880    4.4218859692184    0.9809643475031 
Ce   -1.8794822521149    5.4487785729426    4.1319063139290 
Ce    9.5298175926502    3.3134277115314    7.5206589181759 
Ce    3.8287754952980    4.4218859692184    0.9809643475031 
Ce    2.0152825941141    5.4779871621833    4.1117113865819 
Ce    7.6549266691429    4.4218859692184    0.9809643475031 
Ce    5.8890038556740    5.3517783819153    4.2227562289143 
Ce    5.6185800012997    3.3668690021081    7.4715325647827 
Ce   -1.9104684831671    7.7354400263133    0.9809643475031 
Ce   -3.9394014974285    8.6801632808683    4.1116393066470 
Ce    7.6726215264330    6.5630768585686    7.3740752463924 
Ce    1.9156941691429    7.7354400263133    0.9809643475031 
Ce   -0.0498432829235    8.7402272261515    4.1207446447600 
Ce   -0.1263300344509    6.3498910368943    7.4269700573979 
Ce    5.7418453429879    7.7354400263133    0.9809643475031 
Ce    3.7928115705062    8.8256206238345    4.2902609128128 
Ce    3.6488630679498    6.4322088992593    7.4108408033442 
Cu    1.6917285983636    2.4781912875969    6.8669972378689 
81
FORCE:  2.674650  ...  ENERGY:  -632.30182010
 O    0.0026128429879    0.0038271472816    0.1999463180631 
 O    1.7885291337556    1.0496881864043    3.3724280956859 
 O   -0.1268739989073    2.1849171902169    6.8074756348683 
 O    0.0026128429880    2.2128565582500    1.7619595668371 
 O    5.5804444083223    9.9307263999093    5.1019329875041 
 O    1.7573941417970    0.9590812200595    8.1481993774960 
 O    3.8287640168329    0.0038271472816    0.1999463180631 
 O    5.8710060243002    0.9935861835123    3.5354457645393 
 O    3.6610524516796    2.2118723352569    6.5916892948955 
 O    3.8287640168330    2.2128565582500    1.7619595668371 
 O   -2.0764123647104    9.8094092108994    4.9476274105364 
 O    5.5332663675795    0.8373981160068    8.1953930306079 
 O    7.6549266691429    0.0038271472816    0.1999463180631 
 O    9.4978749758942    1.0676558973435    3.2664215495668 
 O    7.4583123865119    2.3075113541354    6.6016828585363 
 O    7.6549266691430    2.2128565582500    1.7619595668371 
 O    1.7619507480481    9.9366426725746    5.0423580088554 
 O    9.3632722969331    0.8337221658944    8.2190402674981 
 O   -1.9104627439346    3.3173712637342    0.1999463180631 
 O    0.0945296932687    4.4187106298517    3.4916902787048 
 O   -2.0806892407694    5.2716505424533    6.6587694827214 
 O   -1.9104684831671    5.5264106153449    1.7619595668371 
 O    9.5245927101668    3.0916561571112    4.9967145305473 
 O   -0.5895176629797    4.5166970320006    8.6375137878709 
 O    1.9156884299104    3.3173712637342    0.1999463180631 
 O    3.8089939678556    4.2761151978008    3.3702506429671 
 O    1.8167908363553    5.5244339186255    6.6184418996166 
 O    1.9156826906780    5.5264106153449    1.7619595668371 
 O    1.7332128613278    3.1089641076216    5.1402587557064 
 O    3.8651866210861    4.4585274749186    8.5252839605318 
 O    5.7418510822204    3.3173712637342    0.1999463180631 
 O    7.7254660262077    4.3180409501295    3.3685376040065 
 O    5.5557660529262    5.4936662390481    6.5113256418406 
 O    5.7418453429880    5.5264106153449    1.7619595668371 
 O    5.6457380494897    3.2486397742191    4.8801991404929 
 O    7.4660198887978    4.4645775486292    8.2072478988982 
 O   -3.8235440700895    6.6309253208291    0.1999463180631 
 O   -1.9991761842031    7.6368975446347    3.3857740606054 
 O   -3.7051138596056    8.6186825952460    6.4222676887827 
 O   -3.8235440700895    8.8399547317975    1.7619595668371 
 O    7.6630671391286    6.4719326005079    5.0266719551613 
 O   -2.0063866115621    7.4707244001682    8.1721586566363 
 O    0.0026071037555    6.6309253208291    0.1999463180631 
 O    1.8435195325620    7.6608530014573    3.4348116826863 
 O   -0.1778837234441    8.7167474290625    6.3227563203471 
 O    0.0026071037555    8.8399547317975    1.7619595668371 
 O   -0.2119844064046    6.5583554511065    4.9119300508485 
 O    1.4593526414942    7.7269014122119    8.2870057155378 
 O    3.8287697560655    6.6309253208291    0.1999463180631 
 O    5.7069900657383    7.7252635919882    3.2388658010135 
 O    3.6028771805819    8.4735658186846    6.6745515669617 
 O    3.8287697560655    8.8399547317975    1.7619595668371 
 O    3.8351652124095    6.5345897611453    5.0333717394957 
 O    5.5920367396951    7.6982750463901    8.1533111222506 
Ce    1.9156884299104    1.1083418527658    0.9809643475031 
Ce   -0.0963902950528    2.1700372415859    4.0575330509118 
Ce    5.4695933134931    9.8007312289931    7.5405548050334 
Ce    5.7418510822205    1.1083418527658    0.9809643475031 
Ce    3.8153279570195    1.9773463403402    4.1927390418225 
Ce   -2.1297014254345    9.8096220400508    7.3753047111058 
Ce    9.5680022560654    1.1083418527658    0.9809643475031 
Ce    7.6619993549220    2.1911619017035    4.2374197055564 
Ce    1.6646196206115    9.8552772231475    7.3793455213837 
Ce    0.0026128429880    4.4218859692184    0.9809643475031 
Ce   -1.8787908467756    5.4477456408022    4.1298093808844 
Ce    9.5283418064051    3.3113970371244    7.5213765241107 
Ce    3.8287754952980    4.4218859692184    0.9809643475031 
Ce    2.0157000084938    5.4775796952558    4.1102189213463 
Ce    7.6549266691429    4.4218859692184    0.9809643475031 
Ce    5.8889014677661    5.3514608778006    4.2213251228639 
Ce    5.6168992670620    3.3668446475345    7.4707419665087 
Ce   -1.9104684831671    7.7354400263133    0.9809643475031 
Ce   -3.9368200480423    8.6782156108244    4.1090152320527 
Ce    7.6699170279020    6.5624481129438    7.3746751521802 
Ce    1.9156941691429    7.7354400263133    0.9809643475031 
Ce   -0.0497507091032    8.7355375293383    4.1220550853497 
Ce   -0.1296783600838    6.3470103381651    7.4241810657373 
Ce    5.7418453429879    7.7354400263133    0.9809643475031 
Ce    3.7907173819593    8.8264503692465    4.2890786650188 
Ce    3.6473142786673    6.4329934147488    7.4115522505504 
Cu    1.6916540457334    2.4760193566630    6.8655250736277 
81
FORCE:  2.646214  ...  ENERGY:  -632.33587868
 O    0.0026128429879    0.0038271472816    0.1999463180631 
 O    1.7907525124261    1.0446540463358    3.3598697637265 
 O   -0.1323932466256    2.1819386755676    6.8031350997975 
 O    0.0026128429880    2.2128565582500    1.7619595668371 
 O    5.5817702284221    9.9381788000277    5.1040862615105 
 O    1.7559746000305    0.9741367204334    8.1462447795128 
 O    3.8287640168329    0.0038271472816    0.1999463180631 
 O    5.8659230156443    0.9963812933114    3.5330338239308 
 O    3.6541909122642    2.2096892708036    6.5910905296130 
 O    3.8287640168330    2.2128565582500    1.7619595668371 
 O   -2.0835432463070    9.8161364411627    4.9486328800088 
 O    5.5310024125352    0.8507520766400    8.2045111423803 
 O    7.6549266691429    0.0038271472816    0.1999463180631 
 O    9.5030463113384    1.0651352486780    3.2774075809196 
 O    7.4647781484541    2.3037355999744    6.6033605418326 
 O    7.6549266691430    2.2128565582500    1.7619595668371 
 O    7.5017329517369    0.0012295580449    5.0396737155813 
 O    9.3700083767260    0.8239378899076    8.2120986960401 
 O   -1.9104627439346    3.3173712637342    0.1999463180631 
 O    0.0923323133214    4.4191942420991    3.4910798802682 
 O   -2.0738808466470    5.2645902012668    6.6476246930309 
 O   -1.9104684831671    5.5264106153449    1.7619595668371 
 O    9.5262399272866    3.0891263630548    4.9874775781226 
 O   -0.5967762998917    4.5190201601038    8.6355646643132 
 O    1.9156884299104    3.3173712637342    0.1999463180631 
 O    3.8111314876079    4.2737459451174    3.3696416131369 
 O    1.8233085957440    5.5296385407093    6.6152487128776 
 O    1.9156826906780    5.5264106153449    1.7619595668371 
 O    1.7289650257852    3.0991415601620    5.1362542134970 
 O    3.8667723710258    4.4544116513849    8.5283630967407 
 O    5.7418510822204    3.3173712637342    0.1999463180631 
 O    7.7234116679343    4.3172133916589    3.3646569206727 
 O    5.5595905626796    5.5004948638627    6.5099016069230 
 O    5.7418453429880    5.5264106153449    1.7619595668371 
 O    5.6397018117078    3.2409426354876    4.8848626666646 
 O    7.4704742219257    4.4488951913525    8.2069887760940 
 O   -3.8235440700895    6.6309253208291    0.1999463180631 
 O   -2.0045873047810    7.6404001299456    3.3850915822339 
 O   -3.7081867594707    8.6266909754876    6.4363342249507 
 O   -3.8235440700895    8.8399547317975    1.7619595668371 
 O    7.6636432432870    6.4686185891813    5.0242401697607 
 O   -2.0107529048635    7.4660713843251    8.1737115686527 
 O    0.0026071037555    6.6309253208291    0.1999463180631 
 O    1.8325009522622    7.6659254129986    3.4224679938244 
 O   -0.1782598727421    8.7134765601234    6.3174388284363 
 O    0.0026071037555    8.8399547317975    1.7619595668371 
 O   -0.2101334465311    6.5713123824866    4.9100363558484 
 O    1.4741305912584    7.7178554277280    8.2975236835154 
 O    3.8287697560655    6.6309253208291    0.1999463180631 
 O    5.7177806263308    7.7301585630646    3.2300907532353 
 O    3.6065438614415    8.4708202132841    6.6848421181826 
 O    3.8287697560655    8.8399547317975    1.7619595668371 
 O    3.8219933294680    6.5390717979410    5.0325742981899 
 O    5.6033320083937    7.6995705108933    8.1509584879177 
Ce    1.9156884299104    1.1083418527658    0.9809643475031 
Ce   -0.1001418591611    2.1690601758552    4.0553530890814 
Ce    5.4721733854635    9.7995038578895    7.5419412032760 
Ce    5.7418510822205    1.1083418527658    0.9809643475031 
Ce    3.8144882499124    1.9776675224925    4.1936001233240 
Ce   -2.1313099027350    9.8092429039539    7.3700394543378 
Ce    9.5680022560654    1.1083418527658    0.9809643475031 
Ce    7.6619645751731    2.1909658722375    4.2362807969638 
Ce    1.6640232569624    9.8510115941344    7.3776023730831 
Ce    0.0026128429880    4.4218859692184    0.9809643475031 
Ce   -1.8781178643727    5.4467104223142    4.1277539622328 
Ce    9.5267849821972    3.3092957841571    7.5221449965818 
Ce    3.8287754952980    4.4218859692184    0.9809643475031 
Ce    2.0160896449883    5.4771628841246    4.1088265924761 
Ce    7.6549266691429    4.4218859692184    0.9809643475031 
Ce    5.8886271324527    5.3511996377212    4.2198586611491 
Ce    5.6152092926601    3.3667971312643    7.4699404193839 
Ce   -1.9104684831671    7.7354400263133    0.9809643475031 
Ce   -3.9341906186724    8.6763319585169    4.1064217230005 
Ce    7.6671082475165    6.5617814934718    7.3752987804782 
Ce    1.9156941691429    7.7354400263133    0.9809643475031 
Ce   -0.0496759269037    8.7308462420224    4.1234218669013 
Ce   -0.1330245048082    6.3442010132475    7.4214246925282 
Ce    5.7418453429879    7.7354400263133    0.9809643475031 
Ce    3.7885761317059    8.8272232541845    4.2878601491563 
Ce    3.6457864375835    6.4337816082760    7.4123088617664 
Cu    1.6917875402814    2.4735815135478    6.8640775443009 
81
FORCE:  2.618346  ...  ENERGY:  -632.36349601
 O    0.0026128429879    0.0038271472816    0.1999463180631 
 O    1.7932196363008    1.0395450532309    3.3470899456379 
 O   -0.1375269327045    2.1789802410156    6.7986346658837 
 O    0.0026128429880    2.2128565582500    1.7619595668371 
 O   11.3222532497915    0.0046189194400    5.1063319164462 
 O    1.7544476198315    0.9893093215734    8.1441448811545 
 O    3.8287640168329    0.0038271472816    0.1999463180631 
 O    5.8597775028756    0.9994359532807    3.5296574720407 
 O    3.6468936503174    2.2074457672452    6.5906327307856 
 O    3.8287640168330    2.2128565582500    1.7619595668371 
 O   -2.0904431237955    9.8233876426812    4.9495238427492 
 O    5.5287268068490    0.8643677743846    8.2134574940546 
 O    7.6549266691429    0.0038271472816    0.1999463180631 
 O    9.5083614719489    1.0623563421259    3.2886135016942 
 O    7.4712906277488    2.2996530775923    6.6053210704433 
 O    7.6549266691430    2.2128565582500    1.7619595668371 
 O    7.5034407177596    0.0061328792608    5.0373333987057 
 O    9.3766894746716    0.8143973584698    8.2051703544437 
 O   -1.9104627439346    3.3173712637342    0.1999463180631 
 O    0.0898955499866    4.4192910639550    3.4896642850898 
 O   -2.0666736906505    5.2580670523897    6.6354484303470 
 O   -1.9104684831671    5.5264106153449    1.7619595668371 
 O    9.5283144876584    3.0871790906366    4.9784365645084 
 O   -0.6038717130315    4.5214250002866    8.6333956513336 
 O    1.9156884299104    3.3173712637342    0.1999463180631 
 O    3.8129860631979    4.2716528434768    3.3689438519944 
 O    1.8296391987607    5.5346597579428    6.6116944421607 
 O    1.9156826906780    5.5264106153449    1.7619595668371 
 O    1.7249815392917    3.0897233980308    5.1319691069838 
 O    3.8689187865885    4.4503398648965    8.5310731654346 
 O    5.7418510822204    3.3173712637342    0.1999463180631 
 O    7.7212239872899    4.3166885257459    3.3605955812994 
 O    5.5638350120750    5.5067353008731    6.5087202715333 
 O    5.7418453429880    5.5264106153449    1.7619595668371 
 O    5.6338593304151    3.2332981821601    4.8900446665457 
 O    7.4747235496687    4.4330861902930    8.2070599436247 
 O   -3.8235440700895    6.6309253208291    0.1999463180631 
 O   -2.0100959923115    7.6440216053382    3.3838107947820 
 O   -3.7120981038118    8.6348817665153    6.4507157686827 
 O   -3.8235440700895    8.8399547317975    1.7619595668371 
 O    7.6640369546365    6.4653320140274    5.0215474367474 
 O   -2.0150420628800    7.4620305132342    8.1754966875483 
 O    0.0026071037555    6.6309253208291    0.1999463180631 
 O    1.8220800556350    7.6710073675565    3.4098984849131 
 O   -0.1786491074902    8.7103472459305    6.3131667236836 
 O    0.0026071037555    8.8399547317975    1.7619595668371 
 O   -0.2076650600251    6.5838575724630    4.9086497295046 
 O    1.4891109063606    7.7087839951998    8.3078796997405 
 O    3.8287697560655    6.6309253208291    0.1999463180631 
 O    5.7284461864395    7.7349085995764    3.2221676629162 
 O    3.6100323391320    8.4694405515407    6.6945859111626 
 O    3.8287697560655    8.8399547317975    1.7619595668371 
 O    3.8087857485004    6.5436055260766    5.0311035025550 
 O    5.6150177744716    7.7009649841937    8.1488741004315 
Ce    1.9156884299104    1.1083418527658    0.9809643475031 
Ce   -0.1038567495737    2.1680506042242    4.0532675610898 
Ce    5.4747688385770    9.7982560090628    7.5432835780141 
Ce    5.7418510822205    1.1083418527658    0.9809643475031 
Ce    3.8136289146302    1.9780823454953    4.1944545898948 
Ce   -2.1327957326369    9.8088650601404    7.3647634768200 
Ce    9.5680022560654    1.1083418527658    0.9809643475031 
Ce    7.6618786588625    2.1907001588691    4.2351455379882 
Ce    1.6634041659526    9.8467081906806    7.3758603652879 
Ce    0.0026128429880    4.4218859692184    0.9809643475031 
Ce   -1.8774637640446    5.4456764961096    4.1257450761974 
Ce    9.5251503913888    3.3071250461002    7.5229604578713 
Ce    3.8287754952980    4.4218859692184    0.9809643475031 
Ce    2.0164479452732    5.4767381204796    4.1075341718701 
Ce    7.6549266691429    4.4218859692184    0.9809643475031 
Ce    5.8881818254030    5.3509901883881    4.2183604933870 
Ce    5.6135165060342    3.3667204889123    7.4691304325198 
Ce   -1.9104684831671    7.7354400263133    0.9809643475031 
Ce   -3.9315200390055    8.6745233580587    4.1038660787243 
Ce    7.6642049993641    6.5610749126178    7.3759440783769 
Ce    1.9156941691429    7.7354400263133    0.9809643475031 
Ce   -0.0496223798645    8.7261758300553    4.1248333562605 
Ce   -0.1363567605901    6.3414704182169    7.4187091494089 
Ce    5.7418453429879    7.7354400263133    0.9809643475031 
Ce    3.7863964285947    8.8279416644028    4.2866094710443 
Ce    3.6442850543615    6.4345712928995    7.4131136023061 
Cu    1.6921120938793    2.4708825297596    6.8626530531812 
