81
FORCE:  3.738661  ...  ENERGY:  -631.33591751
 O    0.0026128429879    0.0038271472816    0.1999463180631 
 O    2.0387713787899    1.2968451590405    3.3036332721920 
 O    0.2833697837322    2.5596211523861    6.5509839764354 
 O    0.0026128429880    2.2128565582500    1.7619595668371 
 O    0.1883120810735    0.1395830198114    4.8312892550056 
 O    1.9660879018555    1.2956707715603    7.9864843937963 
 O    3.8287640168329    0.0038271472816    0.1999463180631 
 O    5.7006735238411    1.0674731883382    3.3340644627077 
 O    3.8497176677288    2.4781640502370    6.5011085391611 
 O    3.8287640168330    2.2128565582500    1.7619595668371 
 O    3.8454172034242    0.2162930676413    5.2188270253181 
 O    5.8573084276618    1.0709625525949    8.1541858898157 
 O    7.6549266691429    0.0038271472816    0.1999463180631 
 O    9.7315765806865    1.1106671678103    3.3179792321586 
 O    7.5602223884216    2.2665655503236    6.5957896395501 
 O    7.6549266691430    2.2128565582500    1.7619595668371 
 O    1.9970014742242    9.9097357396497    4.9220251194609 
 O    9.7920827836718    1.5322179972739    8.0664885595807 
 O   -1.9104627439346    3.3173712637342    0.1999463180631 
 O    0.1090714736155    4.5698764860594    3.2278585562621 
 O   -1.6606769400610    5.7017616566185    6.4403234843891 
 O   -1.9104684831671    5.5264106153449    1.7619595668371 
 O   -1.9283080265084    3.3779723019203    5.1438150793328 
 O   -0.3391302727555    4.9207053117957    8.5309764505852 
 O    1.9156884299104    3.3173712637342    0.1999463180631 
 O    3.7850728467956    4.5659368107070    3.2535014493263 
 O    2.0700673562201    5.9851973015112    6.5981774014462 
 O    1.9156826906780    5.5264106153449    1.7619595668371 
 O    2.1219993180272    3.5220400425008    4.9773850186218 
 O    4.2491660688205    4.6313314254182    8.2219097788329 
 O    5.7418510822204    3.3173712637342    0.1999463180631 
 O    7.7044792599403    4.6034956388778    3.2268991632038 
 O    5.8145739876821    5.8649317330491    6.5625377513265 
 O    5.7418453429880    5.5264106153449    1.7619595668371 
 O    5.7842323298320    3.5237236890855    4.8583568672905 
 O    7.7812570479479    4.5329239376619    8.0673642395500 
 O   -3.8235440700895    6.6309253208291    0.1999463180631 
 O   -2.0140651307239    7.8357475684369    3.5225482463037 
 O   -3.8216698089320    8.7868568904118    6.5390704861726 
 O   -3.8235440700895    8.8399547317975    1.7619595668371 
 O   -3.5940261362204    6.5180689106914    5.1300968534834 
 O   -1.7846776496095    7.8986607006132    7.9545431742634 
 O    0.0026071037555    6.6309253208291    0.1999463180631 
 O    2.0265033675749    7.8770587902592    3.2550915418155 
 O    0.0817531286618    8.9377274101371    6.5248011681622 
 O    0.0026071037555    8.8399547317975    1.7619595668371 
 O    0.1930441356621    6.8359128959939    4.8682201852260 
 O    2.1494518462368    8.1808370649406    8.1858230506356 
 O    3.8287697560655    6.6309253208291    0.1999463180631 
 O    5.9484637391821    7.6665184717176    3.3222775685332 
 O    4.0806055563957    8.9983065789102    6.6497763703298 
 O    3.8287697560655    8.8399547317975    1.7619595668371 
 O    3.9832834969465    6.8224392500276    4.9979120611123 
 O    5.8439635642528    8.0612657509361    8.3995927491368 
Ce    1.9156884299104    1.1083418527658    0.9809643475031 
Ce    0.2138344480010    2.2571527561392    4.0772802158781 
Ce    0.1114076855970    0.1110246479829    7.3878285998051 
Ce    5.7418510822205    1.1083418527658    0.9809643475031 
Ce    3.8188761227280    2.3704650441323    3.9957464043853 
Ce    4.0031231054218    0.1757029400106    7.3969921036884 
Ce    9.5680022560654    1.1083418527658    0.9809643475031 
Ce    7.7919432119012    2.2606659779374    4.0579507039526 
Ce    7.7548077949716    0.2640184889013    7.3108198571406 
Ce    0.0026128429880    4.4218859692184    0.9809643475031 
Ce   -1.8667379993870    5.6040918639265    4.1910784661057 
Ce   -1.5390897499557    3.6132868879899    7.4163291429489 
Ce    3.8287754952980    4.4218859692184    0.9809643475031 
Ce    2.1103853497479    5.6999782059852    4.2201745811172 
Ce    7.6549266691429    4.4218859692184    0.9809643475031 
Ce    5.8705832150419    5.5572788942223    4.0455223895975 
Ce    5.9559089585427    3.5651717935522    7.4651464194058 
Ce   -1.9104684831671    7.7354400263133    0.9809643475031 
Ce   -3.8501951718728    8.9488641105074    4.1616210390152 
Ce   -3.6046419371834    6.8050984953977    7.4671539368349 
Ce    1.9156941691429    7.7354400263133    0.9809643475031 
Ce    0.1179807137946    8.8328145672534    4.1803355904829 
Ce    0.1896489204998    6.8671551418343    7.4897213433071 
Ce    5.7418453429879    7.7354400263133    0.9809643475031 
Ce    3.9526692255527    8.8205116307296    4.0969842697441 
Ce    4.1265149971867    6.7249903384074    7.4396063999198 
Cu    2.0659944524841    2.6786760500237    6.7263099784863 
81
FORCE:  3.762264  ...  ENERGY:  -631.31659966
 O    0.0026128429879    0.0038271472816    0.1999463180631 
 O    2.0380788256041    1.3060779281930    3.3042185795120 
 O    0.2769317996753    2.5599737469681    6.5537419463518 
 O    0.0026128429880    2.2128565582500    1.7619595668371 
 O    0.1999504410910    0.1466313328207    4.8317007493179 
 O    1.9726185171249    1.3010060136838    7.9769680175731 
 O    3.8287640168329    0.0038271472816    0.1999463180631 
 O    5.7035840608188    1.0718501525449    3.3298315913372 
 O    3.8509458634838    2.4849028116454    6.5032296509180 
 O    3.8287640168330    2.2128565582500    1.7619595668371 
 O    3.8447947262673    0.2152355821145    5.2196798951814 
 O    5.8644528538471    1.0755734201147    8.1507734979581 
 O    7.6549266691429    0.0038271472816    0.1999463180631 
 O    9.7234984961581    1.1160705033335    3.3148633716790 
 O    7.5635359916978    2.2773851442049    6.5842652896957 
 O    7.6549266691430    2.2128565582500    1.7619595668371 
 O    2.0032427173909    9.9084149265087    4.9261088127381 
 O    9.7843395833597    1.5274237249038    8.0760865959833 
 O   -1.9104627439346    3.3173712637342    0.1999463180631 
 O    0.1031799792773    4.5633762006595    3.2323687985215 
 O   -1.6671207207427    5.7020300539603    6.4365570796864 
 O   -1.9104684831671    5.5264106153449    1.7619595668371 
 O   -1.9299786023045    3.3776536049285    5.1558355489927 
 O   -0.3362332803665    4.9179965861781    8.5305001755719 
 O    1.9156884299104    3.3173712637342    0.1999463180631 
 O    3.7940453333167    4.5671275008405    3.2466600142337 
 O    2.0790641196947    5.9733048141075    6.5916345506411 
 O    1.9156826906780    5.5264106153449    1.7619595668371 
 O    2.1314621645732    3.5364947304547    4.9809424827536 
 O    4.2490507676395    4.6238464199931    8.2287587412604 
 O    5.7418510822204    3.3173712637342    0.1999463180631 
 O    7.7074896021712    4.5991748393000    3.2197267534731 
 O    5.8168327774171    5.8745750507282    6.5582905095893 
 O    5.7418453429880    5.5264106153449    1.7619595668371 
 O    5.7870444963647    3.5143770001723    4.8535229496270 
 O    7.7866753425664    4.5443373855136    8.0657994662784 
 O   -3.8235440700895    6.6309253208291    0.1999463180631 
 O   -2.0093021416721    7.8331429213440    3.5375928798170 
 O   -3.8283038451711    8.7920468003450    6.5349480157152 
 O   -3.8235440700895    8.8399547317975    1.7619595668371 
 O   -3.5965993785041    6.5183108659248    5.1309729896548 
 O   -1.7853621104774    7.8987479794525    7.9522756216259 
 O    0.0026071037555    6.6309253208291    0.1999463180631 
 O    2.0317335875444    7.8856607262520    3.2571061303774 
 O    0.0807474429509    8.9393112526732    6.5242341089270 
 O    0.0026071037555    8.8399547317975    1.7619595668371 
 O    0.1874860333398    6.8380312468659    4.8661218835750 
 O    2.1434749521190    8.1799739189706    8.1936891156897 
 O    3.8287697560655    6.6309253208291    0.1999463180631 
 O    5.9538564942161    7.6594076320683    3.3277193755216 
 O    4.0906744085014    9.0032467799090    6.6582820307562 
 O    3.8287697560655    8.8399547317975    1.7619595668371 
 O    3.9742843229942    6.8217202433708    4.9917375935192 
 O    5.8466630696515    8.0613436855717    8.4016990343249 
Ce    1.9156884299104    1.1083418527658    0.9809643475031 
Ce    0.2134088265188    2.2588856089032    4.0772574057721 
Ce    0.1128019173482    0.1111368778343    7.3886588876635 
Ce    5.7418510822205    1.1083418527658    0.9809643475031 
Ce    3.8195787195707    2.3742663457440    3.9947313546683 
Ce    4.0027403560063    0.1762670714606    7.3993381230905 
Ce    9.5680022560654    1.1083418527658    0.9809643475031 
Ce    7.7910263695093    2.2611982993320    4.0577235152969 
Ce    7.7543430319238    0.2688935786931    7.3090830956697 
Ce    0.0026128429880    4.4218859692184    0.9809643475031 
Ce   -1.8650952014762    5.6039487186775    4.1914897323169 
Ce   -1.5391664261019    3.6137183118653    7.4133889202855 
Ce    3.8287754952980    4.4218859692184    0.9809643475031 
Ce    2.1105282566371    5.6998511645767    4.2197110797633 
Ce    7.6549266691429    4.4218859692184    0.9809643475031 
Ce    5.8695628368958    5.5598253885578    4.0432548369600 
Ce    5.9566636676164    3.5655676299282    7.4649012107663 
Ce   -1.9104684831671    7.7354400263133    0.9809643475031 
Ce   -3.8496128119510    8.9466303487784    4.1606801221427 
Ce   -3.6013761991062    6.8009691525904    7.4722513112227 
Ce    1.9156941691429    7.7354400263133    0.9809643475031 
Ce    0.1194278038772    8.8299920212816    4.1820636841135 
Ce    0.1917961969473    6.8679499955918    7.4912539543292 
Ce    5.7418453429879    7.7354400263133    0.9809643475031 
Ce    3.9524175602075    8.8216984440126    4.0994696588938 
Ce    4.1260150526436    6.7235108726154    7.4370692318294 
Cu    2.0672733830544    2.6818496994812    6.7278907188321 
81
FORCE:  3.775676  ...  ENERGY:  -631.29934563
 O    0.0026128429879    0.0038271472816    0.1999463180631 
 O    2.0369310364964    1.3147238018247    3.3046998727486 
 O    0.2705106889620    2.5600092350611    6.5559896541971 
 O    0.0026128429880    2.2128565582500    1.7619595668371 
 O    0.2110821416633    0.1538889957566    4.8326215932971 
 O    1.9796055735550    1.3065202867749    7.9675193873647 
 O    3.8287640168329    0.0038271472816    0.1999463180631 
 O    5.7068711488409    1.0767755419868    3.3254796512135 
 O    3.8525768385757    2.4916274573418    6.5056933704671 
 O    3.8287640168330    2.2128565582500    1.7619595668371 
 O    3.8439695968108    0.2141680565389    5.2197467287920 
 O    5.8712766291126    1.0808440480632    8.1478216421406 
 O    7.6549266691429    0.0038271472816    0.1999463180631 
 O    9.7149439405476    1.1218567523976    3.3118497004743 
 O    7.5670824930289    2.2887339778817    6.5718052692932 
 O    7.6549266691430    2.2128565582500    1.7619595668371 
 O    2.0100779711215    9.9077074509969    4.9302417758442 
 O    9.7764980126026    1.5218278391395    8.0859556164453 
 O   -1.9104627439346    3.3173712637342    0.1999463180631 
 O    0.0971238263587    4.5561260926118    3.2377262081177 
 O   -1.6733025628531    5.7024175401967    6.4331750252697 
 O   -1.9104684831671    5.5264106153449    1.7619595668371 
 O   -1.9315101738895    3.3770583592682    5.1668523739886 
 O   -0.3328567751021    4.9157507962720    8.5302278229062 
 O    1.9156884299104    3.3173712637342    0.1999463180631 
 O    3.8035984005977    4.5681326985889    3.2398911152782 
 O    2.0881291800361    5.9610630125338    6.5850031966248 
 O    1.9156826906780    5.5264106153449    1.7619595668371 
 O    2.1404066436398    3.5508142256735    4.9849198809368 
 O    4.2490819316720    4.6163741385901    8.2360233038193 
 O    5.7418510822204    3.3173712637342    0.1999463180631 
 O    7.7107888573661    4.5939160407157    3.2127879192279 
 O    5.8200006615802    5.8837223303571    6.5537435430592 
 O    5.7418453429880    5.5264106153449    1.7619595668371 
 O    5.7901242833089    3.5044709513175    4.8487118420695 
 O    7.7924005139468    4.5563626798983    8.0646204118993 
 O   -3.8235440700895    6.6309253208291    0.1999463180631 
 O   -2.0040042561514    7.8305967252279    3.5520944047065 
 O   -3.8351431163644    8.7978182378522    6.5306387304897 
 O   -3.8235440700895    8.8399547317975    1.7619595668371 
 O   -3.6001681480573    6.5189104854677    5.1315482605281 
 O   -1.7859709282610    7.8990410295872    7.9510247154129 
 O    0.0026071037555    6.6309253208291    0.1999463180631 
 O    2.0371447655147    7.8938249757648    3.2593540663237 
 O    0.0799973826554    8.9410269081260    6.5236469767986 
 O    0.0026071037555    8.8399547317975    1.7619595668371 
 O    0.1818305362420    6.8392514607070    4.8642653690477 
 O    2.1370887933316    8.1786213951806    8.2019208267429 
 O    3.8287697560655    6.6309253208291    0.1999463180631 
 O    5.9587618736261    7.6528512814459    3.3331568485899 
 O    4.1006750211326    9.0083447389010    6.6660632422160 
 O    3.8287697560655    8.8399547317975    1.7619595668371 
 O    3.9651254835937    6.8206849254763    4.9851308744173 
 O    5.8497050350534    8.0610610731113    8.4038872077934 
Ce    1.9156884299104    1.1083418527658    0.9809643475031 
Ce    0.2128248022196    2.2607759214411    4.0772704075325 
Ce    0.1141816288412    0.1112505987821    7.3895277246010 
Ce    5.7418510822205    1.1083418527658    0.9809643475031 
Ce    3.8204908557919    2.3780681443878    3.9938636582361 
Ce    4.0023400445395    0.1768310040977    7.4016506116368 
Ce    9.5680022560654    1.1083418527658    0.9809643475031 
Ce    7.7900369258263    2.2617299248817    4.0576090085648 
Ce    7.7539246418745    0.2737360631783    7.3073456498957 
Ce    0.0026128429880    4.4218859692184    0.9809643475031 
Ce   -1.8633742352188    5.6038063686799    4.1919117192779 
Ce   -1.5393483023798    3.6141422802590    7.4104418545903 
Ce    3.8287754952980    4.4218859692184    0.9809643475031 
Ce    2.1105555753839    5.6997422151372    4.2192446130956 
Ce    7.6549266691429    4.4218859692184    0.9809643475031 
Ce    5.8685268480372    5.5624068739541    4.0410885611932 
Ce    5.9573415857594    3.5659310598103    7.4645848345961 
Ce   -1.9104684831671    7.7354400263133    0.9809643475031 
Ce   -3.8488254466444    8.9442784922191    4.1597907561098 
Ce   -3.5981364597523    6.7967434849594    7.4773247349992 
Ce    1.9156941691429    7.7354400263133    0.9809643475031 
Ce    0.1208142302722    8.8272552630527    4.1838111663341 
Ce    0.1939967334724    6.8687094606628    7.4927617023358 
Ce    5.7418453429879    7.7354400263133    0.9809643475031 
Ce    3.9521200383947    8.8229899322589    4.1020378487284 
Ce    4.1253848849151    6.7221042717313    7.4345514523291 
Cu    2.0686130920969    2.6850250388479    6.7293980106366 
81
FORCE:  3.778102  ...  ENERGY:  -631.28298866
 O    0.0026128429879    0.0038271472816    0.1999463180631 
 O    2.0353377681621    1.3227521627574    3.3050650625456 
 O    0.2642154396174    2.5597229445631    6.5577125015032 
 O    0.0026128429880    2.2128565582500    1.7619595668371 
 O    0.2216144941857    0.1613384136823    4.8340399256882 
 O    1.9870353543803    1.3121731324195    7.9582000904573 
 O    3.8287640168329    0.0038271472816    0.1999463180631 
 O    5.7105253181736    1.0822043255542    3.3210376111711 
 O    3.8546204070919    2.4983106505597    6.5084944514839 
 O    3.8287640168330    2.2128565582500    1.7619595668371 
 O    3.8429532935197    0.2131157401461    5.2190480552452 
 O    5.8777472694024    1.0867859675857    8.1453332876771 
 O    7.6549266691429    0.0038271472816    0.1999463180631 
 O    9.7059726018729    1.1279911227548    3.3089680997833 
 O    7.5708422642396    2.3005520098746    6.5584832549850 
 O    7.6549266691430    2.2128565582500    1.7619595668371 
 O    2.0174839915241    9.9076088398254    4.9344308518111 
 O    9.7685585879314    1.5154791485346    8.0960545627757 
 O   -1.9104627439346    3.3173712637342    0.1999463180631 
 O    0.0909314240605    4.5481441544786    3.2439052377321 
 O   -1.6791720185385    5.7029331613123    6.4302268190692 
 O   -1.9104684831671    5.5264106153449    1.7619595668371 
 O   -1.9328827687342    3.3761939210146    5.1767873156569 
 O   -0.3290058074869    4.9139983604427    8.5301352138759 
 O    1.9156884299104    3.3173712637342    0.1999463180631 
 O    3.8136759189444    4.5689597600274    3.2332440222887 
 O    2.0972045709961    5.9485283596383    6.5783241694870 
 O    1.9156826906780    5.5264106153449    1.7619595668371 
 O    2.1487923510302    3.5649217863986    4.9893188098789 
 O    4.2492984155219    4.6089536479335    8.2436635488240 
 O    5.7418510822204    3.3173712637342    0.1999463180631 
 O    7.7143472963008    4.5877516496189    3.2061535998978 
 O    5.8240204774155    5.8923230734728    6.5489226271561 
 O    5.7418453429880    5.5264106153449    1.7619595668371 
 O    5.7934548747133    3.4940835765630    4.8439301595487 
 O    7.7983817124890    4.5689397793364    8.0638382533645 
 O   -3.8235440700895    6.6309253208291    0.1999463180631 
 O   -1.9981878883666    7.8281332352556    3.5659798286330 
 O   -3.8421465869995    8.8041160323686    6.5261868821017 
 O   -3.8235440700895    8.8399547317975    1.7619595668371 
 O   -3.6047177524447    6.5198528583568    5.1317998559973 
 O   -1.7864766694289    7.8995531714780    7.9508050540921 
 O    0.0026071037555    6.6309253208291    0.1999463180631 
 O    2.0426967842506    7.9015075017522    3.2618228040961 
 O    0.0795139671019    8.9428664239818    6.5230564231543 
 O    0.0026071037555    8.8399547317975    1.7619595668371 
 O    0.1761320522927    6.8395250271829    4.8626745922553 
 O    2.1302987647531    8.1767868496460    8.2104586494187 
 O    3.8287697560655    6.6309253208291    0.1999463180631 
 O    5.9631417689085    7.6469162209667    3.3385496138504 
 O    4.1105258397956    9.0135480687013    6.6730613827368 
 O    3.8287697560655    8.8399547317975    1.7619595668371 
 O    3.9558677572172    6.8193564580407    4.9781242941573 
 O    5.8530839507955    8.0603952488908    8.4061618315638 
Ce    1.9156884299104    1.1083418527658    0.9809643475031 
Ce    0.2120813420416    2.2628248866299    4.0773203616647 
Ce    0.1155490583767    0.1113676995483    7.3904369354262 
Ce    5.7418510822205    1.1083418527658    0.9809643475031 
Ce    3.8216150566540    2.3818654697426    3.9931451398971 
Ce    4.0019230319060    0.1773948373284    7.4039213576891 
Ce    9.5680022560654    1.1083418527658    0.9809643475031 
Ce    7.7889726425515    2.2622621468699    4.0576062713520 
Ce    7.7535577327408    0.2785394809392    7.3056113975365 
Ce    0.0026128429880    4.4218859692184    0.9809643475031 
Ce   -1.8615818729090    5.6036640186824    4.1923448831909 
Ce   -1.5396369857746    3.6145560097911    7.4074961575014 
Ce    3.8287754952980    4.4218859692184    0.9809643475031 
Ce    2.1104670190264    5.6996512582603    4.2187735844067 
Ce    7.6549266691429    4.4218859692184    0.9809643475031 
Ce    5.8674812746603    5.5650101293570    4.0390285805203 
Ce    5.9579447790951    3.5662624808242    7.4641956941878 
Ce   -1.9104684831671    7.7354400263133    0.9809643475031 
Ce   -3.8478291158824    8.9418118212412    4.1589584153418 
Ce   -3.5949303523008    6.7924325266175    7.4823630312125 
Ce    1.9156941691429    7.7354400263133    0.9809643475031 
Ce    0.1221375825020    8.8246160225247    4.1855746156290 
Ce    0.1962525961989    6.8694313501059    7.4942420782152 
Ce    5.7418453429879    7.7354400263133    0.9809643475031 
Ce    3.9517781523147    8.8243890776612    4.1046845053276 
Ce    4.1246242644319    6.7207729215094    7.4320585358444 
Cu    2.0700006089461    2.6882114123275    6.7308177116341 
81
FORCE:  3.771382  ...  ENERGY:  -631.26628729
 O    0.0026128429879    0.0038271472816    0.1999463180631 
 O    2.0333166974372    1.3301351771926    3.3053034281533 
 O    0.2581513091656    2.5591112968430    6.5589015923290 
 O    0.0026128429880    2.2128565582500    1.7619595668371 
 O    0.2314588849083    0.1689555302434    4.8359413761243 
 O    1.9948894366642    1.3179171337540    7.9490771885626 
 O    3.8287640168329    0.0038271472816    0.1999463180631 
 O    5.7145329094437    1.0880858059715    3.3165351243477 
 O    3.8570827100114    2.5049244580946    6.5116251385324 
 O    3.8287640168330    2.2128565582500    1.7619595668371 
 O    3.8417590740211    0.2121029875096    5.2176096499608 
 O    5.8838347011382    1.0934065347572    8.1433068378600 
 O    7.6549266691429    0.0038271472816    0.1999463180631 
 O    9.6966509978387    1.1344327583651    3.3062466260364 
 O    7.5747924631847    2.3127686616233    6.5443895747908 
 O    7.6549266691430    2.2128565582500    1.7619595668371 
 O    2.0254293849971    9.9081078600683    4.9386821993674 
 O    9.7605219980540    1.5084349111886    8.1063364461563 
 O   -1.9104627439346    3.3173712637342    0.1999463180631 
 O    0.0846332477073    4.5394555360850    3.2508721284076 
 O   -1.6846821408771    5.7035838757566    6.4277573969937 
 O   -1.9104684831671    5.5264106153449    1.7619595668371 
 O   -1.9340740038319    3.3750724177515    5.1855687502648 
 O   -0.3246912246703    4.9127646273281    8.5301947482525 
 O    1.9156884299104    3.3173712637342    0.1999463180631 
 O    3.8242134367760    4.5696145501351    3.2267711985091 
 O    2.1062334167804    5.9357651713764    6.5716442299449 
 O    1.9156826906780    5.5264106153449    1.7619595668371 
 O    2.1565856548420    3.5787358993633    4.9941356199629 
 O    4.2497398198935    4.6016276927850    8.2516356808710 
 O    5.7418510822204    3.3173712637342    0.1999463180631 
 O    7.7181314592497    4.5807221244235    3.1998970159231 
 O    5.8288202549476    5.9003301614310    6.5438608365337 
 O    5.7418453429880    5.5264106153449    1.7619595668371 
 O    5.7970137727865    3.4832993713682    4.8391858856018 
 O    7.8045668259619    4.5819957195137    8.0634630271208 
 O   -3.8235440700895    6.6309253208291    0.1999463180631 
 O   -1.9918741013010    7.8257764083750    3.5791766154593 
 O   -3.8492685727857    8.8108809376662    6.5216378626621 
 O   -3.8235440700895    8.8399547317975    1.7619595668371 
 O   -3.6102203563887    6.5211213837194    5.1317029130468 
 O   -1.7868531630809    7.9002975267727    7.9516262179081 
 O    0.0026071037555    6.6309253208291    0.1999463180631 
 O    2.0483428116148    7.9086669511423    3.2644975171257 
 O    0.0793062068854    8.9448229411973    6.5224784150682 
 O    0.0026071037555    8.8399547317975    1.7619595668371 
 O    0.1704475720708    6.8388144700720    4.8613714508995 
 O    2.1231143361173    8.1744813164797    8.2192384873192 
 O    3.8287697560655    6.6309253208291    0.1999463180631 
 O    5.9669600228984    7.6416692517467    3.3438561569103 
 O    4.1201400299027    9.0187974236754    6.6792223923674 
 O    3.8287697560655    8.8399547317975    1.7619595668371 
 O    3.9465781781004    6.8177602891082    4.9707559456161 
 O    5.8567910358519    8.0593242440904    8.4085249585454 
Ce    1.9156884299104    1.1083418527658    0.9809643475031 
Ce    0.2111778146691    2.2650326038761    4.0774088648759 
Ce    0.1169066738246    0.1114904664806    7.3913883449474 
Ce    5.7418510822205    1.1083418527658    0.9809643475031 
Ce    3.8229529865344    2.3856520592037    3.9925776244598 
Ce    4.0014906381295    0.1779582729334    7.4061414653061 
Ce    9.5680022560654    1.1083418527658    0.9809643475031 
Ce    7.7878317979152    2.2627965557994    4.0577141631534 
Ce    7.7532470680856    0.2832963764943    7.3038844444113 
Ce    0.0026128429880    4.4218859692184    0.9809643475031 
Ce   -1.8597255755492    5.6035204758077    4.1927901364600 
Ce   -1.5400332223864    3.6149568164882    7.4045620935667 
Ce    3.8287754952980    4.4218859692184    0.9809643475031 
Ce    2.1102622432108    5.6995776975073    4.2182963969892 
Ce    7.6549266691429    4.4218859692184    0.9809643475031 
Ce    5.8664330612366    5.5676209396480    4.0370796850637 
Ce    5.9584750267858    3.5665623900021    7.4637333333391 
Ce   -1.9104684831671    7.7354400263133    0.9809643475031 
Ce   -3.8466214091874    8.9392349085404    4.1581892585675 
Ce   -3.5917660838542    6.7880491009933    7.4873534262032 
Ce    1.9156941691429    7.7354400263133    0.9809643475031 
Ce    0.1233959092276    8.8220862284683    4.1873496980779 
Ce    0.1985643016576    6.8701135763863    7.4956921166536 
Ce    5.7418453429879    7.7354400263133    0.9809643475031 
Ce    3.9513937959142    8.8258985641930    4.1074048385691 
Ce    4.1237342242558    6.7195184124524    7.4295955005985 
Cu    2.0714242829600    2.6914174682789    6.7321347671545 
81
FORCE:  3.754343  ...  ENERGY:  -631.24825218
 O    0.0026128429879    0.0038271472816    0.1999463180631 
 O    2.0308941100066    1.3368495840274    3.3054056174282 
 O    0.2524157497744    2.5581736954622    6.5595535051585 
 O    0.0026128429880    2.2128565582500    1.7619595668371 
 O    0.2405349071838    0.1767086347911    4.8383074684197 
 O    2.0031424529992    1.3237002018126    7.9402191119986 
 O    3.8287640168329    0.0038271472816    0.1999463180631 
 O    5.7188747536146    1.0943637192033    3.3120045810940 
 O    3.8599643212574    2.5114410461478    6.5150735703574 
 O    3.8287640168330    2.2128565582500    1.7619595668371 
 O    3.8404028933813    0.2111522644810    5.2154618503799 
 O    5.8895141308355    1.1007077377064    8.1417375025672 
 O    7.6549266691429    0.0038271472816    0.1999463180631 
 O    9.6870522462671    1.1411365287127    3.3037096860471 
 O    7.5789076076719    2.3253071913694    6.5296284708950 
 O    7.6549266691430    2.2128565582500    1.7619595668371 
 O    2.0338727142818    9.9091894019495    4.9430008367364 
 O    9.7523912847636    1.5007580513673    8.1167504000506 
 O   -1.9104627439346    3.3173712637342    0.1999463180631 
 O    0.0782616665704    4.5300948308662    3.2585833128420 
 O   -1.6897915500025    5.7043751508829    6.4258057643243 
 O   -1.9104684831671    5.5264106153449    1.7619595668371 
 O   -1.9350589135212    3.3737110467899    5.1931348624250 
 O   -0.3199302443500    4.9120676888971    8.5303754042921 
 O    1.9156884299104    3.3173712637342    0.1999463180631 
 O    3.8351390989016    4.5701016416073    3.2205269319916 
 O    2.1151622851346    5.9228431316508    6.5650147007370 
 O    1.9156826906780    5.5264106153449    1.7619595668371 
 O    2.1637584328358    3.5921708762311    4.9993611871465 
 O    4.2504444828598    4.5944410060351    8.2598915706366 
 O    5.7418510822204    3.3173712637342    0.1999463180631 
 O    7.7221084030182    4.5728759754640    3.1940891067334 
 O    5.8343138482966    5.9077011476890    6.5385980888774 
 O    5.7418453429880    5.5264106153449    1.7619595668371 
 O    5.8007717648352    3.4722069068561    4.8344899690795 
 O    7.8109013316568    4.5954464025963    8.0635056820190 
 O   -3.8235440700895    6.6309253208291    0.1999463180631 
 O   -1.9850891232472    7.8235492074700    3.5916147381600 
 O   -3.8564593145773    8.8180500294793    6.5170391171915 
 O   -3.8235440700895    8.8399547317975    1.7619595668371 
 O   -3.6166350391616    6.5226988642444    5.1312325686611 
 O   -1.7870763044405    7.9012870183062    7.9534904878715 
 O    0.0026071037555    6.6309253208291    0.1999463180631 
 O    2.0540313666918    7.9152652512751    3.2673620102372 
 O    0.0793816204005    8.9468903959808    6.5219268667051 
 O    0.0026071037555    8.8399547317975    1.7619595668371 
 O    0.1648348896474    6.8370958324264    4.8603735087620 
 O    2.1155492815821    8.1717179173295    8.2281923663284 
 O    3.8287697560655    6.6309253208291    0.1999463180631 
 O    5.9701827167318    7.6371736956775    3.3490335947702 
 O    4.1294282889960    9.0240285872741    6.6844974574809 
 O    3.8287697560655    8.8399547317975    1.7619595668371 
 O    3.9373300936345    6.8159236560387    4.9630716771068 
 O    5.8608138360881    8.0578284756451    8.4109747639298 
Ce    1.9156884299104    1.1083418527658    0.9809643475031 
Ce    0.2101138183559    2.2673971844576    4.0775366014695 
Ce    0.1182570578395    0.1116213847395    7.3923830936701 
Ce    5.7418510822205    1.1083418527658    0.9809643475031 
Ce    3.8245044158638    2.3894205566958    3.9921620243285 
Ce    4.0010438962717    0.1785213109127    7.4083011261422 
Ce    9.5680022560654    1.1083418527658    0.9809643475031 
Ce    7.7866137606017    2.2633342451408    4.0579301748572 
Ce    7.7529971245102    0.2879983997038    7.3021695806422 
Ce    0.0026128429880    4.4218859692184    0.9809643475031 
Ce   -1.8578141241651    5.6033748453981    4.1932477071863 
Ce   -1.5405368974306    3.6153425134091    7.4016492430305 
Ce    3.8287754952980    4.4218859692184    0.9809643475031 
Ce    2.1099413627217    5.6995209364399    4.2178109979335 
Ce    7.6549266691429    4.4218859692184    0.9809643475031 
Ce    5.8653890374525    5.5702248908959    4.0352468930466 
Ce    5.9589343949551    3.5668309861568    7.4631970677471 
Ce   -1.9104684831671    7.7354400263133    0.9809643475031 
Ce   -3.8452015804592    8.9365538179083    4.1574889883133 
Ce   -3.5886519189074    6.7836077214245    7.4922829182109 
Ce    1.9156941691429    7.7354400263133    0.9809643475031 
Ce    0.1245870869330    8.8196773126222    4.1891325359629 
Ce    0.2009319072408    6.8707538531562    7.4971095366405 
Ce    5.7418453429879    7.7354400263133    0.9809643475031 
Ce    3.9509693222785    8.8275202805762    4.1101929178255 
Ce    4.1227171174721    6.7183420368438    7.4271671367137 
Cu    2.0728732669893    2.6946512586222    6.7333345787301 
81
FORCE:  3.728889  ...  ENERGY:  -631.22799066
 O    0.0026128429879    0.0038271472816    0.1999463180631 
 O    2.0281052447579    1.3428766948542    3.3053634187321 
 O    0.2470980065092    2.5569124267685    6.5596712053055 
 O    0.0026128429880    2.2128565582500    1.7619595668371 
 O    0.2487725423757    0.1845609469488    4.8411172172768 
 O    2.0117642150223    1.3294654761215    7.9316963439927 
 O    3.8287640168329    0.0038271472816    0.1999463180631 
 O    5.7235280659333    1.1009755386097    3.3074797403668 
 O    3.8632612807593    2.5178332767659    6.5188244641881 
 O    3.8287640168330    2.2128565582500    1.7619595668371 
 O    3.8389027727905    0.2102844464091    5.2126400121666 
 O    5.8947648972575    1.1086850037377    8.1406150172510 
 O    7.6549266691429    0.0038271472816    0.1999463180631 
 O    9.6772549746433    1.1480519353345    3.3013789494160 
 O    7.5831606085237    2.3380858870332    6.5143192401520 
 O    7.6549266691430    2.2128565582500    1.7619595668371 
 O    2.0427652532943    9.9108326895264    4.9473915540403 
 O    9.7441696046380    1.4925164636575    8.1272421364064 
 O   -1.9104627439346    3.3173712637342    0.1999463180631 
 O    0.0718504273370    4.5201049823969    3.2669858715892 
 O   -1.6944641461424    5.7053102671031    6.4244038552096 
 O   -1.9104684831671    5.5264106153449    1.7619595668371 
 O   -1.9358112695096    3.3721307828850    5.1994350137022 
 O   -0.3147454791018    4.9119182810435    8.5306436511386 
 O    1.9156884299104    3.3173712637342    0.1999463180631 
 O    3.8463749091515    4.5704239172303    3.2145668793949 
 O    2.1239433682519    5.9098341113052    6.5584887294104 
 O    1.9156826906780    5.5264106153449    1.7619595668371 
 O    2.1702903107364    3.6051407304461    5.0049793162543 
 O    4.2514491355090    4.5874411039537    8.2683814920898 
 O    5.7418510822204    3.3173712637342    0.1999463180631 
 O    7.7262426591496    4.5642706596528    3.1887989869498 
 O    5.8404026000558    5.9143973631484    6.5331806887024 
 O    5.7418453429880    5.5264106153449    1.7619595668371 
 O    5.8046941285027    3.4609001220962    4.8298556398435 
 O    7.8173309938266    4.6091947085090    8.0639771669101 
 O   -3.8235440700895    6.6309253208291    0.1999463180631 
 O   -1.9778640034529    7.8214736013598    3.6032303284384 
 O   -3.8636650931580    8.8255573019432    6.5124403717208 
 O   -3.8235440700895    8.8399547317975    1.7619595668371 
 O   -3.6239064745621    6.5245670091500    5.1303639598246 
 O   -1.7871250305245    7.9025342706943    7.9563937581632 
 O    0.0026071037555    6.6309253208291    0.1999463180631 
 O    2.0597054015106    7.9212682063412    3.2703991758511 
 O    0.0797455451333    8.9490641162303    6.5214140955223 
 O    0.0026071037555    8.8399547317975    1.7619595668371 
 O    0.1593530617250    6.8343592730104    4.8596958205127 
 O    2.1076225406147    8.1685127560359    8.2372475222083 
 O    3.8287697560655    6.6309253208291    0.1999463180631 
 O    5.9727791455148    7.6334896936448    3.3540395006329 
 O    4.1382985597864    9.0291725714399    6.6888436950782 
 O    3.8287697560655    8.8399547317975    1.7619595668371 
 O    3.9282019017356    6.8138755855077    4.9551230394690 
 O    5.8651346172758    8.0558913426820    8.4135064575947 
Ce    1.9156884299104    1.1083418527658    0.9809643475031 
Ce    0.2088897548483    2.2699157455882    4.0777049400518 
Ce    0.1196029652530    0.1117634365179    7.3934225502005 
Ce    5.7418510822205    1.1083418527658    0.9809643475031 
Ce    3.8262675654801    2.3931625126730    3.9918992519074 
Ce    4.0005845854947    0.1790836530470    7.4103914442560 
Ce    9.5680022560654    1.1083418527658    0.9809643475031 
Ce    7.7853179566879    2.2638766065842    4.0582513411497 
Ce    7.7528120342620    0.2926372004285    7.3004720525537 
Ce    0.0026128429880    4.4218859692184    0.9809643475031 
Ce   -1.8558562423900    5.6032255369509    4.1937175953699 
Ce   -1.5411469778453    3.6157113112380    7.3987685547437 
Ce    3.8287754952980    4.4218859692184    0.9809643475031 
Ce    2.1095047219131    5.6994797821808    4.2173157905322 
Ce    7.6549266691429    4.4218859692184    0.9809643475031 
Ce    5.8643566069180    5.5728069727307    4.0335349945913 
Ce    5.9593246627651    3.5670687663204    7.4625866693105 
Ce   -1.9104684831671    7.7354400263133    0.9809643475031 
Ce   -3.8435710645060    8.9337760048268    4.1568637633079 
Ce   -3.5855966384861    6.7791245911582    7.4971380492730 
Ce    1.9156941691429    7.7354400263133    0.9809643475031 
Ce    0.1257093364561    8.8174001102864    4.1909181110606 
Ce    0.2033538059635    6.8713497946614    7.4984925133672 
Ce    5.7418453429879    7.7354400263133    0.9809643475031 
Ce    3.9505074862392    8.8292556185007    4.1130419000649 
Ce    4.1215768467590    6.7172443911222    7.4247784624134 
Cu    2.0743383782619    2.6979203382457    6.7344020916909 
81
FORCE:  3.694224  ...  ENERGY:  -631.20474976
 O    0.0026128429879    0.0038271472816    0.1999463180631 
 O    2.0249917111267    1.3482034874317    3.3051706733364 
 O    0.2422767642476    2.5553325604893    6.5592651854187 
 O    0.0026128429880    2.2128565582500    1.7619595668371 
 O    0.2561111267965    0.1924694237355    4.8443455315790 
 O    2.0207190247074    1.3351541080784    7.9235805082779 
 O    3.8287640168329    0.0038271472816    0.1999463180631 
 O    5.7284651259067    1.1078545624808    3.3029941330219 
 O    3.8669640613913    2.5240749066534    6.5228591157374 
 O    3.8287640168330    2.2128565582500    1.7619595668371 
 O    3.8372783978160    0.2095179234821    5.2091831406023 
 O    5.8995712749069    1.1173277957703    8.1399238710392 
 O    7.6549266691429    0.0038271472816    0.1999463180631 
 O    9.6673418279154    1.1551241058853    3.2992710675206 
 O    7.5875233435009    2.3510208495938    6.4985932687724 
 O    7.6549266691430    2.2128565582500    1.7619595668371 
 O    2.0520509871253    9.9130114795036    4.9518575446941 
 O    9.7358631560485    1.4837821183094    8.1377521208469 
 O   -1.9104627439346    3.3173712637342    0.1999463180631 
 O    0.0654335062634    4.5095374832041    3.2760193578684 
 O   -1.6986700852877    5.7063894232301    6.4235756202607 
 O   -1.9104684831671    5.5264106153449    1.7619595668371 
 O   -1.9363037530505    3.3703570740812    5.2044317955225 
 O   -0.3091655676960    4.9123196841792    8.5309632207237 
 O    1.9156884299104    3.3173712637342    0.1999463180631 
 O    3.8578393130319    4.5705842597904    3.2089453287712 
 O    2.1325356306200    5.8968117704988    6.5521231131290 
 O    1.9156826906780    5.5264106153449    1.7619595668371 
 O    2.1761679735243    3.6175583819819    5.0109690219888 
 O    4.2527890741208    4.5806758010304    8.2770536662900 
 O    5.7418510822204    3.3173712637342    0.1999463180631 
 O    7.7304993905025    4.5549704929455    3.1840914372736 
 O    5.8469781535157    5.9203848108125    6.5276599587472 
 O    5.7418453429880    5.5264106153449    1.7619595668371 
 O    5.8087404021998    3.4494763359765    4.8252988649679 
 O    7.8238026097859    4.6231321848446    8.0648877463416 
 O   -3.8235440700895    6.6309253208291    0.1999463180631 
 O   -1.9702346695137    7.8195698689548    3.6139638519178 
 O   -3.8708302953650    8.8333354569094    6.5078904398770 
 O   -3.8235440700895    8.8399547317975    1.7619595668371 
 O   -3.6319679727086    6.5267071300286    5.1290724516229 
 O   -1.7869814923196    7.9040505168628    7.9603241675280 
 O    0.0026071037555    6.6309253208291    0.1999463180631 
 O    2.0653039654220    7.9266469884779    3.2735905377815 
 O    0.0804009654848    8.9513407221276    6.5209494536630 
 O    0.0026071037555    8.8399547317975    1.7619595668371 
 O    0.1540619484986    6.8306112532414    4.8593500193058 
 O    2.0993578162454    8.1648848192258    8.2463302783165 
 O    3.8287697560655    6.6309253208291    0.1999463180631 
 O    5.9747228513856    7.6306720185877    3.3588325882067 
 O    4.1466614250314    9.0341576047355    6.6922257494948 
 O    3.8287697560655    8.8399547317975    1.7619595668371 
 O    3.9192748699358    6.8116457006292    4.9469670579677 
 O    5.8697318572929    8.0534998229599    8.4161102311946 
Ce    1.9156884299104    1.1083418527658    0.9809643475031 
Ce    0.2075063702465    2.2725832175403    4.0779143368249 
Ce    0.1209469213276    0.1119196040082    7.3945069426397 
Ce    5.7418510822205    1.1083418527658    0.9809643475031 
Ce    3.8282390492362    2.3968686823380    3.9917890790954 
Ce    4.0001144275683    0.1796449017107    7.4124023832010 
Ce    9.5680022560654    1.1083418527658    0.9809643475031 
Ce    7.7839447879199    2.2644247336001    4.0586731000097 
Ce    7.7526955278423    0.2972037326837    7.2987973345712 
Ce    0.0026128429880    4.4218859692184    0.9809643475031 
Ce   -1.8538619164886    5.6030711587762    4.1942002572129 
Ce   -1.5418609383683    3.6160618182852    7.3959305213552 
Ce    3.8287754952980    4.4218859692184    0.9809643475031 
Ce    2.1089530668852    5.6994529424466    4.2168089499769 
Ce    7.6549266691429    4.4218859692184    0.9809643475031 
Ce    5.8633427714969    5.5753524730019    4.0319487798201 
Ce    5.9596476093779    3.5672760287121    7.4619021380295 
Ce   -1.9104684831671    7.7354400263133    0.9809643475031 
Ce   -3.8417328457285    8.9309102170610    4.1563188298755 
Ce   -3.5826085070849    6.7746174045375    7.5019046771238 
Ce    1.9156941691429    7.7354400263133    0.9809643475031 
Ce    0.1267613377733    8.8152642638840    4.1927020894508 
Ce    0.2058279317019    6.8718990151480    7.4998389939244 
Ce    5.7418453429879    7.7354400263133    0.9809643475031 
Ce    3.9500116165512    8.8311053732181    4.1159440298513 
Ce    4.1203179461102    6.7162255746939    7.4224338116177 
Cu    2.0758117540293    2.7012313673797    6.7353236199733 
81
FORCE:  3.653290  ...  ENERGY:  -631.17815935
 O    0.0026128429879    0.0038271472816    0.1999463180631 
 O    2.0216030386894    1.3528213134011    3.3048221349167 
 O    0.2380188276558    2.5534416515129    6.5583536935829 
 O    0.0026128429880    2.2128565582500    1.7619595668371 
 O    0.2625015326159    0.2003869465066    4.8479632143906 
 O    2.0299669369963    1.3407046645139    7.9159420880817 
 O    3.8287640168329    0.0038271472816    0.1999463180631 
 O    5.7336543103640    1.1149299140371    3.2985822023194 
 O    3.8710579133259    2.5301415812366    6.5271558554046 
 O    3.8287640168330    2.2128565582500    1.7619595668371 
 O    3.8355515201491    0.2088687001341    5.2051345748884 
 O    5.9039229905577    1.1266201093702    8.1396449034428 
 O    7.6549266691429    0.0038271472816    0.1999463180631 
 O    9.6573982632552    1.1622952852334    3.2973985859190 
 O    7.5919671738333    2.3640262913082    6.4825947166262 
 O    7.6549266691430    2.2128565582500    1.7619595668371 
 O    2.0616666120405    9.9156944588576    4.9564015459103 
 O    9.7274799165281    1.4746290731081    8.1482192222882 
 O   -1.9104627439346    3.3173712637342    0.1999463180631 
 O    0.0590440187212    4.4984544623021    3.2856157975637 
 O   -1.7023865252931    5.7076114263869    6.4233365703498 
 O   -1.9104684831671    5.5264106153449    1.7619595668371 
 O   -1.9365077253735    3.3684194440861    5.2081019415779 
 O   -0.3032238550734    4.9132674250151    8.5312964763723 
 O    1.9156884299104    3.3173712637342    0.1999463180631 
 O    3.8694470829401    4.5705843591969    3.2037149714654 
 O    2.1409040055283    5.8838527515839    6.5459760176631 
 O    1.9156826906780    5.5264106153449    1.7619595668371 
 O    2.1813863706749    3.6293385401277    5.0173043008293 
 O    4.2544947740197    4.5741937070059    8.2858542613869 
 O    5.7418510822204    3.3173712637342    0.1999463180631 
 O    7.7348426694815    4.5450484396566    3.1800262201822 
 O    5.8539226248407    5.9256344640059    6.5220913275694 
 O    5.7418453429880    5.5264106153449    1.7619595668371 
 O    5.8128657051285    3.4380345572943    4.8208360677290 
 O    7.8302656742888    4.6371405379596    8.0662481410634 
 O   -3.8235440700895    6.6309253208291    0.1999463180631 
 O   -1.9622406073491    7.8178555057855    3.6237623891522 
 O   -3.8778993080352    8.8413173950426    6.5034374509837 
 O   -3.8235440700895    8.8399547317975    1.7619595668371 
 O   -3.6407413078621    6.5291016319434    5.1273350058489 
 O   -1.7866317434911    7.9058457968604    7.9652623273760 
 O    0.0026071037555    6.6309253208291    0.1999463180631 
 O    2.0707623198835    7.9313777401437    3.2769169355395 
 O    0.0813479962396    8.9537180267312    6.5205402403614 
 O    0.0026071037555    8.8399547317975    1.7619595668371 
 O    0.1490196310011    6.8258732449067    4.8593434043750 
 O    2.0907832307135    8.1608545846221    8.2553671861115 
 O    3.8287697560655    6.6309253208291    0.1999463180631 
 O    5.9759906478449    7.6287685844020    3.3633722555028 
 O    4.1544292466509    9.0389110210657    6.6946160205025 
 O    3.8287697560655    8.8399547317975    1.7619595668371 
 O    3.9106315857908    6.8092641215493    4.9386646355858 
 O    5.8745808200475    8.0506444728685    8.4187746796765 
Ce    1.9156884299104    1.1083418527658    0.9809643475031 
Ce    0.2059653289279    2.2753933377093    4.0781659322941 
Ce    0.1222912791484    0.1120931676226    7.3956362709878 
Ce    5.7418510822205    1.1083418527658    0.9809643475031 
Ce    3.8304134722534    2.4005293238613    3.9918303653873 
Ce    3.9996353738315    0.1802048580909    7.4143252751368 
Ce    9.5680022560654    1.1083418527658    0.9809643475031 
Ce    7.7824954595367    2.2649795208463    4.0591904332137 
Ce    7.7526503600825    0.3016892487042    7.2971511292211 
Ce    0.0026128429880    4.4218859692184    0.9809643475031 
Ce   -1.8518410753331    5.6029102197775    4.1946959208163 
Ce   -1.5426753354601    3.6163928416734    7.3931458636147 
Ce    3.8287754952980    4.4218859692184    0.9809643475031 
Ce    2.1082870289536    5.6994389261410    4.2162886514591 
Ce    7.6549266691429    4.4218859692184    0.9809643475031 
Ce    5.8623546478374    5.5778470771846    4.0304916702488 
Ce    5.9599046696015    3.5674534691770    7.4611446144092 
Ce   -1.9104684831671    7.7354400263133    0.9809643475031 
Ce   -3.8396923190055    8.9279665940661    4.1558594343407 
Ce   -3.5796955596295    6.7701048499699    7.5065695719018 
Ce    1.9156941691429    7.7354400263133    0.9809643475031 
Ce    0.1277419430383    8.8132783223673    4.1944799091125 
Ce    0.2083509557012    6.8723993276744    7.5011478378067 
Ce    5.7418453429879    7.7354400263133    0.9809643475031 
Ce    3.9494853863233    8.8330697435410    4.1188915517486 
Ce    4.1189467860736    6.7152848917140    7.4201377463477 
Cu    2.0772875402743    2.7045903104095    6.7360859337158 
81
FORCE:  3.605891  ...  ENERGY:  -631.14816832
 O    0.0026128429879    0.0038271472816    0.1999463180631 
 O    2.0179938649394    1.3567281846340    3.3043155224625 
 O    0.2343767681036    2.5512518274229    6.5569613647127 
 O    0.0026128429880    2.2128565582500    1.7619595668371 
 O    0.2679068565691    0.2082617245159    4.8519397001695 
 O    2.0394637597987    1.3460561098843    7.9088486013178 
 O    3.8287640168329    0.0038271472816    0.1999463180631 
 O    5.7390620447947    1.1221287283707    3.2942767948119 
 O    3.8755229788186    2.5360116299152    6.5316905044774 
 O    3.8287640168330    2.2128565582500    1.7619595668371 
 O    3.8337444654041    0.2083494009809    5.2005390228326 
 O    5.9078160841394    1.1365381864022    8.1397546200527 
 O    7.6549266691429    0.0038271472816    0.1999463180631 
 O    9.6475098526193    1.1695065253698    3.2957674352390 
 O    7.5964630590045    2.3770191084069    6.4664725337054 
 O    7.6549266691430    2.2128565582500    1.7619595668371 
 O    2.0715444050962    9.9188456424636    4.9610253824976 
 O    9.7190295279874    1.4651332745606    8.1585804848376 
 O   -1.9104627439346    3.3173712637342    0.1999463180631 
 O    0.0527150226895    4.4869264982512    3.2957006016284 
 O   -1.7055986015464    5.7089725985356    6.4236926361045 
 O   -1.9104684831671    5.5264106153449    1.7619595668371 
 O   -1.9363946051009    3.3663512934576    5.2104379245334 
 O   -0.2969576462453    4.9147493759677    8.5316055533086 
 O    1.9156884299104    3.3173712637342    0.1999463180631 
 O    3.8811104660113    4.5704253089202    3.1989262178117 
 O    2.1490195672449    5.8710341939445    6.5401069773893 
 O    1.9156826906780    5.5264106153449    1.7619595668371 
 O    2.1859458465422    3.6404012821194    5.0239534467283 
 O    4.2565942426606    4.5680411452734    8.2947305860357 
 O    5.7418510822204    3.3173712637342    0.1999463180631 
 O    7.7392380606917    4.5345834284858    3.1766546584144 
 O    5.8611141701248    5.9301235586576    6.5165320485351 
 O    5.7418453429880    5.5264106153449    1.7619595668371 
 O    5.8170212538124    3.4266702162155    4.8164861805148 
 O    7.8366731830211    4.6510966032963    8.0680686156233 
 O   -3.8235440700895    6.6309253208291    0.1999463180631 
 O   -1.9539259516571    7.8163453234088    3.6325803199297 
 O   -3.8848148536284    8.8494359176008    6.4991297624656 
 O   -3.8235440700895    8.8399547317975    1.7619595668371 
 O   -3.6501382680190    6.5317337152090    5.1251313215082 
 O   -1.7860656829896    7.9079274667624    7.9711810936809 
 O    0.0026071037555    6.6309253208291    0.1999463180631 
 O    2.0760144637212    7.9354423693697    3.2803578400296 
 O    0.0825843417048    8.9561952347899    6.5201907895375 
 O    0.0026071037555    8.8399547317975    1.7619595668371 
 O    0.1442828702419    6.8201821277893    4.8596798534385 
 O    2.0819309237208    8.1564441204509    8.2642863937597 
 O    3.8287697560655    6.6309253208291    0.1999463180631 
 O    5.9765648580565    7.6278179607799    3.3676199534421 
 O    4.1615224788823    9.0433620430575    6.6959967162187 
 O    3.8287697560655    8.8399547317975    1.7619595668371 
 O    3.9023552107796    6.8067605707886    4.9302782720138 
 O    5.8796534980849    8.0473203220867    8.4214842921682 
Ce    1.9156884299104    1.1083418527658    0.9809643475031 
Ce    0.2042688118009    2.2783381535813    4.0784601826615 
Ce    0.1236382196238    0.1122871095537    7.3968105352447 
Ce    5.7418510822205    1.1083418527658    0.9809643475031 
Ce    3.8327845787685    2.4041341983814    3.9920215140755 
Ce    3.9991496625851    0.1807632239684    7.4161514522231 
Ce    9.5680022560654    1.1083418527658    0.9809643475031 
Ce    7.7809714637387    2.2655419623870    4.0597974101344 
Ce    7.7526789414604    0.3060855971633    7.2955391390301 
Ce    0.0026128429880    4.4218859692184    0.9809643475031 
Ce   -1.8498038773648    5.6027408312329    4.1952043580790 
Ce   -1.5435857499116    3.6167036855579    7.3904237055647 
Ce    3.8287754952980    4.4218859692184    0.9809643475031 
Ce    2.1075081003187    5.6994357451354    4.2157530701702 
Ce    7.6549266691429    4.4218859692184    0.9809643475031 
Ce    5.8613990656262    5.5802773654116    4.0291675435955 
Ce    5.9600973930289    3.5676013859343    7.4603145546519 
Ce   -1.9104684831671    7.7354400263133    0.9809643475031 
Ce   -3.8374564288081    8.9249559711422    4.1554901387245 
Ce   -3.5768651997299    6.7656065105208    7.5111192756446 
Ce    1.9156941691429    7.7354400263133    0.9809643475031 
Ce    0.1286505209354    8.8114491447795    4.1962470080243 
Ce    0.2109187457140    6.8728487441124    7.5024183607109 
Ce    5.7418453429879    7.7354400263133    0.9809643475031 
Ce    3.9489329278028    8.8351483318438    4.1218760260176 
Ce    4.1174701389437    6.7144211493054    7.4178936881194 
Cu    2.0787616047496    2.7080015412177    6.7366773997644 
81
FORCE:  3.555267  ...  ENERGY:  -631.11490052
 O    0.0026128429879    0.0038271472816    0.1999463180631 
 O    2.0142222709097    1.3599280773871    3.3036490111651 
 O    0.2313894975874    2.5487783968083    6.5551199048553 
 O    0.0026128429880    2.2128565582500    1.7619595668371 
 O    0.2723019034252    0.2160391836372    4.8562419142622 
 O    2.0491623740158    1.3511485021166    7.9023625476767 
 O    3.8287640168329    0.0038271472816    0.1999463180631 
 O    5.7446511389725    1.1293780411671    3.2901096165467 
 O    3.8803343496003    2.5416653702177    6.5364352346264 
 O    3.8287640168330    2.2128565582500    1.7619595668371 
 O    3.8318812235730    0.2079695690390    5.1954443856575 
 O    5.9112519904602    1.1470530995972    8.1402247363373 
 O    7.6549266691429    0.0038271472816    0.1999463180631 
 O    9.6377611349025    1.1766986794730    3.2943782997836 
 O    7.6009831063445    2.3899187816874    6.4503795477202 
 O    7.6549266691430    2.2128565582500    1.7619595668371 
 O    2.0816130276326    9.9224249695329    4.9657301949611 
 O    9.7105234114991    1.4553707685804    8.1687738650069 
 O   -1.9104627439346    3.3173712637342    0.1999463180631 
 O    0.0464779691624    4.4750317244999    3.3061939346916 
 O   -1.7082990252223    5.7104668758847    6.4246419927162 
 O   -1.9104684831671    5.5264106153449    1.7619595668371 
 O   -1.9359347777930    3.3641890049467    5.2114481841281 
 O   -0.2904076323700    4.9167463515973    8.5318516743524 
 O    1.9156884299104    3.3173712637342    0.1999463180631 
 O    3.8927413650265    4.5701082024312    3.1946242318201 
 O    2.1568587849167    5.8584328393392    6.5345757547853 
 O    1.9156826906780    5.5264106153449    1.7619595668371 
 O    2.1898554117212    3.6506705620435    5.0308804197183 
 O    4.2591102074039    4.5622622522845    8.3036310893969 
 O    5.7418510822204    3.3173712637342    0.1999463180631 
 O    7.7436527357230    4.5236599548926    3.1740191787671 
 O    5.8684282480229    5.9338342016116    6.5110396031113 
 O    5.7418453429880    5.5264106153449    1.7619595668371 
 O    5.8211542473127    3.4154773512163    4.8122681357133 
 O    7.8429818621698    4.6648713513175    8.0703596626699 
 O   -3.8235440700895    6.6309253208291    0.1999463180631 
 O   -1.9453368458668    7.8150510517827    3.6403809199795 
 O   -3.8915213189816    8.8576245216872    6.4950116259283 
 O   -3.8235440700895    8.8399547317975    1.7619595668371 
 O   -3.6600634671352    6.5345872759847    5.1224442910214 
 O   -1.7852771698364    7.9103013915476    7.9780478479911 
 O    0.0026071037555    6.6309253208291    0.1999463180631 
 O    2.0809939940152    7.9388286491658    3.2838938626617 
 O    0.0841058122405    8.9587726445228    6.5199026978987 
 O    0.0026071037555    8.8399547317975    1.7619595668371 
 O    0.1399044097676    6.8135883009455    4.8603591383952 
 O    2.0728361341550    8.1516774830664    8.2730178742354 
 O    3.8287697560655    6.6309253208291    0.1999463180631 
 O    5.9764336592015    7.6278483791453    3.3715407825625 
 O    4.1678693813194    9.0474424779047    6.6963607655105 
 O    3.8287697560655    8.8399547317975    1.7619595668371 
 O    3.8945265532956    6.8041648702738    4.9218722917507 
 O    5.8849195308653    8.0435268735824    8.4242201362818 
Ce    1.9156884299104    1.1083418527658    0.9809643475031 
Ce    0.2024196310894    2.2814084203589    4.0787977722303 
Ce    0.1249893497390    0.1125044119941    7.3980288230061 
Ce    5.7418510822205    1.1083418527658    0.9809643475031 
Ce    3.8353442764635    2.4076732658494    3.9923600160486 
Ce    3.9986595321296    0.1813198999366    7.4178731590240 
Ce    9.5680022560654    1.1083418527658    0.9809643475031 
Ce    7.7793752110034    2.2661126546609    4.0604865034367 
Ce    7.7527831085302    0.3103852231730    7.2939668384235 
Ce    0.0026128429880    4.4218859692184    0.9809643475031 
Ce   -1.8477600218869    5.6025609056074    4.1957255690011 
Ce   -1.5445865572749    3.6169941511256    7.3877733993485 
Ce    3.8287754952980    4.4218859692184    0.9809643475031 
Ce    2.1066176583963    5.6994414113015    4.2152010656050 
Ce    7.6549266691429    4.4218859692184    0.9809643475031 
Ce    5.8604824528036    5.5826312100995    4.0279784527697 
Ce    5.9602271570757    3.5677203754225    7.4594137835659 
Ce   -1.9104684831671    7.7354400263133    0.9809643475031 
Ce   -3.8350337265929    8.9218901776535    4.1552150488462 
Ce   -3.5741237405416    6.7611426651005    7.5155421551980 
Ce    1.9156941691429    7.7354400263133    0.9809643475031 
Ce    0.1294867271106    8.8097820990675    4.1979995084683 
Ce    0.2135268251390    6.8732450775205    7.5036505626370 
Ce    5.7418453429879    7.7354400263133    0.9809643475031 
Ce    3.9483590619451    8.8373401440623    4.1248892410202 
Ce    4.1158958674689    6.7136324587461    7.4157048303477 
Cu    2.0802314221929    2.7114686384356    6.7370875254703 
81
FORCE:  3.500884  ...  ENERGY:  -631.07901565
 O    0.0026128429879    0.0038271472816    0.1999463180631 
 O    2.0103496663880    1.3624287453616    3.3028228291258 
 O    0.2290822687301    2.5460404457023    6.5528683192920 
 O    0.0026128429880    2.2128565582500    1.7619595668371 
 O    0.2756735877343    0.2236624633965    4.8608338167011 
 O    2.0590152588025    1.3559271676782    7.8965386714128 
 O    3.8287640168329    0.0038271472816    0.1999463180631 
 O    5.7503833696089    1.1366034964220    3.2861098644596 
 O    3.8854628703700    2.5470857042391    6.5413606208150 
 O    3.8287640168330    2.2128565582500    1.7619595668371 
 O    3.8299853255090    0.2077361627580    5.1898990207878 
 O    5.9142380557376    1.1581306531460    8.1410235462494 
 O    7.6549266691429    0.0038271472816    0.1999463180631 
 O    9.6282353289760    1.1838127001279    3.2932273018348 
 O    7.6055020058381    2.4026494640489    6.4344708673916 
 O    7.6549266691430    2.2128565582500    1.7619595668371 
 O    2.0917996487892    9.9263907887745    4.9705157551999 
 O    9.7019737916285    1.4454150165141    8.1787377755098 
 O   -1.9104627439346    3.3173712637342    0.1999463180631 
 O    0.0403623004028    4.4628547359139    3.3170134522705 
 O   -1.7104881406748    5.7120859082944    6.4261732351320 
 O   -1.9104684831671    5.5264106153449    1.7619595668371 
 O   -1.9350996620720    3.3619709494325    5.2111557585692 
 O   -0.2836167429067    4.9192323074212    8.5319981152329 
 O    1.9156884299104    3.3173712637342    0.1999463180631 
 O    3.9042543802061    4.5696324432912    3.1908487030750 
 O    2.1644055313002    5.8461245348686    6.5294384627120 
 O    1.9156826906780    5.5264106153449    1.7619595668371 
 O    2.1931283812313    3.6600785847196    5.0380446178108 
 O    4.2620617225017    4.5568997728012    8.3125071859447 
 O    5.7418510822204    3.3173712637342    0.1999463180631 
 O    7.7480556453277    4.5123673852512    3.1721521715910 
 O    5.8757435311597    5.9367534700329    6.5056691917547 
 O    5.7418453429880    5.5264106153449    1.7619595668371 
 O    5.8252086707200    3.4045456268900    4.8082020062177 
 O    7.8491527997384    4.6783345596094    8.0731320029532 
 O   -3.8235440700895    6.6309253208291    0.1999463180631 
 O   -1.9365209256083    7.8139812398594    3.6471359047704 
 O   -3.8979645831324    8.8658192889718    6.4911225028553 
 O   -3.8235440700895    8.8399547317975    1.7619595668371 
 O   -3.6704155503647    6.5376489938101    5.1192600002238 
 O   -1.7842647118311    7.9129711498475    7.9858233569244 
 O    0.0026071037555    6.6309253208291    0.1999463180631 
 O    2.0856354261226    7.9415307145530    3.2875053867447 
 O    0.0859052911986    8.9614516476200    6.5196743687376 
 O    0.0026071037555    8.8399547317975    1.7619595668371 
 O    0.1359322869544    6.8061534957639    4.8613766972239 
 O    2.0635356504965    8.1465788282294    8.2814966187367 
 O    3.8287697560655    6.6309253208291    0.1999463180631 
 O    5.9755903363780    7.6288776332480    3.3751044054229 
 O    4.1734086015667    9.0510878108388    6.6957111336916 
 O    3.8287697560655    8.8399547317975    1.7619595668371 
 O    3.8872222894852    6.8015050526163    4.9135110192953 
 O    5.8903471804329    8.0392687994575    8.4269616829220 
Ce    1.9156884299104    1.1083418527658    0.9809643475031 
Ce    0.2004210581560    2.2845938991808    4.0791793853037 
Ce    0.1263462764789    0.1127476595110    7.3992902218679 
Ce    5.7418510822205    1.1083418527658    0.9809643475031 
Ce    3.8380838990974    2.4111366850297    3.9928426778915 
Ce    3.9981675651197    0.1818747865892    7.4194837806087 
Ce    9.5680022560654    1.1083418527658    0.9809643475031 
Ce    7.7777095709473    2.2666919952936    4.0612504138866 
Ce    7.7529640091387    0.3145811682836    7.2924401580290 
Ce    0.0026128429880    4.4218859692184    0.9809643475031 
Ce   -1.8457193803792    5.6023684547727    4.1962595535826 
Ce   -1.5456716165713    3.6172641389702    7.3852022442002 
Ce    3.8287754952980    4.4218859692184    0.9809643475031 
Ce    2.1056177693101    5.6994535388851    4.2146310410560 
Ce    7.6549266691429    4.4218859692184    0.9809643475031 
Ce    5.8596104338175    5.5848978753544    4.0269262225799 
Ce    5.9602950521962    3.5678111334866    7.4584436697577 
Ce   -1.9104684831671    7.7354400263133    0.9809643475031 
Ce   -3.8324341986244    8.9187811423709    4.1550373581204 
Ce   -3.5714765769433    6.7567333938064    7.5198277179133 
Ce    1.9156941691429    7.7354400263133    0.9809643475031 
Ce    0.1302506763487    8.8082809626753    4.1997333046253 
Ce    0.2161702582362    6.8735867373960    7.5048446716861 
Ce    5.7418453429879    7.7354400263133    0.9809643475031 
Ce    3.9477684375286    8.8396440867259    4.1279229851182 
Ce    4.1142319491825    6.7129163348755    7.4135741383462 
Cu    2.0816961891115    2.7149935901916    6.7373085553974 
81
FORCE:  3.444302  ...  ENERGY:  -631.04133123
 O    0.0026128429879    0.0038271472816    0.1999463180631 
 O    2.0064385516162    1.3642434096116    3.3018388011530 
 O    0.2274667895660    2.5430592470796    6.5502508596285 
 O    0.0026128429880    2.2128565582500    1.7619595668371 
 O    0.2780200155497    0.2310750015393    4.8656786832155 
 O    2.0689734011132    1.3603435962348    7.8914235051423 
 O    3.8287640168329    0.0038271472816    0.1999463180631 
 O    5.7562182177223    1.1437325274467    3.2823042263746 
 O    3.8908759996793    2.5522598085511    6.5464367818043 
 O    3.8287640168330    2.2128565582500    1.7619595668371 
 O    3.8280809333808    0.2076528601757    5.1839531104568 
 O    5.9167871358525    1.1697340666718    8.1421177470343 
 O    7.6549266691429    0.0038271472816    0.1999463180631 
 O    9.6190120379945    1.1907904345769    3.2923050892492 
 O    7.6099962266318    2.4151421674340    6.4188995485307 
 O    7.6549266691430    2.2128565582500    1.7619595668371 
 O    2.1020312655286    9.9307001566137    4.9753825194161 
 O    9.6933943851412    1.4353372927669    8.1884138224750 
 O   -1.9104627439346    3.3173712637342    0.1999463180631 
 O    0.0343946464492    4.4504855947124    3.3280758974784 
 O   -1.7121728923751    5.7138190592777    6.4282674309638 
 O   -1.9104684831671    5.5264106153449    1.7619595668371 
 O   -1.9338605617752    3.3597372871100    5.2095985126326 
 O   -0.2766290551609    4.9221758310097    8.5320086078817 
 O    1.9156884299104    3.3173712637342    0.1999463180631 
 O    3.9155662352867    4.5689973356553    3.1876340748364 
 O    2.1716504514466    5.8341801573122    6.5247475644131 
 O    1.9156826906780    5.5264106153449    1.7619595668371 
 O    2.1957832927935    3.6685675950160    5.0454024737032 
 O    4.2654623899349    4.5519925747347    8.3213121149618 
 O    5.7418510822204    3.3173712637342    0.1999463180631 
 O    7.7524189542281    4.5007968752513    3.1710755345878 
 O    5.8829424226614    5.9388729143756    6.5004746463153 
 O    5.7418453429880    5.5264106153449    1.7619595668371 
 O    5.8291285091251    3.3939595386961    4.8043080930225 
 O    7.8551518472937    4.6913549122873    8.0763959010207 
 O   -3.8235440700895    6.6309253208291    0.1999463180631 
 O   -1.9275253673724    7.8131400627088    3.6528270262174 
 O   -3.9040928782036    8.8739595815367    6.4874993456183 
 O   -3.8235440700895    8.8399547317975    1.7619595668371 
 O   -3.6810914984842    6.5409062440692    5.1155668159614 
 O   -1.7830307768436    7.9159374375068    7.9944631407740 
 O    0.0026071037555    6.6309253208291    0.1999463180631 
 O    2.0898759728399    7.9435483667186    3.2911739360927 
 O    0.0879734810223    8.9642338345841    6.5195019243363 
 O    0.0026071037555    8.8399547317975    1.7619595668371 
 O    0.1324096034382    6.7979499807141    4.8627243182863 
 O    2.0540689012724    8.1411727093265    8.2896637771900 
 O    3.8287697560655    6.6309253208291    0.1999463180631 
 O    5.9740339139163    7.6309119856926    3.3782852747046 
 O    4.1780915857175    9.0542399885090    6.6940610506235 
 O    3.8287697560655    8.8399547317975    1.7619595668371 
 O    3.8805142745392    6.7988065658602    4.9052564981361 
 O    5.8959039627317    8.0345534557873    8.4296858938816 
Ce    1.9156884299104    1.1083418527658    0.9809643475031 
Ce    0.1982767661093    2.2878832577145    4.0796052499827 
Ce    0.1277098033363    0.1130188402327    7.4005929070216 
Ce    5.7418510822205    1.1083418527658    0.9809643475031 
Ce    3.8409940343288    2.4145151117184    3.9934663061896 
Ce    3.9976761146407    0.1824279833327    7.4209780706527 
Ce    9.5680022560654    1.1083418527658    0.9809643475031 
Ce    7.7759778149327    2.2672802825043    4.0620811579471 
Ce    7.7532220450319    0.3186681639548    7.2909643441708 
Ce    0.0026128429880    4.4218859692184    0.9809643475031 
Ce   -1.8436903895135    5.6021607947553    4.1968065399245 
Ce   -1.5468340981142    3.6175141461238    7.3827159426462 
Ce    3.8287754952980    4.4218859692184    0.9809643475031 
Ce    2.1045104991839    5.6994697421321    4.2140418560181 
Ce    7.6549266691429    4.4218859692184    0.9809643475031 
Ce    5.8587884609389    5.5870683151920    4.0260113092283 
Ce    5.9603021688445    3.5678739583459    7.4574064942379 
Ce   -1.9104684831671    7.7354400263133    0.9809643475031 
Ce   -3.8296685772673    8.9156410922843    4.1549600318611 
Ce   -3.5689280133593    6.7523986773294    7.5239672959502 
Ce    1.9156941691429    7.7354400263133    0.9809643475031 
Ce    0.1309430573575    8.8069479225442    4.2014456592827 
Ce    0.2188441092656    6.8738721332361    7.5060018283635 
Ce    5.7418453429879    7.7354400263133    0.9809643475031 
Ce    3.9471663920393    8.8420586687381    4.1309697309767 
Ce    4.1124867059716    6.7122698949074    7.4115036650246 
Cu    2.0831571107444    2.7185766947051    6.7373352432214 
81
FORCE:  3.387320  ...  ENERGY:  -631.00311764
 O    0.0026128429879    0.0038271472816    0.1999463180631 
 O    2.0025492459280    1.3653894662612    3.3007005768636 
 O    0.2265427731334    2.5398583602622    6.5473170237948 
 O    0.0026128429880    2.2128565582500    1.7619595668371 
 O    0.2793499678969    0.2382204346238    4.8707397895347 
 O    2.0789875583332    1.3643568323401    7.8870549136412 
 O    3.8287640168329    0.0038271472816    0.1999463180631 
 O    5.7621152791161    1.1506953509323    3.2787166529029 
 O    3.8965379247176    2.5571769472598    6.5516324677489 
 O    3.8287640168330    2.2128565582500    1.7619595668371 
 O    3.8261913484725    0.2077206553561    5.1776529591796 
 O    5.9189159893637    1.1818227823543    8.1434717549264 
 O    7.6549266691429    0.0038271472816    0.1999463180631 
 O    9.6101667902578    1.1975764140362    3.2915975197611 
 O    7.6144456240198    2.4273369497697    6.4038138568265 
 O    7.6549266691430    2.2128565582500    1.7619595668371 
 O    2.1122355635213    9.9353103282885    4.9803286628011 
 O    9.6847984496644    1.4252031061715    8.1977481740524 
 O   -1.9104627439346    3.3173712637342    0.1999463180631 
 O    0.0285994564324    4.4380195322487    3.3392955043166 
 O   -1.7133671692661    5.7156538036252    6.4308988047920 
 O   -1.9104684831671    5.5264106153449    1.7619595668371 
 O   -1.9321904451177    3.3575292716445    5.2068277690568 
 O   -0.2694894499309    4.9255401419863    8.5318489371397 
 O    1.9156884299104    3.3173712637342    0.1999463180631 
 O    3.9265981306058    4.5682017860528    3.1850081754337 
 O    2.1785897574623    5.8226659113477    6.5205509611112 
 O    1.9156826906780    5.5264106153449    1.7619595668371 
 O    2.1978420702759    3.6760916671653    5.0529088233857 
 O    4.2693222533605    4.5475761461781    8.3300036777520 
 O    5.7418510822204    3.3173712637342    0.1999463180631 
 O    7.7567167784857    4.4890407734599    3.1707999885074 
 O    5.8899169101724    5.9401891548212    6.4955038680158 
 O    5.7418453429880    5.5264106153449    1.7619595668371 
 O    5.8328564275955    3.3837991088050    4.8006060128187 
 O    7.8609504808501    4.7038034792206    8.0801625338245 
 O   -3.8235440700895    6.6309253208291    0.1999463180631 
 O   -1.9183963719809    7.8125276197373    3.6574437916718 
 O   -3.9098582242114    8.8819883400950    6.4841750007698 
 O   -3.8235440700895    8.8399547317975    1.7619595668371 
 O   -3.6919869148546    6.5443483902750    5.1113562984948 
 O   -1.7815816206373    7.9191995586807    8.0039195264184 
 O    0.0026071037555    6.6309253208291    0.1999463180631 
 O    2.0936558313643    7.9448867747966    3.2948817188230 
 O    0.0902988458543    8.9671224858272    6.5193782935618 
 O    0.0026071037555    8.8399547317975    1.7619595668371 
 O    0.1293740085843    6.7890570821215    4.8643910527318 
 O    2.0444760611102    8.1354829838989    8.2974650615430 
 O    3.8287697560655    6.6309253208291    0.1999463180631 
 O    5.9717675483944    7.6339469631902    3.3810626332111 
 O    4.1818832096686    9.0568485124523    6.6914326421092 
 O    3.8287697560655    8.8399547317975    1.7619595668371 
 O    3.8744678209235    6.7960926711087    4.8971682626495 
 O    5.9015576232752    8.0293921749039    8.4323681342461 
Ce    1.9156884299104    1.1083418527658    0.9809643475031 
Ce    0.1959909445892    2.2912642689702    4.0800762786716 
Ce    0.1290801024880    0.1133194452555    7.4019352817597 
Ce    5.7418510822205    1.1083418527658    0.9809643475031 
Ce    3.8440648106780    2.4177999969631    3.9942265670226 
Ce    3.9971878781319    0.1829797883862    7.4223512390339 
Ce    9.5680022560654    1.1083418527658    0.9809643475031 
Ce    7.7741835012839    2.2678773174802    4.0629700677779 
Ce    7.7535572736022    0.3226421345230    7.2895437307691 
Ce    0.0026128429880    4.4218859692184    0.9809643475031 
Ce   -1.8416814859615    5.6019356392074    4.1973665280268 
Ce   -1.5480670000399    3.6177447690249    7.3803192848088 
Ce    3.8287754952980    4.4218859692184    0.9809643475031 
Ce    2.1032980863183    5.6994873370689    4.2134325980868 
Ce    7.6549266691429    4.4218859692184    0.9809643475031 
Ce    5.8580207811997    5.5891353723498    4.0252332565126 
Ce    5.9602495400825    3.5679096452517    7.4563045380171 
Ce   -1.9104684831671    7.7354400263133    0.9809643475031 
Ce   -3.8267485705559    8.9124823537903    4.1549848948766 
Ce   -3.5664808046213    6.7481578005156    7.5279535900747 
Ce    1.9156941691429    7.7354400263133    0.9809643475031 
Ce    0.1315650753758    8.8057834757063    4.2031338352278 
Ce    0.2215432129180    6.8741000721638    7.5071236293766 
Ce    5.7418453429879    7.7354400263133    0.9809643475031 
Ce    3.9465582629636    8.8445822001899    4.1340228636648 
Ce    4.1106678858000    6.7116900572426    7.4094947789892 
Cu    2.0846169993154    2.7222170573181    6.7371650798307 
81
FORCE:  3.330378  ...  ENERGY:  -630.96578462
 O    0.0026128429879    0.0038271472816    0.1999463180631 
 O    1.9987393138252    1.3658870948143    3.2994143149862 
 O    0.2262983966136    2.5364632332945    6.5441188188325 
 O    0.0026128429880    2.2128565582500    1.7619595668371 
 O    0.2796810642198    0.2450445861495    4.8759817799946 
 O    2.0890083730628    1.3679346683132    7.8834632343504 
 O    3.8287640168329    0.0038271472816    0.1999463180631 
 O    5.7680343791627    1.1574257622012    3.2753669888368 
 O    3.9024117422197    2.5618296648837    6.5569168850060 
 O    3.8287640168330    2.2128565582500    1.7619595668371 
 O    3.8243391259678    0.2079384548286    5.1710441871682 
 O    5.9206452775083    1.1943544530571    8.1450488456553 
 O    7.6549266691429    0.0038271472816    0.1999463180631 
 O    9.6017701209334    1.2041176548823    3.2910865733867 
 O    7.6188337837969    2.4391839090317    6.3893540744310 
 O    7.6549266691430    2.2128565582500    1.7619595668371 
 O    2.1223421797768    9.9401793542886    4.9853521324455 
 O    9.6761984967247    1.4150732934588    8.2066913323118 
 O   -1.9104627439346    3.3173712637342    0.1999463180631 
 O    0.0229992281435    4.4255567501968    3.3505883315951 
 O   -1.7140915177999    5.7175764232505    6.4340356505691 
 O   -1.9104684831671    5.5264106153449    1.7619595668371 
 O   -1.9300638872995    3.3553879578888    5.2029051151279 
 O   -0.2622406844988    4.9292843843113    8.5314873969596 
 O    1.9156884299104    3.3173712637342    0.1999463180631 
 O    3.9372755135335    4.5672441045746    3.1829926744675 
 O    2.1852258024328    5.8116419378609    6.5168926763109 
 O    1.9156826906780    5.5264106153449    1.7619595668371 
 O    2.1993308271864    3.6826167047645    5.0605169061410 
 O    4.2736457893797    4.5436818995610    8.3385442376405 
 O    5.7418510822204    3.3173712637342    0.1999463180631 
 O    7.7609269646631    4.4771905337860    3.1713264457538 
 O    5.8965683936783    5.9407025889955    6.4908011084618 
 O    5.7418453429880    5.5264106153449    1.7619595668371 
 O    5.8363353781600    3.3741384944083    4.7971160666007 
 O    7.8665267191471    4.7155555053487    8.0844428502154 
 O   -3.8235440700895    6.6309253208291    0.1999463180631 
 O   -1.9091787054473    7.8121401335009    3.6609846044262 
 O   -3.9152170603813    8.8898535750877    6.4811779809425 
 O   -3.8235440700895    8.8399547317975    1.7619595668371 
 O   -3.7030007889837    6.5479670822878    5.1066227452977 
 O   -1.7799267703383    7.9227547299893    8.0141416473213 
 O    0.0026071037555    6.6309253208291    0.1999463180631 
 O    2.0969196181024    7.9455563764612    3.2986132240635 
 O    0.0928683576369    8.9701204841354    6.5192948085738 
 O    0.0026071037555    8.8399547317975    1.7619595668371 
 O    0.1268567238175    6.7795588978198    4.8663634425976 
 O    2.0347965011450    8.1295317201728    8.3048550796849 
 O    3.8287697560655    6.6309253208291    0.1999463180631 
 O    5.9687987008144    7.6379686488414    3.3834207419694 
 O    4.1847619512982    9.0588703396877    6.6878580703979 
 O    3.8287697560655    8.8399547317975    1.7619595668371 
 O    3.8691404931400    6.7933833490525    4.8893019694944 
 O    5.9072765388921    8.0238001659900    8.4349835410001 
Ce    1.9156884299104    1.1083418527658    0.9809643475031 
Ce    0.1935674962738    2.2947246065514    4.0805929275725 
Ce    0.1304570591494    0.1136502698309    7.4033150650716 
Ce    5.7418510822205    1.1083418527658    0.9809643475031 
Ce    3.8472866436265    2.4209834876565    3.9951193545714 
Ce    3.9967053234633    0.1835304999690    7.4236000923374 
Ce    9.5680022560654    1.1083418527658    0.9809643475031 
Ce    7.7723304178943    2.2684831002214    4.0639087036398 
Ce    7.7539690635340    0.3264999983894    7.2881831079462 
Ce    0.0026128429880    4.4218859692184    0.9809643475031 
Ce   -1.8396994420177    5.6016902047493    4.1979395178895 
Ce   -1.5493628613461    3.6179570017378    7.3780154641028 
Ce    3.8287754952980    4.4218859692184    0.9809643475031 
Ce    2.1019831133679    5.6995034409094    4.2128028110601 
Ce    7.6549266691429    4.4218859692184    0.9809643475031 
Ce    5.8573110677087    5.5910938776938    4.0245911520287 
Ce    5.9601377972257    3.5679186912362    7.4551398540047 
Ce   -1.9104684831671    7.7354400263133    0.9809643475031 
Ce   -3.8236858865246    8.9093164580337    4.1551135438745 
Ce   -3.5641367872837    6.7440290541469    7.5317818101647 
Ce    1.9156941691429    7.7354400263133    0.9809643475031 
Ce    0.1321178782502    8.8047870257232    4.2047957795510 
Ce    0.2242629778075    6.8742695601149    7.5082121276349 
Ce    5.7418453429879    7.7354400263133    0.9809643475031 
Ce    3.9459491008261    8.8472132893912    4.1370759963529 
Ce    4.1087834088086    6.7111734420628    7.4075479364421 
Cu    2.0860799296797    2.7259117952444    6.7367973809220 
81
FORCE:  3.274353  ...  ENERGY:  -630.93091229
 O    0.0026128429879    0.0038271472816    0.1999463180631 
 O    1.9950625893087    1.3657589599352    3.2979877709570 
 O    0.2267120804922    2.5329007059106    6.5407123576025 
 O    0.0026128429880    2.2128565582500    1.7619595668371 
 O    0.2790384423568    0.2514955659636    4.8813706675371 
 O    2.0989885540264    1.3710540418638    7.8806689963654 
 O    3.8287640168329    0.0038271472816    0.1999463180631 
 O    5.7739360893347    1.1638626263032    3.2722718855537 
 O    3.9084584827970    2.5662142833849    6.5622590118312 
 O    3.8287640168330    2.2128565582500    1.7619595668371 
 O    3.8225467062657    0.2083023817429    5.1641692212198 
 O    5.9219990476704    1.2072844452966    8.1468122949501 
 O    7.6549266691429    0.0038271472816    0.1999463180631 
 O    9.5938860798558    1.2103648515294    3.2907512648285 
 O    7.6231477352979    2.4506428850250    6.3756513594536 
 O    7.6549266691430    2.2128565582500    1.7619595668371 
 O    7.8715156617824    0.0046251820447    4.9904515597429 
 O    9.6676070378492    1.4050033234126    8.2152001861530 
 O   -1.9104627439346    3.3173712637342    0.1999463180631 
 O    0.0176142784657    4.4131996371726    3.3618711224270 
 O   -1.7143712479919    5.7195715101581    6.4376426126309 
 O   -1.9104684831671    5.5264106153449    1.7619595668371 
 O   -1.9274571852903    3.3533538042570    5.1979033150843 
 O   -0.2549251144003    4.9333648191585    8.5308954747089 
 O    1.9156884299104    3.3173712637342    0.1999463180631 
 O    3.9475301445952    4.5661226013114    3.1816017142037 
 O    2.1915668508527    5.8011601270046    6.5138103466872 
 O    1.9156826906780    5.5264106153449    1.7619595668371 
 O    2.2002786614338    3.6881199437426    5.0681783645442 
 O    4.2784344901931    4.5403366746176    8.3469011761758 
 O    5.7418510822204    3.3173712637342    0.1999463180631 
 O    7.7650294254464    4.4653378089515    3.1726460103859 
 O    5.9028086037832    5.9404161990911    6.4864049167324 
 O    5.7418453429880    5.5264106153449    1.7619595668371 
 O    5.8395098624405    3.3650430055258    4.7938567305543 
 O    7.8718651236493    4.7264927964347    8.0892466585390 
 O   -3.8235440700895    6.6309253208291    0.1999463180631 
 O   -1.8999150676614    7.8119702479241    3.6634526578954 
 O   -3.9201299581860    8.8975090625281    6.4785336053539 
 O   -3.8235440700895    8.8399547317975    1.7619595668371 
 O   -3.7140337173647    6.5517553616581    5.1013625067530 
 O   -1.7780781635501    7.9265989751757    8.0250781807440 
 O    0.0026071037555    6.6309253208291    0.1999463180631 
 O    2.0996173443391    7.9455725797082    3.3023540814475 
 O    0.0956674961118    8.9732317063593    6.5192409767236 
 O    0.0026071037555    8.8399547317975    1.7619595668371 
 O    0.1248835756840    6.7695415137713    4.8686259770117 
 O    2.0250682724882    8.1233394952775    8.3117955106375 
 O    3.8287697560655    6.6309253208291    0.1999463180631 
 O    5.9651397679187    7.6429529862921    3.3853495645328 
 O    4.1867198904656    9.0602702803414    6.6833772531753 
 O    3.8287697560655    8.8399547317975    1.7619595668371 
 O    3.8645807877034    6.7906955981901    4.8817078009038 
 O    5.9130301194733    8.0177952227955    8.4375065668247 
Ce    1.9156884299104    1.1083418527658    0.9809643475031 
Ce    0.1910104386257    2.2982513476230    4.0811563371907 
Ce    0.1318398124356    0.1140112145525    7.4047304321489 
Ce    5.7418510822205    1.1083418527658    0.9809643475031 
Ce    3.8506501782254    2.4240589235682    3.9961403349160 
Ce    3.9962313202511    0.1840805157070    7.4247228057548 
Ce    9.5680022560654    1.1083418527658    0.9809643475031 
Ce    7.7704222378727    2.2690968354764    4.0648886257936 
Ce    7.7544567261196    0.3302405626767    7.2868863534201 
Ce    0.0026128429880    4.4218859692184    0.9809643475031 
Ce   -1.8377506856223    5.6014219068138    4.1985255095126 
Ce   -1.5507147375614    3.6181519377331    7.3758051648314 
Ce    3.8287754952980    4.4218859692184    0.9809643475031 
Ce    2.1005682203797    5.6995154690866    4.2121518106349 
Ce    7.6549266691429    4.4218859692184    0.9809643475031 
Ce    5.8566622474746    5.5929407496249    4.0240831709681 
Ce    5.9599679733360    3.5679016927379    7.4539147232114 
Ce   -1.9104684831671    7.7354400263133    0.9809643475031 
Ce   -3.8204921184230    8.9061543397213    4.1553462069557 
Ce   -3.5618964204850    6.7400295361279    7.5354487628053 
Ce    1.9156941691429    7.7354400263133    0.9809643475031 
Ce    0.1326035321044    8.8039565844663    4.2064298955448 
Ce    0.2269989847249    6.8743799012443    7.5092700603512 
Ce    5.7418453429879    7.7354400263133    0.9809643475031 
Ce    3.9453443005052    8.8499505446522    4.1401243389187 
Ce    4.1068404490381    6.7107165701432    7.4056635935854 
Cu    2.0875512967157    2.7296565346015    6.7362351118091 
81
FORCE:  3.219222  ...  ENERGY:  -630.90019721
 O    0.0026128429879    0.0038271472816    0.1999463180631 
 O    1.9915691758783    1.3650300126360    3.2964298407172 
 O    0.2277536364063    2.5291984130961    6.5371553496729 
 O    0.0026128429880    2.2128565582500    1.7619595668371 
 O    0.2774526924170    0.2575259572024    4.8868740618117 
 O    2.1088823021485    1.3737024277827    7.8786829204360 
 O    3.8287640168329    0.0038271472816    0.1999463180631 
 O    5.7797827028748    1.1699491821710    3.2694454853192 
 O    3.9146374552912    2.5703295104801    6.5676307917942 
 O    3.8287640168330    2.2128565582500    1.7619595668371 
 O    3.8208352671342    0.2088065711198    5.1570688914241 
 O    5.9230050203430    1.2205681255887    8.1487258347425 
 O    7.6549266691429    0.0038271472816    0.1999463180631 
 O    9.5865721741348    1.2162728734616    3.2905678715763 
 O    7.6273795583818    2.4616828629459    6.3628293426689 
 O    7.6549266691430    2.2128565582500    1.7619595668371 
 O    7.8812260988184    0.0098961082125    4.9956232950763 
 O    9.6590372732725    1.3950417063673    8.2232364145978 
 O   -1.9104627439346    3.3173712637342    0.1999463180631 
 O    0.0124626285891    4.4010533651713    3.3730631290369 
 O   -1.7142362612435    5.7216228611010    6.4416813699993 
 O   -1.9104684831671    5.5264106153449    1.7619595668371 
 O   -1.9243493908916    3.3514652810348    5.1919026604988 
 O   -0.2475821681629    4.9377348249156    8.5300487635741 
 O    1.9156884299104    3.3173712637342    0.1999463180631 
 O    3.9572984904871    4.5648367792312    3.1808430500781 
 O    2.1976230611637    5.7912667027655    6.5113356782872 
 O    1.9156826906780    5.5264106153449    1.7619595668371 
 O    2.2007150726731    3.6925888588905    5.0758432444634 
 O    4.2836854287919    4.5375638318572    8.3550471212305 
 O    5.7418510822204    3.3173712637342    0.1999463180631 
 O    7.7690079188078    4.4535717665178    3.1747411186220 
 O    5.9085613234795    5.9393357506806    6.4823506484920 
 O    5.7418453429880    5.5264106153449    1.7619595668371 
 O    5.8423275386363    3.3565697014443    4.7908453403602 
 O    7.8769563394077    4.7365067012584    8.0945842233430 
 O   -3.8235440700895    6.6309253208291    0.1999463180631 
 O   -1.8906445427965    7.8120073265199    3.6648579885260 
 O   -3.9245629987613    8.9049151392534    6.4762614906953 
 O   -3.8235440700895    8.8399547317975    1.7619595668371 
 O   -3.7249903713458    6.5557087550968    5.0955744423555 
 O   -1.7760504927078    7.9307273239187    8.0366803130599 
 O    0.0026071037555    6.6309253208291    0.1999463180631 
 O    2.1017050475533    7.9449538741320    3.3060935702252 
 O    0.0986808801359    8.9764603275687    6.5192049367562 
 O    0.0026071037555    8.8399547317975    1.7619595668371 
 O    0.1234741349666    6.7590919105961    4.8711626889000 
 O    2.0153275896969    8.1169250970270    8.3182551045557 
 O    3.8287697560655    6.6309253208291    0.1999463180631 
 O    5.9608071065198    7.6488676684546    3.3868429421726 
 O    4.1877631681495    9.0610219917114    6.6780383197649 
 O    3.8287697560655    8.8399547317975    1.7619595668371 
 O    3.8608276166100    6.7880415461051    4.8744302365845 
 O    5.9187900132103    8.0113980218562    8.4399112081992 
Ce    1.9156884299104    1.1083418527658    0.9809643475031 
Ce    0.1883237317155    2.3018314699437    4.0817669637283 
Ce    0.1332273866771    0.1144015835752    7.4061784176778 
Ce    5.7418510822205    1.1083418527658    0.9809643475031 
Ce    3.8541466334491    2.4270202409064    3.9972851741361 
Ce    3.9957681641884    0.1846304320384    7.4257184668817 
Ce    9.5680022560654    1.1083418527658    0.9809643475031 
Ce    7.7684627491126    2.2697179268066    4.0659016226011 
Ce    7.7550191135122    0.3338634297593    7.2856564325046 
Ce    0.0026128429880    4.4218859692184    0.9809643475031 
Ce   -1.8358402099077    5.6011280614278    4.1991249590983 
Ce   -1.5521153398607    3.6183306704815    7.3736886150957 
Ce    3.8287754952980    4.4218859692184    0.9809643475031 
Ce    2.0990563343622    5.6995203400013    4.2114798249121 
Ce    7.6549266691429    4.4218859692184    0.9809643475031 
Ce    5.8560763866210    5.5946745964531    4.0237065761180 
Ce    5.9597406423367    3.5678592461953    7.4526314266479 
Ce   -1.9104684831671    7.7354400263133    0.9809643475031 
Ce   -3.8171785151468    8.9030059394952    4.1556835684234 
Ce   -3.5597594746559    6.7361749526736    7.5389526231879 
Ce    1.9156941691429    7.7354400263133    0.9809643475031 
Ce    0.1330239308850    8.8032896667750    4.2080352708051 
Ce    0.2297476753461    6.8744306979264    7.5103003928392 
Ce    5.7418453429879    7.7354400263133    0.9809643475031 
Ce    3.9447487977410    8.8527929719086    4.1431635574421 
Ce    4.1048456066057    6.7103157634460    7.4038412942171 
Cu    2.0890379301102    2.7334450127846    6.7354832907153 
81
FORCE:  3.167082  ...  ENERGY:  -630.87513436
 O    0.0026128429879    0.0038271472816    0.1999463180631 
 O    1.9883026917009    1.3637258997740    3.2947510169156 
 O    0.2293867924065    2.5253839898366    6.5335068732182 
 O    0.0026128429880    2.2128565582500    1.7619595668371 
 O    0.2749591680728    0.2630922198527    4.8924625377817 
 O    2.1186449088080    1.3758775397221    7.8775075156738 
 O    3.8287640168329    0.0038271472816    0.1999463180631 
 O    5.7855384069721    1.1756341360902    3.2668987369843 
 O    3.9209077389744    2.5741768372656    6.5730043965656 
 O    3.8287640168330    2.2128565582500    1.7619595668371 
 O    3.8192244941407    0.2094449591677    5.1497806063550 
 O    5.9236917195116    1.2341608604496    8.1507545655701 
 O    7.6549266691429    0.0038271472816    0.1999463180631 
 O    9.5798788516240    1.2218008646391    3.2905113025134 
 O    7.6315259816860    2.4722820727876    6.3509995654952 
 O    7.6549266691430    2.2128565582500    1.7619595668371 
 O    7.8906446958818    0.0153146529184    5.0008634607276 
 O    9.6505027475834    1.3852297953950    8.2307648900831 
 O   -1.9104627439346    3.3173712637342    0.1999463180631 
 O    0.0075609796802    4.3892255913489    3.3840870251657 
 O   -1.7137200172802    5.7237134775810    6.4461126892919 
 O   -1.9104684831671    5.5264106153449    1.7619595668371 
 O   -1.9207219663822    3.3497596656307    5.1849905140777 
 O   -0.2402480603435    4.9423469847189    8.5289260501568 
 O    1.9156884299104    3.3173712637342    0.1999463180631 
 O    3.9665236180230    4.5633860418954    3.1807182787983 
 O    2.2034084370930    5.7820014277127    6.5094946746320 
 O    1.9156826906780    5.5264106153449    1.7619595668371 
 O    2.2006707657982    3.6960231519889    5.0834618198674 
 O    4.2893912015665    4.5353823579067    8.3629601751029 
 O    5.7418510822204    3.3173712637342    0.1999463180631 
 O    7.7728478097042    4.4419787906663    3.1775862231434 
 O    5.9137618142248    5.9374676057750    6.4786693254846 
 O    5.7418453429880    5.5264106153449    1.7619595668371 
 O    5.8447396232714    3.3487690806265    4.7880976349914 
 O    7.8817980133370    4.7454997021189    8.1004662653772 
 O   -3.8235440700895    6.6309253208291    0.1999463180631 
 O   -1.8814012218936    7.8122380488274    3.6652156509881 
 O   -3.9284870268062    8.9120386035184    6.4743794288492 
 O   -3.8235440700895    8.8399547317975    1.7619595668371 
 O   -3.7357801858382    6.5598240815985    5.0892583240041 
 O   -1.7738608033321    7.9351319231110    8.0488976339345 
 O    0.0026071037555    6.6309253208291    0.1999463180631 
 O    2.1031435861794    7.9437217315202    3.3098216539498 
 O    0.1018924398583    8.9798119145232    6.5191741431131 
 O    0.0026071037555    8.8399547317975    1.7619595668371 
 O    0.1226424627850    6.7482952795985    4.8739571549860 
 O    2.0056093473046    8.1103068162032    8.3242096827270 
 O    3.8287697560655    6.6309253208291    0.1999463180631 
 O    5.9558194839080    7.6556744238563    3.3878988219793 
 O    4.1879094611859    9.0611073818286    6.6718960144212 
 O    3.8287697560655    8.8399547317975    1.7619595668371 
 O    3.8579116273614    6.7854291453113    4.8675087380198 
 O    5.9245302213799    8.0046299355531    8.4421728302091 
Ce    1.9156884299104    1.1083418527658    0.9809643475031 
Ce    0.1855111060442    2.3054519512722    4.0824264038928 
Ce    0.1346181174965    0.1148198858028    7.4076562844456 
Ce    5.7418510822205    1.1083418527658    0.9809643475031 
Ce    3.8577677448026    2.4298626681628    3.9985497664127 
Ce    3.9953184379297    0.1851809448085    7.4265866195160 
Ce    9.5680022560654    1.1083418527658    0.9809643475031 
Ce    7.7664555099380    2.2703453801480    4.0669397105251 
Ce    7.7556546187270    0.3373699913271    7.2844967667155 
Ce    0.0026128429880    4.4218859692184    0.9809643475031 
Ce   -1.8339723766906    5.6008062828368    4.1997380947476 
Ce   -1.5535583550882    3.6184947904857    7.3716639900871 
Ce    3.8287754952980    4.4218859692184    0.9809643475031 
Ce    2.0974503249317    5.6995154690866    4.2107870819929 
Ce    7.6549266691429    4.4218859692184    0.9809643475031 
Ce    5.8555550921330    5.5962960146170    4.0234586302658 
Ce    5.9594567798972    3.5677920474534    7.4512922453246 
Ce   -1.9104684831671    7.7354400263133    0.9809643475031 
Ce   -3.8137556368838    8.8998802039335    4.1561247158735 
Ce   -3.5577245723807    6.7324790218701    7.5422936194137 
Ce    1.9156941691429    7.7354400263133    0.9809643475031 
Ce    0.1333812555005    8.8027828928311    4.2096116772307 
Ce    0.2325057209163    6.8744221489740    7.5113060904127 
Ce    5.7418453429879    7.7354400263133    0.9809643475031 
Ce    3.9441676430581    8.8557397759090    4.1461909147105 
Ce    4.1028051372750    6.7099675427466    7.4020798978317 
Cu    2.0905471186884    2.7372691778736    6.7345499011778 
81
FORCE:  3.230074  ...  ENERGY:  -630.85719269
 O    0.0026128429879    0.0038271472816    0.1999463180631 
 O    1.9853002122185    1.3618724670190    3.2929624765041 
 O    0.2315707425497    2.5214843752726    6.5298266907161 
 O    0.0026128429880    2.2128565582500    1.7619595668371 
 O    0.2715957482585    0.2681557842224    4.8981105481284 
 O    2.1282348219615    1.3775877278217    7.8771368514513 
 O    3.8287640168329    0.0038271472816    0.1999463180631 
 O    5.7911704306090    1.1808714628871    3.2646396240861 
 O    3.9272284131190    2.5777601405919    6.5783540507258 
 O    3.8287640168330    2.2128565582500    1.7619595668371 
 O    3.8177326380447    0.2102093945598    5.1423390373736 
 O    5.9240883004774    1.2480181158019    8.1528649565772 
 O    7.6549266691429    0.0038271472816    0.1999463180631 
 O    9.5738485826439    1.2269120446853    3.2905546417148 
 O    7.6355882104496    2.4824266970574    6.3402639891063 
 O    7.6549266691430    2.2128565582500    1.7619595668371 
 O    7.8997152658865    0.0208502983904    5.0061679508779 
 O    9.6420174645092    1.3756045696849    8.2377580123806 
 O   -1.9104627439346    3.3173712637342    0.1999463180631 
 O    0.0029233354662    4.3778230782038    3.3948686779687 
 O   -1.7128587306589    5.7258267587255    6.4508973371264 
 O   -1.9104684831671    5.5264106153449    1.7619595668371 
 O   -1.9165591862653    3.3482717502927    5.1772572038405 
 O   -0.2329569967678    4.9471513965440    8.5275097706753 
 O    1.9156884299104    3.3173712637342    0.1999463180631 
 O    3.9751541610718    4.5617708863361    3.1812226102419 
 O    2.2089396224149    5.7733967083400    6.5083055838062 
 O    1.9156826906780    5.5264106153449    1.7619595668371 
 O    2.2001751256795    3.6984311731772    5.0909836804220 
 O    4.2955408465825    4.5338084560129    8.3706239145168 
 O    5.7418510822204    3.3173712637342    0.1999463180631 
 O    7.7765373327091    4.4306416869474    3.1811491617006 
 O    5.9183576194338    5.9348197168882    6.4753878636355 
 O    5.7418453429880    5.5264106153449    1.7619595668371 
 O    5.8467015799015    3.3416852795242    4.7856295815222 
 O    7.8863920967763    4.7533849178026    8.1069016805830 
 O   -3.8235440700895    6.6309253208291    0.1999463180631 
 O   -1.8722169576931    7.8126466092255    3.6645443495685 
 O   -3.9318755270665    8.9188512238990    6.4729008777783 
 O   -3.8235440700895    8.8399547317975    1.7619595668371 
 O   -3.7463182775930    6.5640996512538    5.0824152922041 
 O   -1.7715268870436    7.9398058143029    8.0616797330337 
 O    0.0026071037555    6.6309253208291    0.1999463180631 
 O    2.1039006483385    7.9418999100077    3.3135308052865 
 O    0.1052858758586    8.9832914375440    6.5191346816297 
 O    0.0026071037555    8.8399547317975    1.7619595668371 
 O    0.1223956757876    6.7372339292967    4.8769938643978 
 O    1.9959462015444    8.1035022477428    8.3296409970666 
 O    3.8287697560655    6.6309253208291    0.1999463180631 
 O    5.9501977908896    7.6633297124838    3.3885188006604 
 O    4.1871872361681    9.0605163112381    6.6650098715209 
 O    3.8287697560655    8.8399547317975    1.7619595668371 
 O    3.8558530794483    6.7828630679106    4.8609768360657 
 O    5.9302263522438    7.9975149208340    8.4442663417378 
Ce    1.9156884299104    1.1083418527658    0.9809643475031 
Ce    0.1825761773284    2.3090995705541    4.0831355700883 
Ce    0.1360099961624    0.1152638348874    7.4091612952394 
Ce    5.7418510822205    1.1083418527658    0.9809643475031 
Ce    3.8615063956378    2.4325818314548    3.9999300059268 
Ce    3.9948845519527    0.1857326504555    7.4273284041631 
Ce    9.5680022560654    1.1083418527658    0.9809643475031 
Ce    7.7644039064962    2.2709779032169    4.0679958184329 
Ce    7.7563617495633    0.3407620366957    7.2834089527604 
Ce    0.0026128429880    4.4218859692184    0.9809643475031 
Ce   -1.8321508016874    5.6004540858805    4.2003646883594 
Ce   -1.5550376996574    3.6186454906228    7.3697287806941 
Ce    3.8287754952980    4.4218859692184    0.9809643475031 
Ce    2.0957531190968    5.6994979735562    4.2100738099783 
Ce    7.6549266691429    4.4218859692184    0.9809643475031 
Ce    5.8550992822879    5.5978069922451    4.0233365961987 
Ce    5.9591172469025    3.5677009911700    7.4498990040501 
Ce   -1.9104684831671    7.7354400263133    0.9809643475031 
Ce   -3.8102335272909    8.8967849861437    4.1566691931037 
Ce   -3.5557899918896    6.7289538713013    7.5454728919880 
Ce    1.9156941691429    7.7354400263133    0.9809643475031 
Ce    0.1336780312130    8.8024324851904    4.2111588867207 
Ce    0.2352709405271    6.8743546520129    7.5122905745877 
Ce    5.7418453429879    7.7354400263133    0.9809643475031 
Ce    3.9436055426270    8.8587907578407    4.1492041297131 
Ce    4.1007242637475    6.7096684288201    7.4003778077220 
Cu    2.0920870121605    2.7411196856646    6.7334447515421 
81
FORCE:  3.332283  ...  ENERGY:  -630.84773319
 O    0.0026128429879    0.0038271472816    0.1999463180631 
 O    1.9825931310329    1.3594946653833    3.2910769931422 
 O    0.2342604912532    2.5175252162614    6.5261743365434 
 O    0.0026128429880    2.2128565582500    1.7619595668371 
 O    0.2674002545163    0.2726837467854    4.9037959670489 
 O    2.1376116374123    1.3788488971090    7.8775595227155 
 O    3.8287640168329    0.0038271472816    0.1999463180631 
 O    5.7966476097530    1.1856185172063    3.2626747615552 
 O    3.9335563760888    2.5810836949352    6.5836544350570 
 O    3.8287640168330    2.2128565582500    1.7619595668371 
 O    3.8163785235287    0.2110905330924    5.1347752062240 
 O    5.9242245498569    1.2620954569745    8.1550262141207 
 O    7.6549266691429    0.0038271472816    0.1999463180631 
 O    9.5685162043358    1.2315749017643    3.2906730261649 
 O    7.6395729021820    2.4921085844286    6.3307140820273 
 O    7.6549266691430    2.2128565582500    1.7619595668371 
 O    7.9083850078933    0.0264766025201    5.0115310630007 
 O    9.6335962886619    1.3661963481959    8.2441925151821 
 O   -1.9104627439346    3.3173712637342    0.1999463180631 
 O   -0.0014378499182    4.3669538805174    3.4053360075110 
 O   -1.7116914855530    5.7279459048489    6.4559965363227 
 O   -1.9104684831671    5.5264106153449    1.7619595668371 
 O   -1.9118477355215    3.3470329474505    5.1687964793230 
 O   -0.2257393953681    4.9520985559925    8.5257860109649 
 O    1.9156884299104    3.3173712637342    0.1999463180631 
 O    3.9831436318504    4.5599919089919    3.1823476046699 
 O    2.2142348104963    5.7654784897239    6.5077820918735 
 O    1.9156826906780    5.5264106153449    1.7619595668371 
 O    2.1992585702492    3.6998304179859    5.0983568190854 
 O    4.3021192696587    4.5328555460430    8.3780271625202 
 O    5.7418510822204    3.3173712637342    0.1999463180631 
 O    7.7800683955048    4.4196404775315    3.1853918414166 
 O    5.9223082201252    5.9314000365341    6.4725299854547 
 O    5.7418453429880    5.5264106153449    1.7619595668371 
 O    5.8481733486839    3.3353544820754    4.7834557784204 
 O    7.8907447307043    4.7600892845886    8.1138982243964 
 O   -3.8235440700895    6.6309253208291    0.1999463180631 
 O   -1.8631200446114    7.8132154127774    3.6628664381712 
 O   -3.9347072069897    8.9253308327629    6.4718381549397 
 O   -3.8235440700895    8.8399547317975    1.7619595668371 
 O   -3.7565257895559    6.5685362593143    5.0750480841683 
 O   -1.7690683146253    7.9447397526971    8.0749775686296 
 O    0.0026071037555    6.6309253208291    0.1999463180631 
 O    2.1039493170301    7.9395129629810    3.3172160060118 
 O    0.1088439130469    8.9869029722943    6.5190728662424 
 O    0.0026071037555    8.8399547317975    1.7619595668371 
 O    0.1227369305520    6.7259858937327    4.8802579905664 
 O    1.9863696608026    8.0965277937057    8.3345367301174 
 O    3.8287697560655    6.6309253208291    0.1999463180631 
 O    5.9439670505183    7.6717856204414    3.3887072121360 
 O    4.1856350607385    9.0592455989341    6.6574455841692 
 O    3.8287697560655    8.8399547317975    1.7619595668371 
 O    3.8546633939434    6.7803438109350    4.8548616747481 
 O    5.9358557358337    7.9900779287111    8.4461680202750 
Ce    1.9156884299104    1.1083418527658    0.9809643475031 
Ce    0.1795219299688    2.3127612061416    4.0838956028202 
Ce    0.1374008417665    0.1157306474494    7.4106898004425 
Ce    5.7418510822205    1.1083418527658    0.9809643475031 
Ce    3.8653561006218    2.4351744503704    4.0014222430613 
Ce    3.9944688019504    0.1862863442311    7.4279449613283 
Ce    9.5680022560654    1.1083418527658    0.9809643475031 
Ce    7.7623112675421    2.2716139055106    4.0690631032927 
Ce    7.7571387268592    0.3440424486514    7.2823954997508 
Ce    0.0026128429880    4.4218859692184    0.9809643475031 
Ce   -1.8303782397298    5.6000692836174    4.2010051961359 
Ce   -1.5565482082591    3.6187843613956    7.3678786529964 
Ce    3.8287754952980    4.4218859692184    0.9809643475031 
Ce    2.0939679308277    5.6994652688430    4.2093411493736 
Ce    7.6549266691429    4.4218859692184    0.9809643475031 
Ce    5.8547095310088    5.5992111079686    4.0233372805019 
Ce    5.9587233633761    3.5675867731901    7.4484535276329 
Ce   -1.9104684831671    7.7354400263133    0.9809643475031 
Ce   -3.8066210821784    8.8937271451689    4.1573158596088 
Ce   -3.5539540114129    6.7256100380478    7.5484931781235 
Ce    1.9156941691429    7.7354400263133    0.9809643475031 
Ce    0.1339164389311    8.8022348652216    4.2126771273761 
Ce    0.2380413254472    6.8742289028879    7.5132572668800 
Ce    5.7418453429879    7.7354400263133    0.9809643475031 
Ce    3.9430669156569    8.8619456194842    4.1522018338436 
Ce    4.0986077495861    6.7094149424417    7.3987331990794 
Cu    2.0936660471982    2.7449855020448    6.7321803873665 
81
FORCE:  3.421415  ...  ENERGY:  -630.84811479
 O    0.0026128429879    0.0038271472816    0.1999463180631 
 O    1.9802061842362    1.3566176446917    3.2891084809944 
 O    0.2374092063797    2.5135311655957    6.5226084326724 
 O    0.0026128429880    2.2128565582500    1.7619595668371 
 O    0.2624117710196    0.2766473790857    4.9094987216499 
 O    2.1467361562024    1.3796852033449    7.8787577375837 
 O    3.8287640168329    0.0038271472816    0.1999463180631 
 O    5.8019414204187    1.1898380216391    3.2610075709077 
 O    3.9398489279941    2.5841540611193    6.5888829675544 
 O    3.8287640168330    2.2128565582500    1.7619595668371 
 O    3.8151785647975    0.2120780364975    5.1271185379429 
 O    5.9241307707979    1.2763485487027    8.1572089131639 
 O    7.6549266691429    0.0038271472816    0.1999463180631 
 O    9.5639097815467    1.2357620991097    3.2908409085451 
 O    7.6434903301095    2.5013262438048    6.3224296796291 
 O    7.6549266691430    2.2128565582500    1.7619595668371 
 O    7.9166054253877    0.0321710000495    5.0169464102661 
 O    9.6252543716155    1.3570309765981    8.2500506066051 
 O   -1.9104627439346    3.3173712637342    0.1999463180631 
 O   -0.0055110406158    4.3567278423873    3.4154194429694 
 O   -1.7102589157287    5.7300546132978    6.4613717378016 
 O   -1.9104684831671    5.5264106153449    1.7619595668371 
 O   -1.9065793496557    3.3460720849668    5.1597018619597 
 O   -0.2186232062067    4.9571374675693    8.5237442783768 
 O    1.9156884299104    3.3173712637342    0.1999463180631 
 O    3.9904510522388    4.5580512968041    3.1840795760184 
 O    2.2193124242737    5.7582665537425    6.5079333228763 
 O    1.9156826906780    5.5264106153449    1.7619595668371 
 O    2.1979487626081    3.7002471297107    5.1055278602097 
 O    4.3091091383128    4.5325347615163    8.3851642165865 
 O    5.7418510822204    3.3173712637342    0.1999463180631 
 O    7.7834339962274    4.4090515065514    3.1902711511911 
 O    5.9255826244434    5.9272165172263    6.4701175886442 
 O    5.7418453429880    5.5264106153449    1.7619595668371 
 O    5.8491196907308    3.3298059137684    4.7815899117496 
 O    7.8948663031318    4.7655514687141    8.1214618274449 
 O   -3.8235440700895    6.6309253208291    0.1999463180631 
 O   -1.8541357352712    7.8139239817598    3.6602058674073 
 O   -3.9369631271085    8.9314587417026    6.4712015248813 
 O   -3.8235440700895    8.8399547317975    1.7619595668371 
 O   -3.7663279395273    6.5731359933147    5.0671605776145 
 O   -1.7665048864291    7.9499250899348    8.0887439238027 
 O    0.0026071037555    6.6309253208291    0.1999463180631 
 O    2.1032681849170    7.9365862390780    3.3208747470142 
 O    0.1125483580564    8.9906507932505    6.5189752389887 
 O    0.0026071037555    8.8399547317975    1.7619595668371 
 O    0.1236628983236    6.7146255289109    4.8837363036304 
 O    1.9769096838728    8.0893983650553    8.3388902669486 
 O    3.8287697560655    6.6309253208291    0.1999463180631 
 O    5.9371526302018    7.6809924445175    3.3884706713367 
 O    4.1832985617954    9.0572979288902    6.6492722669872 
 O    3.8287697560655    8.8399547317975    1.7619595668371 
 O    3.8543451535013    6.7778686904112    4.8491860641732 
 O    5.9413993178978    7.9823442084159    8.4478541433106 
Ce    1.9156884299104    1.1083418527658    0.9809643475031 
Ce    0.1763513483665    2.3164237363869    4.0847080987959 
Ce    0.1387885307927    0.1162170430766    7.4122388347410 
Ce    5.7418510822205    1.1083418527658    0.9809643475031 
Ce    3.8693115222685    2.4376374433106    4.0030235125025 
Ce    3.9940734836158    0.1868428213865    7.4284383439211 
Ce    9.5680022560654    1.1083418527658    0.9809643475031 
Ce    7.7601805200842    2.2722518959328    4.0701354063757 
Ce    7.7579833697062    0.3472148058254    7.2814577762931 
Ce    0.0026128429880    4.4218859692184    0.9809643475031 
Ce   -1.8286566421568    5.5996498879192    4.2016596180770 
Ce   -1.5580852895072    3.6189127944940    7.3661092730740 
Ce    3.8287754952980    4.4218859692184    0.9809643475031 
Ce    2.0920983184485    5.6994147703802    4.2085902406841 
Ce    7.6549266691429    4.4218859692184    0.9809643475031 
Ce    5.8543857809035    5.6005128350764    4.0234577178616 
Ce    5.9582763345566    3.5674504869843    7.4469569565783 
Ce   -1.9104684831671    7.7354400263133    0.9809643475031 
Ce   -3.8029267382182    8.8907123471752    4.1580628905803 
Ce   -3.5522138761189    6.7224556734363    7.5513574431339 
Ce    1.9156941691429    7.7354400263133    0.9809643475031 
Ce    0.1340991760939    8.8021859572616    4.2141668553989 
Ce    0.2408155556530    6.8740459950698    7.5142093607044 
Ce    5.7418453429879    7.7354400263133    0.9809643475031 
Ce    3.9425559517874    8.8652046590590    4.1551833427988 
Ce    4.0964594400767    6.7092038031995    7.3971437908933 
Cu    2.0952936361429    2.7488537041791    6.7307714071189 
81
FORCE:  3.492696  ...  ENERGY:  -630.85936334
 O    0.0026128429879    0.0038271472816    0.1999463180631 
 O    1.9781576225876    1.3532664553629    3.2870715385286 
 O    0.2409685061992    2.5095255837849    6.5191864605703 
 O    0.0026128429880    2.2128565582500    1.7619595668371 
 O    0.2566684062722    0.2800232212074    4.9152042134637 
 O    2.1555710159283    1.3801267666754    7.8807091421520 
 O    3.8287640168329    0.0038271472816    0.1999463180631 
 O    5.8070263230214    1.1934974702853    3.2596423860636 
 O    3.9460629671989    2.5869784958131    6.5940172943139 
 O    3.8287640168330    2.2128565582500    1.7619595668371 
 O    3.8141486595254    0.2131600754107    5.1193961765566 
 O    5.9238352577164    1.2907331551285    8.1593872782869 
 O    7.6549266691429    0.0038271472816    0.1999463180631 
 O    9.5600502050828    1.2394507732443    3.2910352506482 
 O    7.6473554736290    2.5100829555981    6.3154773874214 
 O    7.6549266691430    2.2128565582500    1.7619595668371 
 O    7.9243312932176    0.0379163930739    5.0224055529351 
 O    9.6170082997518    1.3481292308338    8.2553183724847 
 O   -1.9104627439346    3.3173712637342    0.1999463180631 
 O   -0.0092852746925    4.3472516269051    3.4250544317438 
 O   -1.7086020566983    5.7321372772640    6.4669869015957 
 O   -1.9104684831671    5.5264106153449    1.7619595668371 
 O   -1.9007489781436    3.3454148096985    5.1500671012864 
 O   -0.2116333375526    4.9622168375602    8.5213777298793 
 O    1.9156884299104    3.3173712637342    0.1999463180631 
 O    3.9970411259569    4.5559515349331    3.1864002762029 
 O    2.2241910588604    5.7517754137336    6.5087633826336 
 O    1.9156826906780    5.5264106153449    1.7619595668371 
 O    2.1962731936797    3.6997140130647    5.1124436562478 
 O    4.3164888730306    4.5328558442623    8.3920337081095 
 O    5.7418510822204    3.3173712637342    0.1999463180631 
 O    7.7866285678216    4.3989472412893    3.1957403303067 
 O    5.9281598267975    5.9222779067302    6.4681684650865 
 O    5.7418453429880    5.5264106153449    1.7619595668371 
 O    5.8495124838031    3.3250626368933    4.7800449832703 
 O    7.8987694977628    4.7697254450053    8.1295934021328 
 O   -3.8235440700895    6.6309253208291    0.1999463180631 
 O   -1.8452865274641    7.8147522360754    3.6565879564947 
 O   -3.9386272175719    8.9372208350060    6.4709991992411 
 O   -3.8235440700895    8.8399547317975    1.7619595668371 
 O   -3.7756563158558    6.5779024318863    5.0587568783620 
 O   -1.7638576080462    7.9553522829995    8.1029340907453 
 O    0.0026071037555    6.6309253208291    0.1999463180631 
 O    2.1018416986791    7.9331468762521    3.3245047472831 
 O    0.1163815340508    8.9945388766694    6.5188297105125 
 O    0.0026071037555    8.8399547317975    1.7619595668371 
 O    0.1251660033153    6.7032214252629    4.8874169423345 
 O    1.9675953686639    8.0821291709743    8.3427002389537 
 O    3.8287697560655    6.6309253208291    0.1999463180631 
 O    5.9297824800022    7.6908987915916    3.3878180742041 
 O    4.1802293350391    9.0546809554010    6.6405610875058 
 O    3.8287697560655    8.8399547317975    1.7619595668371 
 O    3.8548930206357    6.7754316425474    4.8439668838194 
 O    5.9468406268387    7.9743395062119    8.4493032693447 
Ce    1.9156884299104    1.1083418527658    0.9809643475031 
Ce    0.1730671873531    2.3200742384551    4.0855744266218 
Ce    0.1401704805863    0.1167191449187    7.4138040642147 
Ce    5.7418510822205    1.1083418527658    0.9809643475031 
Ce    3.8733681265841    2.4399681263019    4.0047306208356 
Ce    3.9937008926419    0.1874026783603    7.4288106048510 
Ce    9.5680022560654    1.1083418527658    0.9809643475031 
Ce    7.7580146485233    2.2728898863550    4.0712081656609 
Ce    7.7588936119807    0.3502828856618    7.2805969228927 
Ce    0.0026128429880    4.4218859692184    0.9809643475031 
Ce   -1.8269877881304    5.5991940100638    4.2023279541828 
Ce   -1.5596451555084    3.6190321816079    7.3644156227035 
Ce    3.8287754952980    4.4218859692184    0.9809643475031 
Ce    2.0901475533218    5.6993441918199    4.2078219963140 
Ce    7.6549266691429    4.4218859692184    0.9809643475031 
Ce    5.8541278024026    5.6017175415156    4.0236956272671 
Ce    5.9577776526447    3.5672933254297    7.4454106594925 
Ce   -1.9104684831671    7.7354400263133    0.9809643475031 
Ce   -3.7991577268431    8.8877453636709    4.1589084612097 
Ce   -3.5505675198839    6.7194973382908    7.5540700209394 
Ce    1.9156941691429    7.7354400263133    0.9809643475031 
Ce    0.1342282514328    8.8022824808982    4.2156285269914 
Ce    0.2435930572214    6.8738071214355    7.5151500494759 
Ce    5.7418453429879    7.7354400263133    0.9809643475031 
Ce    3.9420766684814    8.8685682741907    4.1581484284778 
Ce    4.0942830657204    6.7090319294943    7.3956068459511 
Cu    2.0969786174125    2.7527101763555    6.7292342340755 
81
FORCE:  3.543762  ...  ENERGY:  -630.88218030
 O    0.0026128429879    0.0038271472816    0.1999463180631 
 O    1.9764596132602    1.3494647561255    3.2849819047179 
 O    0.2448893202739    2.5055300420229    6.5159649892999 
 O    0.0026128429880    2.2128565582500    1.7619595668371 
 O    0.2502096461937    0.2827907954274    4.9208994407298 
 O    2.1640792559326    1.3802087769743    7.8833879610006 
 O    3.8287640168329    0.0038271472816    0.1999463180631 
 O    5.8118790162771    1.1965684329080    3.2585814880335 
 O    3.9521547033590    2.5895654485627    6.5990380267456 
 O    3.8287640168330    2.2128565582500    1.7619595668371 
 O    3.8133033853628    0.2143249198743    5.1116336693838 
 O    5.9233665919905    1.3052049409871    8.1615375869795 
 O    7.6549266691429    0.0038271472816    0.1999463180631 
 O    9.5569519378100    1.2426220369476    3.2912336985704 
 O    7.6511869278536    2.5183840877552    6.3099146868712 
 O    7.6549266691430    2.2128565582500    1.7619595668371 
 O    7.9315212315166    0.0436989641004    5.0278998231673 
 O    9.6088760942609    1.3395082088078    8.2599834953638 
 O   -1.9104627439346    3.3173712637342    0.1999463180631 
 O   -0.0127494180371    4.3386319965690    3.4341777898406 
 O   -1.7067644118441    5.7341791845968    6.4728066720405 
 O   -1.9104684831671    5.5264106153449    1.7619595668371 
 O   -1.8943556453156    3.3450840845296    5.1399854906365 
 O   -0.2047923445896    4.9672846764061    8.5186834001586 
 O    1.9156884299104    3.3173712637342    0.1999463180631 
 O    4.0028811967719    4.5536972954810    3.1892871232182 
 O    2.2288885058770    5.7460156067779    6.5102715868423 
 O    1.9156826906780    5.5264106153449    1.7619595668371 
 O    2.1942564847715    3.6982715264620    5.1190474100359 
 O    4.3242335655431    4.5338269456076    8.3986392867060 
 O    5.7418510822204    3.3173712637342    0.1999463180631 
 O    7.7896491832786    4.3893953775192    3.2017503370356 
 O    5.9300287504688    5.9165918593403    6.4666972132495 
 O    5.7418453429880    5.5264106153449    1.7619595668371 
 O    5.8493291727170    3.3211424451998    4.7788328542374 
 O    7.9024709009790    4.7725795028132    8.1382922641570 
 O   -3.8235440700895    6.6309253208291    0.1999463180631 
 O   -1.8365908441264    7.8156780080919    3.6520393932572 
 O   -3.9396863355374    8.9426076690630    6.4712387053541 
 O   -3.8235440700895    8.8399547317975    1.7619595668371 
 O   -3.7844460652142    6.5828389548475    5.0498422327351 
 O   -1.7611483459523    7.9610102977781    8.1175045021550 
 O    0.0026071037555    6.6309253208291    0.1999463180631 
 O    2.0996590685593    7.9292223106760    3.3281060068183 
 O    0.1203248459169    8.9985704035565    6.5186237352553 
 O    0.0026071037555    8.8399547317975    1.7619595668371 
 O    0.1272339061774    6.6918398868730    4.8912887297270 
 O    1.9584556409077    8.0747339295491    8.3459693833457 
 O    3.8287697560655    6.6309253208291    0.1999463180631 
 O    5.9218857552208    7.7014523738852    3.3867603695889 
 O    4.1764839119095    9.0514065078307    6.6313877752769 
 O    3.8287697560655    8.8399547317975    1.7619595668371 
 O    3.8562942542506    6.7730237207655    4.8392169073459 
 O    5.9521640519441    7.9660902642076    8.4504937287769 
Ce    1.9156884299104    1.1083418527658    0.9809643475031 
Ce    0.1696720869754    2.3236993918854    4.0864957268032 
Ce    0.1415444528468    0.1172328773122    7.4153820673478 
Ce    5.7418510822205    1.1083418527658    0.9809643475031 
Ce    3.8775215517521    2.4421643124031    4.0065410589488 
Ce    3.9933529803677    0.1879667104038    7.4290647094319 
Ce    9.5680022560654    1.1083418527658    0.9809643475031 
Ce    7.7558162355142    2.2735261868679    4.0722763629249 
Ce    7.7598674449513    0.3532509626367    7.2798145362569 
Ce    0.0026128429880    4.4218859692184    0.9809643475031 
Ce   -1.8253728828895    5.5987001589548    4.2030099763522 
Ce   -1.5612247070770    3.6191441132400    7.3627924555605 
Ce    3.8287754952980    4.4218859692184    0.9809643475031 
Ce    2.0881194807332    5.6992510480017    4.2070384691729 
Ce    7.6549266691429    4.4218859692184    0.9809643475031 
Ce    5.8539350215829    5.6028315892970    4.0240480434048 
Ce    5.9572292689793    3.5671164814034    7.4438153206789 
Ce   -1.9104684831671    7.7354400263133    0.9809643475031 
Ce   -3.7953208203475    8.8848303697257    4.1598505185875 
Ce   -3.5490128191920    6.7167397047131    7.5566352454602 
Ce    1.9156941691429    7.7354400263133    0.9809643475031 
Ce    0.1343060754255    8.8025208575003    4.2170628264567 
Ce    0.2463729692675    6.8735139718944    7.5160820704070 
Ce    5.7418453429879    7.7354400263133    0.9809643475031 
Ce    3.9416327388475    8.8720370613178    4.1610973189815 
Ce    4.0920818404873    6.7088961403206    7.3941198551409 
Cu    2.0987305181332    2.7565386159207    6.7275873444223 
81
FORCE:  3.570359  ...  ENERGY:  -630.91691638
 O    0.0026128429879    0.0038271472816    0.1999463180631 
 O    1.9751180102710    1.3452344163926    3.2828566871419 
 O    0.2491224633812    2.5015651174391    6.5129973945093 
 O    0.0026128429880    2.2128565582500    1.7619595668371 
 O    0.2430739436418    0.2849341967180    4.9265755075068 
 O    2.1722251781891    1.3799705991851    7.8867652252950 
 O    3.8287640168329    0.0038271472816    0.1999463180631 
 O    5.8164796424414    1.1990266543399    3.2578273859292 
 O    3.9580814365848    2.5919240647588    6.6039285134720 
 O    3.8287640168330    2.2128565582500    1.7619595668371 
 O    3.8126562295061    0.2155589512082    5.1038561075410 
 O    5.9227514036588    1.3197183781369    8.1636395382474 
 O    7.6549266691429    0.0038271472816    0.1999463180631 
 O    9.5546222685535    1.2452618739142    3.2914170918226 
 O    7.6550056983745    2.5262377916029    6.3057844609778 
 O    7.6549266691430    2.2128565582500    1.7619595668371 
 O    7.9381365578577    0.0495085736740    5.0334189564151 
 O    9.6008789329108    1.3311845113927    8.2640366230990 
 O   -1.9104627439346    3.3173712637342    0.1999463180631 
 O   -0.0158913608693    4.3309734275295    3.4427283861758 
 O   -1.7047904028257    5.7361662195841    6.4787968339772 
 O   -1.9104684831671    5.5264106153449    1.7619595668371 
 O   -1.8874032538498    3.3450995919315    5.1295462175245 
 O   -0.1981208885546    4.9722880998899    8.5156628859221 
 O    1.9156884299104    3.3173712637342    0.1999463180631 
 O    4.0079436589755    4.5512942446139    3.1927147978469 
 O    2.2334211221362    5.7409927990416    6.5124531453802 
 O    1.9156826906780    5.5264106153449    1.7619595668371 
 O    2.1919214780289    3.6959657944829    5.1252823244099 
 O    4.3323140605491    4.5354554216275    8.4049891640143 
 O    5.7418510822204    3.3173712637342    0.1999463180631 
 O    7.7924936042980    4.3804590383198    3.2082507610435 
 O    5.9311868701950    5.9101677192604    6.4657161505904 
 O    5.7418453429880    5.5264106153449    1.7619595668371 
 O    5.8485543189372    3.3180587585550    4.7779637891988 
 O    7.9059883617936    4.7740980353294    8.1475522547888 
 O   -3.8235440700895    6.6309253208291    0.1999463180631 
 O   -1.8280663620941    7.8166778378934    3.6465884622264 
 O   -3.9401291173248    8.9476106949211    6.4719264300500 
 O   -3.8235440700895    8.8399547317975    1.7619595668371 
 O   -3.7926379013308    6.5879498366745    5.0404250804730 
 O   -1.7583999996850    7.9668875037192    8.1324120469313 
 O    0.0026071037555    6.6309253208291    0.1999463180631 
 O    2.0967162770950    7.9248401773353    3.3316794380243 
 O    0.1243595263644    9.0027474614468    6.5183463643663 
 O    0.0026071037555    8.8399547317975    1.7619595668371 
 O    0.1298502500971    6.6805404581884    4.8953425417653 
 O    1.9495202872208    8.0672282475881    8.3487045431561 
 O    3.8287697560655    6.6309253208291    0.1999463180631 
 O    5.9134936772824    7.7125989154914    3.3853094187462 
 O    4.1721204882244    9.0474894971427    6.6218296565597 
 O    3.8287697560655    8.8399547317975    1.7619595668371 
 O    3.8585286522475    6.7706345867975    4.8349457149974 
 O    5.9573582295336    7.9576223280728    8.4514059049158 
Ce    1.9156884299104    1.1083418527658    0.9809643475031 
Ce    0.1661688020650    2.3272862738429    4.0874733679463 
Ce    0.1429079223118    0.1177536675618    7.4169682821190 
Ce    5.7418510822205    1.1083418527658    0.9809643475031 
Ce    3.8817683542327    2.4442234170470    4.0084525458316 
Ce    3.9930320424863    0.1885355139556    7.4292027105732 
Ce    9.5680022560654    1.1083418527658    0.9809643475031 
Ce    7.7535880358884    2.2741586105304    4.0733372609549 
Ce    7.7609021711787    0.3561233112264    7.2791110725879 
Ce    0.0026128429880    4.4218859692184    0.9809643475031 
Ce   -1.8238125577498    5.5981668434960    4.2037050002820 
Ce   -1.5628217059125    3.6192496828612    7.3612340691186 
Ce    3.8287754952980    4.4218859692184    0.9809643475031 
Ce    2.0860181181457    5.6991333507970    4.2062410278671 
Ce    7.6549266691429    4.4218859692184    0.9809643475031 
Ce    5.8538064627749    5.6038614398382    4.0245131414662 
Ce    5.9566334218612    3.5669214460016    7.4421718525416 
Ce   -1.9104684831671    7.7354400263133    0.9809643475031 
Ce   -3.7914222171026    8.8819709439710    4.1608867817031 
Ce   -3.5475477079194    6.7141853572703    7.5590583630206 
Ce    1.9156941691429    7.7354400263133    0.9809643475031 
Ce    0.1343348863726    8.8028982042816    4.2184699818958 
Ce    0.2491551770065    6.8731683357620    7.5170081607106 
Ce    5.7418453429879    7.7354400263133    0.9809643475031 
Ce    3.9412273194637    8.8756115174724    4.1640306986131 
Ce    4.0898586913861    6.7087937517050    7.3926800812502 
Cu    2.1005582341151    2.7603218255634    6.7258510391536 
81
FORCE:  3.571102  ...  ENERGY:  -630.96363217
 O    0.0026128429879    0.0038271472816    0.1999463180631 
 O    1.9741334449356    1.3405974049835    3.2807136776832 
 O    0.2536193242219    2.4976488025961    6.5103365956444 
 O    0.0026128429880    2.2128565582500    1.7619595668371 
 O    0.2352994071203    0.2864428879983    4.9322246583588 
 O    2.1799745194799    1.3794532881603    7.8908105975941 
 O    3.8287640168329    0.0038271472816    0.1999463180631 
 O    5.8208113855631    1.2008515574515    3.2573816764579 
 O    3.9637986304320    2.5940628933539    6.6086732436210 
 O    3.8287640168330    2.2128565582500    1.7619595668371 
 O    3.8122198756591    0.2168475566682    5.0960874416395 
 O    5.9220147157751    1.3342261491206    8.1656744278036 
 O    7.6549266691429    0.0038271472816    0.1999463180631 
 O    9.5530626895140    1.2473605423144    3.2915669542191 
 O    7.6588366360682    2.5336539083769    6.3031186438895 
 O    7.6549266691430    2.2128565582500    1.7619595668371 
 O    7.9441412298608    0.0553382633449    5.0389499509180 
 O    9.5930406335162    1.3231711608299    8.2674720531636 
 O   -1.9104627439346    3.3173712637342    0.1999463180631 
 O   -0.0186985342696    4.3243788054343    3.4506462301705 
 O   -1.7027255991492    5.7380848629525    6.4849240846509 
 O   -1.9104684831671    5.5264106153449    1.7619595668371 
 O   -1.8799013882644    3.3454773363385    5.1188377851618 
 O   -0.1916377367380    4.9771739255755    8.5123207491909 
 O    1.9156884299104    3.3173712637342    0.1999463180631 
 O    4.0122039486526    4.5487501360326    3.1966541031531 
 O    2.2378045757427    5.7367094756853    6.5152993904068 
 O    1.9156826906780    5.5264106153449    1.7619595668371 
 O    2.1892899251430    3.6928482102479    5.1310877244880 
 O    4.3406981609544    4.5377475349267    8.4110929202788 
 O    5.7418510822204    3.3173712637342    0.1999463180631 
 O    7.7951613143486    4.3721993586410    3.2151911919961 
 O    5.9316406139165    5.9030158247585    6.4652350854549 
 O    5.7418453429880    5.5264106153449    1.7619595668371 
 O    5.8471802892844    3.3158210205691    4.7774466840958 
 O    7.9093422544819    4.7742813407732    8.1573612846719 
 O   -3.8235440700895    6.6309253208291    0.1999463180631 
 O   -1.8197284625105    7.8177272715000    3.6402641322368 
 O   -3.9399458062387    8.9522241470079    6.4730676196531 
 O   -3.8235440700895    8.8399547317975    1.7619595668371 
 O   -3.8001765553965    6.5932397494692    5.0305152299213 
 O   -1.7556357557437    7.9729711768007    8.1476129296707 
 O    0.0026071037555    6.6309253208291    0.1999463180631 
 O    2.0930141277785    7.9200297017183    3.3352275500126 
 O    0.1284654880795    9.0070706467787    6.5179875613989 
 O    0.0026071037555    8.8399547317975    1.7619595668371 
 O    0.1329927094602    6.6693812919665    4.8995715354177 
 O    1.9408201272817    8.0596283283381    8.3509159829328 
 O    3.8287697560655    6.6309253208291    0.1999463180631 
 O    5.9046416572513    7.7242838422840    3.3834789077397 
 O    4.1672009903024    9.0429479158997    6.6119672510285 
 O    3.8287697560655    8.8399547317975    1.7619595668371 
 O    3.8615707898264    6.7682508207764    4.8311590093004 
 O    5.9624123698501    7.9489637304190    8.4520206372725 
Ce    1.9156884299104    1.1083418527658    0.9809643475031 
Ce    0.1625601448460    2.3308214644605    4.0885089467587 
Ce    0.1442587654654    0.1182770423784    7.4185581465072 
Ce    5.7418510822205    1.1083418527658    0.9809643475031 
Ce    3.8861050330944    2.4461433526989    4.0104628004734 
Ce    3.9927399729444    0.1891095860479    7.4292278016898 
Ce    9.5680022560654    1.1083418527658    0.9809643475031 
Ce    7.7513323453389    2.2747849704011    4.0743878944373 
Ce    7.7619956097546    0.3589041065006    7.2784874442898 
Ce    0.0026128429880    4.4218859692184    0.9809643475031 
Ce   -1.8223071570650    5.5975928708102    4.2044130259723 
Ce   -1.5644343728527    3.6193501827547    7.3597349889523 
Ce    3.8287754952980    4.4218859692184    0.9809643475031 
Ce    2.0838479421604    5.6989889132645    4.2054321815084 
Ce    7.6549266691429    4.4218859692184    0.9809643475031 
Ce    5.8537405763858    5.6048139521825    4.0250890966427 
Ce    5.9559931530835    3.5667095115080    7.4404809393838 
Ce   -1.9104684831671    7.7354400263133    0.9809643475031 
Ce   -3.7874677137332    8.8791701680058    4.1620142852427 
Ce   -3.5461705790810    6.7118354888393    7.5613450761471 
Ce    1.9156941691429    7.7354400263133    0.9809643475031 
Ce    0.1343166930056    8.8034118372688    4.2198504495110 
Ce    0.2519394508692    6.8727722011667    7.5179306013973 
Ce    5.7418453429879    7.7354400263133    0.9809643475031 
Ce    3.9408636816925    8.8792917420610    4.1669483392715 
Ce    4.0876160288945    6.7087219802677    7.3912845589651 
Cu    2.1024702594225    2.7640409180633    6.7240474440722 
