84
CIF: CO+Olatt—CO2.cif | data_image0
Ce     1.93038582     1.11050507     0.88387043
Ce    -0.00570135     2.22550576     4.03682371
Ce    -5.76799279    10.03610046     7.22348810
Ce     5.81181033     1.12175166     0.90127712
Ce     3.84704241     2.21847634     3.99978530
Ce    -1.86825616    10.02566428     7.23456116
Ce     9.66901012     1.12377363     0.90450652
Ce     7.73967370     2.23763499     4.09624696
Ce     1.97263450    10.03562171     7.24257157
Ce    -0.00709724     4.47602159     0.89067279
Ce    -1.92932404     5.57899895     4.05331716
Ce    -1.89744713     3.33279866     7.24266208
Ce     3.86254305     4.47635356     0.87798423
Ce     1.95379576     5.57796790     4.05064476
Ce     1.87162283     3.29543822     7.18624913
Ce     7.74213807     4.46545905     0.90125422
Ce     5.80987293     5.61821945     3.99977977
Ce    -1.94645625     7.83004003     0.90010904
Ce    -3.85356798     8.93075307     4.07238824
Ce    -3.80936754     6.66366112     7.23478265
Ce     1.92815559     7.82745473     0.89060408
Ce     0.01148474     8.94035434     4.05310385
Ce     0.03712982     6.68447628     7.19742932
Ce     5.81127600     7.83258510     0.88371011
Ce     3.87749143     8.95122731     4.03694932
Ce     3.88943310     6.79020770     7.18628676
Rh     4.87952165     3.88903169     6.44509191
Cu     6.63611684     2.87430753     8.01137717
O     11.61334069     0.00154917     0.10141687
O      1.93686781     1.10556063     3.22786260
O      0.01801132     2.21135574     6.39416284
O     -0.00785227     2.23805103     1.69392277
O     -5.78033867    10.04323576     4.86376716
O      1.95839756     1.10855334     7.99664343
O     -1.93899312    10.05733740     0.10496691
O      5.80585503     1.10855239     3.24495356
O      3.86318222     2.20231226     6.40208505
O      3.86763657     2.23577757     1.68132582
O     -1.92458221    10.05558186     4.87281299
O      5.92662564     0.92394898     8.13275774
O      7.73821774     0.00761509     0.10924988
O      9.68237673     1.11592664     3.24799313
O      7.76051222     2.22546911     6.52813832
O      7.74357843     2.23531483     1.71563532
O      7.75833302     0.02116971     4.87592408
O      9.76719160     1.06676678     8.02583446
O      9.67032270     3.35425987     0.10911246
O     -0.00403890     4.46267790     3.23525928
O     -1.89557476     5.58412844     6.40054010
O     -1.94403436     5.59119430     1.70564938
O      9.66833791     3.32961818     4.87594754
O      0.04616323     4.43965983     8.00268482
O      1.92738314     3.35244915     0.09928684
O      3.84759192     4.48487907     3.19903104
O      1.97715313     5.56454187     6.43571698
O      1.92862022     5.59252216     1.67404250
O      1.91241896     3.33962141     4.83974757
O      3.98967655     4.40227152     8.12532164
O      5.81155478     3.35101064     0.10766953
O      7.75038275     4.47693446     3.24488863
O      5.83218619     5.61236155     6.40189173
O      5.80528807     5.59217007     1.68114259
O      5.79589425     3.35970907     4.75575091
O      7.97039020     4.46410676     8.13287734
O     -3.87155109     6.71022987     0.10512724
O     -1.93083236     7.82076885     3.25345635
O     -3.82101806     8.91193411     6.43550825
O     -3.87509971     8.94378428     1.69355631
O     -3.86333110     6.69780579     4.87279921
O     -1.88859382     7.79620047     8.00834010
O     -0.01209783     6.71325780     0.10434852
O      1.94090572     7.83121745     3.23520594
O      0.02369699     8.90836455     6.40044259
O     -0.00628994     8.94736548     1.70514550
O      0.03150982     6.68781563     4.85653891
O      1.98582331     7.79911070     8.00282803
O      3.86815347     6.71410280     0.09951587
O      5.81879385     7.82908899     3.22771168
O      3.90152919     8.93746164     6.39425078
O      3.86556896     8.94715423     1.69389986
O      3.87167040     6.73302204     4.83993552
O      5.82669269     7.80851689     7.99668019
O      5.08952120     3.74582007    10.39705941
C      5.35176728     3.60881102     9.27101078
