85
CIF: Cu-Rh-CeO2-O-CO.cif | data_image0
Ce     1.93038582     1.11050507     0.88387043
Ce    -0.00309122     2.23559427     4.03616202
Ce    -5.77717509    10.04065496     7.22762076
Ce     5.81181033     1.12175166     0.90127712
Ce     3.85134776     2.23228367     4.01301197
Ce     3.90192005     0.00018211     7.23512804
Ce     9.66901012     1.12377363     0.90450652
Ce     7.74569959     2.23275632     4.08486650
Ce     1.98386434    10.02492675     7.21852930
Ce    -0.00709724     4.47602159     0.89067279
Ce    -1.94619942     5.58842681     4.05590215
Ce    -1.88751790     3.32372164     7.22156553
Ce     3.86254305     4.47635356     0.87798423
Ce     1.93233572     5.58927075     4.04369483
Ce     1.86055003     3.35538877     7.20130787
Ce     7.74213807     4.46545905     0.90125422
Ce     5.80112038     5.60706427     4.01457793
Ce    -1.94645625     7.83004003     0.90010904
Ce    -3.87108095     8.94125484     4.06964890
Ce    -3.85513472     6.68544312     7.23648031
Ce     1.92815559     7.82745473     0.89060408
Ce    -0.00567782     8.94817941     4.05491751
Ce    -0.01286049     6.71126490     7.19750290
Ce     5.81127600     7.83258510     0.88371011
Ce     3.86998978     8.94134524     4.03599505
Ce     3.83344105     6.76761679     7.20184833
Rh     4.87095583     3.90035412     6.55025027
Cu     6.74053166     2.80780426     7.94855603
O     11.61334069     0.00154917     0.10141687
O      1.93846018     1.11349107     3.22926054
O      0.01088611     2.22436408     6.39622277
O     -0.00785227     2.23805103     1.69392277
O     -5.79322360    10.05033081     4.85928569
O      1.95402377     1.10758399     7.99582944
O     -1.93899312    10.05733740     0.10496691
O      5.79764319     1.12763568     3.24799909
O      3.85069617     2.22999864     6.43545417
O      3.86763657     2.23577757     1.68132582
O      3.87064415     0.02070791     4.88432817
O      5.96708543     1.05532250     8.09867782
O      7.73821774     0.00761509     0.10924988
O      9.67782176     1.11791015     3.25127690
O      7.88743379     2.14695245     6.41554385
O      7.74357843     2.23531483     1.71563532
O      1.93054784    10.03430696     4.84658970
O      9.77570871     1.05768811     8.04985824
O      9.67032270     3.35425987     0.10911246
O     -0.00099716     4.47888774     3.23042215
O     -1.94182934     5.59361375     6.42968879
O     -1.94403436     5.59119430     1.70564938
O     -1.92060045     3.36851581     4.84907757
O      0.01560221     4.46438437     8.01340504
O      1.92738314     3.35244915     0.09928684
O      3.86247224     4.47513468     3.21139280
O      1.88439046     5.61591639     6.37524355
O      1.92862022     5.59252216     1.67404250
O      1.91727846     3.34883576     4.84405717
O      5.81155478     3.35101064     0.10766953
O      7.73015991     4.47322054     3.24747297
O      5.81012353     5.61512337     6.43765219
O      5.80528807     5.59217007     1.68114259
O      5.81080383     3.35161925     4.85657164
O      7.87505613     4.35050228     8.10321330
O     -3.87155109     6.71022987     0.10512724
O     -1.95400100     7.83464556     3.25249832
O     -3.83756310     8.92026247     6.42539097
O     -3.87509971     8.94378428     1.69355631
O      7.72725030     6.69749308     4.88260975
O     -1.93381772     7.82396863     8.02336279
O     -0.01209783     6.71325780     0.10434852
O      1.92811960     7.81791246     3.23024678
O     -0.00646392     8.93988997     6.42547222
O     -0.00628994     8.94736548     1.70514550
O     -0.02590113     6.71857554     4.85152890
O      1.94842310     7.81105797     8.01223507
O      3.86815347     6.71410280     0.09951587
O      5.81222355     7.82365309     3.22957330
O      3.88736534     8.93429874     6.39452476
O      3.86556896     8.94715423     1.69389986
O      3.86609541     6.72094837     4.84427459
O      5.82663854     7.81671668     8.00097749
O      3.75812399     4.53809873     8.03061002
O      5.62047164     3.43546170    10.48474965
O      6.43979240     3.04486269    12.65618620
C      6.03250602     3.23919376    11.57008982
