84
CIF: CO+Olatt—CO2.cif | data_image0
Ce     1.93596140     1.11772783     0.89035214
Ce    -0.01295379     2.22700724     4.04676601
Ce    -5.62760400     9.93757049     7.14680628
Ce     5.80789581     1.11772783     0.89035214
Ce     3.84209287     2.21259598     4.01105476
Ce    -1.96658953     9.99577243     7.18912789
Ce     9.67981860     1.11772783     0.89035214
Ce     7.74042865     2.24261942     4.05031492
Ce     7.72440856     0.01460310     7.24153794
Ce    -0.00000000     4.47091133     0.89035214
Ce    -1.93447753     5.57618384     4.06659478
Ce    -1.92004637     3.38687785     7.24678397
Ce     3.87193441     4.47091133     0.89035214
Ce     1.94040532     5.59228335     4.05485017
Ce     1.91720129     3.31230059     7.23701100
Ce     7.74385721     4.47091133     0.89035214
Ce     5.81215937     5.62143469     4.02259586
Ce    -1.93596721     7.82410489     0.89035214
Ce    -3.84695920     8.90597338     3.99560789
Ce     7.74803968     6.69905263     7.28672850
Ce     1.93596721     7.82410489     0.89035214
Ce     0.01836600     8.95386394     4.04303763
Ce     0.03831695     6.69850516     7.24227346
Ce     5.80789000     7.82410489     0.89035214
Ce     3.86658205     8.96878214     4.04108454
Ce     3.88304867     6.76908697     7.21571265
Y      5.64667682     3.43287979     6.86750259
O      0.00000000     0.00000000     0.09999685
O      1.93227944     1.11470910     3.21253511
O     -0.07407404     2.07022150     6.56617402
O      0.00000000     2.23545567     1.68070743
O     -5.74314169    10.02481614     4.83348498
O      2.00129236     1.04341327     8.03316188
O      3.87192279     0.00000000     0.09999685
O      5.78890187     1.09557098     3.23211039
O      3.88513840     2.18431987     6.39064564
O      3.87192279     2.23545567     1.68070743
O     -1.95770209    10.03556187     4.83130449
O      5.95815230     1.47017802     8.43297361
O      7.74385721     0.00000000     0.09999685
O      9.70304425     1.11212173     3.23880644
O      7.64423946     2.30849196     6.29526130
O      7.74385721     2.23545567     1.68070743
O      1.94973146    10.02891390     4.79452083
O      8.56597394     1.77250921     8.98088000
O     -1.93596140     3.35318350     0.09999685
O      0.02259546     4.48765224     3.24474957
O     -1.93229705     5.57838875     6.47468207
O     -1.93596721     5.58864923     1.68070743
O     -1.88212461     3.35260261     4.81563161
O      0.16497734     4.50040205     8.01914766
O      1.93596140     3.35318350     0.09999685
O      3.81073679     4.50150983     3.24568116
O      2.08634860     5.50149749     6.41136835
O      1.93595559     5.58864923     1.68070743
O      1.87146059     3.29039602     4.91014733
O      5.80789581     3.35318350     0.09999685
O      7.76166763     4.48353744     3.23688231
O      5.75171522     5.57797690     6.38283116
O      5.80789000     5.58864923     1.68070743
O      5.73644357     3.38414818     4.67592480
O      7.52264190     4.17946992     8.42256261
O     -3.87192860     6.70637706     0.09999685
O     -1.90540024     7.80663234     3.23486042
O     -3.81502605     8.91194917     6.40136195
O     -3.87192860     8.94183273     1.68070743
O     -3.86913610     6.70310383     4.81404392
O     -1.80836096     7.90135326     8.06960835
O     -0.00000581     6.70637706     0.09999685
O      1.93121650     7.80506106     3.22778444
O     -0.03368709     9.06341511     6.45332825
O     -0.00000581     8.94183273     1.68070743
O      0.03528641     6.72063511     4.93041061
O      3.87192860     6.70637706     0.09999685
O      5.80502404     7.82921109     3.21345680
O      3.94978394     9.12071958     6.51292347
O      3.87192860     8.94183273     1.68070743
O      3.87184992     6.81073993     4.88777112
O      5.74624792     7.86978474     8.06048651
O      3.95580678     4.36494094     8.22415676
O      1.95494685     7.70886200     7.97945896
O      4.51582436     4.17331431    10.58622194
Cr     7.04049926     2.65126197     9.13397474
C      4.95401920     3.86021301     9.53091490
