81
CIF: Cr-Y-CeO2-Ov.cif | data_image0
Ce     1.93596140     1.11772783     0.89035214
Ce     0.00837765     2.22035430     4.02010620
Ce    -5.63625805     9.93803985     7.17128470
Ce     5.80789581     1.11772783     0.89035214
Ce     3.86398780     2.22504925     4.03483615
Ce    -2.03516325     9.96669796     7.18822217
Ce     9.67981860     1.11772783     0.89035214
Ce     7.76917011     2.22702228     4.01802850
Ce     1.89875744    10.01908525     7.20690395
Ce     0.00000000     4.47091133     0.89035214
Ce    -1.93902263     5.58944579     4.05483888
Ce    -1.85167582     3.45982332     7.17035908
Ce     3.87193441     4.47091133     0.89035214
Ce     1.94940150     5.59015816     4.09924624
Ce     1.81017767     3.25125634     7.22545304
Ce     7.74385721     4.47091133     0.89035214
Ce     5.80624286     5.59864768     4.04946956
Ce    -1.93596721     7.82410489     0.89035214
Ce    -3.87102180     8.91104195     3.98838600
Ce     7.72394370     6.71341214     7.31785102
Ce     1.93596721     7.82410489     0.89035214
Ce     0.01095413     8.95191270     4.04210653
Ce     0.02464780     6.70820561     7.27499996
Ce     5.80789000     7.82410489     0.89035214
Ce     3.87679945     8.95626141     4.01811691
Ce     3.86896885     6.90549290     7.21812809
Y      5.90791095     3.30371226     6.91299743
O      0.00000000     0.00000000     0.09999685
O      1.93971486     1.10869748     3.19882991
O     -0.09607380     2.08018164     6.52211265
O      0.00000000     2.23545567     1.68070743
O     -5.75631266    10.02582472     4.80767515
O      1.96527064     0.91549822     8.09017144
O      3.87192279     0.00000000     0.09999685
O      5.79679115     1.10010705     3.22903504
O      4.02191077     2.23774653     6.62413564
O      3.87192279     2.23545567     1.68070743
O      3.82661069     0.03750032     4.84085673
O      6.19139355     1.71826729     8.79006867
O      7.74385721     0.00000000     0.09999685
O      9.70045817     1.11112621     3.22328690
O      7.74670119     2.25481574     6.34668249
O      7.74385721     2.23545567     1.68070743
O      1.94568142    10.02579665     4.77952078
O      9.07071094     1.69374915     8.99856228
O     -1.93596140     3.35318350     0.09999685
O      0.03054809     4.49478308     3.25296239
O     -1.97407109     5.60508207     6.41116126
O     -1.93596721     5.58864923     1.68070743
O     -1.88289384     3.35924248     4.77514873
O      0.00806165     4.60803418     8.09148430
O      1.93596140     3.35318350     0.09999685
O      3.84496499     4.48343793     3.26502948
O      2.06407124     5.50901386     6.44537717
O      1.93595559     5.58864923     1.68070743
O      1.91596232     3.25270974     4.85842592
O      5.80789581     3.35318350     0.09999685
O      7.75790775     4.47224505     3.22813085
O      5.72307012     5.43023319     6.60283704
O      5.80789000     5.58864923     1.68070743
O      5.80551323     3.34444224     4.72872895
O      7.63281804     4.11431754     8.58485174
O     -3.87192860     6.70637706     0.09999685
O     -1.92337105     7.81673532     3.24890825
O     -3.82799915     8.89357833     6.34941071
O     -3.87192860     8.94183273     1.68070743
O      7.67653217     6.67414051     4.82692919
O     -1.85244081     7.90742040     8.08763997
O     -0.00000581     6.70637706     0.09999685
O      1.93001298     7.80345946     3.23293993
O     -0.07040223     9.11972713     6.43789268
O     -0.00000581     8.94183273     1.68070743
O      0.03510922     6.74068270     4.92438565
O      3.87192860     6.70637706     0.09999685
O      5.80985238     7.82378605     3.19820629
O      3.92576289     9.15084240     6.50447024
O      3.87192860     8.94183273     1.68070743
O      3.91892418     6.80023769     4.84111594
O      5.85718327     7.98725446     8.13857250
O      1.79957895     7.80111238     8.07481252
Cr     7.62137311     2.50355349     9.29863844
