85
CIF: Cr-Y-CeO2-O-CO.cif | data_image0
Ce     1.93596140     1.11772783     0.89035214
Ce     0.02082478     2.21374293     4.03377395
Ce    -5.67562272     9.91307587     7.16208182
Ce     5.80789581     1.11772783     0.89035214
Ce     3.86460054     2.22157639     4.05255007
Ce    -2.05736681     9.95134154     7.14883929
Ce     9.67981860     1.11772783     0.89035214
Ce     7.73768342     2.24556783     4.06812365
Ce     1.94024121    10.02085594     7.19209848
Ce     0.00000000     4.47091133     0.89035214
Ce    -1.94747689     5.61095292     4.02042988
Ce    -1.81773159     3.46738845     7.09526522
Ce     3.87193441     4.47091133     0.89035214
Ce     1.93350136     5.58724500     4.06169217
Ce     1.97028055     3.33518190     7.31049041
Ce     7.74385721     4.47091133     0.89035214
Ce     5.81451274     5.59950244     4.03946159
Ce    -1.93596721     7.82410489     0.89035214
Ce    -3.87273191     8.90260909     3.97784960
Ce     7.72121552     6.69982081     7.31021226
Ce     1.93596721     7.82410489     0.89035214
Ce     0.00291986     8.95854131     4.03209817
Ce     0.02049290     6.73409764     7.22003482
Ce     5.80789000     7.82410489     0.89035214
Ce     3.86915184     8.95435715     4.03874108
Ce     3.85042325     6.68125087     7.22522769
Y      5.66373764     3.49174719     7.02954355
O      0.00000000     0.00000000     0.09999685
O      1.93486841     1.11470565     3.20770187
O     -0.18593594     2.07020726     6.54584476
O      0.00000000     2.23545567     1.68070743
O     -5.75912669    10.03285392     4.82285703
O      1.93703084     0.90153108     8.05458699
O      3.87192279     0.00000000     0.09999685
O      5.79691544     1.11359008     3.24290264
O      4.03522619     2.08110686     6.51246566
O      3.87192279     2.23545567     1.68070743
O     -1.98212130    10.02482703     4.81410985
O      6.20598800     1.82464737     8.84492244
O      7.74385721     0.00000000     0.09999685
O      9.69633143     1.12036021     3.24583982
O      7.76965457     2.32603666     6.41123306
O      7.74385721     2.23545567     1.68070743
O      1.93903278    10.05498728     4.80382689
O      9.11796504     1.82713723     8.92099364
O     -1.93596140     3.35318350     0.09999685
O      0.02588556     4.48174161     3.24622531
O     -1.98602940     5.56231878     6.40745150
O     -1.93596721     5.58864923     1.68070743
O     -1.87642664     3.37249739     4.81034475
O     -0.08517906     4.54424935     8.01140324
O      1.93596140     3.35318350     0.09999685
O      3.83682752     4.48168285     3.25178448
O      1.91173724     5.61350758     6.35316029
O      1.93595559     5.58864923     1.68070743
O      1.92602125     3.26230489     4.89884047
O      5.80789581     3.35318350     0.09999685
O      7.75216726     4.45468581     3.23491224
O      5.84361499     5.57983533     6.38042378
O      5.80789000     5.58864923     1.68070743
O      5.76605487     3.36347278     4.78684317
O      7.70454428     4.22420745     8.50924871
O     -3.87192860     6.70637706     0.09999685
O     -1.91528215     7.82494827     3.20110454
O     -3.87036538     8.87340266     6.35841528
O     -3.87192860     8.94183273     1.68070743
O     -3.86222494     6.70532111     4.75885959
O     -1.83859209     7.87388750     8.05628541
O     -0.00000581     6.70637706     0.09999685
O      1.93202045     7.81368560     3.23939288
O     -0.03749038     9.09678723     6.46656737
O     -0.00000581     8.94183273     1.68070743
O     -0.03620026     6.76653255     4.88771297
O      3.87192860     6.70637706     0.09999685
O      5.78637276     7.82579069     3.21111191
O      3.91811498     9.09148908     6.47663128
O      3.87192860     8.94183273     1.68070743
O      3.88205895     6.76194524     4.88346732
O      5.72600752     7.87152627     8.08146321
O      1.91875053     7.73215765     8.02329087
O      3.90972116     4.58767215     7.99872482
O      8.23637177     3.34913700    11.77114836
O      7.32983838     2.66879085    13.83433528
Cr     7.63845058     2.61493425     9.21699794
C      7.78573649     3.01180031    12.80907523
