83
CIF: O2—Olatt+Osur.cif | data_image0
Ce     1.93038582     1.11050507     0.88387043
Ce     0.01571316     2.23420300     4.03792268
Ce    -5.78942404    10.04306154     7.21071862
Ce     5.81181033     1.12175166     0.90127712
Ce     3.84851798     2.21864867     4.01951902
Ce    -2.05963536     9.95172702     7.15322037
Ce     9.66901012     1.12377363     0.90450652
Ce     7.72995591     2.25215615     4.02562812
Ce     2.04189696    10.00978821     7.31955067
Ce    -0.00709724     4.47602159     0.89067279
Ce    -1.94110268     5.58815816     4.08324100
Ce    -1.70429493     3.35381573     7.25573910
Ce     3.86254305     4.47635356     0.87798423
Ce     1.95775704     5.58418359     4.07802034
Ce     1.96326994     3.27810791     7.29277544
Ce     7.74213807     4.46545905     0.90125422
Ce     5.81208791     5.61421556     4.01056236
Ce    -1.94645625     7.83004003     0.90010904
Ce    -3.88217921     8.91479956     4.01951303
Ce     7.72950535     6.70372118     7.27729971
Ce     1.92815559     7.82745473     0.89060408
Ce     0.00762961     8.96677058     4.08310490
Ce     0.02987675     6.72228910     7.25742648
Ce     5.81127600     7.83258510     0.88371011
Ce     3.86499517     8.97264800     4.03126298
Ce     3.88924719     6.81084232     7.18389947
Cu     5.01441145     3.77978121     6.48339445
Os     6.67165373     3.04940007     8.39423861
O     11.61334069     0.00154917     0.10141687
O      1.92566554     1.10647442     3.21324589
O      0.06154954     2.23413496     6.38226414
O     -0.00785227     2.23805103     1.69392277
O      0.00062518     0.00403896     4.83256749
O      1.94972562     0.93307990     8.05141257
O     -1.93899312    10.05733740     0.10496691
O      5.80311587     1.10560017     3.23550120
O      3.99383875     2.14580280     6.44638548
O      3.86763657     2.23577757     1.68132582
O     -1.97158482    10.03565732     4.82396680
O      6.22126671     1.41909559     8.92127848
O      7.73821774     0.00761509     0.10924988
O      9.67650102     1.13180140     3.22029741
O      7.62751156     2.46332508     6.84249849
O      7.74357843     2.23531483     1.71563532
O      7.75911773     0.12481772     4.89696688
O      9.85909342     1.17771724     8.02616333
O      9.67032270     3.35425987     0.10911246
O     -0.01387550     4.48446878     3.27345361
O     -1.92165413     5.51092484     6.44438426
O     -1.94403436     5.59119430     1.70564938
O      9.63174960     3.27697420     4.91598828
O     -0.00493161     4.53231030     8.08427025
O      1.92738314     3.35244915     0.09928684
O      3.85832650     4.49341435     3.21561419
O      2.06160096     5.57886836     6.44724797
O      1.92862022     5.59252216     1.67404250
O      1.97117503     3.33738854     4.81408831
O      5.81155478     3.35101064     0.10766953
O      7.76191860     4.46138375     3.23394121
O      5.75623844     5.55260202     6.37446184
O      5.80528807     5.59217007     1.68114259
O      5.79664516     3.35043501     4.74908319
O      8.01187599     4.32842306     8.57791694
O     -3.87155109     6.71022987     0.10512724
O     -1.90974673     7.81203180     3.25450737
O     -3.87882976     8.90786714     6.36599466
O     -3.87509971     8.94378428     1.69355631
O      7.74374881     6.68644161     4.80686403
O     -1.84272712     7.85705205     8.03026513
O     -0.01209783     6.71325780     0.10434852
O      1.91753512     7.85301046     3.26321240
O     -0.02303670     9.08961901     6.48874886
O     -0.00628994     8.94736548     1.70514550
O      0.02224125     6.73908566     4.94037647
O      1.95169222     7.74854435     8.05421406
O      3.86815347     6.71410280     0.09951587
O      5.80074833     7.83746138     3.21104475
O      3.88785585     8.94883059     6.37671921
O      3.86556896     8.94715423     1.69389986
O      3.88080478     6.74910858     4.81851684
O      5.69979348     7.88286871     8.03501378
O      4.09543049     4.45156586     8.21454358
O      5.40981344     4.16245778     9.14928662
