85
CIF: Mo-Cu-CeO2-O-CO.cif | data_image0
Ce     1.93038582     1.11050507     0.88387043
Ce     0.00066619     2.22117466     4.01913669
Ce    -5.76684634    10.03465900     7.20817091
Ce     5.81181033     1.12175166     0.90127712
Ce     3.86729813     2.22724760     4.04072653
Ce    -2.00756998    10.03570559     7.27100799
Ce     9.66901012     1.12377363     0.90450652
Ce     7.71424864     2.25326835     4.02251774
Ce     2.09093175     9.84276596     7.24453560
Ce    -0.00709724     4.47602159     0.89067279
Ce    -1.96577126     5.58974643     4.08350582
Ce    -1.66916281     3.32548008     7.24487598
Ce     3.86254305     4.47635356     0.87798423
Ce     1.92865237     5.59265715     4.05154671
Ce     1.95694519     3.33886513     7.19767654
Ce     7.74213807     4.46545905     0.90125422
Ce     5.81207324     5.59676441     4.04012884
Ce    -1.94645625     7.83004003     0.90010904
Ce    -3.86265782     8.93643281     4.04069593
Ce    -3.88858484     6.78035046     7.26914373
Ce     1.92815559     7.82745473     0.89060408
Ce    -0.01688970     8.96695498     4.08327204
Ce    -0.01340599     6.71310626     7.23840646
Ce     5.81127600     7.83258510     0.88371011
Ce     3.88416646     8.94814264     4.01926440
Ce     3.89319898     6.69496735     7.19742303
Cu     4.96202503     3.84196718     6.57277263
Mo     7.15503113     2.58357364     8.83631934
O     11.61334069     0.00154917     0.10141687
O      1.92734040     1.11676986     3.22276158
O      0.05968727     2.25071825     6.34443782
O     -0.00785227     2.23805103     1.69392277
O     11.61288658     0.00107725     4.83231540
O      1.81880910     1.16332974     8.04995577
O     -1.93899312    10.05733740     0.10496691
O      5.81328159     1.11404230     3.23554701
O      3.92773799     2.24222709     6.44761887
O      3.86763657     2.23577757     1.68132582
O     -1.93411504    10.05235727     4.82513491
O      6.95522581     0.81023787     9.18243440
O      7.73821774     0.00761509     0.10924988
O      9.67675499     1.11907984     3.21207507
O      7.45421403     2.41973780     7.03578490
O      7.74357843     2.23531483     1.71563532
O      7.78593122     0.13397306     4.92494233
O      9.75625873     1.06950224     7.87723488
O      9.67032270     3.35425987     0.10911246
O     -0.03268311     4.47118964     3.27394072
O     -1.97505224     5.43805329     6.49345331
O     -1.94403436     5.59119430     1.70564938
O      9.58857548     3.25044566     4.92193290
O      0.09099696     4.44066721     8.03796398
O      1.92738314     3.35244915     0.09928684
O      3.86371560     4.47514657     3.21727638
O      1.86098543     5.63285378     6.31541270
O      1.92862022     5.59252216     1.67404250
O      1.96128446     3.34252526     4.82853646
O      5.81155478     3.35101064     0.10766953
O      7.74956103     4.46762528     3.23533683
O      5.82777460     5.53879503     6.44606913
O      5.80528807     5.59217007     1.68114259
O      5.82089350     3.34579463     4.81978394
O      8.61000439     3.60588264     9.20209247
O     -3.87155109     6.71022987     0.10512724
O     -1.93516282     7.82405630     3.23664733
O     -3.88028670     8.94630432     6.40669891
O     -3.87509971     8.94378428     1.69355631
O     -3.86434961     6.70784300     4.82405926
O     -1.77950656     7.73281310     8.06134488
O     -0.01209783     6.71325780     0.10434852
O      1.91865124     7.85318554     3.27500114
O      0.10962287     9.04831664     6.49149745
O     -0.00628994     8.94736548     1.70514550
O     -0.09239125     6.75830270     4.89854118
O      2.00646897     7.76199182     8.03889723
O      3.86815347     6.71410280     0.09951587
O      5.80422078     7.83199341     3.22255394
O      3.88645053     8.88056043     6.34323126
O      3.86556896     8.94715423     1.69389986
O      3.89310654     6.68911134     4.82709776
O      5.70872093     7.90297679     8.04977202
O      3.67297121     4.58448975     7.91892541
O      5.69390416     3.45517814     9.10432879
O      6.56356827     2.85777370    12.54222477
C      6.91446300     2.69004987    11.46981928
