81
FORCE:  2.675648  ...  ENERGY:  -633.85814550
 O    0.0026128429879    0.0038271472816    0.1999463180631 
 O    1.7331448514227    0.9618278195242    3.5170567132842 
 O    0.2590665445724    2.3051255999858    6.6823327784215 
 O    0.0026128429880    2.2128565582500    1.7619595668371 
 O   11.2576363215282    0.0985258808060    5.2172426353553 
 O    1.8354230824896    1.2425270044073    8.3035193198775 
 O    3.8287640168329    0.0038271472816    0.1999463180631 
 O    5.7479191153504    1.1490341701992    3.4039867897411 
 O    3.7563982064174    2.2040585927913    6.7229110445913 
 O    3.8287640168330    2.2128565582500    1.7619595668371 
 O    3.8205809617421    0.1079773440889    5.1573558425576 
 O    5.6220750217152    1.0294038087795    8.2997675136427 
 O    7.6549266691429    0.0038271472816    0.1999463180631 
 O    9.5189037533435    1.0554295037654    3.3785970888536 
 O    7.6451380637602    1.9444930146038    6.7668271135720 
 O    7.6549266691430    2.2128565582500    1.7619595668371 
 O    1.9609706299815    9.9375921033197    5.0756085284727 
 O    9.6619107922007    1.1221130221559    8.2415743712155 
 O   -1.9104627439346    3.3173712637342    0.1999463180631 
 O   -0.0617798534616    4.6202147057389    3.2824189612078 
 O   -1.6817794092556    5.4993274348322    7.3498600378628 
 O   -1.9104684831671    5.5264106153449    1.7619595668371 
 O   -1.8473395657140    3.3895942050408    5.0925270121939 
 O    0.4396855862259    4.1853312880231    8.3633921985106 
 O    1.9156884299104    3.3173712637342    0.1999463180631 
 O    4.0483370086261    4.4293389657753    3.4230617408836 
 O    2.1161260744484    5.1683136889982    6.6515858960388 
 O    1.9156826906780    5.5264106153449    1.7619595668371 
 O    1.9621137129185    3.3324781572288    4.6725979789573 
 O    3.6071289188026    4.1916301760102    8.5935158306096 
 O    5.7418510822204    3.3173712637342    0.1999463180631 
 O    7.7360740792067    4.3293760657199    3.4571822379437 
 O    5.6157500431463    5.3700703566060    6.7028835434222 
 O    5.7418453429880    5.5264106153449    1.7619595668371 
 O    5.7984245335274    3.2081737058043    5.2348372106184 
 O    7.6809020910840    4.2170602277100    8.4108620820061 
 O   -3.8235440700895    6.6309253208291    0.1999463180631 
 O   -2.0427785683137    7.6283222495632    3.5720377365845 
 O   -3.7596145297028    8.7698879158035    6.7114279810288 
 O   -3.8235440700895    8.8399547317975    1.7619595668371 
 O   -3.7287149036690    6.4916079149797    5.3044933437148 
 O   -2.1859978439887    7.7406462388998    8.5546613241503 
 O    0.0026071037555    6.6309253208291    0.1999463180631 
 O    1.8695335795378    7.6050843083012    3.4572789527932 
 O   -0.1572458451203    8.7624607649166    6.6428021804203 
 O    0.0026071037555    8.8399547317975    1.7619595668371 
 O   -0.0206754702966    6.5648262127988    5.1677812015049 
 O    1.9412714031332    7.6236984592085    8.3496972389692 
 O    3.8287697560655    6.6309253208291    0.1999463180631 
 O    5.7478513350145    7.6378555243322    3.7007756938379 
 O    3.8103019389423    8.6829508357793    6.8603239132575 
 O    3.8287697560655    8.8399547317975    1.7619595668371 
 O    3.9293772965516    6.5406683644992    5.1726641608963 
 O    5.8807569803177    7.6879121256156    8.3389320094425 
Ce    1.9156884299104    1.1083418527658    0.9809643475031 
Ce    0.0075555274093    2.1562081182513    4.1710208555968 
Ce    0.1006113283796    0.0612923104510    7.4402902468976 
Ce    5.7418510822205    1.1083418527658    0.9809643475031 
Ce    3.8871582396505    2.2711827798545    4.2828670169529 
Ce   -2.0079476828021    9.7749372503790    7.6361143226045 
Ce    9.5680022560654    1.1083418527658    0.9809643475031 
Ce    7.5449877679274    2.1311768851201    4.1618541582985 
Ce    1.8273801794564    9.8996881360487    7.4518700253096 
Ce    0.0026128429880    4.4218859692184    0.9809643475031 
Ce   -2.0362623011255    5.4743746333687    4.2312523090961 
Ce    9.5876885122483    3.2076045046267    7.4990061969544 
Ce    3.8287754952980    4.4218859692184    0.9809643475031 
Ce    1.8847687165630    5.4295580428556    4.2213451957571 
Ce    7.6549266691429    4.4218859692184    0.9809643475031 
Ce    5.6663056796076    5.5331292966559    4.3648782439643 
Ce    5.4959166477083    3.3125171486976    7.6265156018986 
Ce   -1.9104684831671    7.7354400263133    0.9809643475031 
Ce   -3.8149924414876    8.7616072613696    4.3854613993155 
Ce    7.6737103162306    6.4944054105329    7.5216294881862 
Ce    1.9156941691429    7.7354400263133    0.9809643475031 
Ce   -0.0263282699552    8.8013043216969    4.4157682747534 
Ce    0.1599586655384    6.3096384934759    7.6343524700170 
Ce    5.7418453429879    7.7354400263133    0.9809643475031 
Ce    3.8761682407285    8.7500642869488    4.2003400534449 
Ce    3.8586494630916    6.6111275376443    7.6004151381081 
Pd    1.9609508296294    3.1956257324480    7.6063161125303 
81
FORCE:  2.660130  ...  ENERGY:  -633.89200814
 O    0.0026128429879    0.0038271472816    0.1999463180631 
 O    1.7386879743481    0.9581298011859    3.5193101236559 
 O    0.2547911033215    2.2990905366451    6.6782604901973 
 O    0.0026128429880    2.2128565582500    1.7619595668371 
 O   11.2607033673762    0.0894892405258    5.2205158855663 
 O    1.8400341540571    1.2510852015741    8.3039880675558 
 O    3.8287640168329    0.0038271472816    0.1999463180631 
 O    5.7516365310253    1.1559838720370    3.4032037188021 
 O    3.7579401660132    2.2070897928448    6.7249568829984 
 O    3.8287640168330    2.2128565582500    1.7619595668371 
 O    3.8172707446131    0.1180934387153    5.1466941709121 
 O    5.6127680527239    1.0333764870643    8.2957663929492 
 O    7.6549266691429    0.0038271472816    0.1999463180631 
 O    9.5242598920742    1.0625634057048    3.3741833333426 
 O    7.6477378212981    1.9504470617098    6.7578216837232 
 O    7.6549266691430    2.2128565582500    1.7619595668371 
 O    1.9573743695047    9.9334274712323    5.0783918176068 
 O    9.6667609028017    1.1197014223363    8.2412121467322 
 O   -1.9104627439346    3.3173712637342    0.1999463180631 
 O   -0.0576418668291    4.6156587105645    3.2759625607045 
 O   -1.6880480859537    5.4952554495310    7.3485073985770 
 O   -1.9104684831671    5.5264106153449    1.7619595668371 
 O   -1.8413860302725    3.3945523986022    5.0945926953933 
 O    0.4413113386162    4.1945771788235    8.3561755371743 
 O    1.9156884299104    3.3173712637342    0.1999463180631 
 O    4.0427436100239    4.4225758497933    3.4112310513057 
 O    2.1193522692136    5.1654779219722    6.6488856356905 
 O    1.9156826906780    5.5264106153449    1.7619595668371 
 O    1.9755753697089    3.3308106144846    4.6777167948447 
 O    3.6070953442925    4.1905863091633    8.5912099569941 
 O    5.7418510822204    3.3173712637342    0.1999463180631 
 O    7.7351378382090    4.3282256351877    3.4561585203864 
 O    5.6106890731431    5.3641276418322    6.7051175652039 
 O    5.7418453429880    5.5264106153449    1.7619595668371 
 O    5.7982555705225    3.2120082091612    5.2228630454737 
 O    7.6839709734864    4.2274831899639    8.4195942467850 
 O   -3.8235440700895    6.6309253208291    0.1999463180631 
 O   -2.0392340183217    7.6397046826110    3.5749879956945 
 O   -3.7510219803731    8.7739359441569    6.7066330686465 
 O   -3.8235440700895    8.8399547317975    1.7619595668371 
 O   -3.7354006503929    6.4935336162041    5.3001028545120 
 O   -2.1802043757415    7.7473827139605    8.5486522298256 
 O    0.0026071037555    6.6309253208291    0.1999463180631 
 O    1.8658728674800    7.6004066396652    3.4616705825013 
 O   -0.1588276923820    8.7548889776843    6.6467038490516 
 O    0.0026071037555    8.8399547317975    1.7619595668371 
 O   -0.0226437974748    6.5832410538282    5.1544140231868 
 O    1.9249693427862    7.6235244979684    8.3446395541659 
 O    3.8287697560655    6.6309253208291    0.1999463180631 
 O    5.7424634583282    7.6415019507370    3.7019987717216 
 O    3.8073671824034    8.6863150473495    6.8620207570429 
 O    3.8287697560655    8.8399547317975    1.7619595668371 
 O    3.9332455392566    6.5446348795858    5.1629420375170 
 O    5.8864726245722    7.6920837161526    8.3364518666172 
Ce    1.9156884299104    1.1083418527658    0.9809643475031 
Ce    0.0029395201019    2.1531991852365    4.1706707204697 
Ce    0.1010636946853    0.0600372049554    7.4375557713904 
Ce    5.7418510822205    1.1083418527658    0.9809643475031 
Ce    3.8897938099991    2.2694751763219    4.2843131776733 
Ce   -2.0070020294631    9.7733438648263    7.6354459864987 
Ce    9.5680022560654    1.1083418527658    0.9809643475031 
Ce    7.5431137937315    2.1311758910559    4.1616342688767 
Ce    1.8266832644539    9.8966792030339    7.4538342035373 
Ce    0.0026128429880    4.4218859692184    0.9809643475031 
Ce   -2.0368301981814    5.4751105391174    4.2278036491700 
Ce    9.5865805534142    3.2079869211356    7.4991412327819 
Ce    3.8287754952980    4.4218859692184    0.9809643475031 
Ce    1.8842556291775    5.4296158973937    4.2224879820677 
Ce    7.6549266691429    4.4218859692184    0.9809643475031 
Ce    5.6677712500188    5.5307910587764    4.3644485015672 
Ce    5.4960911777687    3.3145676049827    7.6260778759645 
Ce   -1.9104684831671    7.7354400263133    0.9809643475031 
Ce   -3.8137532837985    8.7633425992941    4.3849657357121 
Ce    7.6742807385487    6.4981326543596    7.5195679108059 
Ce    1.9156941691429    7.7354400263133    0.9809643475031 
Ce   -0.0229985968280    8.7994891604147    4.4181560366495 
Ce    0.1575452034875    6.3065290605676    7.6325283458402 
Ce    5.7418453429879    7.7354400263133    0.9809643475031 
Ce    3.8772674759293    8.7505989940976    4.2017376286395 
Ce    3.8558605978429    6.6067945110765    7.5997951594270 
Pd    1.9626820117207    3.1977993532911    7.6049614203350 
81
FORCE:  2.636765  ...  ENERGY:  -633.91687213
 O    0.0026128429879    0.0038271472816    0.1999463180631 
 O    1.7446576370330    0.9542363498202    3.5212122583953 
 O    0.2505250170196    2.2931651185889    6.6738567711330 
 O    0.0026128429880    2.2128565582500    1.7619595668371 
 O   11.2641395032663    0.0800588514046    5.2234301047089 
 O    1.8448027101644    1.2593793752816    8.3047031643789 
 O    3.8287640168329    0.0038271472816    0.1999463180631 
 O    5.7551244347925    1.1624988695875    3.4023018072109 
 O    3.7587909498390    2.2105169286807    6.7269498019596 
 O    3.8287640168330    2.2128565582500    1.7619595668371 
 O    3.8139629379617    0.1276470918009    5.1357291248569 
 O    5.6035344885163    1.0371900156660    8.2919251710988 
 O    7.6549266691429    0.0038271472816    0.1999463180631 
 O    9.5297649638881    1.0696987987405    3.3696977259977 
 O    7.6504656785053    1.9572961642476    6.7484649782420 
 O    7.6549266691430    2.2128565582500    1.7619595668371 
 O    1.9534982640512    9.9286387656220    5.0810512478653 
 O    9.6717641361259    1.1172951904636    8.2408884713280 
 O   -1.9104627439346    3.3173712637342    0.1999463180631 
 O   -0.0534811528359    4.6104325172870    3.2698245892809 
 O   -1.6952753866563    5.4905131667201    7.3462578659232 
 O   -1.9104684831671    5.5264106153449    1.7619595668371 
 O   -1.8355394741247    3.3991451741531    5.0971360222123 
 O    0.4423559937158    4.2039692964719    8.3493455071347 
 O    1.9156884299104    3.3173712637342    0.1999463180631 
 O    4.0366125601211    4.4157469267594    3.3992429719963 
 O    2.1222469085173    5.1627718803280    6.6464294434765 
 O    1.9156826906780    5.5264106153449    1.7619595668371 
 O    1.9886845228391    3.3287569771939    4.6826800458093 
 O    3.6072489835465    4.1895722642433    8.5885566854641 
 O    5.7418510822204    3.3173712637342    0.1999463180631 
 O    7.7334942941980    4.3272851510207    3.4547944760476 
 O    5.6058597959560    5.3585090914035    6.7078198784617 
 O    5.7418453429880    5.5264106153449    1.7619595668371 
 O    5.7978862509112    3.2159326753309    5.2106108251369 
 O    7.6868047195333    4.2380690793450    8.4277753194030 
 O   -3.8235440700895    6.6309253208291    0.1999463180631 
 O   -2.0354992127723    7.6516623806280    3.5776002090336 
 O   -3.7429794790862    8.7780877528157    6.7012460059125 
 O   -3.8235440700895    8.8399547317975    1.7619595668371 
 O   -3.7423766301043    6.4954574287065    5.2954386440371 
 O   -2.1742824634711    7.7543180018669    8.5425151708063 
 O    0.0026071037555    6.6309253208291    0.1999463180631 
 O    1.8625403247365    7.5963180534913    3.4660181887049 
 O   -0.1599351346852    8.7472402498807    6.6509177880341 
 O    0.0026071037555    8.8399547317975    1.7619595668371 
 O   -0.0245413599163    6.6013186088647    5.1413956113894 
 O    1.9084189458490    7.6230820399801    8.3395278094113 
 O    3.8287697560655    6.6309253208291    0.1999463180631 
 O    5.7375631868351    7.6457796079272    3.7024068445179 
 O    3.8044574489183    8.6899488491386    6.8632009519273 
 O    3.8287697560655    8.8399547317975    1.7619595668371 
 O    3.9362322358496    6.5490894802088    5.1531945949200 
 O    5.8919678249063    7.6959874063799    8.3337901553480 
Ce    1.9156884299104    1.1083418527658    0.9809643475031 
Ce   -0.0016768315595    2.1502699761729    4.1703513789857 
Ce    0.1014356543436    0.0587647033359    7.4349107114986 
Ce    5.7418510822205    1.1083418527658    0.9809643475031 
Ce    3.8923725619460    2.2677226410862    4.2857741649626 
Ce   -2.0059677049819    9.7718378575194    7.6347842653236 
Ce    9.5680022560654    1.1083418527658    0.9809643475031 
Ce    7.5413571294479    2.1312098880525    4.1614926181184 
Ce    1.8260144716907    9.8936635103824    7.4558280349027 
Ce    0.0026128429880    4.4218859692184    0.9809643475031 
Ce   -2.0372295913711    5.4758301422128    4.2243054913138 
Ce    9.5854534255435    3.2083146641119    7.4993036407366 
Ce    3.8287754952980    4.4218859692184    0.9809643475031 
Ce    1.8837324981351    5.4297229581112    4.2236280311656 
Ce    7.6549266691429    4.4218859692184    0.9809643475031 
Ce    5.6693161940155    5.5283391993556    4.3640128285426 
Ce    5.4963382517278    3.3164973818705    7.6256531517907 
Ce   -1.9104684831671    7.7354400263133    0.9809643475031 
Ce   -3.8124812403072    8.7651537843194    4.3844354007476 
Ce    7.6748344023080    6.5018927023058    7.5176869894652 
Ce    1.9156941691429    7.7354400263133    0.9809643475031 
Ce   -0.0196797134579    8.7976352306276    4.4204945287166 
Ce    0.1552578897670    6.3035164495151    7.6306818677595 
Ce    5.7418453429879    7.7354400263133    0.9809643475031 
Ce    3.8782505490642    8.7511772412596    4.2032008969394 
Ce    3.8530659933616    6.6024692382097    7.5991658286025 
Pd    1.9644988805532    3.2000022990290    7.6035255241623 
81
FORCE:  2.605214  ...  ENERGY:  -633.93089626
 O    0.0026128429879    0.0038271472816    0.1999463180631 
 O    1.7509691857979    0.9501970692320    3.5227590116831 
 O    0.2462935956820    2.2873840386587    6.6691494495578 
 O    0.0026128429880    2.2128565582500    1.7619595668371 
 O   11.2679249862386    0.0702848142793    5.2259526743314 
 O    1.8496912736232    1.2673720493084    8.3056598202246 
 O    3.8287640168329    0.0038271472816    0.1999463180631 
 O    5.7583860406223    1.1685394002814    3.4012687375102 
 O    3.7589529683725    2.2143477540000    6.7288943634961 
 O    3.8287640168330    2.2128565582500    1.7619595668371 
 O    3.8107072435414    0.1365808464334    5.1245430488745 
 O    5.5944564575094    1.0408343545359    8.2882509192243 
 O    7.6549266691429    0.0038271472816    0.1999463180631 
 O    9.5353941179088    1.0767990019026    3.3651918176584 
 O    7.6533130265332    1.9649631828331    6.7388251993454 
 O    7.6549266691430    2.2128565582500    1.7619595668371 
 O    1.9493762324850    9.9232610769559    5.0835909250674 
 O    9.6768780792451    1.1149061559020    8.2406040293062 
 O   -1.9104627439346    3.3173712637342    0.1999463180631 
 O   -0.0493291050838    4.6045590887899    3.2640746177604 
 O   -1.7034060999467    5.4851536694294    7.3431048249709 
 O   -1.9104684831671    5.5264106153449    1.7619595668371 
 O   -1.8298108018125    3.4033824723356    5.1001357792524 
 O    0.4428277012350    4.2134495876175    8.3429205845777 
 O    1.9156884299104    3.3173712637342    0.1999463180631 
 O    4.0300199037484    4.4089421594862    3.3871695828905 
 O    2.1248182568543    5.1602420862716    6.6442193723061 
 O    1.9156826906780    5.5264106153449    1.7619595668371 
 O    2.0013325860303    3.3263510435405    4.6874806607180 
 O    3.6075758328373    4.1886160738614    8.5855763170142 
 O    5.7418510822204    3.3173712637342    0.1999463180631 
 O    7.7311769068991    4.3265741962841    3.4531076687089 
 O    5.6012570462756    5.3532677883496    6.7109715508077 
 O    5.7418453429880    5.5264106153449    1.7619595668371 
 O    5.7973289714354    3.2199634069666    5.1981578758672 
 O    7.6893840454034    4.2487807178510    8.4353795244402 
 O   -3.8235440700895    6.6309253208291    0.1999463180631 
 O   -2.0315946981179    7.6640939490631    3.5798659368626 
 O   -3.7355360388876    8.7823103388477    6.6952975864698 
 O   -3.8235440700895    8.8399547317975    1.7619595668371 
 O   -3.7496098996088    6.4973495305600    5.2905162231623 
 O   -2.1682538588684    7.7613865937865    8.5362843622514 
 O    0.0026071037555    6.6309253208291    0.1999463180631 
 O    1.8595683779711    7.5928421091018    3.4702948554789 
 O   -0.1605681146376    8.7395671675034    6.6554382948412 
 O    0.0026071037555    8.8399547317975    1.7619595668371 
 O   -0.0263780291009    6.6189236851731    5.1287804822661 
 O    1.8917168609968    7.6223724769334    8.3343759188701 
 O    3.8287697560655    6.6309253208291    0.1999463180631 
 O    5.7331853576764    7.6506424707291    3.7019901038813 
 O    3.8015625800452    8.6937855394368    6.8638980287667 
 O    3.8287697560655    8.8399547317975    1.7619595668371 
 O    3.9383242434882    6.5539960818367    5.1435007560721 
 O    5.8972149182194    7.6996076888955    8.3309427698160 
Ce    1.9156884299104    1.1083418527658    0.9809643475031 
Ce   -0.0062774003315    2.1474231750339    4.1700612344373 
Ce    0.1017311100327    0.0574791794749    7.4323607697489 
Ce    5.7418510822205    1.1083418527658    0.9809643475031 
Ce    3.8948887562587    2.2659287527785    4.2872415390816 
Ce   -2.0048454554589    9.7704268827527    7.6341293871803 
Ce    9.5680022560654    1.1083418527658    0.9809643475031 
Ce    7.5397205873005    2.1312789755164    4.1614280655185 
Ce    1.8253721941817    9.8906509987364    7.4578442201721 
Ce    0.0026128429880    4.4218859692184    0.9809643475031 
Ce   -2.0374615137564    5.4765368224732    4.2207589760329 
Ce    9.5843073582056    3.2085865406786    7.4994927365153 
Ce    3.8287754952980    4.4218859692184    0.9809643475031 
Ce    1.8832032261140    5.4298734594355    4.2247582719179 
Ce    7.6549266691429    4.4218859692184    0.9809643475031 
Ce    5.6709321897105    5.5257767999925    4.3635618727470 
Ce    5.4966583861166    3.3183006143819    7.6252407450743 
Ce   -1.9104684831671    7.7354400263133    0.9809643475031 
Ce   -3.8111783771374    8.7670410152581    4.3838667448050 
Ce    7.6753722831779    6.5056802858311    7.5159876365682 
Ce    1.9156941691429    7.7354400263133    0.9809643475031 
Ce   -0.0163789660625    8.7957482979081    4.4227764517209 
Ce    0.1530924773447    6.3006086128325    7.6288130357749 
Ce    5.7418453429879    7.7354400263133    0.9809643475031 
Ce    3.8791156235789    8.7517958474293    4.2047243839192 
Ce    3.8502666253174    6.5981599697770    7.5985230398154 
Pd    1.9663994273956    3.2022277106185    7.6020063711027 
81
FORCE:  2.564637  ...  ENERGY:  -633.93261083
 O    0.0026128429879    0.0038271472816    0.1999463180631 
 O    1.7575361304091    0.9460653406706    3.5239465058015 
 O    0.2421225510703    2.2817793057228    6.6641688629127 
 O    0.0026128429880    2.2128565582500    1.7619595668371 
 O   11.2720394420179    0.0602191187093    5.2280564504078 
 O    1.8546643759768    1.2750288290323    8.3068518763641 
 O    3.8287640168329    0.0038271472816    0.1999463180631 
 O    5.7614282355935    1.1740702742451    3.4000944732533 
 O    3.7584320182385    2.2185871397174    6.7307951296291 
 O    3.8287640168330    2.2128565582500    1.7619595668371 
 O    3.8075530761441    0.1448391344222    5.1132223932667 
 O    5.5856141941736    1.0443023464116    8.2847491117512 
 O    7.6549266691429    0.0038271472816    0.1999463180631 
 O    9.5411186579736    1.0838288253172    3.3607171591644 
 O    7.6562690182324    1.9733665047929    6.7289712335534 
 O    7.6549266691430    2.2128565582500    1.7619595668371 
 O    1.9450438580477    9.9173357583061    5.0860188327500 
 O    9.6820594009537    1.1125451539517    8.2403599611720 
 O   -1.9104627439346    3.3173712637342    0.1999463180631 
 O   -0.0452167154282    4.5980648671819    3.2587797078547 
 O   -1.7123726750585    5.4792380926091    7.3390457666082 
 O   -1.9104684831671    5.5264106153449    1.7619595668371 
 O   -1.8242134431399    3.4072780112362    5.1035643662852 
 O    0.4427400631547    4.2229569173100    8.3369158241732 
 O    1.9156884299104    3.3173712637342    0.1999463180631 
 O    4.0230403083205    4.4022505167222    3.3750868416412 
 O    2.1270756691735    5.1579331732869    6.6422565626848 
 O    1.9156826906780    5.5264106153449    1.7619595668371 
 O    2.0134168270207    3.3236325760934    4.6921133932466 
 O    3.6080611997299    4.1877453730032    8.5822909774470 
 O    5.7418510822204    3.3173712637342    0.1999463180631 
 O    7.7282253344090    4.3261115587919    3.4511204522742 
 O    5.5968734204921    5.3484545293528    6.7145481754285 
 O    5.7418453429880    5.5264106153449    1.7619595668371 
 O    5.7965964731914    3.2241169055347    5.1855847173390 
 O    7.6916884620368    4.2595810268862    8.4423872452055 
 O   -3.8235440700895    6.6309253208291    0.1999463180631 
 O   -2.0275403894953    7.6768939177014    3.5817787923518 
 O   -3.7287348761981    8.7865715939781    6.6888249907912 
 O   -3.8235440700895    8.8399547317975    1.7619595668371 
 O    7.7213996651968    6.4991787081478    5.2853529275681 
 O   -2.1621408875480    7.7685203963195    8.5299953879261 
 O    0.0026071037555    6.6309253208291    0.1999463180631 
 O    1.8569869859772    7.5899961032141    3.4744734387970 
 O   -0.1607286409706    8.7319221177375    6.6602578421379 
 O    0.0026071037555    8.8399547317975    1.7619595668371 
 O   -0.0281647669628    6.6359182072321    5.1166217833639 
 O    1.8749606551821    7.6214011767752    8.3291996215155 
 O    3.8287697560655    6.6309253208291    0.1999463180631 
 O    5.7293575765605    7.6560367602677    3.7007439877905 
 O    3.7986714416734    8.6977593111923    6.8641477994274 
 O    3.8287697560655    8.8399547317975    1.7619595668371 
 O    3.9395177742789    6.5593119397077    5.1339362505253 
 O    5.9021863561955    7.7029322373029    8.3279072009096 
Ce    1.9156884299104    1.1083418527658    0.9809643475031 
Ce   -0.0108467476787    2.1446610681672    4.1697986901173 
Ce    0.1019537348614    0.0561852060680    7.4299107362634 
Ce    5.7418510822205    1.1083418527658    0.9809643475031 
Ce    3.8973371128432    2.2640968912173    4.2887061759879 
Ce   -2.0036361417788    9.7691177995695    7.6334802115636 
Ce    9.5680022560654    1.1083418527658    0.9809643475031 
Ce    7.5382067499439    2.1313830540412    4.1614390143693 
Ce    1.8247554562572    9.8876509128933    7.4598745477071 
Ce    0.0026128429880    4.4218859692184    0.9809643475031 
Ce   -2.0375280888534    5.4772340591234    4.2171659281358 
Ce    9.5831421218312    3.2088015567713    7.4997073796128 
Ce    3.8287754952980    4.4218859692184    0.9809643475031 
Ce    1.8826716583998    5.4300619340133    4.2258716331918 
Ce    7.6549266691429    4.4218859692184    0.9809643475031 
Ce    5.6726099969395    5.5231087316018    4.3630874225422 
Ce    5.4970519826815    3.3199718351637    7.6248408839161 
Ce   -1.9104684831671    7.7354400263133    0.9809643475031 
Ce   -3.8098474491206    8.7690038944847    4.3832558901663 
Ce    7.6758960455359    6.5094895399566    7.5144689397107 
Ce    1.9156941691429    7.7354400263133    0.9809643475031 
Ce   -0.0131038730363    8.7938352212994    4.4249947345294 
Ce    0.1510430548113    6.2978124095627    7.6269216217854 
Ce    5.7418453429879    7.7354400263133    0.9809643475031 
Ce    3.8798616090193    8.7524515321948    4.2063028432544 
Ce    3.8474642154800    6.5938748571051    7.5978635996509 
Pd    1.9683805530623    3.2044686296099    7.6004035049540 
81
FORCE:  2.517666  ...  ENERGY:  -633.92130340
 O    0.0026128429879    0.0038271472816    0.1999463180631 
 O    1.7642731284792    0.9418949430107    3.5247706349313 
 O    0.2380361027456    2.2763803440822    6.6589453486387 
 O    0.0026128429880    2.2128565582500    1.7619595668371 
 O   11.2764615206591    0.0499156429757    5.2297202195394 
 O    1.8596876392224    1.2823197931199    8.3082727178669 
 O    3.8287640168329    0.0038271472816    0.1999463180631 
 O    5.7642599729090    1.1790608743004    3.3987723995095 
 O    3.7572372822089    2.2232364775228    6.7326548375713 
 O    3.8287640168330    2.2128565582500    1.7619595668371 
 O    3.8045504244847    0.1523713578982    5.1018556612448 
 O    5.5770852929323    1.0475896174105    8.2814254512059 
 O    7.6549266691429    0.0038271472816    0.1999463180631 
 O    9.5469095435661    1.0907546696135    3.3563239327488 
 O    7.6593213142529    1.9824223305127    6.7189715111840 
 O    7.6549266691430    2.2128565582500    1.7619595668371 
 O    1.9405374700811    9.9109114194134    5.0883482007747 
 O    9.6872643683003    1.1102219264421    8.2401583198350 
 O   -1.9104627439346    3.3173712637342    0.1999463180631 
 O   -0.0411748609401    4.5909806684539    3.2540039559614 
 O   -1.7220971732141    5.4728346290651    7.3340820594415 
 O   -1.9104684831671    5.5264106153449    1.7619595668371 
 O   -1.8187612870495    3.4108486899468    5.1073898491625 
 O    0.4421125928655    4.2324282618775    8.3313433152774 
 O    1.9156884299104    3.3173712637342    0.1999463180631 
 O    4.0157465473055    4.3957572891784    3.3630681967898 
 O    2.1290297630551    5.1558869914779    6.6405407865115 
 O    1.9156826906780    5.5264106153449    1.7619595668371 
 O    2.0248418597661    3.3206473018073    4.6965745937781 
 O    3.6086901622195    4.1869870014029    8.5787246173739 
 O    5.7418510822204    3.3173712637342    0.1999463180631 
 O    7.7246833096793    4.3259153305131    3.4488576897590 
 O    5.5927000801874    5.3441174271217    6.7185196429842 
 O    5.7418453429880    5.5264106153449    1.7619595668371 
 O    5.7957020711986    3.2284098713140    5.1729707287210 
 O    7.6936959307807    4.2704340213256    8.4487831989279 
 O   -3.8235440700895    6.6309253208291    0.1999463180631 
 O   -2.0233542507021    7.6899540329484    3.5833337572778 
 O   -3.7226124351441    8.7908404039967    6.6818742952909 
 O   -3.8235440700895    8.8399547317975    1.7619595668371 
 O    7.7137587380079    6.5009138472595    5.2799665491373 
 O   -2.1559661620859    7.7756502225956    8.5236833753938 
 O    0.0026071037555    6.6309253208291    0.1999463180631 
 O    1.8548222622629    7.5877902746900    3.4785279351385 
 O   -0.1604213624626    8.7243556984520    6.6653682182861 
 O    0.0026071037555    8.8399547317975    1.7619595668371 
 O   -0.0299115597665    6.6521606202954    5.1049717498254 
 O    1.8582485840654    7.6201762908323    8.3240173935334 
 O    3.8287697560655    6.6309253208291    0.1999463180631 
 O    5.7261001603705    7.6619022362510    3.6986671276392 
 O    3.7957730144762    8.7018065442942    6.8639890410896 
 O    3.8287697560655    8.8399547317975    1.7619595668371 
 O    3.9398180509233    6.5649880464553    5.1245708772038 
 O    5.9068555661882    7.7059514091793    8.3246839048307 
Ce    1.9156884299104    1.1083418527658    0.9809643475031 
Ce   -0.0153700663813    2.1419850472627    4.1695614650149 
Ce    0.1021076610770    0.0548869581850    7.4275647168613 
Ce    5.7418510822205    1.1083418527658    0.9809643475031 
Ce    3.8997121794286    2.2622305356274    4.2901584954369 
Ce   -2.0023414283191    9.7679172682002    7.6328358260691 
Ce    9.5680022560654    1.1083418527658    0.9809643475031 
Ce    7.5368174539327    2.1315219248140    4.1615238679637 
Ce    1.8241631100709    9.8846720006183    7.4619117182740 
Ce    0.0026128429880    4.4218859692184    0.9809643475031 
Ce   -2.0374323010630    5.4779248343561    4.2135284005320 
Ce    9.5819578885971    3.2089594141709    7.4999457452205 
Ce    3.8287754952980    4.4218859692184    0.9809643475031 
Ce    1.8821417550631    5.4302825168657    4.2269610438543 
Ce    7.6549266691429    4.4218859692184    0.9809643475031 
Ce    5.6743409494616    5.5203404615369    4.3625805819869 
Ce    5.4975194431686    3.3215061733012    7.6244535683162 
Ce   -1.9104684831671    7.7354400263133    0.9809643475031 
Ce   -3.8084914406578    8.7710422231863    4.3825991872146 
Ce    7.6764068946207    6.5133151961419    7.5131293021853 
Ce    1.9156941691429    7.7354400263133    0.9809643475031 
Ce   -0.0098614362431    8.7919035556896    4.4271416217061 
Ce    0.1491023907338    6.2951340029041    7.6250076257909 
Ce    5.7418453429879    7.7354400263133    0.9809643475031 
Ce    3.8804877592850    8.7531410151440    4.2079308005196 
Ce    3.8446598543036    6.5896211568627    7.5971836303911 
Pd    1.9704387566214    3.2067185945859    7.5987166976153 
81
FORCE:  2.462773  ...  ENERGY:  -633.89691760
 O    0.0026128429879    0.0038271472816    0.1999463180631 
 O    1.7710969037447    0.9377402515656    3.5252277494555 
 O    0.2340570354611    2.2712121047492    6.6535110689852 
 O    0.0026128429880    2.2128565582500    1.7619595668371 
 O   11.2811695852559    0.0394265754506    5.2309271022479 
 O    1.8647285793041    1.2892188970884    8.3099148173978 
 O    3.8287640168329    0.0038271472816    0.1999463180631 
 O    5.7668934197417    1.1834863488415    3.3972981823587 
 O    3.7553813865954    2.2282951709778    6.7344759964343 
 O    3.8287640168330    2.2128565582500    1.7619595668371 
 O    3.8017482442166    0.1591318893132    5.0905322684242 
 O    5.5689431011769    1.0506935829656    8.2782831310034 
 O    7.6549266691429    0.0038271472816    0.1999463180631 
 O    9.5527327984299    1.0975441282976    3.3520630049480 
 O    7.6624568865369    1.9920450710623    6.7088924096458 
 O    7.6549266691430    2.2128565582500    1.7619595668371 
 O    1.9358938570653    9.9040410439011    5.0905929433062 
 O    9.6924510848875    1.1079434318229    8.2400020706089 
 O   -1.9104627439346    3.3173712637342    0.1999463180631 
 O   -0.0372340743363    4.5833396943513    3.2498073526596 
 O   -1.7324940224572    5.4660175353955    7.3282182654921 
 O   -1.9104684831671    5.5264106153449    1.7619595668371 
 O   -1.8134686816227    3.4141149861904    5.1115757317145 
 O    0.4409688786129    4.2417989077386    8.3262133224380 
 O    1.9156884299104    3.3173712637342    0.1999463180631 
 O    4.0082078358475    4.3895425984316    3.3511873249787 
 O    2.1306921891410    5.1541430051946    6.6390704470787 
 O    1.9156826906780    5.5264106153449    1.7619595668371 
 O    2.0355202757556    3.3174440292358    4.7008644904135 
 O    3.6094477409095    4.1863665065112    8.5749023279115 
 O    5.7418510822204    3.3173712637342    0.1999463180631 
 O    7.7205983535551    4.3260016152882    3.4463462970884 
 O    5.5887249729733    5.3403012145465    6.7228533350231 
 O    5.7418453429880    5.5264106153449    1.7619595668371 
 O    5.7946593674380    3.2328587063645    5.1603932362726 
 O    7.6953842981975    4.2813055053597    8.4545609987777 
 O   -3.8235440700895    6.6309253208291    0.1999463180631 
 O   -2.0190538437899    7.7031659418032    3.5845262696195 
 O   -3.7171960918646    8.7950880404472    6.6744954541010 
 O   -3.8235440700895    8.8399547317975    1.7619595668371 
 O    7.7059699681898    6.5025239330912    5.2743755640556 
 O   -2.1497505158961    7.7827073827765    8.5173834522176 
 O    0.0026071037555    6.6309253208291    0.1999463180631 
 O    1.8530973933273    7.5862289974119    3.4824325690836 
 O   -0.1596533957618    8.7169172152328    6.6707612116477 
 O    0.0026071037555    8.8399547317975    1.7619595668371 
 O   -0.0316289676998    6.6675095684297    5.0938785109744 
 O    1.8416786163453    7.6187098472816    8.3188481673117 
 O    3.8287697560655    6.6309253208291    0.1999463180631 
 O    5.7234267110873    7.6681747815359    3.6957620325391 
 O    3.7928554756349    8.7058669984504    6.8634609871357 
 O    3.8287697560655    8.8399547317975    1.7619595668371 
 O    3.9392405693491    6.5709705237982    5.1154698730109 
 O    5.9111981564594    7.7086587431069    8.3212760749943 
Ce    1.9156884299104    1.1083418527658    0.9809643475031 
Ce   -0.0198332379272    2.1393963051976    4.1693479624227 
Ce    0.1021967913577    0.0535886108955    7.4253252206542 
Ce    5.7418510822205    1.1083418527658    0.9809643475031 
Ce    3.9020092498445    2.2603328670142    4.2915896014873 
Ce   -2.0009634385959    9.7668309548107    7.6321950901915 
Ce    9.5680022560654    1.1083418527658    0.9809643475031 
Ce    7.5355541340748    2.1316950908027    4.1616798890887 
Ce    1.8235940651685    9.8817219162059    7.4639475202345 
Ce    0.0026128429880    4.4218859692184    0.9809643475031 
Ce   -2.0371777087093    5.4786119315512    4.2098482180300 
Ce    9.5807547158958    3.2090600134708    7.5002069209342 
Ce    3.8287754952980    4.4218859692184    0.9809643475031 
Ce    1.8816173039972    5.4305298400459    4.2280196608738 
Ce    7.6549266691429    4.4218859692184    0.9809643475031 
Ce    5.6761162088585    5.5174787494345    4.3620335956450 
Ce    5.4980611693243    3.3228999507566    7.6240785701736 
Ce   -1.9104684831671    7.7354400263133    0.9809643475031 
Ce   -3.8071132213653    8.7731554049243    4.3818920739286 
Ce    7.6769061504559    6.5171517870338    7.5119662148804 
Ce    1.9156941691429    7.7354400263133    0.9809643475031 
Ce   -0.0066582558002    8.7899615518119    4.4292098140171 
Ce    0.1472615893017    6.2925784625842    7.6230699072862 
Ce    5.7418453429879    7.7354400263133    0.9809643475031 
Ce    3.8809943613378    8.7538608170522    4.2096025531883 
Ce    3.8418549765962    6.5854055292804    7.5964799386210 
Pd    1.9725696188640    3.2089715417545    7.5969466333897 
81
FORCE:  2.401094  ...  ENERGY:  -633.86015911
 O    0.0026128429879    0.0038271472816    0.1999463180631 
 O    1.7779285417588    0.9336550452101    3.5253144278583 
 O    0.2302077896156    2.2662947672277    6.6478979581007 
 O    0.0026128429880    2.2128565582500    1.7619595668371 
 O   11.2861421710785    0.0288040050995    5.2316668339855 
 O    1.8697575817822    1.2957038738991    8.3117692790156 
 O    3.8287640168329    0.0038271472816    0.1999463180631 
 O    5.7693432685266    1.1873274130223    3.3956711374978 
 O    3.7528803438566    2.2337595420446    6.7362613434310 
 O    3.8287640168330    2.2128565582500    1.7619595668371 
 O    3.7991946301081    0.1650809660981    5.0793411742185 
 O    5.5612559731664    1.0536147401089    8.2753244321541 
 O    7.6549266691429    0.0038271472816    0.1999463180631 
 O    9.5585549628395    1.1041680752875    3.3479822769846 
 O    7.6656606409030    2.0021519208913    6.6987966567302 
 O    7.6549266691430    2.2128565582500    1.7619595668371 
 O    1.9311494057345    9.8967822874945    5.0927719927324 
 O    9.6975785725954    1.1057150380407    8.2398941788075 
 O   -1.9104627439346    3.3173712637342    0.1999463180631 
 O   -0.0334221908944    4.5751766377156    3.2462444141024 
 O   -1.7434727724834    5.4588641497972    7.3214596310843 
 O   -1.9104684831671    5.5264106153449    1.7619595668371 
 O   -1.8083498027636    3.4170996640380    5.1160825524580 
 O    0.4393362391436    4.2510040419056    8.3215322324847 
 O    1.9156884299104    3.3173712637342    0.1999463180631 
 O    4.0004885107426    4.3836805022667    3.3395153937385 
 O    2.1320754015658    5.1527369013426    6.6378421228706 
 O    1.9156826906780    5.5264106153449    1.7619595668371 
 O    2.0453739066425    3.3140742509059    4.7049846798603 
 O    3.6103189564031    4.1859082429016    8.5708487439742 
 O    5.7418510822204    3.3173712637342    0.1999463180631 
 O    7.7160212008517    4.3263841312035    3.4436147868949 
 O    5.5849357594998    5.3370457536030    6.7275134396789 
 O    5.7418453429880    5.5264106153449    1.7619595668371 
 O    5.7934807586518    3.2374793157137    5.1479261447372 
 O    7.6967319273809    4.2921633707138    8.4597190480475 
 O   -3.8235440700895    6.6309253208291    0.1999463180631 
 O   -2.0146554681788    7.7164226829547    3.5853526797598 
 O   -3.7125057614963    8.7992877630019    6.6667450362843 
 O   -3.8235440700895    8.8399547317975    1.7619595668371 
 O    7.6980704311845    6.5039793425289    5.2685986766101 
 O   -2.1435151267465    7.7896249763397    8.5111284649503 
 O    0.0026071037555    6.6309253208291    0.1999463180631 
 O    1.8518313760301    7.5853099850322    3.4861633900210 
 O   -0.1584331201476    8.7096537867244    6.6764270138771 
 O    0.0026071037555    8.8399547317975    1.7619595668371 
 O   -0.0333276657352    6.6818264790814    5.0833867746187 
 O    1.8253472285203    7.6170164588675    8.3137131562489 
 O    3.8287697560655    6.6309253208291    0.1999463180631 
 O    5.7213449766749    7.6747872967873    3.6920353174208 
 O    3.7899064284071    8.7098846084383    6.8626044676554 
 O    3.8287697560655    8.8399547317975    1.7619595668371 
 O    3.9378087456250    6.5772021136370    5.1066934566263 
 O    5.9151921457484    7.7110515551126    8.3176866767141 
Ce    1.9156884299104    1.1083418527658    0.9809643475031 
Ce   -0.0242236360051    2.1368954384103    4.1691559013302 
Ce    0.1022248562047    0.0522938422372    7.4231943005517 
Ce    5.7418510822205    1.1083418527658    0.9809643475031 
Ce    3.9042235031353    2.2584068675705    4.2929899138947 
Ce   -1.9995046404790    9.7658643267545    7.6315561791225 
Ce    9.5680022560654    1.1083418527658    0.9809643475031 
Ce    7.5344177086474    2.1319017567559    4.1619043405317 
Ce    1.8230471737036    9.8788074192929    7.4659746543547 
Ce    0.0026128429880    4.4218859692184    0.9809643475031 
Ce   -2.0367687310013    5.4792980346821    4.2061269773371 
Ce    9.5795327759042    3.2091036528905    7.5004886257433 
Ce    3.8287754952980    4.4218859692184    0.9809643475031 
Ce    1.8811019783110    5.4307985356070    4.2290408693194 
Ce    7.6549266691429    4.4218859692184    0.9809643475031 
Ce    5.6779275106354    5.5145307525570    4.3614382518784 
Ce    5.4986777350717    3.3241499865246    7.6237163456903 
Ce   -1.9104684831671    7.7354400263133    0.9809643475031 
Ce   -3.8057161773902    8.7753427438538    4.3811299882871 
Ce    7.6773950182802    6.5209942429045    7.5109762562800 
Ce    1.9156941691429    7.7354400263133    0.9809643475031 
Ce   -0.0035003579017    8.7880174603992    4.4311920122285 
Ce    0.1455108938199    6.2901497648599    7.6211075538671 
Ce    5.7418453429879    7.7354400263133    0.9809643475031 
Ce    3.8813818743162    8.7546075581011    4.2113121706330 
Ce    3.8390503858504    6.5812333423049    7.5957488747237 
Pd    1.9747691797196    3.2112224013882    7.5950939965804 
81
FORCE:  2.354163  ...  ENERGY:  -633.81241701
 O    0.0026128429879    0.0038271472816    0.1999463180631 
 O    1.7846949246993    0.9296912140970    3.5250279329269 
 O    0.2265077638152    2.2616456282350    6.6421377220326 
 O    0.0026128429880    2.2128565582500    1.7619595668371 
 O   11.2913563785894    0.0180981321660    5.2319350808320 
 O    1.8747485905412    1.3017580232730    8.3138267505768 
 O    3.8287640168329    0.0038271472816    0.1999463180631 
 O    5.7716255317226    1.1905702493502    3.3938930897351 
 O    3.7497526917134    2.2396235269315    6.7380122471675 
 O    3.8287640168330    2.2128565582500    1.7619595668371 
 O    3.7969346351342    0.1701868776039    5.0683663198177 
 O    5.5540853760809    1.0563547787497    8.2725507232645 
 O    7.6549266691429    0.0038271472816    0.1999463180631 
 O    9.5643404535535    1.1106004661006    3.3441260004643 
 O    7.6689170240312    2.0126632554552    6.6887426463086 
 O    7.6549266691430    2.2128565582500    1.7619595668371 
 O    1.9263415932770    9.8891956887052    5.0949065624519 
 O    9.7026074028965    1.1035408207590    8.2398380659467 
 O   -1.9104627439346    3.3173712637342    0.1999463180631 
 O   -0.0297659554380    4.5665260919820    3.2433619010071 
 O   -1.7549404477263    5.4514526057186    7.3138136835531 
 O   -1.9104684831671    5.5264106153449    1.7619595668371 
 O   -1.8034182524533    3.4198270780631    5.1208681126968 
 O    0.4372446332513    4.2599796466421    8.3173036950344 
 O    1.9156884299104    3.3173712637342    0.1999463180631 
 O    3.9926462512777    4.3782355154524    3.3281201490841 
 O    2.1331919118564    5.1517000923518    6.6368514799671 
 O    1.9156826906780    5.5264106153449    1.7619595668371 
 O    2.0543378417073    3.3105875706227    4.7089390398365 
 O    3.6112893458341    4.1856346764258    8.5665891847798 
 O    5.7418510822204    3.3173712637342    0.1999463180631 
 O    7.7110035046616    4.3270740117784    3.4406928123163 
 O    5.5813187230013    5.3343851406941    6.7324627764788 
 O    5.7418453429880    5.5264106153449    1.7619595668371 
 O    5.7921793876825    3.2422863121059    5.1356376563318 
 O    7.6977159187930    4.3029770996161    8.4642612244553 
 O   -3.8235440700895    6.6309253208291    0.1999463180631 
 O   -2.0101739310889    7.7296210725360    3.5858100223851 
 O   -3.7085518320500    8.8034168075899    6.6586841729250 
 O   -3.8235440700895    8.8399547317975    1.7619595668371 
 O    7.6900960545874    6.5052516453356    5.2626545910875 
 O   -2.1372792784583    7.7963387867360    8.5049508039423 
 O    0.0026071037555    6.6309253208291    0.1999463180631 
 O    1.8510392471605    7.5850256826627    3.4896982721478 
 O   -0.1567700053538    8.7026086547206    6.6823549042243 
 O    0.0026071037555    8.8399547317975    1.7619595668371 
 O   -0.0350193619069    6.6949781476440    5.0735362303426 
 O    1.8093450430714    7.6151123288369    8.3086360828555 
 O    3.8287697560655    6.6309253208291    0.1999463180631 
 O    5.7198546701716    7.6816722850437    3.6874965625289 
 O    3.7869133612660    8.7138092734209    6.8614591722332 
 O    3.8287697560655    8.8399547317975    1.7619595668371 
 O    3.9355543750990    6.5836237685563    5.0982934069907 
 O    5.9188167580338    7.7131296463833    8.3139225530220 
Ce    1.9156884299104    1.1083418527658    0.9809643475031 
Ce   -0.0285302412884    2.1344826457136    4.1689832288278 
Ce    0.1021959304729    0.0510057338093    7.4211726408569 
Ce    5.7418510822205    1.1083418527658    0.9809643475031 
Ce    3.9063510366230    2.2564551218633    4.2943509929197 
Ce   -1.9979677314079    9.7650214596947    7.6309170399524 
Ce    9.5680022560654    1.1083418527658    0.9809643475031 
Ce    7.5334085220046    2.1321415250479    4.1621947131811 
Ce    1.8225212304373    9.8759335796068    7.4679865057039 
Ce    0.0026128429880    4.4218859692184    0.9809643475031 
Ce   -2.0362099019328    5.4799852312836    4.2023658189588 
Ce    9.5782919538377    3.2090909288684    7.5007894910414 
Ce    3.8287754952980    4.4218859692184    0.9809643475031 
Ce    1.8805990493671    5.4310835338214    4.2300185104626 
Ce    7.6549266691429    4.4218859692184    0.9809643475031 
Ce    5.6797669920440    5.5115039263861    4.3607872514532 
Ce    5.4993694273727    3.3252543918830    7.6233662105632 
Ce   -1.9104684831671    7.7354400263133    0.9809643475031 
Ce   -3.8043030061717    8.7776037429426    4.3803083682690 
Ce    7.6778745311556    6.5248383886845    7.5101550924640 
Ce    1.9156941691429    7.7354400263133    0.9809643475031 
Ce   -0.0003926208953    8.7860797309976    4.4330813733085 
Ce    0.1438391701773    6.2878508919239    7.6191189688260 
Ce    5.7418453429879    7.7354400263133    0.9809643475031 
Ce    3.8816516756360    8.7553782560978    4.2130546346304 
Ce    3.8362464838125    6.5771086715995    7.5949872452843 
Pd    1.9770329625869    3.2134667996044    7.5931592433895 
81
FORCE:  2.481866  ...  ENERGY:  -633.75570250
 O    0.0026128429879    0.0038271472816    0.1999463180631 
 O    1.7913294774693    0.9258986602505    3.5243657555498 
 O    0.2229749218575    2.2572761195100    6.6362616106259 
 O    0.0026128429880    2.2128565582500    1.7619595668371 
 O   11.2967909726283    0.0073568705460    5.2317334394950 
 O    1.8796785338664    1.3073670306852    8.3160765113316 
 O    3.8287640168329    0.0038271472816    0.1999463180631 
 O    5.7737580009503    1.1932067064983    3.3919695134961 
 O    3.7460194931491    2.2458792725310    6.7397291638461 
 O    3.8287640168330    2.2128565582500    1.7619595668371 
 O    3.7950111887542    0.1744249710378    5.0576873124917 
 O    5.5474874396143    1.0589182715835    8.2699615481325 
 O    7.6549266691429    0.0038271472816    0.1999463180631 
 O    9.5700531707993    1.1168175426016    3.3405347773756 
 O    7.6722095069318    2.0235053151881    6.6787823854226 
 O    7.6549266691430    2.2128565582500    1.7619595668371 
 O    1.9215058881494    9.8813428795153    5.0970203749749 
 O    9.7075013038416    1.1014227681063    8.2398371535425 
 O   -1.9104627439346    3.3173712637342    0.1999463180631 
 O   -0.0262892431741    4.5574232470242    3.2412008715647 
 O   -1.7668052778582    5.4438613348274    7.3052877221324 
 O   -1.9104684831671    5.5264106153449    1.7619595668371 
 O   -1.7986870013573    3.4223222786843    5.1258893013306 
 O    0.4347251101838    4.2686641893723    8.3135281662893 
 O    1.9156884299104    3.3173712637342    0.1999463180631 
 O    3.9847322514065    4.3732646972753    3.3170661436154 
 O    2.1340544611088    5.1510598155819    6.6360930439426 
 O    1.9156826906780    5.5264106153449    1.7619595668371 
 O    2.0623573286719    3.3070338904104    4.7127330447674 
 O    3.6123451924372    4.1855657877747    8.5621480571416 
 O    5.7418510822204    3.3173712637342    0.1999463180631 
 O    7.7055960571924    4.3280795077461    3.4376086578841 
 O    5.5778599171429    5.3323479054632    6.7376639368489 
 O    5.7418453429880    5.5264106153449    1.7619595668371 
 O    5.7907677660568    3.2472926183760    5.1235900426458 
 O    7.6983136598578    4.3137210452095    8.4681945991339 
 O   -3.8235440700895    6.6309253208291    0.1999463180631 
 O   -2.0056208257696    7.7426624993755    3.5858960164848 
 O   -3.7053356809417    8.8074564858037    6.6503755918145 
 O   -3.8235440700895    8.8399547317975    1.7619595668371 
 O    7.6820810442241    6.5063153934670    5.2565617836739 
 O   -2.1310611070061    7.8027871819831    8.4988810347357 
 O    0.0026071037555    6.6309253208291    0.1999463180631 
 O    1.8507322556140    7.5853633662813    3.4930171425708 
 O   -0.1546743246064    8.6958222776356    6.6885325652323 
 O    0.0026071037555    8.8399547317975    1.7619595668371 
 O   -0.0367153051106    6.7068389243987    5.0643626900126 
 O    1.7937568284629    7.6130150521265    8.3036418101468 
 O    3.8287697560655    6.6309253208291    0.1999463180631 
 O    5.7189490192832    7.6887625475635    3.6821571729164 
 O    3.7838637052924    8.7175975527912    6.8600645623523 
 O    3.8287697560655    8.8399547317975    1.7619595668371 
 O    3.9325150497440    6.5901763417346    5.0903137476088 
 O    5.9220552347566    7.7148965955503    8.3099900907476 
Ce    1.9156884299104    1.1083418527658    0.9809643475031 
Ce   -0.0327431249050    2.1321570324499    4.1688281201070 
Ce    0.1021134577018    0.0497270689915    7.4192597853678 
Ce    5.7418510822205    1.1083418527658    0.9809643475031 
Ce    3.9083882345912    2.2544795186146    4.2956643988232 
Ce   -1.9963555809986    9.7643063298883    7.6302751635695 
Ce    9.5680022560654    1.1083418527658    0.9809643475031 
Ce    7.5325261150078    2.1324136004274    4.1625473574199 
Ce    1.8220153170924    9.8731037769661    7.4699769155535 
Ce    0.0026128429880    4.4218859692184    0.9809643475031 
Ce   -2.0355059850667    5.4806756088906    4.1985658834002 
Ce    9.5770319627347    3.2090227360623    7.5011079201212 
Ce    3.8287754952980    4.4218859692184    0.9809643475031 
Ce    1.8801118459202    5.4313802619938    4.2309466536757 
Ce    7.6549266691429    4.4218859692184    0.9809643475031 
Ce    5.6816275938282    5.5084057264036    4.3600737513375 
Ce    5.5001371071118    3.3262122721741    7.6230286209944 
Ce   -1.9104684831671    7.7354400263133    0.9809643475031 
Ce   -3.8028769790724    8.7799381039716    4.3794217394488 
Ce    7.6783458369285    6.5286808445553    7.5094974771080 
Ce    1.9156941691429    7.7354400263133    0.9809643475031 
Ce    0.0026607081870    8.7841567137466    4.4348719666295 
Ce    0.1422345955549    6.2856836330918    7.6171016430513 
Ce    5.7418453429879    7.7354400263133    0.9809643475031 
Ce    3.8818057166363    8.7561695312241    4.2148249269570 
Ce    3.8334433278749    6.5730342011377    7.5941914006860 
Pd    1.9793566630415    3.2157014559912    7.5911444267265 
81
FORCE:  2.685976  ...  ENERGY:  -633.69245175
 O    0.0026128429879    0.0038271472816    0.1999463180631 
 O    1.7977726268354    0.9223250987536    3.5233256147162 
 O    0.2196250466319    2.2531940941601    6.6303008737260 
 O    0.0026128429880    2.2128565582500    1.7619595668371 
 O    5.5631931937045    9.9372683366004    5.2310678406019 
 O    1.8845276114057    1.3125218501511    8.3185071562270 
 O    3.8287640168329    0.0038271472816    0.1999463180631 
 O    5.7757608209158    1.1952339016805    3.3899079361158 
 O    3.7417034181321    2.2525177328587    6.7414118653658 
 O    3.8287640168330    2.2128565582500    1.7619595668371 
 O    3.7934649821263    0.1777778502758    5.0473791974892 
 O    5.5415118655199    1.0613115806212    8.2675550819495 
 O    7.6549266691429    0.0038271472816    0.1999463180631 
 O    9.5756563834891    1.1227988270675    3.3372448757872 
 O    7.6755206997304    2.0346094102517    6.6689619504864 
 O    7.6549266691430    2.2128565582500    1.7619595668371 
 O    1.9166766109623    9.8732870824100    5.0991394338223 
 O    9.7122267009205    1.0993615759275    8.2398948631107 
 O   -1.9104627439346    3.3173712637342    0.1999463180631 
 O   -0.0230137484018    4.5479005093361    3.2397953128330 
 O   -1.7789778456368    5.4361664824436    7.2958874493487 
 O   -1.9104684831671    5.5264106153449    1.7619595668371 
 O   -1.7941694218873    3.4246114097909    5.1311016386527 
 O    0.4318095226815    4.2769983244618    8.3102056462493 
 O    1.9156884299104    3.3173712637342    0.1999463180631 
 O    3.9767908753962    4.3688170551019    3.3064133679113 
 O    2.1346755034576    5.1508396303552    6.6355601998664 
 O    1.9156826906780    5.5264106153449    1.7619595668371 
 O    2.0693880032690    3.3034606271329    4.7163728533819 
 O    3.6134728942311    4.1857205635752    8.5575493116709 
 O    5.7418510822204    3.3173712637342    0.1999463180631 
 O    7.6998503967520    4.3294063846789    3.4343922048370 
 O    5.5745448216662    5.3309564143554    6.7430788279122 
 O    5.7418453429880    5.5264106153449    1.7619595668371 
 O    5.7892577739860    3.2525096662626    5.1118398727420 
 O    7.6985028823534    4.3243723440168    8.4715312614396 
 O   -3.8235440700895    6.6309253208291    0.1999463180631 
 O   -2.0010065976243    7.7554563048156    3.5856074686439 
 O   -3.7028507654462    8.8113916878671    6.6418858984623 
 O   -3.8235440700895    8.8399547317975    1.7619595668371 
 O    7.6740569084812    6.5071470276010    5.2503380462518 
 O   -2.1248766822411    7.8089121087300    8.4929472137609 
 O    0.0026071037555    6.6309253208291    0.1999463180631 
 O    1.8509175754315    7.5863066338282    3.4961019813062 
 O   -0.1521576711551    8.6893318334717    6.6949476794438 
 O    0.0026071037555    8.8399547317975    1.7619595668371 
 O   -0.0384258259649    6.7172911121409    5.0558967191707 
 O    1.7786605234718    7.6107441123954    8.2987554292394 
 O    3.8287697560655    6.6309253208291    0.1999463180631 
 O    5.7186152255210    7.6959931719524    3.6760303784448 
 O    3.7807431697976    8.7212123679535    6.8584585027889 
 O    3.8287697560655    8.8399547317975    1.7619595668371 
 O    3.9287331824882    6.5967994934732    5.0827927994584 
 O    5.9248930556585    7.7163584664055    8.3058963610238 
Ce    1.9156884299104    1.1083418527658    0.9809643475031 
Ce   -0.0368545388911    2.1299179027741    4.1686885222583 
Ce    0.1019808240388    0.0484601341316    7.4174536811747 
Ce    5.7418510822205    1.1083418527658    0.9809643475031 
Ce    3.9103318830697    2.2524818471400    4.2969226042701 
Ce   -1.9946708292982    9.7637217207153    7.6296280408623 
Ce    9.5680022560654    1.1083418527658    0.9809643475031 
Ce    7.5317700859106    2.1327172870494    4.1629593079342 
Ce    1.8215282284301    9.8703200989057    7.4719408656801 
Ce    0.0026128429880    4.4218859692184    0.9809643475031 
Ce   -2.0346616291813    5.4813708574124    4.1947267144594 
Ce    9.5757524582411    3.2089002673492    7.5014418600730 
Ce    3.8287754952980    4.4218859692184    0.9809643475031 
Ce    1.8796429506249    5.4316844456479    4.2318205088366 
Ce    7.6549266691429    4.4218859692184    0.9809643475031 
Ce    5.6835028880476    5.5052435086847    4.3592906803985 
Ce    5.5009815777819    3.3270234285850    7.6227031207818 
Ce   -1.9104684831671    7.7354400263133    0.9809643475031 
Ce   -3.8014406213546    8.7823456281278    4.3784646274010 
Ce    7.6788099686608    6.5325190259499    7.5089977076855 
Ce    1.9156941691429    7.7354400263133    0.9809643475031 
Ce    0.0056563005904    8.7822561623472    4.4365578615640 
Ce    0.1406848879953    6.2836485848022    7.6150526112294 
Ce    5.7418453429879    7.7354400263133    0.9809643475031 
Ce    3.8818461208331    8.7569785006936    4.2166184855918 
Ce    3.8306398849756    6.5690111237965    7.5933583756149 
Pd    1.9817364357976    3.2179238853880    7.5890500027936 
81
FORCE:  2.874134  ...  ENERGY:  -633.62558047
 O    0.0026128429879    0.0038271472816    0.1999463180631 
 O    1.8039720309973    0.9190146660582    3.5219047732134 
 O    0.2164712235885    2.2494025343778    6.6242828834600 
 O    0.0026128429880    2.2128565582500    1.7619595668371 
 O    5.5690094467046    9.9265897010267    5.2299492330037 
 O    1.8892796959157    1.3172176107560    8.3211077364120 
 O    3.8287640168329    0.0038271472816    0.1999463180631 
 O    5.7776542511098    1.1966531271803    3.3877190783440 
 O    3.7368292027545    2.2595286690530    6.7430585269179 
 O    3.8287640168330    2.2128565582500    1.7619595668371 
 O    3.7923352716010    0.1802347794242    5.0375110894315 
 O    5.5362011241184    1.0635430560025    8.2653279031996 
 O    7.6549266691429    0.0038271472816    0.1999463180631 
 O    9.5811137622810    1.1285265257485    3.3342891422518 
 O    7.6788331551601    2.0459123181611    6.6593205748824 
 O    7.6549266691430    2.2128565582500    1.7619595668371 
 O    1.9118867049101    9.8650911222483    5.1012924797276 
 O    9.7167520857467    1.0973565483776    8.2400148442682 
 O   -1.9104627439346    3.3173712637342    0.1999463180631 
 O   -0.0199590992960    4.5379900865986    3.2391714564339 
 O   -1.7913726364977    5.4284424045714    7.2856158305159 
 O   -1.9104684831671    5.5264106153449    1.7619595668371 
 O   -1.7898772220775    3.4267201182398    5.1364615573605 
 O    0.4285290347768    4.2849266825331    8.3073340820050 
 O    1.9156884299104    3.3173712637342    0.1999463180631 
 O    3.9688591412965    4.3649326497206    3.2962163381250 
 O    2.1350671486834    5.1510591197369    6.6352454204036 
 O    1.9156826906780    5.5264106153449    1.7619595668371 
 O    2.0753976110121    3.2999111219904    4.7198657649136 
 O    3.6146611449279    4.1861154058870    8.5528148460696 
 O    5.7418510822204    3.3173712637342    0.1999463180631 
 O    7.6938148476781    4.3310574259569    3.4310705972013 
 O    5.5713583423899    5.3302274670563    6.7486716378024 
 O    5.7418453429880    5.5264106153449    1.7619595668371 
 O    5.7876596846964    3.2579455076861    5.1004377850558 
 O    7.6982619493730    4.3349116117856    8.4742860379412 
 O   -3.8235440700895    6.6309253208291    0.1999463180631 
 O   -1.9963393389706    7.7679196833059    3.5849416416497 
 O   -3.7010838853287    8.8152112802606    6.6332832950855 
 O   -3.8235440700895    8.8399547317975    1.7619595668371 
 O    7.6660523435212    6.5077258712015    5.2439986615922 
 O   -2.1187385730823    7.8146603845407    8.4871739759323 
 O    0.0026071037555    6.6309253208291    0.1999463180631 
 O    1.8515989371139    7.5878364986766    3.4989368212799 
 O   -0.1492315234650    8.6831705239739    6.7015856483908 
 O    0.0026071037555    8.8399547317975    1.7619595668371 
 O   -0.0401614846576    6.7262273519340    5.0481636370345 
 O    1.7641269502274    7.6083205838051    8.2940015750480 
 O    3.8287697560655    6.6309253208291    0.1999463180631 
 O    5.7188354398720    7.7033030232604    3.6691298651777 
 O    3.7775389562928    8.7246216106333    6.8566774897124 
 O    3.8287697560655    8.8399547317975    1.7619595668371 
 O    3.9242554332916    6.6034352698275    5.0757620404861 
 O    5.9273173648589    7.7175242055268    8.3016491192866 
Ce    1.9156884299104    1.1083418527658    0.9809643475031 
Ce   -0.0408579979138    2.1277637655898    4.1685626104731 
Ce    0.1018011286692    0.0472063209196    7.4157520472671 
Ce    5.7418510822205    1.1083418527658    0.9809643475031 
Ce    3.9121790550498    2.2504630020973    4.2981180819256 
Ce   -1.9929162885307    9.7632703161489    7.6289722503148 
Ce    9.5680022560654    1.1083418527658    0.9809643475031 
Ce    7.5311392868665    2.1330523861009    4.1634271432083 
Ce    1.8210588166039    9.8675829430511    7.4738735659614 
Ce    0.0026128429880    4.4218859692184    0.9809643475031 
Ce   -2.0336815404473    5.4820727661645    4.1908480840351 
Ce    9.5744528664338    3.2087245167936    7.5017899422906 
Ce    3.8287754952980    4.4218859692184    0.9809643475031 
Ce    1.8791950609206    5.4319922079332    4.2326352858229 
Ce    7.6549266691429    4.4218859692184    0.9809643475031 
Ce    5.6853877093929    5.5020242316791    4.3584316518065 
Ce    5.5019037576600    3.3276888551799    7.6223894818243 
Ce   -1.9104684831671    7.7354400263133    0.9809643475031 
Ce   -3.7999966878500    8.7848265142241    4.3774308733971 
Ce    7.6792677298450    6.5363515411784    7.5086493973669 
Ce    1.9156941691429    7.7354400263133    0.9809643475031 
Ce    0.0085920901911    8.7803850352489    4.4381340398886 
Ce    0.1391767898713    6.2817456476487    7.6129677675410 
Ce    5.7418453429879    7.7354400263133    0.9809643475031 
Ce    3.8817755856657    8.7578024805331    4.2184309766146 
Ce    3.8278348350912    6.5650393401695    7.5924840642519 
Pd    1.9841685503542    3.2201321990727    7.5868775682982 
81
FORCE:  3.042141  ...  ENERGY:  -633.55788062
 O    0.0026128429879    0.0038271472816    0.1999463180631 
 O    1.8098847604957    0.9160077211719    3.5200998095256 
 O    0.2135245294460    2.2459001478798    6.6182350119552 
 O    0.0026128429880    2.2128565582500    1.7619595668371 
 O    5.5749914487394    9.9160007300466    5.2283924432692 
 O    1.8939222758695    1.3214533184358    8.3238666187327 
 O    3.8287640168329    0.0038271472816    0.1999463180631 
 O    5.7794594119081    1.1974691545059    3.3854166262444 
 O    3.7314233048781    2.2669012458138    6.7446675517951 
 O    3.8287640168330    2.2128565582500    1.7619595668371 
 O    3.7916589030509    0.1817915834133    5.0281473128174 
 O    5.5315921186746    1.0656223401503    8.2632747655586 
 O    7.6549266691429    0.0038271472816    0.1999463180631 
 O    9.5863884613024    1.1339845348043    3.3316958613006 
 O    7.6821301720544    2.0573584707259    6.6498911051630 
 O    7.6549266691430    2.2128565582500    1.7619595668371 
 O    1.9071676783793    9.8568167304189    5.1035089377276 
 O    9.7210501395737    1.0954056973282    8.2402000623290 
 O   -1.9104627439346    3.3173712637342    0.1999463180631 
 O   -0.0171423987696    4.5277216019259    3.2393498314628 
 O   -1.8039091864014    5.4207594809583    7.2744737780381 
 O   -1.9104684831671    5.5264106153449    1.7619595668371 
 O   -1.7858211916851    3.4286720627599    5.1419252620507 
 O    0.4249138922251    4.2923972740268    8.3049105082425 
 O    1.9156884299104    3.3173712637342    0.1999463180631 
 O    3.9609682131400    4.3616443846575    3.2865266050962 
 O    2.1352406456819    5.1517341887549    6.6351407220171 
 O    1.9156826906780    5.5264106153449    1.7619595668371 
 O    2.0803620471246    3.2964255351778    4.7232190785967 
 O    3.6158992695551    4.1867652256735    8.5479658737361 
 O    5.7418510822204    3.3173712637342    0.1999463180631 
 O    7.6875354960075    4.3330327309863    3.4276700665988 
 O    5.5682856720940    5.3301725947108    6.7544086075624 
 O    5.7418453429880    5.5264106153449    1.7619595668371 
 O    5.7859825087829    3.2636058088124    5.0894284873949 
 O    7.6975694535796    4.3453228440816    8.4764778610268 
 O   -3.8235440700895    6.6309253208291    0.1999463180631 
 O   -1.9916239855486    7.7799780800294    3.5838948858854 
 O   -3.7000155271988    8.8189089009732    6.6246366682041 
 O   -3.8235440700895    8.8399547317975    1.7619595668371 
 O    7.6580938072057    6.5080345281446    5.2375582281631 
 O   -2.1126570527560    7.8199830020484    8.4815820784464 
 O    0.0026071037555    6.6309253208291    0.1999463180631 
 O    1.8527762258766    7.5899322842906    3.5015082045293 
 O   -0.1459082782782    8.6773681710692    6.7084318736057 
 O    0.0026071037555    8.8399547317975    1.7619595668371 
 O   -0.0419331283380    6.7335511201411    5.0411837445985 
 O    1.7502226264343    7.6057658387366    8.2894067072953 
 O    3.8287697560655    6.6309253208291    0.1999463180631 
 O    5.7195865906216    7.7106350422006    3.6614686348755 
 O    3.7742377497588    8.7278000315991    6.8547555101808 
 O    3.8287697560655    8.8399547317975    1.7619595668371 
 O    3.9191304134538    6.6100275061685    5.0692465618082 
 O    5.9293180039160    7.7184044494016    8.2972565771742 
Ce    1.9156884299104    1.1083418527658    0.9809643475031 
Ce   -0.0447486236255    2.1256931298008    4.1684490161453 
Ce    0.1015772412094    0.0459668222325    7.4141512340280 
Ce    5.7418510822205    1.1083418527658    0.9809643475031 
Ce    3.9139273974463    2.2484234805187    4.2992449011620 
Ce   -1.9910945413505    9.7629540049112    7.6283045985122 
Ce    9.5680022560654    1.1083418527658    0.9809643475031 
Ce    7.5306325126367    2.1334185993629    4.1639474417262 
Ce    1.8206061059443    9.8648914147447    7.4757718229828 
Ce    0.0026128429880    4.4218859692184    0.9809643475031 
Ce   -2.0325695067580    5.4827825280240    4.1869281673190 
Ce    9.5731324986049    3.2084968760851    7.5021505700665 
Ce    3.8287754952980    4.4218859692184    0.9809643475031 
Ce    1.8787700707540    5.4323000696249    4.2333866507145 
Ce    7.6549266691429    4.4218859692184    0.9809643475031 
Ce    5.6872772369089    5.4987542573978    4.3574900506309 
Ce    5.5029054259082    3.3282100430551    7.6220870198187 
Ce   -1.9104684831671    7.7354400263133    0.9809643475031 
Ce   -3.7985472446821    8.7873811598862    4.3763138625063 
Ce    7.6797198091890    6.5401777938022    7.5084466155246 
Ce    1.9156941691429    7.7354400263133    0.9809643475031 
Ce    0.0114668143580    8.7785492968372    4.4395963957842 
Ce    0.1376976174790    6.2799735293476    7.6108427780660 
Ce    5.7418453429879    7.7354400263133    0.9809643475031 
Ce    3.8815970955350    8.7586388861753    4.2202592066105 
Ce    3.8250259399210    6.5611173591604    7.5915657293843 
Pd    1.9866498501332    3.2223251047619    7.5846282637455 
81
FORCE:  3.184357  ...  ENERGY:  -633.49232359
 O    0.0026128429879    0.0038271472816    0.1999463180631 
 O    1.8154744285968    0.9133432314125    3.5179075302380 
 O    0.2107944339381    2.2426824613769    6.6121832627323 
 O    0.0026128429880    2.2128565582500    1.7619595668371 
 O    5.5811242778042    9.9055336313409    5.2264150351800 
 O    1.8984449632565    1.3252302654739    8.3267719419339 
 O    3.8287640168329    0.0038271472816    0.1999463180631 
 O    5.7811977680400    1.1976893397326    3.3830170030932 
 O    3.7255128710726    2.2746242302153    6.7462341498752 
 O    3.8287640168330    2.2128565582500    1.7619595668371 
 O    3.7914715745021    0.1824510456228    5.0193460334173 
 O    5.5277146931976    1.0675607653968    8.2613888259945 
 O    7.6549266691429    0.0038271472816    0.1999463180631 
 O    9.5914426590112    1.1391588379291    3.3294898959494 
 O    7.6853941883618    2.0688977671090    6.6407029663652 
 O    7.6549266691430    2.2128565582500    1.7619595668371 
 O    1.9025489162403    9.8485243460270    5.1058198295665 
 O    9.7250957819552    1.0935057423673    8.2404537107077 
 O   -1.9104627439346    3.3173712637342    0.1999463180631 
 O   -0.0145782244732    4.5171212986135    3.2403441239833 
 O   -1.8165110487710    5.4131859044104    7.2624608357132 
 O   -1.9104684831671    5.5264106153449    1.7619595668371 
 O   -1.7820120630748    3.4304900074219    5.1474512383303 
 O    0.4209921024808    4.2993625826730    8.3029305910417 
 O    1.9156884299104    3.3173712637342    0.1999463180631 
 O    3.9531432861571    4.3589774097375    3.2773932105528 
 O    2.1352060381099    5.1528776608375    6.6352381211697 
 O    1.9156826906780    5.5264106153449    1.7619595668371 
 O    2.0842694313953    3.2930381619111    4.7264410060692 
 O    3.6171770522789    4.1876839398339    8.5430222394627 
 O    5.7418510822204    3.3173712637342    0.1999463180631 
 O    7.6810567060075    4.3353300134195    3.4242150198430 
 O    5.5653124626974    5.3307983581430    6.7602582592461 
 O    5.7418453429880    5.5264106153449    1.7619595668371 
 O    5.7842334202862    3.2694934524279    5.0788516693438 
 O    7.6964030119663    4.3555925216314    8.4781265754885 
 O   -3.8235440700895    6.6309253208291    0.1999463180631 
 O   -1.9868642678594    7.7915649920890    3.5824646922392 
 O   -3.6996206106105    8.8224802755287    6.6160162729445 
 O   -3.8235440700895    8.8399547317975    1.7619595668371 
 O    7.6502059782347    6.5080582862797    5.2310297477249 
 O   -2.1066409022879    7.8248369182722    8.4761897693880 
 O    0.0026071037555    6.6309253208291    0.1999463180631 
 O    1.8544457686108    7.5925719224443    3.5038038135971 
 O   -0.1421997010214    8.6719519127111    6.7154703880141 
 O    0.0026071037555    8.8399547317975    1.7619595668371 
 O   -0.0437503415245    6.7391776230837    5.0349732370379 
 O    1.7370094784112    7.6031024424478    8.2849956889971 
 O    3.8287697560655    6.6309253208291    0.1999463180631 
 O    5.7208422773002    7.7179367421819    3.6530587768943 
 O    3.7708262351762    8.7307283460049    6.8527242702415 
 O    3.8287697560655    8.8399547317975    1.7619595668371 
 O    3.9134089151822    6.6165228212472    5.0632655239140 
 O    5.9308855030964    7.7190120214584    8.2927264901226 
Ce    1.9156884299104    1.1083418527658    0.9809643475031 
Ce   -0.0485229150945    2.1237041066850    4.1683456863651 
Ce    0.1013112851753    0.0447421351023    7.4126473637394 
Ce    5.7418510822205    1.1083418527658    0.9809643475031 
Ce    3.9155742128198    2.2463631829977    4.3002969032507 
Ce   -1.9892072521352    9.7627742780986    7.6276212077364 
Ce    9.5680022560654    1.1083418527658    0.9809643475031 
Ce    7.5302486727671    2.1338160262417    4.1645170100730 
Ce    1.8201692355665    9.8622430288258    7.4776328995313 
Ce    0.0026128429880    4.4218859692184    0.9809643475031 
Ce   -2.0313292012225    5.4835015346808    4.1829649114015 
Ce    9.5717902643001    3.2082188363203    7.5025221466932 
Ce    3.8287754952980    4.4218859692184    0.9809643475031 
Ce    1.8783699314641    5.4326050485303    4.2340709538945 
Ce    7.6549266691429    4.4218859692184    0.9809643475031 
Ce    5.6891676827020    5.4954395502262    4.3564592619407 
Ce    5.5039883616887    3.3285890797456    7.6217957347651 
Ce   -1.9104684831671    7.7354400263133    0.9809643475031 
Ce   -3.7970943579747    8.7900103603655    4.3751062954947 
Ce    7.6801667232238    6.5439982808535    7.5083827472278 
Ce    1.9156941691429    7.7354400263133    0.9809643475031 
Ce    0.0142799565602    8.7767540168397    4.4409405953308 
Ce    0.1362339410146    6.2783306393964    7.6086726245812 
Ce    5.7418453429879    7.7354400263133    0.9809643475031 
Ce    3.8813134052725    8.7594855306792    4.2221002102657 
Ce    3.8222101002796    6.5572425962022    7.5905992651931 
Pd    1.9891771211646    3.2245020060170    7.5823025453377 
81
FORCE:  3.300190  ...  ENERGY:  -633.43190314
 O    0.0026128429879    0.0038271472816    0.1999463180631 
 O    1.8207122243533    0.9110561878409    3.5153245138345 
 O    0.2082889719902    2.2397423176068    6.6061515864027 
 O    0.0026128429880    2.2128565582500    1.7619595668371 
 O    5.5873937579949    9.8952171333659    5.2240384502359 
 O    1.9028413875285    1.3285519310951    8.3298120728616 
 O    3.8287640168329    0.0038271472816    0.1999463180631 
 O    5.7828896937810    1.1973233252835    3.3805384569752 
 O    3.7191274009931    2.2826848982354    6.7477521624295 
 O    3.8287640168330    2.2128565582500    1.7619595668371 
 O    3.7918066308955    0.1822208203473    5.0111615392835 
 O    5.5245939855257    1.0693704593257    8.2596621009703 
 O    7.6549266691429    0.0038271472816    0.1999463180631 
 O    9.5962376729803    1.1440371087265    3.3276917752934 
 O    7.6886078142078    2.0804877607678    6.6317798809990 
 O    7.6549266691430    2.2128565582500    1.7619595668371 
 O    1.8980577372398    9.8402728176749    5.1082557207862 
 O    9.7288664577077    1.0916536018958    8.2407780704150 
 O   -1.9104627439346    3.3173712637342    0.1999463180631 
 O   -0.0122796618570    4.5062134318287    3.2421623175326 
 O   -1.8291118206863    5.4057857920705    7.2495724415200 
 O   -1.9104684831671    5.5264106153449    1.7619595668371 
 O   -1.7784597651190    3.4321931376654    5.1529979718063 
 O    0.4167884590285    4.3057790684584    8.3013899964824 
 O    1.9156884299104    3.3173712637342    0.1999463180631 
 O    3.9454043328772    4.3569498169296    3.2688613185045 
 O    2.1349719922086    5.1544987807821    6.6355289500212 
 O    1.9156826906780    5.5264106153449    1.7619595668371 
 O    2.0871138524146    3.2897787247106    4.7295379341608 
 O    3.6184861712122    4.1888835765455    8.5380005946268 
 O    5.7418510822204    3.3173712637342    0.1999463180631 
 O    7.6744186523057    4.3379443029354    3.4207268984335 
 O    5.5624251696113    5.3321057514170    6.7661913959178 
 O    5.7418453429880    5.5264106153449    1.7619595668371 
 O    5.7824190193237    3.2756081403134    5.0687401774550 
 O    7.6947413893729    4.3657093121027    8.4792527104217 
 O   -3.8235440700895    6.6309253208291    0.1999463180631 
 O   -1.9820612763571    7.8026214714761    3.5806462705889 
 O   -3.6998711281091    8.8259252051143    6.6074925925345 
 O   -3.8235440700895    8.8399547317975    1.7619595668371 
 O    7.6424103213377    6.5077858132746    5.2244259939368 
 O   -2.1006963774414    7.8291838617392    8.4710121034271 
 O    0.0026071037555    6.6309253208291    0.1999463180631 
 O    1.8566014243379    7.5957336431311    3.5058129277336 
 O   -0.1381177866904    8.6669465010988    6.7226833997334 
 O    0.0026071037555    8.8399547317975    1.7619595668371 
 O   -0.0456220774197    6.7430352881372    5.0295430632036 
 O    1.7245444967368    7.6003509720684    8.2807952079772 
 O    3.8287697560655    6.6309253208291    0.1999463180631 
 O    5.7225724263297    7.7251612033726    3.6439123805905 
 O    3.7672925323336    8.7333917422936    6.8506127387291 
 O    3.8287697560655    8.8399547317975    1.7619595668371 
 O    3.9071407550150    6.6228709154136    5.0578339814732 
 O    5.9320124013978    7.7193614350349    8.2880659292647 
Ce    1.9156884299104    1.1083418527658    0.9809643475031 
Ce   -0.0521781748814    2.1217950063332    4.1682519368294 
Ce    0.1010054414754    0.0435322595292    7.4112356462791 
Ce    5.7418510822205    1.1083418527658    0.9809643475031 
Ce    3.9171169759081    2.2442815130957    4.3012688418674 
Ce   -1.9872564870085    9.7627327262138    7.6269184283706 
Ce    9.5680022560654    1.1083418527658    0.9809643475031 
Ce    7.5299865620189    2.1342449649565    4.1651331110360 
Ce    1.8197475167623    9.8596342066632    7.4794551988996 
Ce    0.0026128429880    4.4218859692184    0.9809643475031 
Ce   -2.0299633786721    5.4842309790121    4.1789553509689 
Ce    9.5704248434960    3.2078918885953    7.5029033035645 
Ce    3.8287754952980    4.4218859692184    0.9809643475031 
Ce    1.8779963074283    5.4329042618633    4.2346850019481 
Ce    7.6549266691429    4.4218859692184    0.9809643475031 
Ce    5.6910563493331    5.4920853787047    4.3553331270075 
Ce    5.5051546311250    3.3288289474441    7.6215144861581 
Ce   -1.9104684831671    7.7354400263133    0.9809643475031 
Ce   -3.7956396921052    8.7927154079455    4.3738004169262 
Ce    7.6806090458726    6.5478143940222    7.5084511775458 
Ce    1.9156941691429    7.7354400263133    0.9809643475031 
Ce    0.0170319185440    8.7750028732939    4.4421639013156 
Ce    0.1347726176354    6.2768146914471    7.6064513764589 
Ce    5.7418453429879    7.7354400263133    0.9809643475031 
Ce    3.8809279010254    8.7603401276968    4.2239514784687 
Ce    3.8193837578426    6.5534112738508    7.5895814782634 
Pd    1.9917478955783    3.2266633998701    7.5799013254791 
81
FORCE:  3.382948  ...  ENERGY:  -633.37932842
 O    0.0026128429879    0.0038271472816    0.1999463180631 
 O    1.8255757073661    0.9091786987315    3.5123473387994 
 O    0.2060157767816    2.2370690800822    6.6001616525671 
 O    0.0026128429880    2.2128565582500    1.7619595668371 
 O    5.5937862873304    9.8850767835723    5.2212854985427 
 O    1.9071079329690    1.3314239814655    8.3329749221596 
 O    3.8287640168329    0.0038271472816    0.1999463180631 
 O    5.7845552190525    1.1963827417100    3.3780022012891 
 O    3.7122976569258    2.2910699294134    6.7492152026284 
 O    3.8287640168330    2.2128565582500    1.7619595668371 
 O    3.7926966136792    0.1811143274540    5.0036419597395 
 O    5.5222510586422    1.0710642453655    8.2580852383425 
 O    7.6549266691429    0.0038271472816    0.1999463180631 
 O    9.6007348781750    1.1486067225808    3.3263206598217 
 O    7.6917519379483    2.0920907766679    6.6231394128462 
 O    7.6549266691430    2.2128565582500    1.7619595668371 
 O    1.8937196809623    9.8321202981201    5.1108469488278 
 O    9.7323424238713    1.0898456972825    8.2411758786636 
 O   -1.9104627439346    3.3173712637342    0.1999463180631 
 O   -0.0102599685479    4.4950199703909    3.2448071493233 
 O   -1.8416512402063    5.3986179925408    7.2357996995172 
 O   -1.9104684831671    5.5264106153449    1.7619595668371 
 O   -1.7751739397281    3.4337995454595    5.1585253166922 
 O    0.4123250005210    4.3116071676266    8.3002841625436 
 O    1.9156884299104    3.3173712637342    0.1999463180631 
 O    3.9377655292043    4.3555750261009    3.2609742681529 
 O    2.1345451654876    5.1566043082256    6.6360052250345 
 O    1.9156826906780    5.5264106153449    1.7619595668371 
 O    2.0888973763063    3.2866724728078    4.7325155653981 
 O    3.6198196244912    4.1903742752633    8.5329173625047 
 O    5.7418510822204    3.3173712637342    0.1999463180631 
 O    7.6676590990519    4.3408680446457    3.4172253190614 
 O    5.5596116256628    5.3340909970887    6.7721813297534 
 O    5.7418453429880    5.5264106153449    1.7619595668371 
 O    5.7805438972813    3.2819454985861    5.0591234367654 
 O    7.6925627767159    4.3756650641690    8.4798781635282 
 O   -3.8235440700895    6.6309253208291    0.1999463180631 
 O   -1.9772144945109    7.8130943357543    3.5784357432164 
 O   -3.7007352843467    8.8292458766713    6.5991345134939 
 O   -3.8235440700895    8.8399547317975    1.7619595668371 
 O    7.6347266942590    6.5072097530538    5.2177581437509 
 O   -2.0948290452720    7.8329895372335    8.4660604856166 
 O    0.0026071037555    6.6309253208291    0.1999463180631 
 O    1.8592333789700    7.5993964715957    3.5075264228963 
 O   -0.1336744154966    8.6623748991161    6.7300522044767 
 O    0.0026071037555    8.8399547317975    1.7619595668371 
 O   -0.0475553952796    6.7450641732286    5.0249018909357 
 O    1.7128800806038    7.5975306130378    8.2768310396554 
 O    3.8287697560655    6.6309253208291    0.1999463180631 
 O    5.7247442093000    7.7322656810108    3.6340387981073 
 O    3.7636253349431    8.7357803792295    6.8484478315686 
 O    3.8287697560655    8.8399547317975    1.7619595668371 
 O    3.9003754625287    6.6290245706168    5.0529640238422 
 O    5.9326920413105    7.7194691915973    8.2832815095312 
Ce    1.9156884299104    1.1083418527658    0.9809643475031 
Ce   -0.0557126812166    2.1199640394298    4.1681666270330 
Ce    0.1006612597024    0.0423368972938    7.4099108353226 
Ce    5.7418510822205    1.1083418527658    0.9809643475031 
Ce    3.9185528744873    2.2421775761550    4.3021556987886 
Ce   -1.9852431642475    9.7628303433211    7.6261919264945 
Ce    9.5680022560654    1.1083418527658    0.9809643475031 
Ce    7.5298450899377    2.1347061113523    4.1657925512005 
Ce    1.8193400886472    9.8570606737807    7.4812375805825 
Ce    0.0026128429880    4.4218859692184    0.9809643475031 
Ce   -2.0284744495847    5.4849720538948    4.1748960645051 
Ce    9.5690349161692    3.2075173251939    7.5032929001749 
Ce    3.8287754952980    4.4218859692184    0.9809643475031 
Ce    1.8776501169239    5.4331955226824    4.2352253733592 
Ce    7.6549266691429    4.4218859692184    0.9809643475031 
Ce    5.6929408837168    5.4886964149352    4.3541048027994 
Ce    5.5064068742641    3.3289328271560    7.6212428177956 
Ce   -1.9104684831671    7.7354400263133    0.9809643475031 
Ce   -3.7941843375279    8.7954977937224    4.3723880151626 
Ce    7.6810471788816    6.5516280220304    7.5086462039521 
Ce    1.9156941691429    7.7354400263133    0.9809643475031 
Ce    0.0197235038018    8.7732978543283    4.4432628922227 
Ce    0.1333006192838    6.2754230015265    7.6041724187684 
Ce    5.7418453429879    7.7354400263133    0.9809643475031 
Ce    3.8804435671948    8.7612006890999    4.2258111864109 
Ce    3.8165427803628    6.5496190182236    7.5885082627761 
Pd    1.9943596481121    3.2288106780111    7.5774246041696 
81
FORCE:  3.430235  ...  ENERGY:  -633.33689610
 O    0.0026128429879    0.0038271472816    0.1999463180631 
 O    1.8300486929996    0.9077393931344    3.5089732679199 
 O    0.2039804153678    2.2346497265617    6.5942346746241 
 O    0.0026128429880    2.2128565582500    1.7619595668371 
 O    5.6002884360066    9.8751358430630    5.2181803588130 
 O    1.9112437386932    1.3338528780026    8.3362488566738 
 O    3.8287640168329    0.0038271472816    0.1999463180631 
 O    5.7862132259294    1.1948798160022    3.3754319585450 
 O    3.7050572133808    2.2997647110052    6.7506130059240 
 O    3.8287640168330    2.2128565582500    1.7619595668371 
 O    3.7941728590629    0.1791490624733    4.9968333711996 
 O    5.5207030154600    1.0726546487255    8.2566482016645 
 O    7.6549266691429    0.0038271472816    0.1999463180631 
 O    9.6048941573601    1.1528552536891    3.3253922885075 
 O    7.6948069314080    2.1036750047542    6.6147957041725 
 O    7.6549266691430    2.2128565582500    1.7619595668371 
 O    1.8895578191226    9.8241228525849    5.1136238511323 
 O    9.7355053722944    1.0880785493026    8.2416489602621 
 O   -1.9104627439346    3.3173712637342    0.1999463180631 
 O   -0.0085303360494    4.4835606961783    3.2482763383448 
 O   -1.8540757602916    5.3917356882578    7.2211314327528 
 O   -1.9104684831671    5.5264106153449    1.7619595668371 
 O   -1.7721643435974    3.4353227500776    5.1639940396057 
 O    0.4076188872633    4.3168113920847    8.2996073866985 
 O    1.9156884299104    3.3173712637342    0.1999463180631 
 O    3.9302373205418    4.3548593992625    3.2537733457898 
 O    2.1339310102178    5.1591979212055    6.6366591907735 
 O    1.9156826906780    5.5264106153449    1.7619595668371 
 O    2.0896288988807    3.2837391880809    4.7353780056000 
 O    3.6211711563527    4.1921652807846    8.5277878258674 
 O    5.7418510822204    3.3173712637342    0.1999463180631 
 O    7.6608125390333    4.3440917949404    3.4137273893063 
 O    5.5568607541333    5.3367458444251    6.7782031977374 
 O    5.7418453429880    5.5264106153449    1.7619595668371 
 O    5.7786121864064    3.2884959842295    5.0500274507958 
 O    7.6898451353425    4.3854532170063    8.4800250606108 
 O   -3.8235440700895    6.6309253208291    0.1999463180631 
 O   -1.9723220283740    7.8229359692471    3.5758274075953 
 O   -3.7021785291434    8.8324466640822    6.5910111504442 
 O   -3.8235440700895    8.8399547317975    1.7619595668371 
 O    7.6271735773273    6.5063261293607    5.2110376022201 
 O   -2.0890434397734    7.8362256139246    8.4613435837968 
 O    0.0026071037555    6.6309253208291    0.1999463180631 
 O    1.8623291209805    7.6035405265535    3.5089360874471 
 O   -0.1288815824358    8.6582582803309    6.7375558169465 
 O    0.0026071037555    8.8399547317975    1.7619595668371 
 O   -0.0495568378294    6.7452183525905    5.0210547384578 
 O    1.7020653578424    7.5946604513894    8.2731296437548 
 O    3.8287697560655    6.6309253208291    0.1999463180631 
 O    5.7273229612469    7.7392122018431    3.6234469253862 
 O    3.7598143123861    8.7378890876785    6.8462528150683 
 O    3.8287697560655    8.8399547317975    1.7619595668371 
 O    3.8931611898839    6.6349395509986    5.0486643188612 
 O    5.9329182818556    7.7193530848954    8.2783809863581 
Ce    1.9156884299104    1.1083418527658    0.9809643475031 
Ce   -0.0591254010380    2.1182100130978    4.1680888445715 
Ce    0.1002796581335    0.0411552531448    7.4086676845456 
Ce    5.7418510822205    1.1083418527658    0.9809643475031 
Ce    3.9198787519795    2.2400500798921    4.3029529119933 
Ce   -1.9831680873448    9.7630683222975    7.6254378243901 
Ce    9.5680022560654    1.1083418527658    0.9809643475031 
Ce    7.5298238547775    2.1352005588998    4.1664928214547 
Ce    1.8189463772977    9.8545168634187    7.4829798164788 
Ce    0.0026128429880    4.4218859692184    0.9809643475031 
Ce   -2.0268635618066    5.4857255545804    4.1707831742922 
Ce    9.5676190475114    3.2070970348378    7.5036893398172 
Ce    3.8287754952980    4.4218859692184    0.9809643475031 
Ce    1.8773327947590    5.4334763458271    4.2356897871174 
Ce    7.6549266691429    4.4218859692184    0.9809643475031 
Ce    5.6948198510450    5.4852769333938    4.3527674462846 
Ce    5.5077481902917    3.3289040986998    7.6209795891724 
Ce   -1.9104684831671    7.7354400263133    0.9809643475031 
Ce   -3.7927294994815    8.7983590087928    4.3708599661617 
Ce    7.6814810074663    6.5554417494449    7.5089614396170 
Ce    1.9156941691429    7.7354400263133    0.9809643475031 
Ce    0.0223559749649    8.7716399540072    4.4442352870414 
Ce    0.1318052048636    6.2741525874419    7.6018289084780 
Ce    5.7418453429879    7.7354400263133    0.9809643475031 
Ce    3.8798633881813    8.7620654255727    4.2276777373849 
Ce    3.8136824042771    6.5458609584058    7.5873759691143 
Pd    1.9970100256806    3.2309461267879    7.5748726095104 
81
FORCE:  3.440755  ...  ENERGY:  -633.30638434
 O    0.0026128429879    0.0038271472816    0.1999463180631 
 O    1.8341215393433    0.9067651107835    3.5052000201854 
 O    0.2021877087041    2.2324697437075    6.5883898130626 
 O    0.0026128429880    2.2128565582500    1.7619595668371 
 O    5.6068868890042    9.8654163800640    5.2147497188706 
 O    1.9152506986477    1.3358468714396    8.3396211027448 
 O    3.8287640168329    0.0038271472816    0.1999463180631 
 O    5.7878816782095    1.1928271727757    3.3728535041628 
 O    3.6974424570921    2.3087523439189    6.7519332548593 
 O    3.8287640168330    2.2128565582500    1.7619595668371 
 O    3.7962664162942    0.1763458013475    4.9907761475513 
 O    5.5199636301370    1.0741549898663    8.2553404982875 
 O    7.6549266691429    0.0038271472816    0.1999463180631 
 O    9.6086741306693    1.1567710715000    3.3249208036165 
 O    7.6977531090196    2.1152129094473    6.6067608443340 
 O    7.6549266691430    2.2128565582500    1.7619595668371 
 O    1.8855938460195    9.8163357510406    5.1166153965342 
 O    9.7383385444180    1.0863485793249    8.2421993681199 
 O   -1.9104627439346    3.3173712637342    0.1999463180631 
 O   -0.0071010949799    4.4718540987854    3.2525621291612 
 O   -1.8663363105044    5.3851882842135    7.2055555518707 
 O   -1.9104684831671    5.5264106153449    1.7619595668371 
 O   -1.7694405612452    3.4367733880070    5.1693655914677 
 O    0.4026848116907    4.3213591365259    8.2993544226230 
 O    1.9156884299104    3.3173712637342    0.1999463180631 
 O    3.9228261922222    4.3548056203877    3.2472986972017 
 O    2.1331323960154    5.1622808125989    6.6374828637011 
 O    1.9156826906780    5.5264106153449    1.7619595668371 
 O    2.0893229977885    3.2809941791189    4.7381286762825 
 O    3.6225355440949    4.1942648438427    8.5226252145764 
 O    5.7418510822204    3.3173712637342    0.1999463180631 
 O    7.6539111693444    4.3476033268293    3.4102483919392 
 O    5.5541632574659    5.3400581658426    6.7842348740670 
 O    5.7418453429880    5.5264106153449    1.7619595668371 
 O    5.7766248049763    3.2952446862802    5.0414759420564 
 O    7.6865671153078    4.3950682038549    8.4797146150682 
 O   -3.8235440700895    6.6309253208291    0.1999463180631 
 O   -1.9673807213684    7.8321033289733    3.5728160174012 
 O   -3.7041629261726    8.8355342275775    6.5831893369957 
 O   -3.8235440700895    8.8399547317975    1.7619595668371 
 O    7.6197681882403    6.5051345445694    5.2042746338922 
 O   -2.0833426601311    7.8388674390196    8.4568668723933 
 O    0.0026071037555    6.6309253208291    0.1999463180631 
 O    1.8658725231260    7.6081460261265    3.5100348502531 
 O   -0.1237513972887    8.6546166254344    6.7451721113399 
 O    0.0026071037555    8.8399547317975    1.7619595668371 
 O   -0.0516312834165    6.7434659167612    5.0180025181739 
 O    1.6921474475515    7.5917580820600    8.2697179362004 
 O    3.8287697560655    6.6309253208291    0.1999463180631 
 O    5.7302716641208    7.7459660730277    3.6121445178632 
 O    3.7558499375367    8.7397154818864    6.8440489026265 
 O    3.8287697560655    8.8399547317975    1.7619595668371 
 O    3.8855451135717    6.6405735094229    5.0449421657642 
 O    5.9326856133701    7.7190323997751    8.2733714308784 
Ce    1.9156884299104    1.1083418527658    0.9809643475031 
Ce   -0.0624154734610    2.1165316350535    4.1680181332429 
Ce    0.0998615550458    0.0399863330179    7.4075011757248 
Ce    5.7418510822205    1.1083418527658    0.9809643475031 
Ce    3.9210909926681    2.2378973343978    4.3036563756624 
Ce   -1.9810318876160    9.7634477566138    7.6246513319352 
Ce    9.5680022560654    1.1083418527658    0.9809643475031 
Ce    7.5299222826149    2.1357296992889    4.1672318688891 
Ce    1.8185662105369    9.8519969105982    7.4846816784874 
Ce    0.0026128429880    4.4218859692184    0.9809643475031 
Ce   -2.0251314614381    5.4864923757266    4.1666132588144 
Ce    9.5661757453223    3.2066324092172    7.5040917100871 
Ce    3.8287754952980    4.4218859692184    0.9809643475031 
Ce    1.8770449722491    5.4337448425753    4.2360755060098 
Ce    7.6549266691429    4.4218859692184    0.9809643475031 
Ce    5.6966917591172    5.4818313079633    4.3513142144314 
Ce    5.5091817357856    3.3287468377388    7.6207238878841 
Ce   -1.9104684831671    7.7354400263133    0.9809643475031 
Ce   -3.7912760388509    8.8013009418785    4.3692066896788 
Ce    7.6819104742343    6.5592584590522    7.5093918663172 
Ce    1.9156941691429    7.7354400263133    0.9809643475031 
Ce    0.0249309964107    8.7700280788598    4.4450790328624 
Ce    0.1302739202403    6.2730003675940    7.5994135463536 
Ce    5.7418453429879    7.7354400263133    0.9809643475031 
Ce    3.8791903483861    8.7629325477997    4.2295497627843 
Ce    3.8107978086303    6.5421317264507    7.5861807195599 
Pd    1.9996962160599    3.2330726289866    7.5722460258045 
81
FORCE:  3.414682  ...  ENERGY:  -633.28899310
 O    0.0026128429879    0.0038271472816    0.1999463180631 
 O    1.8377888515184    0.9062799080334    3.5010266831916 
 O    0.2006422481765    2.2305136241176    6.5826475969782 
 O    0.0026128429880    2.2128565582500    1.7619595668371 
 O    5.6135672408495    9.8559399657689    5.2110204946406 
 O    1.9191319694105    1.3374138148838    8.3430770619049 
 O    3.8287640168329    0.0038271472816    0.1999463180631 
 O    5.7895764161744    1.1902375360527    3.3702937540675 
 O    3.6894948827108    2.3180132450891    6.7531606666632 
 O    3.8287640168330    2.2128565582500    1.7619595668371 
 O    3.7990057519665    0.1727289980567    4.9855104345812 
 O    5.5200440941767    1.0755778934037    8.2541520917649 
 O    7.6549266691429    0.0038271472816    0.1999463180631 
 O    9.6120328443129    1.1603415513977    3.3249187507070 
 O    7.7005684895225    2.1266797385481    6.5990432730699 
 O    7.6549266691430    2.2128565582500    1.7619595668371 
 O    1.8818468159049    9.8088128717684    5.1198494133629 
 O    9.7408258129989    1.0846527057502    8.2428280146412 
 O   -1.9104627439346    3.3173712637342    0.1999463180631 
 O   -0.0059820594271    4.4599195624649    3.2576524324161 
 O   -1.8783892152853    5.3790212091432    7.1890563178977 
 O   -1.9104684831671    5.5264106153449    1.7619595668371 
 O   -1.7670137267826    3.4381588153229    5.1746025637042 
 O    0.3975339079143    4.3252223683391    8.2995184272851 
 O    1.9156884299104    3.3173712637342    0.1999463180631 
 O    3.9155376539088    4.3554119001610    3.2415895557709 
 O    2.1321501263730    5.1658507954645    6.6384682602803 
 O    1.9156826906780    5.5264106153449    1.7619595668371 
 O    2.0880000473049    3.2784478835963    4.7407687179510 
 O    3.6239087128628    4.1966790282293    8.5174427584932 
 O    5.7418510822204    3.3173712637342    0.1999463180631 
 O    7.6469864409792    4.3513877293491    3.4068022411247 
 O    5.5515128225051    5.3440112610620    6.7902546891414 
 O    5.7418453429880    5.5264106153449    1.7619595668371 
 O    5.7745806051445    3.3021701329508    5.0334924049564 
 O    7.6827078258055    4.4045042591422    8.4789675840967 
 O   -3.8235440700895    6.6309253208291    0.1999463180631 
 O   -1.9623866134239    7.8405565529575    3.5693970106128 
 O   -3.7066512278153    8.8385160226388    6.5757375034666 
 O   -3.8235440700895    8.8399547317975    1.7619595668371 
 O    7.6125275151259    6.5036383784983    5.1974797314158 
 O   -2.0777294611769    7.8408949324210    8.4526344572250 
 O    0.0026071037555    6.6309253208291    0.1999463180631 
 O    1.8698451050779    7.6131946795327    3.5108158682826 
 O   -0.1182958550512    8.6514691198661    6.7528762246414 
 O    0.0026071037555    8.8399547317975    1.7619595668371 
 O   -0.0537807981647    6.7397899666487    5.0157443176799 
 O    1.6831706566059    7.5888396088901    8.2666230610183 
 O    3.8287697560655    6.6309253208291    0.1999463180631 
 O    5.7335528981257    7.7524978702636    3.6001397871765 
 O    3.7517248641773    8.7412601582918    6.8418552547325 
 O    3.8287697560655    8.8399547317975    1.7619595668371 
 O    3.8775737787678    6.6458885720425    5.0418039513807 
 O    5.9319884687983    7.7185279121789    8.2682599142249 
Ce    1.9156884299104    1.1083418527658    0.9809643475031 
Ce   -0.0655820949929    2.1149285076714    4.1679542649461 
Ce    0.0994071226165    0.0388290434425    7.4064056063336 
Ce    5.7418510822205    1.1083418527658    0.9809643475031 
Ce    3.9221852347366    2.2357179479821    4.3042615277746 
Ce   -1.9788345650610    9.7639694415211    7.6238287995129 
Ce    9.5680022560654    1.1083418527658    0.9809643475031 
Ce    7.5301404882345    2.1362953218352    4.1680071843920 
Ce    1.8181993587955    9.8494946521210    7.4863438509116 
Ce    0.0026128429880    4.4218859692184    0.9809643475031 
Ce   -2.0232782632638    5.4872731137721    4.1623817560503 
Ce    9.5647035174014    3.2061252376476    7.5044986423781 
Ce    3.8287754952980    4.4218859692184    0.9809643475031 
Ce    1.8767873954945    5.4339991242051    4.2363797928239 
Ce    7.6549266691429    4.4218859692184    0.9809643475031 
Ce    5.6985560340102    5.4783635149004    4.3497380361068 
Ce    5.5107112412468    3.3284651199363    7.6204745734256 
Ce   -1.9104684831671    7.7354400263133    0.9809643475031 
Ce   -3.7898245295593    8.8043253822952    4.3674181492674 
Ce    7.6823354644009    6.5630811330448    7.5099320096273 
Ce    1.9156941691429    7.7354400263133    0.9809643475031 
Ce    0.0274500603396    8.7684600419450    4.4457916205738 
Ce    0.1286949425949    6.2719629621647    7.5969188050604 
Ce    5.7418453429879    7.7354400263133    0.9809643475031 
Ce    3.8784272026405    8.7638000676523    4.2314263502049 
Ce    3.8078838855054    6.5384260538179    7.5849190925970 
Pd    2.0024149478875    3.2351934650191    7.5695450811530 
81
FORCE:  3.351933  ...  ENERGY:  -633.28538743
 O    0.0026128429879    0.0038271472816    0.1999463180631 
 O    1.8410505721328    0.9063061513290    3.4964534850397 
 O    0.1993476495015    2.2287641704810    6.5770294678704 
 O    0.0026128429880    2.2128565582500    1.7619595668371 
 O    5.6203156026000    9.8467270779010    5.2070196020482 
 O    1.9228927736830    1.3385617602554    8.3466028199893 
 O    3.8287640168329    0.0038271472816    0.1999463180631 
 O    5.7913121322594    1.1871246239196    3.3677832738011 
 O    3.6812613797663    2.3275240540065    6.7542758527455 
 O    3.8287640168330    2.2128565582500    1.7619595668371 
 O    3.8024199065961    0.1683266852122    4.9810738689642 
 O    5.5209525572891    1.0769360833598    8.2530722613469 
 O    7.6549266691429    0.0038271472816    0.1999463180631 
 O    9.6149259340238    1.1635534723280    3.3253961662255 
 O    7.7032297142404    2.1380529267985    6.5916489210079 
 O    7.6549266691430    2.2128565582500    1.7619595668371 
 O    1.8783342908302    9.8016074966109    5.1233519051392 
 O    9.7429521986402    1.0829882446052    8.2435360403315 
 O   -1.9104627439346    3.3173712637342    0.1999463180631 
 O   -0.0051823547705    4.4477772667205    3.2635292281260 
 O   -1.8901938982606    5.3732763131509    7.1716209571745 
 O   -1.9104684831671    5.5264106153449    1.7619595668371 
 O   -1.7648951464975    3.4394817159989    5.1796670915394 
 O    0.3921754734907    4.3283754406670    8.3000930138553 
 O    1.9156884299104    3.3173712637342    0.1999463180631 
 O    3.9083757230644    4.3566734670740    3.2366860672841 
 O    2.1309829386595    5.1699028994811    6.6396073969740 
 O    1.9156826906780    5.5264106153449    1.7619595668371 
 O    2.0856861609379    3.2761067629306    4.7432974463021 
 O    3.6252871043324    4.1994118102012    8.5122530031761 
 O    5.7418510822204    3.3173712637342    0.1999463180631 
 O    7.6400689440470    4.3554274075629    3.4034007981180 
 O    5.5489049152571    5.3485839565154    6.7962412014611 
 O    5.7418453429880    5.5264106153449    1.7619595668371 
 O    5.7724767172946    3.3092444904429    5.0260998777029 
 O    7.6782476960527    4.4137551202637    8.4778031281854 
 O   -3.8235440700895    6.6309253208291    0.1999463180631 
 O   -1.9573356870776    7.8482582643845    3.5655653690070 
 O   -3.7096033742287    8.8414003994057    6.5687243082758 
 O   -3.8235440700895    8.8399547317975    1.7619595668371 
 O    7.6054694069974    6.5018446890035    5.1906645279452 
 O   -2.0722061386035    7.8422923879142    8.4486461101909 
 O    0.0026071037555    6.6309253208291    0.1999463180631 
 O    1.8742242542600    7.6186697864932    3.5112727547058 
 O   -0.1125293611968    8.6488349490657    6.7606407847238 
 O    0.0026071037555    8.8399547317975    1.7619595668371 
 O   -0.0560060133896    6.7341878182798    5.0142771716620 
 O    1.6751797510192    7.5859213345330    8.2638726184368 
 O    3.8287697560655    6.6309253208291    0.1999463180631 
 O    5.7371283825808    7.7587814496616    3.5874404887620 
 O    3.7474336400371    8.7425271925581    6.8396882946625 
 O    3.8287697560655    8.8399547317975    1.7619595668371 
 O    3.8692916645240    6.6508486543260    5.0392542377320 
 O    5.9308212236924    7.7178620879583    8.2630548761367 
Ce    1.9156884299104    1.1083418527658    0.9809643475031 
Ce   -0.0686240030025    2.1134006309514    4.1678970115801 
Ce    0.0989162460608    0.0376819927287    7.4053764143509 
Ce    5.7418510822205    1.1083418527658    0.9809643475031 
Ce    3.9231567720142    2.2335101313295    4.3047647187129 
Ce   -1.9765763492492    9.7646345698968    7.6229658932029 
Ce    9.5680022560654    1.1083418527658    0.9809643475031 
Ce    7.5304791603443    2.1368992158543    4.1688167150540 
Ce    1.8178461664274    9.8470035271631    7.4879672461557 
Ce    0.0026128429880    4.4218859692184    0.9809643475031 
Ce   -2.0213033933605    5.4880681663424    4.1580857006863 
Ce    9.5632008715483    3.2055777070702    7.5049087680840 
Ce    3.8287754952980    4.4218859692184    0.9809643475031 
Ce    1.8765606958108    5.4342371031815    4.2366008227510 
Ce    7.6549266691429    4.4218859692184    0.9809643475031 
Ce    5.7004117574467    5.4748779280878    4.3480318401780 
Ce    5.5123403797843    3.3280635179878    7.6202307333924 
Ce   -1.9104684831671    7.7354400263133    0.9809643475031 
Ce   -3.7883760620609    8.8074340199521    4.3654838522786 
Ce    7.6827552318659    6.5669126542090    7.5105768513239 
Ce    1.9156941691429    7.7354400263133    0.9809643475031 
Ce    0.0299148311291    8.7669321652250    4.4463712253673 
Ce    0.1270565065008    6.2710374883675    7.5943371572633 
Ce    5.7418453429879    7.7354400263133    0.9809643475031 
Ce    3.8775767631687    8.7646662952215    4.2333063591414 
Ce    3.8049354122008    6.5347390695925    7.5835872105077 
Pd    2.0051624906622    3.2373117164847    7.5667700036570 
81
FORCE:  3.250512  ...  ENERGY:  -633.29571059
 O    0.0026128429879    0.0038271472816    0.1999463180631 
 O    1.8439122682420    0.9068618332330    3.4914824786391 
 O    0.1983071266492    2.2272032908286    6.5715586920474 
 O    0.0026128429880    2.2128565582500    1.7619595668371 
 O    5.6271162487585    9.8377981941833    5.2027755537259 
 O    1.9265385637363    1.3392989582876    8.3501817256207 
 O    3.8287640168329    0.0038271472816    0.1999463180631 
 O    5.7931009362450    1.1835030491205    3.3653549099163 
 O    3.6727950361592    2.3372580303433    6.7552550905961 
 O    3.8287640168330    2.2128565582500    1.7619595668371 
 O    3.8065345345523    0.1631699770242    4.9775034030720 
 O    5.5226939552143    1.0782414885053    8.2520900581825 
 O    7.6549266691429    0.0038271472816    0.1999463180631 
 O    9.6173085190039    1.1663925197660    3.3263608056083 
 O    7.7057127931815    2.1493102071598    6.5845821220681 
 O    7.6549266691430    2.2128565582500    1.7619595668371 
 O    1.8750711354077    9.7947722115659    5.1271468224744 
 O    9.7447034106529    1.0813545000448    8.2443229889885 
 O   -1.9104627439346    3.3173712637342    0.1999463180631 
 O   -0.0047125985904    4.4354491803717    3.2701703904879 
 O   -1.9017123083188    5.3679918677096    7.1532389770523 
 O   -1.9104684831671    5.5264106153449    1.7619595668371 
 O   -1.7630965858167    3.4407405989385    5.1845219945004 
 O    0.3866153624370    4.3307974781610    8.3010697425942 
 O    1.9156884299104    3.3173712637342    0.1999463180631 
 O    3.9013428101665    4.3585823686129    3.2326258684161 
 O    2.1296269875890    5.1744288739158    6.6408920621439 
 O    1.9156826906780    5.5264106153449    1.7619595668371 
 O    2.0824115270503    3.2739732028759    4.7457125803254 
 O    3.6266670453947    4.2024647802613    8.5070694065876 
 O    5.7418510822204    3.3173712637342    0.1999463180631 
 O    7.6331895556185    4.3597014861219    3.4000543274667 
 O    5.5463375843829    5.3537504065328    6.8021741100317 
 O    5.7418453429880    5.5264106153449    1.7619595668371 
 O    5.7703083204715    3.3164331653213    5.0193204860986 
 O    7.6731688770365    4.4228125364863    8.4762397235201 
 O   -3.8235440700895    6.6309253208291    0.1999463180631 
 O   -1.9522232935513    7.8551751621027    3.5613144776528 
 O   -3.7129776985847    8.8441959068305    6.5622170412361 
 O   -3.8235440700895    8.8399547317975    1.7619595668371 
 O    7.5986103354520    6.4997643113851    5.1838415690384 
 O   -2.0667755046350    7.8430479761346    8.4448986378761 
 O    0.0026071037555    6.6309253208291    0.1999463180631 
 O    1.8789839719492    7.6245537520711    3.5113993507941 
 O   -0.1064671246917    8.6467321055957    6.7684352260450 
 O    0.0026071037555    8.8399547317975    1.7619595668371 
 O   -0.0583044612212    6.7266724938957    5.0135953775937 
 O    1.6682173732888    7.5830160824174    8.2614942086842 
 O    3.8287697560655    6.6309253208291    0.1999463180631 
 O    5.7409592628823    7.7647934507121    3.5740580276729 
 O    3.7429735676767    8.7435232449156    6.8375621646823 
 O    3.8287697560655    8.8399547317975    1.7619595668371 
 O    3.8607426759690    6.6554200574959    5.0372978149404 
 O    5.9291782536046    7.7170585858420    8.2577654406564 
Ce    1.9156884299104    1.1083418527658    0.9809643475031 
Ce   -0.0715397626818    2.1119487007385    4.1678468293469 
Ce    0.0983886958093    0.0365439879993    7.4044083534522 
Ce    5.7418510822205    1.1083418527658    0.9809643475031 
Ce    3.9239999226607    2.2312727909693    4.3051618426584 
Ce   -1.9742568958267    9.7654437381792    7.6220589633883 
Ce    9.5680022560654    1.1083418527658    0.9809643475031 
Ce    7.5309391024369    2.1375437671004    4.1696588641675 
Ce    1.8175071499637    9.8445170743071    7.4895525485227 
Ce    0.0026128429880    4.4218859692184    0.9809643475031 
Ce   -2.0192061630204    5.4888777322505    4.1537218993074 
Ce    9.5616666599164    3.2049920044265    7.5053207185983 
Ce    3.8287754952980    4.4218859692184    0.9809643475031 
Ce    1.8763655045134    5.4344568907825    4.2367365428817 
Ce    7.6549266691429    4.4218859692184    0.9809643475031 
Ce    5.7022582407190    5.4713795178467    4.3461885555121 
Ce    5.5140731688607    3.3275468034015    7.6199907710773 
Ce   -1.9104684831671    7.7354400263133    0.9809643475031 
Ce   -3.7869313250637    8.8106280477263    4.3633933060637 
Ce    7.6831693748831    6.5707553088927    7.5113216012848 
Ce    1.9156941691429    7.7354400263133    0.9809643475031 
Ce    0.0323266861949    8.7654394783788    4.4468160224343 
Ce    0.1253479943779    6.2702204669776    7.5916615318295 
Ce    5.7418453429879    7.7354400263133    0.9809643475031 
Ce    3.8766418995868    8.7655288447530    4.2351884209875 
Ce    3.8019475103690    6.5310664992985    7.5821816517759 
Pd    2.0079334495055    3.2394309620145    7.5639226181251 
81
FORCE:  3.117579  ...  ENERGY:  -633.31939021
 O    0.0026128429879    0.0038271472816    0.1999463180631 
 O    1.8463831226179    0.9079622623345    3.4861186822132 
 O    0.1975237788053    2.2258120979402    6.5662587639183 
 O    0.0026128429880    2.2128565582500    1.7619595668371 
 O    5.6339523633739    9.8291742893710    5.1983168623060 
 O    1.9300769153572    1.3396329638686    8.3537955307143 
 O    3.8287640168329    0.0038271472816    0.1999463180631 
 O    5.7949531013574    1.1793886172767    3.3630433337743 
 O    3.6641566877542    2.3471835628570    6.7560694113803 
 O    3.8287640168330    2.2128565582500    1.7619595668371 
 O    3.8113715023110    0.1572957532758    4.9748343925689 
 O    5.5252701245065    1.0795056399853    8.2511945334210 
 O    7.6549266691429    0.0038271472816    0.1999463180631 
 O    9.6191341688621    1.1688430869034    3.3278185994827 
 O    7.7079920145842    2.1604297102190    6.5778478944737 
 O    7.6549266691430    2.2128565582500    1.7619595668371 
 O    1.8720702055181    9.7883591055989    5.1312549225650 
 O    9.7460659618407    1.0797509750370    8.2451877201069 
 O   -1.9104627439346    3.3173712637342    0.1999463180631 
 O   -0.0045822032280    4.4229605526500    3.2775467225662 
 O   -1.9129092065723    5.3632024662543    7.1339055874088 
 O   -1.9104684831671    5.5264106153449    1.7619595668371 
 O   -1.7616311875825    3.4419295991628    5.1891287235082 
 O    0.3808577070007    4.3324723769804    8.3024383489542 
 O    1.9156884299104    3.3173712637342    0.1999463180631 
 O    3.8944427031088    4.3611276700713    3.2294459115387 
 O    2.1280762469675    5.1794168894040    6.6423140441519 
 O    1.9156826906780    5.5264106153449    1.7619595668371 
 O    2.0782126471610    3.2720456129295    4.7480109266060 
 O    3.6280459533951    4.2058386342545    8.5019054266903 
 O    5.7418510822204    3.3173712637342    0.1999463180631 
 O    7.6263797840803    4.3641850140140    3.3967717251123 
 O    5.5438116333750    5.3594789998717    6.8080322014547 
 O    5.7418453429880    5.5264106153449    1.7619595668371 
 O    5.7680692163039    3.3236934128242    5.0131779526539 
 O    7.6674558728291    4.4316649766648    8.4742953900847 
 O   -3.8235440700895    6.6309253208291    0.1999463180631 
 O   -1.9470452432051    7.8612745413990    3.5566427398429 
 O   -3.7167310992474    8.8469111932720    6.5562825359581 
 O   -3.8235440700895    8.8399547317975    1.7619595668371 
 O    7.5919686660337    6.4974133494835    5.1770222597487 
 O   -2.0614401993184    7.8431547386328    8.4413888468659 
 O    0.0026071037555    6.6309253208291    0.1999463180631 
 O    1.8840947010982    7.6308299753937    3.5111901821220 
 O   -0.1001269945489    8.6451773891415    6.7762264739514 
 O    0.0026071037555    8.8399547317975    1.7619595668371 
 O   -0.0606710337426    6.7172747100812    5.0136898114325 
 O    1.6623256493813    7.5801361789395    8.2595158881908 
 O    3.8287697560655    6.6309253208291    0.1999463180631 
 O    5.7450051922255    7.7705138927243    3.5600067742758 
 O    3.7383443601345    8.7442571625359    6.8354903227543 
 O    3.8287697560655    8.8399547317975    1.7619595668371 
 O    3.8519718086855    6.6595711703097    5.0359383326228 
 O    5.9270555410722    7.7161428538742    8.2524030128368 
Ce    1.9156884299104    1.1083418527658    0.9809643475031 
Ce   -0.0743275948687    2.1105742081291    4.1678041744486 
Ce    0.0978237257620    0.0354137369710    7.4034975459196 
Ce    5.7418510822205    1.1083418527658    0.9809643475031 
Ce    3.9247084309129    2.2290048334309    4.3054490218929 
Ce   -1.9718765491473    9.7663975428069    7.6211043604522 
Ce    9.5680022560654    1.1083418527658    0.9809643475031 
Ce    7.5315215771433    2.1382313613276    4.1705315788231 
Ce    1.8171830555044    9.8420292297612    7.4911011266190 
Ce    0.0026128429880    4.4218859692184    0.9809643475031 
Ce   -2.0169858835355    5.4897018114964    4.1492889833074 
Ce    9.5600999642285    3.2043707142834    7.5057326691127 
Ce    3.8287754952980    4.4218859692184    0.9809643475031 
Ce    1.8762021659565    5.4346564988797    4.2367844441043 
Ce    7.6549266691429    4.4218859692184    0.9809643475031 
Ce    5.7040945081574    5.4678737515303    4.3442013390774 
Ce    5.5159134537618    3.3269202447180    7.6197533178738 
Ce   -1.9104684831671    7.7354400263133    0.9809643475031 
Ce   -3.7854909498832    8.8139077638371    4.3611360179739 
Ce   -3.7948883117863    6.5746107870048    7.5121621536909 
Ce    1.9156941691429    7.7354400263133    0.9809643475031 
Ce    0.0346867159912    8.7639759176144    4.4471241869663 
Ce    0.1235594199616    6.2695091146154    7.5888848576262 
Ce    5.7418453429879    7.7354400263133    0.9809643475031 
Ce    3.8756254241187    8.7663856287119    4.2370716233388 
Ce    3.7989157608009    6.5274048637109    7.5806994510881 
Pd    2.0107219130080    3.2415554760847    7.5610054336687 
81
FORCE:  2.952704  ...  ENERGY:  -633.35538484
 O    0.0026128429879    0.0038271472816    0.1999463180631 
 O    1.8484765076722    0.9096194668107    3.4803705355012 
 O    0.1969999590550    2.2245718040016    6.5611552308018 
 O    0.0026128429880    2.2128565582500    1.7619595668371 
 O    5.6408040313094    9.8208765370323    5.1936724966234 
 O    1.9335158060789    1.3395718289185    8.3574241623767 
 O    3.8287640168329    0.0038271472816    0.1999463180631 
 O    5.7968760312065    1.1747981280736    3.3608850415446 
 O    3.6554152053411    2.3572630759198    6.7566864247476 
 O    3.8287640168330    2.2128565582500    1.7619595668371 
 O    3.8169487736699    0.1507440747553    4.9731012807150 
 O    5.5286785399036    1.0807396713192    8.2503745101103 
 O    7.6549266691429    0.0038271472816    0.1999463180631 
 O    9.6203564532077    1.1708889704931    3.3297731974659 
 O    7.7100413797253    2.1713892683437    6.5714539936608 
 O    7.6549266691430    2.2128565582500    1.7619595668371 
 O    1.8693430944111    9.7824198700499    5.1356924005862 
 O    9.7470269963228    1.0781792600846    8.2461284088784 
 O   -1.9104627439346    3.3173712637342    0.1999463180631 
 O   -0.0047996053551    4.4103421001399    3.2856208157870 
 O   -1.9237511906881    5.3589399188403    7.1136255783663 
 O   -1.9104684831671    5.5264106153449    1.7619595668371 
 O   -1.7605127833452    3.4430386766231    5.1934491856856 
 O    0.3749053194056    4.3333887053867    8.3041867435791 
 O    1.9156884299104    3.3173712637342    0.1999463180631 
 O    3.8876794193538    4.3642942616728    3.2271813242150 
 O    2.1263218209846    5.1848487545706    6.6438642189557 
 O    1.9156826906780    5.5264106153449    1.7619595668371 
 O    2.0731315324518    3.2703190227701    4.7501863264152 
 O    3.6294211882867    4.2095299923625    8.4967761181541 
 O    5.7418510822204    3.3173712637342    0.1999463180631 
 O    7.6196708508571    4.3688513503178    3.3935607464906 
 O    5.5413302762036    5.3657323597171    6.8137942623313 
 O    5.7418453429880    5.5264106153449    1.7619595668371 
 O    5.7657531490286    3.3309748338952    5.0076959998789 
 O    7.6610967458267    4.4402981262744    8.4719863230543 
 O   -3.8235440700895    6.6309253208291    0.1999463180631 
 O   -1.9417979777150    7.8665259839080    3.5515501555774 
 O   -3.7208190397725    8.8495550064955    6.5509851169407 
 O   -3.8235440700895    8.8399547317975    1.7619595668371 
 O    7.5855654043335    6.4948122810219    5.1702218828469 
 O   -2.0562040105470    7.8426104884675    8.4381119470380 
 O    0.0026071037555    6.6309253208291    0.1999463180631 
 O    1.8895229245890    7.6374807621178    3.5106404585674 
 O   -0.0935292876516    8.6441853130410    6.7839780322734 
 O    0.0026071037555    8.8399547317975    1.7619595668371 
 O   -0.0630972942820    6.7060412872614    5.0145490681255 
 O    1.6575429747620    7.5772898748326    8.2579643447807 
 O    3.8287697560655    6.6309253208291    0.1999463180631 
 O    5.7492252498827    7.7759249819485    3.5453042923525 
 O    3.7335495183424    8.7447395819062    6.8334830334263 
 O    3.8287697560655    8.8399547317975    1.7619595668371 
 O    3.8430258374185    6.6632724690600    5.0351780717898 
 O    5.9244505608328    7.7151421294149    8.2469815068428 
Ce    1.9156884299104    1.1083418527658    0.9809643475031 
Ce   -0.0769845151622    2.1092791412516    4.1677697311886 
Ce    0.0972203602493    0.0342903449858    7.4026398859340 
Ce    5.7418510822205    1.1083418527658    0.9809643475031 
Ce    3.9252755244762    2.2267060599013    4.3056223786985 
Ce   -1.9694353666034    9.7674962819992    7.6200988909797 
Ce    9.5680022560654    1.1083418527658    0.9809643475031 
Ce    7.5322280192717    2.1389644836965    4.1714334904143 
Ce    1.8168754326424    9.8395341285464    7.4926138928489 
Ce    0.0026128429880    4.4218859692184    0.9809643475031 
Ce   -2.0146417514132    5.4905398076414    4.1447862683830 
Ce    9.5585003253461    3.2037170176464    7.5061432510207 
Ce    3.8287754952980    4.4218859692184    0.9809643475031 
Ce    1.8760710244939    5.4348337405318    4.2367431578124 
Ce    7.6549266691429    4.4218859692184    0.9809643475031 
Ce    5.7059190675614    5.4643675875882    4.3420635759431 
Ce    5.5178646206348    3.3261897069161    7.6195172332767 
Ce   -1.9104684831671    7.7354400263133    0.9809643475031 
Ce   -3.7840561991505    8.8172729694715    4.3587017234616 
Ce   -3.7944892629506    6.5784797843905    7.5130937184200 
Ce    1.9156941691429    7.7354400263133    0.9809643475031 
Ce    0.0369954944413    8.7625345244824    4.4472936660539 
Ce    0.1216820022262    6.2689003496815    7.5860016602278 
Ce    5.7418453429879    7.7354400263133    0.9809643475031 
Ce    3.8745303211654    8.7672340625314    4.2389543694881 
Ce    3.7958363756030    6.5237519758886    7.5791380993324 
Pd    2.0135195592824    3.2436893343587    7.5580218718039 
81
FORCE:  2.921397  ...  ENERGY:  -633.40206506
 O    0.0026128429879    0.0038271472816    0.1999463180631 
 O    1.8502112480877    0.9118400074854    3.4742510402635 
 O    0.1967372743835    2.2234623289157    6.5562754648252 
 O    0.0026128429880    2.2128565582500    1.7619595668371 
 O    5.6476503617587    9.8129260113287    5.1888734784220 
 O    1.9368633856115    1.3391237047641    8.3610450386032 
 O    3.8287640168329    0.0038271472816    0.1999463180631 
 O    5.7988740876091    1.1697510651701    3.3589181261042 
 O    3.6466487572667    2.3674522342670    6.7570696345284 
 O    3.8287640168330    2.2128565582500    1.7619595668371 
 O    3.8232794914713    0.1435595749466    4.9723355454566 
 O    5.5329128308575    1.0819536225557    8.2496178988942 
 O    7.6549266691429    0.0038271472816    0.1999463180631 
 O    9.6209285972956    1.1725127744111    3.3322248276588 
 O    7.7118342585660    2.1821668133081    6.5654074907623 
 O    7.6549266691430    2.2128565582500    1.7619595668371 
 O    1.8668981239738    9.7770051027881    5.1404713458943 
 O    9.7475742895340    1.0766420391608    8.2471414056858 
 O   -1.9104627439346    3.3173712637342    0.1999463180631 
 O   -0.0053726103279    4.3976296091537    3.2943486466458 
 O   -1.9342052026868    5.3552334509561    7.0924124078874 
 O   -1.9104684831671    5.5264106153449    1.7619595668371 
 O   -1.7597549750859    3.4440526221367    5.1974448319537 
 O    0.3687602657755    4.3335404989945    8.3063000999000 
 O    1.9156884299104    3.3173712637342    0.1999463180631 
 O    3.8810590998804    4.3680629579777    3.2258647248967 
 O    2.1243526903139    5.1907024011895    6.6455316377043 
 O    1.9156826906780    5.5264106153449    1.7619595668371 
 O    2.0672160481217    3.2687846846327    4.7522314805192 
 O    3.6307901100226    4.2135324925742    8.4916972199521 
 O    5.7418510822204    3.3173712637342    0.1999463180631 
 O    7.6130952973972    4.3736689831972    3.3904264098252 
 O    5.5388994242783    5.3724666478364    6.8194358858483 
 O    5.7418453429880    5.5264106153449    1.7619595668371 
 O    5.7633527724278    3.3382173870549    5.0028999469913 
 O    7.6540838054580    4.4486942909718    8.4693287176043 
 O   -3.8235440700895    6.6309253208291    0.1999463180631 
 O   -1.9364804640191    7.8709000653284    3.5460415149784 
 O   -3.7251947454151    8.8521351996082    6.5463868276721 
 O   -3.8235440700895    8.8399547317975    1.7619595668371 
 O    7.5794219576885    6.4919858581996    5.1634559492052 
 O   -2.0510706688220    7.8414187048633    8.4350606391583 
 O    0.0026071037555    6.6309253208291    0.1999463180631 
 O    1.8952291565021    7.6444866285846    3.5097472148165 
 O   -0.0866985105224    8.6437687007226    6.7916488428202 
 O    0.0026071037555    8.8399547317975    1.7619595668371 
 O   -0.0655708460971    6.6930384301139    5.0161585492049 
 O    1.6539036126491    7.5744834327013    8.2568646695704 
 O    3.8287697560655    6.6309253208291    0.1999463180631 
 O    5.7535781133800    7.7810104157312    3.5299779540300 
 O    3.7285966180872    8.7449834258616    6.8315487364375 
 O    3.8287697560655    8.8399547317975    1.7619595668371 
 O    3.8339530865055    6.6664977104510    5.0350174886436 
 O    5.9213627963555    7.7140849421074    8.2415141525356 
Ce    1.9156884299104    1.1083418527658    0.9809643475031 
Ce   -0.0795072521999    2.1080663828922    4.1677446400720 
Ce    0.0965777383863    0.0331727185731    7.4018319519795 
Ce    5.7418510822205    1.1083418527658    0.9809643475031 
Ce    3.9256938571331    2.2243770668192    4.3056780353572 
Ce   -1.9669342664722    9.7687395581304    7.6190402739603 
Ce    9.5680022560654    1.1083418527658    0.9809643475031 
Ce    7.5330601505919    2.1397457187741    4.1723625460317 
Ce    1.8165859457551    9.8370268997480    7.4940919877177 
Ce    0.0026128429880    4.4218859692184    0.9809643475031 
Ce   -2.0121736518689    5.4913905278086    4.1402153512416 
Ce    9.5568681450155    3.2030343937403    7.5065497271096 
Ce    3.8287754952980    4.4218859692184    0.9809643475031 
Ce    1.8759725392642    5.4349864287973    4.2366108591976 
Ce    7.6549266691429    4.4218859692184    0.9809643475031 
Ce    5.7077303693384    5.4608686803150    4.3397695635826 
Ce    5.5199300556269    3.3253614526005    7.6192809205786 
Ce   -1.9104684831671    7.7354400263133    0.9809643475031 
Ce   -3.7826285650661    8.8207220741269    4.3560810703832 
Ce   -3.7940997986332    6.5823616052048    7.5141117334507 
Ce    1.9156941691429    7.7354400263133    0.9809643475031 
Ce    0.0392534232914    8.7611078435009    4.4473228629896 
Ce    0.1197078210308    6.2683911899834    7.5830069214110 
Ce    5.7418453429879    7.7354400263133    0.9809643475031 
Ce    3.8733598620893    8.7680712634251    4.2408343784246 
Ce    3.7927063703745    6.5201070405802    7.5774955435993 
Pd    2.0163165168490    3.2458363142805    7.5549774069561 
81
FORCE:  3.000431  ...  ENERGY:  -633.45747460
 O    0.0026128429879    0.0038271472816    0.1999463180631 
 O    1.8516096120863    0.9146252760487    3.4677800412924 
 O    0.1967368726373    2.2224631949591    6.5516486629242 
 O    0.0026128429880    2.2128565582500    1.7619595668371 
 O    5.6544646672906    9.8053468680211    5.1839503732441 
 O    1.9401290089040    1.3382976373898    8.3646335244791 
 O    3.8287640168329    0.0038271472816    0.1999463180631 
 O    5.8009494514734    1.1642675086637    3.3571802241281 
 O    3.6379465312039    2.3776989489331    6.7571782106330 
 O    3.8287640168330    2.2128565582500    1.7619595668371 
 O    3.8303696245172    0.1357919570612    4.9725659275272 
 O    5.5379596249564    1.0831565396792    8.2489121542146 
 O    7.6549266691429    0.0038271472816    0.1999463180631 
 O    9.6208057777201    1.1736971025336    3.3351709809497 
 O    7.7133429880056    2.1927363006294    6.5597181941238 
 O    7.6549266691430    2.2128565582500    1.7619595668371 
 O    1.8647401151614    9.7721643082122    5.1455970048135 
 O    9.7476972812865    1.0751436861485    8.2482221485081 
 O   -1.9104627439346    3.3173712637342    0.1999463180631 
 O   -0.0063082774024    4.3848659238598    3.3036775237976 
 O   -1.9442392750436    5.3521078148008    7.0702936762003 
 O   -1.9104684831671    5.5264106153449    1.7619595668371 
 O   -1.7593723404551    3.4449513556061    5.2010771132331 
 O    0.3624253583344    4.3329280560230    8.3087592574279 
 O    1.9156884299104    3.3173712637342    0.1999463180631 
 O    3.8745892630832    4.3724101996640    3.2255237138120 
 O    2.1221564008208    5.1969483055531    6.6473044391426 
 O    1.9156826906780    5.5264106153449    1.7619595668371 
 O    2.0605214055874    3.2674318626234    4.7541374929765 
 O    3.6321505376944    4.2178352001830    8.4866856115628 
 O    5.7418510822204    3.3173712637342    0.1999463180631 
 O    7.6066876738802    4.3786027227786    3.3873732771371 
 O    5.5365287769018    5.3796316639862    6.8249306122826 
 O    5.7418453429880    5.5264106153449    1.7619595668371 
 O    5.7608604533223    3.3453523824650    4.9988153413099 
 O    7.6464148708145    4.4568327942210    8.4663383127077 
 O   -3.8235440700895    6.6309253208291    0.1999463180631 
 O   -1.9310931038637    7.8743704429583    3.5401243453809 
 O   -3.7298086292066    8.8546589298728    6.5425449215185 
 O   -3.8235440700895    8.8399547317975    1.7619595668371 
 O    7.5735616273828    6.4889658910719    5.1567422507062 
 O   -2.0460447655294    7.8395881355856    8.4322255710836 
 O    0.0026071037555    6.6309253208291    0.1999463180631 
 O    1.9011696638859    7.6518255065680    3.5085083979596 
 O   -0.0796645071704    8.6439362999516    6.7991941977839 
 O    0.0026071037555    8.8399547317975    1.7619595668371 
 O   -0.0680755045525    6.6783524234139    5.0185000065858 
 O    1.6514364313820    7.5717201329575    8.2562410412724 
 O    3.8287697560655    6.6309253208291    0.1999463180631 
 O    5.7580207958659    7.7857557801412    3.5140622025685 
 O    3.7234983430728    8.7450035059590    6.8296940467186 
 O    3.8287697560655    8.8399547317975    1.7619595668371 
 O    3.8248034872693    6.6692228381284    5.0354554426788 
 O    5.9177952894334    7.7130016109106    8.2360169169896 
Ce    1.9156884299104    1.1083418527658    0.9809643475031 
Ce   -0.0818915015574    2.1069394122758    4.1677300416041 
Ce    0.0958948271111    0.0320604601073    7.4010712349444 
Ce    5.7418510822205    1.1083418527658    0.9809643475031 
Ce    3.9259557957044    2.2220191464680    4.3056127984540 
Ce   -1.9643745687773    9.7701262777299    7.6179266845854 
Ce    9.5680022560654    1.1083418527658    0.9809643475031 
Ce    7.5340193485196    2.1405772535016    4.1733173770688 
Ce    1.8163166035739    9.8345034677027    7.4955360955286 
Ce    0.0026128429880    4.4218859692184    0.9809643475031 
Ce   -2.0095822162181    5.4922526797144    4.1355796533993 
Ce    9.5552039397674    3.2023271170414    7.5069500444699 
Ce    3.8287754952980    4.4218859692184    0.9809643475031 
Ce    1.8759071694060    5.4351119791095    4.2363866358557 
Ce    7.6549266691429    4.4218859692184    0.9809643475031 
Ce    5.7095256586568    5.4573867715400    4.3373142837728 
Ce    5.5221119396464    3.3244428378465    7.6190432392741 
Ce   -1.9104684831671    7.7354400263133    0.9809643475031 
Ce   -3.7812096546152    8.8242518967976    4.3532660752018 
Ce   -3.7937220423500    6.5862541619127    7.5152111805599 
Ce    1.9156941691429    7.7354400263133    0.9809643475031 
Ce    0.0414598712261    8.7596882203755    4.4472104091670 
Ce    0.1176308501814    6.2679787527348    7.5798974477611 
Ce    5.7418453429879    7.7354400263133    0.9809643475031 
Ce    3.8721176626070    8.7688939509810    4.2427095972389 
Ce    3.7895243676995    6.5164710518497    7.5757710995857 
Pd    2.0191006185347    3.2480005909199    7.5518788821571 
