81
FORCE:  3.086359  ...  ENERGY:  -633.03757532
 O    0.0026128429879    0.0038271472816    0.1999463180631 
 O    2.0167213623095    0.9703793564606    3.3184589286878 
 O    0.2265312946685    2.3915123660529    6.7574781635269 
 O    0.0026128429880    2.2128565582500    1.7619595668371 
 O    0.1563493196115    0.0926362490620    5.2095989688347 
 O    1.8273528033174    1.5817571881261    8.6518462898749 
 O    3.8287640168329    0.0038271472816    0.1999463180631 
 O    5.9481795897810    1.2028302422993    3.4101090221915 
 O    3.4660017081585    2.3239132151011    6.6650566322382 
 O    3.8287640168330    2.2128565582500    1.7619595668371 
 O    3.9109300258808    0.0616416246210    5.0640663867356 
 O    5.8043001875839    1.2269544912279    8.1897347557135 
 O    7.6549266691429    0.0038271472816    0.1999463180631 
 O    9.6128678452493    1.1297393835143    3.5826061148964 
 O    7.9270438840664    2.3100579478773    6.5349046765138 
 O    7.6549266691430    2.2128565582500    1.7619595668371 
 O    1.9710484352899    9.9013850036876    5.1963515435731 
 O    9.6415382385954    1.1990303323775    8.3826270484961 
 O   -1.9104627439346    3.3173712637342    0.1999463180631 
 O    0.1031248826453    4.6631981424073    3.2523609440263 
 O   -1.8649382908597    5.5725172030079    6.7115780715262 
 O   -1.9104684831671    5.5264106153449    1.7619595668371 
 O   -1.8454861953628    3.4539241769628    5.2020004663240 
 O    0.1101051093888    4.4226780395961    8.3952380718004 
 O    1.9156884299104    3.3173712637342    0.1999463180631 
 O    3.8628556318062    4.4855722845521    3.4845331517451 
 O    1.7661903764882    5.5321789712529    6.6325812000228 
 O    1.9156826906780    5.5264106153449    1.7619595668371 
 O    1.8987831188354    3.4612013235576    4.5399031526160 
 O    3.4617403280272    4.4530305979515    8.2592090922651 
 O    5.7418510822204    3.3173712637342    0.1999463180631 
 O    7.5593662097173    4.3828626856255    3.6202395963815 
 O    5.7215474567975    5.6967617123594    6.8595600028076 
 O    5.7418453429880    5.5264106153449    1.7619595668371 
 O    5.7452348763101    3.2136252534425    5.1900716932902 
 O    7.4861596591328    4.5632076073663    8.3441641915568 
 O   -3.8235440700895    6.6309253208291    0.1999463180631 
 O   -1.9567923539369    7.7479630486574    3.2879547458329 
 O   -3.6900420611373    9.0916110379469    7.0085597210187 
 O   -3.8235440700895    8.8399547317975    1.7619595668371 
 O   -3.6690866884717    6.5891773071845    5.1548458184934 
 O   -1.8465198885283    7.8108459612811    8.5212855770511 
 O    0.0026071037555    6.6309253208291    0.1999463180631 
 O    1.9180762375921    7.9029566485852    3.3841242056384 
 O    0.0077706338434    8.9092772919031    6.8954104183067 
 O    0.0026071037555    8.8399547317975    1.7619595668371 
 O    0.0577469521762    6.7942265143316    5.1446820914619 
 O    1.9235013618974    7.9463047080128    8.3755917275026 
 O    3.8287697560655    6.6309253208291    0.1999463180631 
 O    5.8345617257482    7.6218966183870    3.6131773594629 
 O    4.0156517351846    8.9333413999459    6.8749883023039 
 O    3.8287697560655    8.8399547317975    1.7619595668371 
 O    3.7638435405627    6.6588416265721    5.3372764842602 
 O    5.8702151580617    7.9179574754265    8.4591725179078 
Ce    1.9156884299104    1.1083418527658    0.9809643475031 
Ce    0.0373477111398    2.4401777744478    4.4214108106747 
Ce    0.2421833295424    0.2598245319191    7.7754222548772 
Ce    5.7418510822205    1.1083418527658    0.9809643475031 
Ce    3.8224702596888    2.3209628324694    4.2171266947535 
Ce    3.8874772835852    0.0928000708469    7.6297379855732 
Ce    9.5680022560654    1.1083418527658    0.9809643475031 
Ce    7.7297316533710    2.1555102851625    4.2851740310738 
Ce    2.1081794183442    9.9245350696718    7.4278585110266 
Ce    0.0026128429880    4.4218859692184    0.9809643475031 
Ce   -1.9145571697924    5.6238866649186    4.1369373109084 
Ce   -1.8155121353543    3.5221712589791    7.5590827698340 
Ce    3.8287754952980    4.4218859692184    0.9809643475031 
Ce    1.8433117149532    5.5765240771022    4.3694662686851 
Ce    7.6549266691429    4.4218859692184    0.9809643475031 
Ce    5.7944132691485    5.5700450646768    4.2550151932237 
Ce    5.5980325158878    3.3010198018250    7.5071277351957 
Ce   -1.9104684831671    7.7354400263133    0.9809643475031 
Ce   -3.7219427241037    9.0099763959265    4.1324199975161 
Ce   -3.7400832901897    6.7691866328416    7.7492417276146 
Ce    1.9156941691429    7.7354400263133    0.9809643475031 
Ce    0.0747139026083    8.8978794508598    4.2438357321721 
Ce   -0.0685973155714    6.6178699770904    7.4905443319315 
Ce    5.7418453429879    7.7354400263133    0.9809643475031 
Ce    3.9119946535096    8.9387707799519    4.3272988224303 
Ce    3.7196967902495    6.6628910466153    7.5463013550379 
Pd    1.8561795907491    3.3526939444218    7.5563533125500 
81
FORCE:  3.125067  ...  ENERGY:  -633.02641698
 O    0.0026128429879    0.0038271472816    0.1999463180631 
 O    2.0196754600619    0.9719869571317    3.3183918669761 
 O    0.2200917036265    2.3840542003620    6.7573200894923 
 O    0.0026128429880    2.2128565582500    1.7619595668371 
 O    0.1533653778501    0.0869070592846    5.2209846332446 
 O    1.8265275590762    1.5913118352760    8.6536961894715 
 O    3.8287640168329    0.0038271472816    0.1999463180631 
 O    5.9390802662215    1.2056189900873    3.4152978651044 
 O    3.4588751883786    2.3210240668259    6.6657183534132 
 O    3.8287640168330    2.2128565582500    1.7619595668371 
 O    3.9229827010925    0.0668756710060    5.0566948447796 
 O    5.8050880120291    1.2320670629641    8.1904211118030 
 O    7.6549266691429    0.0038271472816    0.1999463180631 
 O    9.6162856729877    1.1290401587357    3.5868697799099 
 O    7.9270850343634    2.3113662358090    6.5384600877361 
 O    7.6549266691430    2.2128565582500    1.7619595668371 
 O    1.9717570009343    9.9056238923729    5.1972561923770 
 O    9.6421794830426    1.2048242357362    8.3839587024844 
 O   -1.9104627439346    3.3173712637342    0.1999463180631 
 O    0.1086752370038    4.6561652373935    3.2533536398394 
 O   -1.8753303765397    5.5775784810299    6.7145817062843 
 O   -1.9104684831671    5.5264106153449    1.7619595668371 
 O   -1.8429876778862    3.4496872764059    5.1966615329136 
 O    0.1071632362016    4.4263317226698    8.4027722498122 
 O    1.9156884299104    3.3173712637342    0.1999463180631 
 O    3.8579167352783    4.4780487094349    3.4817856744774 
 O    1.7689905480249    5.5355971605108    6.6268141209228 
 O    1.9156826906780    5.5264106153449    1.7619595668371 
 O    1.8946625220774    3.4627127982178    4.5388744168354 
 O    3.4612835425126    4.4515368176346    8.2517390106512 
 O    5.7418510822204    3.3173712637342    0.1999463180631 
 O    7.5586267670020    4.3791466747247    3.6158748825984 
 O    5.7243472839803    5.6941518961326    6.8598877840308 
 O    5.7418453429880    5.5264106153449    1.7619595668371 
 O    5.7362229038693    3.2234402460140    5.1948234945721 
 O    7.4904728071412    4.5673005674228    8.3447853107432 
 O   -3.8235440700895    6.6309253208291    0.1999463180631 
 O   -1.9663843332141    7.7517339319037    3.2853997858598 
 O   -3.6909065617288    9.0915584519492    7.0133660384539 
 O   -3.8235440700895    8.8399547317975    1.7619595668371 
 O   -3.6671579619977    6.5901755464833    5.1454286662313 
 O   -1.8428129182566    7.8106352196646    8.5253345989671 
 O    0.0026071037555    6.6309253208291    0.1999463180631 
 O    1.9181071720553    7.9056918163113    3.3745480669375 
 O    0.0093806033443    8.9034274227283    6.8959147497504 
 O    0.0026071037555    8.8399547317975    1.7619595668371 
 O    0.0640380692734    6.7939072209012    5.1458894303725 
 O    1.9280474079606    7.9504239113650    8.3763257567136 
 O    3.8287697560655    6.6309253208291    0.1999463180631 
 O    5.8324897480311    7.6167509443120    3.6067576832302 
 O    4.0147235865047    8.9328626586132    6.8664545854472 
 O    3.8287697560655    8.8399547317975    1.7619595668371 
 O    3.7657441447974    6.6559373685206    5.3437148647797 
 O    5.8674056889683    7.9060002744416    8.4570853932088 
Ce    1.9156884299104    1.1083418527658    0.9809643475031 
Ce    0.0399155585450    2.4412296932150    4.4207723558077 
Ce    0.2385033336634    0.2592253100019    7.7747477600428 
Ce    5.7418510822205    1.1083418527658    0.9809643475031 
Ce    3.8237300212225    2.3216696121362    4.2163926655424 
Ce    3.8898421917291    0.0927139848847    7.6276467550551 
Ce    9.5680022560654    1.1083418527658    0.9809643475031 
Ce    7.7297248810766    2.1597720373251    4.2893909353700 
Ce    2.1077362348106    9.9232471600567    7.4291874278021 
Ce    0.0026128429880    4.4218859692184    0.9809643475031 
Ce   -1.9144373346178    5.6238329854502    4.1382607532585 
Ce   -1.8139212774977    3.5233473363684    7.5592285264113 
Ce    3.8287754952980    4.4218859692184    0.9809643475031 
Ce    1.8406656418090    5.5782017593015    4.3694229294837 
Ce    7.6549266691429    4.4218859692184    0.9809643475031 
Ce    5.7955269098228    5.5709904197586    4.2563787813604 
Ce    5.5970870921181    3.3019644610618    7.5053362294704 
Ce   -1.9104684831671    7.7354400263133    0.9809643475031 
Ce   -3.7242707289826    9.0106218418304    4.1351248198856 
Ce   -3.7362325521438    6.7690753970544    7.7510437259886 
Ce    1.9156941691429    7.7354400263133    0.9809643475031 
Ce    0.0736438801010    8.8966187786046    4.2418149848815 
Ce   -0.0661060869201    6.6141333890600    7.4929998398424 
Ce    5.7418453429879    7.7354400263133    0.9809643475031 
Ce    3.9108474383251    8.9377863581459    4.3255198622634 
Ce    3.7182294980685    6.6664551645020    7.5450511331281 
Pd    1.8532216477109    3.3512095083086    7.5556112998018 
81
FORCE:  3.151698  ...  ENERGY:  -633.02944111
 O    0.0026128429879    0.0038271472816    0.1999463180631 
 O    2.0225014581449    0.9748293843881    3.3183503525832 
 O    0.2136272043154    2.3767505122523    6.7568645716755 
 O    0.0026128429880    2.2128565582500    1.7619595668371 
 O    0.1502396770460    0.0813468604261    5.2321344411585 
 O    1.8260708309539    1.6010284154888    8.6553175318060 
 O    3.8287640168329    0.0038271472816    0.1999463180631 
 O    5.9291063984137    1.2078562310411    3.4204121189707 
 O    3.4517575070167    2.3181488354499    6.6664496454116 
 O    3.8287640168330    2.2128565582500    1.7619595668371 
 O    3.9352201795906    0.0722037558670    5.0493994885776 
 O    5.8055298181470    1.2375998256499    8.1912326953745 
 O    7.6549266691429    0.0038271472816    0.1999463180631 
 O    9.6199603313805    1.1283078316182    3.5908004173758 
 O    7.9265878446519    2.3124741203923    6.5426582877454 
 O    7.6549266691430    2.2128565582500    1.7619595668371 
 O    1.9724710762420    9.9096981640219    5.1977101134864 
 O    9.6431655405785    1.2110135778453    8.3852059590805 
 O   -1.9104627439346    3.3173712637342    0.1999463180631 
 O    0.1131234291529    4.6487178075963    3.2551574630219 
 O   -1.8856244935211    5.5829822141787    6.7179674103179 
 O   -1.9104684831671    5.5264106153449    1.7619595668371 
 O   -1.8396014733189    3.4455930240659    5.1906056778717 
 O    0.1043176099435    4.4300517098275    8.4102160998042 
 O    1.9156884299104    3.3173712637342    0.1999463180631 
 O    3.8534353129730    4.4706465095600    3.4787847769321 
 O    1.7718033458731    5.5384063860219    6.6213627336899 
 O    1.9156826906780    5.5264106153449    1.7619595668371 
 O    1.8905907087956    3.4632441255482    4.5385831317818 
 O    3.4612422774309    4.4496901445164    8.2442862647178 
 O    5.7418510822204    3.3173712637342    0.1999463180631 
 O    7.5584662406690    4.3755621785213    3.6106388227661 
 O    5.7268880996004    5.6910626427282    6.8599525647319 
 O    5.7418453429880    5.5264106153449    1.7619595668371 
 O    5.7266348272702    3.2334679683304    5.1999464162787 
 O    7.4953673394019    4.5711535603744    8.3455020042737 
 O   -3.8235440700895    6.6309253208291    0.1999463180631 
 O   -1.9756234644772    7.7556632689880    3.2832243860506 
 O   -3.6915804624089    9.0913864788375    7.0178963536066 
 O   -3.8235440700895    8.8399547317975    1.7619595668371 
 O   -3.6653251954912    6.5916905003683    5.1359195892420 
 O   -1.8391579454313    7.8102197008169    8.5293069789270 
 O    0.0026071037555    6.6309253208291    0.1999463180631 
 O    1.9183891979403    7.9081475525827    3.3651664984408 
 O    0.0106650435778    8.8974153222713    6.8957596410296 
 O    0.0026071037555    8.8399547317975    1.7619595668371 
 O    0.0698002013111    6.7934957777168    5.1468641062018 
 O    1.9328369122665    7.9537309642420    8.3769195037728 
 O    3.8287697560655    6.6309253208291    0.1999463180631 
 O    5.8300346191523    7.6125838270640    3.5996790230353 
 O    4.0136047805212    8.9322280480094    6.8571658540818 
 O    3.8287697560655    8.8399547317975    1.7619595668371 
 O    3.7675250860345    6.6533680107079    5.3492951291116 
 O    5.8649466574114    7.8939235869363    8.4551301109224 
Ce    1.9156884299104    1.1083418527658    0.9809643475031 
Ce    0.0424449530923    2.4421462204341    4.4200449415274 
Ce    0.2346232681395    0.2585290674159    7.7740253639858 
Ce    5.7418510822205    1.1083418527658    0.9809643475031 
Ce    3.8250618675165    2.3223535283258    4.2156305799010 
Ce    3.8922905483136    0.0925974805570    7.6255016926869 
Ce    9.5680022560654    1.1083418527658    0.9809643475031 
Ce    7.7296979640762    2.1641744495761    4.2936876750372 
Ce    2.1072706682702    9.9220451375910    7.4306317637141 
Ce    0.0026128429880    4.4218859692184    0.9809643475031 
Ce   -1.9143607732562    5.6237630033285    4.1396565036446 
Ce   -1.8124152454973    3.5243810637601    7.5593754234940 
Ce    3.8287754952980    4.4218859692184    0.9809643475031 
Ce    1.8381175373637    5.5800260659745    4.3692582405184 
Ce    7.6549266691429    4.4218859692184    0.9809643475031 
Ce    5.7966325155716    5.5718981992125    4.2578632630589 
Ce    5.5962088173686    3.3030612121257    7.5034886108844 
Ce   -1.9104684831671    7.7354400263133    0.9809643475031 
Ce   -3.7266722534300    9.0111176810678    4.1379582912529 
Ce   -3.7324997553258    6.7689368245008    7.7528035256665 
Ce    1.9156941691429    7.7354400263133    0.9809643475031 
Ce    0.0725442431540    8.8953724208743    4.2397629877458 
Ce   -0.0635160286852    6.6104799047991    7.4955276557894 
Ce    5.7418453429879    7.7354400263133    0.9809643475031 
Ce    3.9097267383949    8.9367311589668    4.3237634841014 
Ce    3.7168431290658    6.6700725642313    7.5438198436062 
Pd    1.8502572767324    3.3497960483814    7.5549390859780 
81
FORCE:  3.166543  ...  ENERGY:  -633.04549390
 O    0.0026128429879    0.0038271472816    0.1999463180631 
 O    2.0251807614452    0.9788690626019    3.3183624419394 
 O    0.2071521448166    2.3696301295864    6.7561367011930 
 O    0.0026128429880    2.2128565582500    1.7619595668371 
 O    0.1469998802997    0.0759377593304    5.2430321974010 
 O    1.8259556445576    1.6108880415441    8.6567100887773 
 O    3.8287640168329    0.0038271472816    0.1999463180631 
 O    5.9183080324650    1.2095713894618    3.4254565739126 
 O    3.4446395960856    2.3152706218813    6.6672479991216 
 O    3.8287640168330    2.2128565582500    1.7619595668371 
 O    3.9476052137563    0.0775975483735    5.0422097431664 
 O    5.8056165379501    1.2435195775400    8.1921644882046 
 O    7.6549266691429    0.0038271472816    0.1999463180631 
 O    9.6238725939988    1.1275442908839    3.5943984834963 
 O    7.9255418121365    2.3133950214940    6.5474855904781 
 O    7.6549266691430    2.2128565582500    1.7619595668371 
 O    1.9731744765772    9.9135966851152    5.1977062357684 
 O    9.6444989364652    1.2175806643613    8.3863674496780 
 O   -1.9104627439346    3.3173712637342    0.1999463180631 
 O    0.1164250374331    4.6408735473588    3.2577687639567 
 O   -1.8957740392357    5.5887168713094    6.7217203570581 
 O   -1.9104684831671    5.5264106153449    1.7619595668371 
 O   -1.8353491611750    3.4416817789505    5.1838563956073 
 O    0.1015650740365    4.4338448601125    8.4175474959737 
 O    1.9156884299104    3.3173712637342    0.1999463180631 
 O    3.8494331165815    4.4634005765820    3.4755245284815 
 O    1.7745994999472    5.5406080394763    6.6162642187968 
 O    1.9156826906780    5.5264106153449    1.7619595668371 
 O    1.8865984986686    3.4627993812121    4.5390594067951 
 O    3.4616099326648    4.4474837195537    8.2368472048480 
 O    5.7418510822204    3.3173712637342    0.1999463180631 
 O    7.5588859507417    4.3721176465614    3.6045425938366 
 O    5.7291777664063    5.6874868942900    6.8597408869482 
 O    5.7418453429880    5.5264106153449    1.7619595668371 
 O    5.7165072054237    3.2437093150497    5.2054345277823 
 O    7.5008611623202    4.5747602242101    8.3463233961908 
 O   -3.8235440700895    6.6309253208291    0.1999463180631 
 O   -1.9844817402717    7.7597305821874    3.2814518127134 
 O   -3.6920443071796    9.0911053574736    7.0221527193862 
 O   -3.8235440700895    8.8399547317975    1.7619595668371 
 O   -3.6635997526324    6.5937297237276    5.1263112882916 
 O   -1.8355417124254    7.8096062637812    8.5332011202233 
 O    0.0026071037555    6.6309253208291    0.1999463180631 
 O    1.9189208804391    7.9103235591799    3.3560159963178 
 O    0.0116217162432    8.8912534163350    6.8949526194793 
 O    0.0026071037555    8.8399547317975    1.7619595668371 
 O    0.0749887544527    6.7929922841848    5.1475965387055 
 O    1.9378715965848    7.9562189081943    8.3773884795522 
 O    3.8287697560655    6.6309253208291    0.1999463180631 
 O    5.8271931825338    7.6094261820406    3.5919416069790 
 O    4.0122805674065    8.9314531749429    6.8471435497076 
 O    3.8287697560655    8.8399547317975    1.7619595668371 
 O    3.7691927348220    6.6511376287973    5.3539636735066 
 O    5.8628178612925    7.8817441131898    8.4533005123202 
Ce    1.9156884299104    1.1083418527658    0.9809643475031 
Ce    0.0449389939675    2.4429247715382    4.4192235496103 
Ce    0.2305366476379    0.2577347106905    7.7732532418977 
Ce    5.7418510822205    1.1083418527658    0.9809643475031 
Ce    3.8264670038095    2.3230156745087    4.2148370163132 
Ce    3.8948278056095    0.0924498620190    7.6232991488515 
Ce    9.5680022560654    1.1083418527658    0.9809643475031 
Ce    7.7296496397385    2.1687209017338    4.2980699526019 
Ce    2.1067819726228    9.9209302945582    7.4321919749645 
Ce    0.0026128429880    4.4218859692184    0.9809643475031 
Ce   -1.9143276578847    5.6236764203342    4.1411236496626 
Ce   -1.8109942689227    3.5252728387800    7.5595239172840 
Ce    3.8287754952980    4.4218859692184    0.9809643475031 
Ce    1.8356684920713    5.5819972953406    4.3689680959701 
Ce    7.6549266691429    4.4218859692184    0.9809643475031 
Ce    5.7977292255100    5.5727669119423    4.2594711474308 
Ce    5.5953956829080    3.3043181069368    7.5015830546292 
Ce   -1.9104684831671    7.7354400263133    0.9809643475031 
Ce   -3.7291516018700    9.0114673928636    4.1409236050329 
Ce   -3.7288812840192    6.7687682312076    7.7545275134780 
Ce    1.9156941691429    7.7354400263133    0.9809643475031 
Ce    0.0714145900210    8.8941424652037    4.2376735820362 
Ce   -0.0608236399348    6.6069044545803    7.4981325698946 
Ce    5.7418453429879    7.7354400263133    0.9809643475031 
Ce    3.9086301432411    8.9356049836018    4.3220267226305 
Ce    3.7155407250346    6.6737471226538    7.5426074864723 
Pd    1.8472830916662    3.3484496877897    7.5543337057648 
81
FORCE:  3.171254  ...  ENERGY:  -633.07276337
 O    0.0026128429879    0.0038271472816    0.1999463180631 
 O    2.0276937991800    0.9840583760966    3.3184591567888 
 O    0.2006825375887    2.3627227748847    6.7551638501721 
 O    0.0026128429880    2.2128565582500    1.7619595668371 
 O    0.1436747411662    0.0706617634350    5.2536601100896 
 O    1.8261532463326    1.6208643707399    8.6578752289918 
 O    3.8287640168329    0.0038271472816    0.1999463180631 
 O    5.9067433641929    1.2107960765920    3.4304346514460 
 O    3.4375143963292    2.3123716323703    6.6681118178358 
 O    3.8287640168330    2.2128565582500    1.7619595668371 
 O    3.9600933245377    0.0830259343153    5.0351591394018 
 O    5.8053408826131    1.2497878483488    8.1932119282721 
 O    7.6549266691429    0.0038271472816    0.1999463180631 
 O    9.6279999056588    1.1267514252548    3.5976642063723 
 O    7.9239378114373    2.3141423589814    6.5529255726581 
 O    7.6549266691430    2.2128565582500    1.7619595668371 
 O    1.9738512468736    9.9173105090747    5.1972413658081 
 O    9.6461807611570    1.2245057134062    8.3874420337717 
 O   -1.9104627439346    3.3173712637342    0.1999463180631 
 O    0.1185386245859    4.6326535308428    3.2611818401175 
 O   -1.9057312632692    5.5947687343356    6.7258236670264 
 O   -1.9104684831671    5.5264106153449    1.7619595668371 
 O   -1.8302623072333    3.4379942976930    5.1764431111573 
 O    0.0989018979795    4.4377162432524    8.4247452249220 
 O    1.9156884299104    3.3173712637342    0.1999463180631 
 O    3.8459302334174    4.4563478896901    3.4719999109024 
 O    1.7773501992998    5.5422025184996    6.6115546162109 
 O    1.9156826906780    5.5264106153449    1.7619595668371 
 O    1.8827219340765    3.4613952654887    4.5403335793163 
 O    3.4623804246280    4.4449123736125    8.2294220591429 
 O    5.7418510822204    3.3173712637342    0.1999463180631 
 O    7.5598839458811    4.3688220254230    3.5976019347829 
 O    5.7312239175772    5.6834191834649    6.8592376960098 
 O    5.7418453429880    5.5264106153449    1.7619595668371 
 O    5.7058821069041    3.2541655784553    5.2112768802321 
 O    7.5069714935936    4.5781136004802    8.3472572419304 
 O   -3.8235440700895    6.6309253208291    0.1999463180631 
 O   -1.9929288574498    7.7639173819071    3.2801044197519 
 O   -3.6922800174584    9.0907255255317    7.0261365043991 
 O   -3.8235440700895    8.8399547317975    1.7619595668371 
 O   -3.6619968997798    6.5963007714495    5.1165982889547 
 O   -1.8319515929273    7.8088014693814    8.5370149699465 
 O    0.0026071037555    6.6309253208291    0.1999463180631 
 O    1.9197004403896    7.9122165556912    3.3471353377488 
 O    0.0122525152873    8.8849579081663    6.8935014405356 
 O    0.0026071037555    8.8399547317975    1.7619595668371 
 O    0.0795611435931    6.7923959450538    5.1480782881442 
 O    1.9431516904848    7.9578827729008    8.3777472825196 
 O    3.8287697560655    6.6309253208291    0.1999463180631 
 O    5.8239625685596    7.6073032584731    3.5835497689816 
 O    4.0107347625249    8.9305541432542    6.8364141320473 
 O    3.8287697560655    8.8399547317975    1.7619595668371 
 O    3.7707530599618    6.6492498014200    5.3576684909231 
 O    5.8609981228437    7.8694792493259    8.4515911229765 
Ce    1.9156884299104    1.1083418527658    0.9809643475031 
Ce    0.0474005507868    2.4435619667090    4.4183029337322 
Ce    0.2262378477107    0.2568410469486    7.7724297970711 
Ce    5.7418510822205    1.1083418527658    0.9809643475031 
Ce    3.8279460040247    2.3236568459364    4.2140080970612 
Ce    3.8974590715338    0.0922706322385    7.6210354739321 
Ce    9.5680022560654    1.1083418527658    0.9809643475031 
Ce    7.7295781289016    2.1734144753975    4.3025425581864 
Ce    2.1062694017682    9.9199039232418    7.4338682896544 
Ce    0.0026128429880    4.4218859692184    0.9809643475031 
Ce   -1.9143379311109    5.6235725406222    4.1426610508070 
Ce   -1.8096596677971    3.5260229596472    7.5596756044889 
Ce    3.8287754952980    4.4218859692184    0.9809643475031 
Ce    1.8333199407400    5.5841151491805    4.3685477057165 
Ce    7.6549266691429    4.4218859692184    0.9809643475031 
Ce    5.7988162935378    5.5735954644771    4.2612049435879 
Ce    5.5946454504356    3.3057435950412    7.4996177358962 
Ce   -1.9104684831671    7.7354400263133    0.9809643475031 
Ce   -3.7317125621961    9.0116751522874    4.1440221298320 
Ce   -3.7253747851387    6.7685673308269    7.7562211638485 
Ce    1.9156941691429    7.7354400263133    0.9809643475031 
Ce    0.0702542893865    8.8929309991279    4.2355415214284 
Ce   -0.0580256493064    6.6034027639272    7.5008196003814 
Ce    5.7418453429879    7.7354400263133    0.9809643475031 
Ce    3.9075556441325    8.9344075338315    4.3203068406381 
Ce    3.7143264756146    6.6774815237429    7.5414129212211 
Pd    1.8442965098579    3.3471671461214    7.5537926500505 
81
FORCE:  3.165967  ...  ENERGY:  -633.10904102
 O    0.0026128429879    0.0038271472816    0.1999463180631 
 O    2.0300211727434    0.9903388738954    3.3186735717852 
 O    0.1942361742524    2.3560592641385    6.7539756717506 
 O    0.0026128429880    2.2128565582500    1.7619595668371 
 O    0.1402943906160    0.0655002837387    5.2639987906341 
 O    1.8266354566472    1.6309254936145    8.6588138648537 
 O    3.8287640168329    0.0038271472816    0.1999463180631 
 O    5.8944796574022    1.2115646870538    3.4353474920763 
 O    3.4303782346387    2.3094347690121    6.6690399610490 
 O    3.8287640168330    2.2128565582500    1.7619595668371 
 O    3.9726331458039    0.0884546184763    5.0282866825651 
 O    5.8046965389803    1.2563612968759    8.1943715940612 
 O    7.6549266691429    0.0038271472816    0.1999463180631 
 O    9.6323148902216    1.1259323163301    3.6005973579028 
 O    7.9217678650214    2.3147289562829    6.5589551960781 
 O    7.6549266691430    2.2128565582500    1.7619595668371 
 O    1.9744848007493    9.9208331744830    5.1963175565151 
 O    9.6482096946304    1.2317641715935    8.3884278865530 
 O   -1.9104627439346    3.3173712637342    0.1999463180631 
 O    0.1194278612695    4.6240837031246    3.2653891641692 
 O   -1.9154447994908    5.6011180213790    6.7302574954307 
 O   -1.9104684831671    5.5264106153449    1.7619595668371 
 O   -1.8243827504987    3.4345732256489    5.1684032330955 
 O    0.0963237773482    4.4416693384719    8.4317851079367 
 O    1.9156884299104    3.3173712637342    0.1999463180631 
 O    3.8429453733788    4.4495294043306    3.4682077307799 
 O    1.7800280103996    5.5431910159689    6.6072679129904 
 O    1.9156826906780    5.5264106153449    1.7619595668371 
 O    1.8790027966319    3.4590621967432    4.5424368991905 
 O    3.4635478993031    4.4419729256874    8.2220101432993 
 O    5.7418510822204    3.3173712637342    0.1999463180631 
 O    7.5614547164240    4.3656854545612    3.5898371465994 
 O    5.7330332680151    5.6788570250924    6.8584274810447 
 O    5.7418453429880    5.5264106153449    1.7619595668371 
 O    5.6948084873647    3.2648344721995    5.2174575065538 
 O    7.5137145752502    4.5812040467617    8.3483112969287 
 O   -3.8235440700895    6.6309253208291    0.1999463180631 
 O   -2.0009323319557    7.7682055761782    3.2792052453734 
 O   -3.6922723268868    9.0902577189055    7.0298456557358 
 O   -3.8235440700895    8.8399547317975    1.7619595668371 
 O   -3.6605367816394    6.5994097073257    5.1067803631302 
 O   -1.8283758215105    7.8078127730992    8.5407453346818 
 O    0.0026071037555    6.6309253208291    0.1999463180631 
 O    1.9207251229601    7.9138207765440    3.3385683181374 
 O    0.0125621468806    8.8785486790498    6.8914165968472 
 O    0.0026071037555    8.8399547317975    1.7619595668371 
 O    0.0834740949193    6.7917047721954    5.1483020552841 
 O    1.9486749556658    7.9587200732009    8.3780084582333 
 O    3.8287697560655    6.6309253208291    0.1999463180631 
 O    5.8203423180909    7.6062341423948    3.5745128611865 
 O    4.0089483690170    8.9295479514416    6.8250102195526 
 O    3.8287697560655    8.8399547317975    1.7619595668371 
 O    3.7722127763558    6.6477068149238    5.3603591710269 
 O    5.8594648294890    7.8571504671322    8.4499978370724 
Ce    1.9156884299104    1.1083418527658    0.9809643475031 
Ce    0.0498320914201    2.4440535314703    4.4172767070632 
Ce    0.2217226787183    0.2558471815325    7.7715525203943 
Ce    5.7418510822205    1.1083418527658    0.9809643475031 
Ce    3.8294982942390    2.3242774402346    4.2131406287300 
Ce    3.9001889948647    0.0920588965578    7.6187074745137 
Ce    9.5680022560654    1.1083418527658    0.9809643475031 
Ce    7.7294819393649    2.1782565622569    4.3071086852055 
Ce    2.1057320374292    9.9189680117702    7.4356600234807 
Ce    0.0026128429880    4.4218859692184    0.9809643475031 
Ce   -1.9143913059731    5.6234508671606    4.1442668822694 
Ce   -1.8084126473595    3.5266313269553    7.5598309413108 
Ce    3.8287754952980    4.4218859692184    0.9809643475031 
Ce    1.8310740642781    5.5863774405529    4.3679918234333 
Ce    7.6549266691429    4.4218859692184    0.9809643475031 
Ce    5.7998924570239    5.5743834591915    4.2630662482375 
Ce    5.5939566851433    3.3073459271719    7.4975915141802 
Ce   -1.9104684831671    7.7354400263133    0.9809643475031 
Ce   -3.7343585205556    9.0117454326284    4.1472545499532 
Ce   -3.7219786516991    6.7683319364175    7.7578892669003 
Ce    1.9156941691429    7.7354400263133    0.9809643475031 
Ce    0.0690630542888    8.8917405078072    4.2333615595979 
Ce   -0.0551197611070    6.5999722482729    7.5035923968667 
Ce    5.7418453429879    7.7354400263133    0.9809643475031 
Ce    3.9065011749452    8.9331390084689    4.3186006447093 
Ce    3.7132046852301    6.6812770597821    7.5402361478525 
Pd    1.8412967278148    3.3459464352482    7.5533131816223 
81
FORCE:  3.152658  ...  ENERGY:  -633.15173553
 O    0.0026128429879    0.0038271472816    0.1999463180631 
 O    2.0321423930754    0.9976410709088    3.3190405863908 
 O    0.1878327977674    2.3496714074029    6.7526038719757 
 O    0.0026128429880    2.2128565582500    1.7619595668371 
 O    0.1368915996667    0.0604353276791    5.2740274818381 
 O    1.8273707097228    1.6410316475986    8.6595294178789 
 O    3.8287640168329    0.0038271472816    0.1999463180631 
 O    5.8815946786934    1.2119133053789    3.4401928147928 
 O    3.4232303075215    2.3064433315278    6.6700308320536 
 O    3.8287640168330    2.2128565582500    1.7619595668371 
 O    3.9851669982683    0.0938463234479    5.0216368523629 
 O    5.8036794895890    1.2631898222842    8.1956400640558 
 O    7.6549266691429    0.0038271472816    0.1999463180631 
 O    9.6367856949468    1.1250906421474    3.6031961132794 
 O    7.9190262910485    2.3151676368272    6.5655475448132 
 O    7.6549266691430    2.2128565582500    1.7619595668371 
 O    1.9750584944300    9.9241599098318    5.1949416509212 
 O    9.6505826376998    1.2393272110606    8.3893229551124 
 O   -1.9104627439346    3.3173712637342    0.1999463180631 
 O    0.1190627886902    4.6151958742595    3.2703791029578 
 O   -1.9248585755990    5.6077407754919    6.7349974354575 
 O   -1.9104684831671    5.5264106153449    1.7619595668371 
 O   -1.8177650710722    3.4314620034250    5.1597816973307 
 O    0.0938256616179    4.4457063327122    8.4386450192152 
 O    1.9156884299104    3.3173712637342    0.1999463180631 
 O    3.8404959263401    4.4429899528001    3.4641475319119 
 O    1.7826064753849    5.5435746253549    6.6034374118898 
 O    1.9156826906780    5.5264106153449    1.7619595668371 
 O    1.8754872871563    3.4558458025238    4.5453990195557 
 O    3.4651075357350    4.4386657734039    8.2146173879447 
 O    5.7418510822204    3.3173712637342    0.1999463180631 
 O    7.5635890222061    4.3627191669019    3.5812774262219 
 O    5.7346119013066    5.6738010156108    6.8572945030797 
 O    5.7418453429880    5.5264106153449    1.7619595668371 
 O    5.6833423617146    3.2757112247739    5.2239551933490 
 O    7.5211050997251    4.5840220200381    8.3494928604195 
 O   -3.8235440700895    6.6309253208291    0.1999463180631 
 O   -2.0084578431791    7.7725760789674    3.2787748186732 
 O   -3.6920089535074    9.0897126734887    7.0332772080824 
 O   -3.8235440700895    8.8399547317975    1.7619595668371 
 O   -3.6592439621265    6.6030615016774    5.0968616166371 
 O   -1.8248020014328    7.8066477298228    8.5443881086100 
 O    0.0026071037555    6.6309253208291    0.1999463180631 
 O    1.9219899350185    7.9151289650693    3.3303605576954 
 O    0.0125585885565    8.8720498847463    6.8887106339724 
 O    0.0026071037555    8.8399547317975    1.7619595668371 
 O    0.0866847937568    6.7909149881655    5.1482607689922 
 O    1.9544366859572    7.9587312067203    8.3781840960495 
 O    3.8287697560655    6.6309253208291    0.1999463180631 
 O    5.8163339233282    7.6062321542664    3.5648475349711 
 O    4.0069013569612    8.9284525920677    6.8129751514249 
 O    3.8287697560655    8.8399547317975    1.7619595668371 
 O    3.7735777380213    6.6465096633728    5.3619864439889 
 O    5.8581935894902    7.8447837116849    8.4485147239803 
Ce    1.9156884299104    1.1083418527658    0.9809643475031 
Ce    0.0522351080678    2.4443942966880    4.4161393951781 
Ce    0.2169888449677    0.2547529156292    7.7706195870589 
Ce    5.7418510822205    1.1083418527658    0.9809643475031 
Ce    3.8311227266058    2.3248772585903    4.2122307336017 
Ce    3.9030205600033    0.0918144561639    7.6163126414848 
Ce    9.5680022560654    1.1083418527658    0.9809643475031 
Ce    7.7293599806743    2.1832464664672    4.3117697022655 
Ce    2.1051687317593    9.9181247470847    7.4375653516349 
Ce    0.0026128429880    4.4218859692184    0.9809643475031 
Ce   -1.9144871511559    5.6233109029172    4.1459386349381 
Ce   -1.8072549293796    3.5270977418916    7.5599908401538 
Ce    3.8287754952980    4.4218859692184    0.9809643475031 
Ce    1.8289336749095    5.5887804914201    4.3672952027960 
Ce    7.6549266691429    4.4218859692184    0.9809643475031 
Ce    5.8009561663754    5.5751305978660    4.2650559737839 
Ce    5.5933273782997    3.3091335528749    7.4955046175823 
Ce   -1.9104684831671    7.7354400263133    0.9809643475031 
Ce   -3.7370918874260    9.0116832042077    4.1506204091946 
Ce   -3.7186927115236    6.7680597616316    7.7595363846546 
Ce    1.9156941691429    7.7354400263133    0.9809643475031 
Ce    0.0678406551586    8.8905737746216    4.2311286783216 
Ce   -0.0521043109592    6.5966112177082    7.5064539246644 
Ce    5.7418453429879    7.7354400263133    0.9809643475031 
Ce    3.9054659895792    8.9317997057331    4.3169053976314 
Ce    3.7121804044058    6.6851331343328    7.5390760258614 
Pd    1.8382836881446    3.3447860640737    7.5528923351666 
81
FORCE:  3.132326  ...  ENERGY:  -633.19784445
 O    0.0026128429879    0.0038271472816    0.1999463180631 
 O    2.0340354789155    1.0058833544635    3.3195955562697 
 O    0.1814942746098    2.3435925058297    6.7510835784108 
 O    0.0026128429880    2.2128565582500    1.7619595668371 
 O    0.1335007463211    0.0554514872606    5.2837220049891 
 O    1.8283275545652    1.6511351176093    8.6600269062908 
 O    3.8287640168329    0.0038271472816    0.1999463180631 
 O    5.8681770418163    1.2118816941364    3.4449642327659 
 O    3.4160738289480    2.3033806196382    6.6710812374349 
 O    3.8287640168330    2.2128565582500    1.7619595668371 
 O    3.9976299712114    0.0991611872547    5.0152589186242 
 O    5.8022870943922    1.2702173593511    8.1970146010434 
 O    7.6549266691429    0.0038271472816    0.1999463180631 
 O    9.6413752443924    1.1242309754022    3.6054588757946 
 O    7.9157105068639    2.3154704287913    6.5726686318053 
 O    7.6549266691430    2.2128565582500    1.7619595668371 
 O    1.9755548806489    9.9272891246183    5.1931257383826 
 O    9.6532926458940    1.2471601389658    8.3901242741362 
 O   -1.9104627439346    3.3173712637342    0.1999463180631 
 O    0.1174207942719    4.6060288127525    3.2761356894090 
 O   -1.9339128461833    5.6146064789023    6.7400129215648 
 O   -1.9104684831671    5.5264106153449    1.7619595668371 
 O   -1.8104788284518    3.4287055627244    5.1506346167236 
 O    0.0914023854794    4.4498264307222    8.4453003238428 
 O    1.9156884299104    3.3173712637342    0.1999463180631 
 O    3.8385968716982    4.4367779460266    3.4598213672079 
 O    1.7850595955324    5.5433554341924    6.6000941346534 
 O    1.9156826906780    5.5264106153449    1.7619595668371 
 O    1.8722269439577    3.4518055278715    4.5492475406400 
 O    3.4670533077295    4.4349945947998    8.2072531452226 
 O    5.7418510822204    3.3173712637342    0.1999463180631 
 O    7.5662728021078    4.3599347929965    3.5719590417188 
 O    5.7359663601766    5.6682561253415    6.8558239355459 
 O    5.7418453429880    5.5264106153449    1.7619595668371 
 O    5.6715503050507    3.2867860943492    5.2307411998840 
 O    7.5291547176603    4.5865556909449    8.3508085473336 
 O   -3.8235440700895    6.6309253208291    0.1999463180631 
 O   -2.0154681435008    7.7770106988994    3.2788313877361 
 O   -3.6914806571557    9.0891014233943    7.0364281961252 
 O   -3.8235440700895    8.8399547317975    1.7619595668371 
 O   -3.6581470226188    6.6072579438201    5.0868529983264 
 O   -1.8212204333911    7.8053147890981    8.5479387297099 
 O    0.0026071037555    6.6309253208291    0.1999463180631 
 O    1.9234879320933    7.9161312800314    3.3225620105550 
 O    0.0122554996882    8.8654897566799    6.8853995189855 
 O    0.0026071037555    8.8399547317975    1.7619595668371 
 O    0.0891540411475    6.7900213244236    5.1479484986411 
 O    1.9604288464335    7.9579207461544    8.3782844605159 
 O    3.8287697560655    6.6309253208291    0.1999463180631 
 O    5.8119427217579    7.6073017673768    3.5545761442393 
 O    4.0045732372976    8.9272866541335    6.8003602504026 
 O    3.8287697560655    8.8399547317975    1.7619595668371 
 O    3.7748533398368    6.6456583467671    5.3625067425068 
 O    5.8571594371861    7.8324108924458    8.4471360811737 
Ce    1.9156884299104    1.1083418527658    0.9809643475031 
Ce    0.0546106911842    2.4445783973832    4.4148841550449 
Ce    0.2120365760281    0.2535584480516    7.7696280317511 
Ce    5.7418510822205    1.1083418527658    0.9809643475031 
Ce    3.8328168906475    2.3254555057524    4.2112759025645 
Ce    3.9059558904654    0.0915368140247    7.6138493781379 
Ce    9.5680022560654    1.1083418527658    0.9809643475031 
Ce    7.7292111049832    2.1883816034614    4.3165246969623 
Ce    2.1045786812660    9.9173765149395    7.4395810807021 
Ce    0.0026128429880    4.4218859692184    0.9809643475031 
Ce   -1.9146244909896    5.6231521508598    4.1476733434994 
Ce   -1.8061888669427    3.5274219062366    7.5601562134223 
Ce    3.8287754952980    4.4218859692184    0.9809643475031 
Ce    1.8269021013892    5.5913187350224    4.3664528255814 
Ce    7.6549266691429    4.4218859692184    0.9809643475031 
Ce    5.8020055850380    5.5758374769392    4.2671732078228 
Ce    5.5927561524889    3.3111140270384    7.4933586428098 
Ce   -1.9104684831671    7.7354400263133    0.9809643475031 
Ce   -3.7399140976156    9.0114941331913    4.1541169703433 
Ce   -3.7155182272432    6.7677490171536    7.7611663948293 
Ce    1.9156941691429    7.7354400263133    0.9809643475031 
Ce    0.0665875511345    8.8894339805767    4.2288396841845 
Ce   -0.0489793562552    6.5933197716396    7.5094060085829 
Ce    5.7418453429879    7.7354400263133    0.9809643475031 
Ce    3.9044493419341    8.9303905202821    4.3152185902927 
Ce    3.7112595445512    6.6890468646088    7.5379318709444 
Pd    1.8352593421864    3.3436858337850    7.5525266891675 
81
FORCE:  3.106088  ...  ENERGY:  -633.24422869
 O    0.0026128429879    0.0038271472816    0.1999463180631 
 O    2.0356786211803    1.0149732765864    3.3203726965812 
 O    0.1752449965175    2.3378560593834    6.7494526558318 
 O    0.0026128429880    2.2128565582500    1.7619595668371 
 O    0.1301593077673    0.0505355414289    5.2930552160611 
 O    1.8294722444873    1.6611804348626    8.6603138574242 
 O    3.8287640168329    0.0038271472816    0.1999463180631 
 O    5.8543272407320    1.2115122998689    3.4496510252457 
 O    3.4089161451356    2.3002321200057    6.6721870713738 
 O    3.8287640168330    2.2128565582500    1.7619595668371 
 O    4.0099488894187    0.1043571609797    5.0092085380077 
 O    5.8005194107822    1.2773815802495    8.1984926959122 
 O    7.6549266691429    0.0038271472816    0.1999463180631 
 O    9.6460425604384    1.1233582864155    3.6073840487410 
 O    7.9118220046682    2.3156494597590    6.5802780831669 
 O    7.6549266691430    2.2128565582500    1.7619595668371 
 O    1.9759566843162    9.9302209182489    5.1908878388829 
 O    9.6563307086179    1.2552215028309    8.3908293345127 
 O   -1.9104627439346    3.3173712637342    0.1999463180631 
 O    0.1144906865114    4.5966303330930    3.2826370258211 
 O   -1.9425436761937    5.6216787488596    6.7452690542904 
 O   -1.9104684831671    5.5264106153449    1.7619595668371 
 O   -1.8026089058862    3.4263497299081    5.1410272281775 
 O    0.0890488410158    4.4540263520897    8.4517245620966 
 O    1.9156884299104    3.3173712637342    0.1999463180631 
 O    3.8372611227262    4.4309443795052    3.4552344829924 
 O    1.7873629217116    5.5425382139898    6.5972661377115 
 O    1.9156826906780    5.5264106153449    1.7619595668371 
 O    1.8692776097683    3.4470168222611    4.5540055006505 
 O    3.4693774673227    4.4309680382338    8.1999315573987 
 O    5.7418510822204    3.3173712637342    0.1999463180631 
 O    7.5694871740540    4.3573449574607    3.5619282976053 
 O    5.7371028429962    5.6622334878037    6.8540020923796 
 O    5.7418453429880    5.5264106153449    1.7619595668371 
 O    5.6595076161037    3.2980423806463    5.2377776613829 
 O    7.5378700291732    4.5887936277437    8.3522638320964 
 O   -3.8235440700895    6.6309253208291    0.1999463180631 
 O   -2.0219235174322    7.7814905487538    3.2793902353331 
 O   -3.6906825020920    9.0884351021416    7.0392954264494 
 O   -3.8235440700895    8.8399547317975    1.7619595668371 
 O   -3.6572775288950    6.6119974432511    5.0767709314744 
 O   -1.8176232546371    7.8038239909739    8.5513905830509 
 O    0.0026071037555    6.6309253208291    0.1999463180631 
 O    1.9252103331589    7.9168164885045    3.3152260523644 
 O    0.0116703275425    8.8589012977829    6.8815042371838 
 O    0.0026071037555    8.8399547317975    1.7619595668371 
 O    0.0908463112425    6.7890173195523    5.1473597698052 
 O    1.9666403603759    7.9562985327391    8.3783184475738 
 O    3.8287697560655    6.6309253208291    0.1999463180631 
 O    5.8071773222284    7.6094386078435    3.5437331322512 
 O    4.0019423731196    8.9260689254530    6.7872271037721 
 O    3.8287697560655    8.8399547317975    1.7619595668371 
 O    3.7760437140496    6.6451508769782    5.3618831142087 
 O    5.8563333894523    7.8200702808877    8.4458584871366 
Ce    1.9156884299104    1.1083418527658    0.9809643475031 
Ce    0.0569588981616    2.4445991733256    4.4135057403393 
Ce    0.2068687989081    0.2522648722704    7.7685764858645 
Ce    5.7418510822205    1.1083418527658    0.9809643475031 
Ce    3.8345768262936    2.3260110882499    4.2102736265069 
Ce    3.9089949862511    0.0912261689531    7.6113170001697 
Ce    9.5680022560654    1.1083418527658    0.9809643475031 
Ce    7.7290351401148    2.1936563070733    4.3213704758809 
Ce    2.1039605659258    9.9167259993081    7.4417028767622 
Ce    0.0026128429880    4.4218859692184    0.9809643475031 
Ce   -1.9148020628431    5.6229742133628    4.1494666740331 
Ce   -1.8052168131342    3.5276039193970    7.5603277454195 
Ce    3.8287754952980    4.4218859692184    0.9809643475031 
Ce    1.8249831316105    5.5939844176589    4.3654603578694 
Ce    7.6549266691429    4.4218859692184    0.9809643475031 
Ce    5.8030379581801    5.5765050904754    4.2694158974447 
Ce    5.5922414581183    3.3132938110797    7.4911563270755 
Ce   -1.9104684831671    7.7354400263133    0.9809643475031 
Ce   -3.7428249215549    9.0111843827776    4.1577392151761 
Ce   -3.7124577815125    6.7673982118872    7.7627820346373 
Ce    1.9156941691429    7.7354400263133    0.9809643475031 
Ce    0.0653042013552    8.8883245054907    4.2264916118729 
Ce   -0.0457463891956    6.5900996993826    7.5124488767233 
Ce    5.7418453429879    7.7354400263133    0.9809643475031 
Ce    3.9034512894024    8.9289129432121    4.3135383978848 
Ce    3.7104481318603    6.6930131808825    7.5368029987985 
Pd    1.8322273056566    3.3426466390400    7.5522132783110 
81
FORCE:  3.120412  ...  ENERGY:  -633.28778582
 O    0.0026128429879    0.0038271472816    0.1999463180631 
 O    2.0370490925089    1.0248066593461    3.3214048538777 
 O    0.1691116509217    2.3324959656543    6.7477503376210 
 O    0.0026128429880    2.2128565582500    1.7619595668371 
 O    0.1269063681786    0.0456772513226    5.3019963214110 
 O    1.8307695979940    1.6711020905259    8.6604003077260 
 O    3.8287640168329    0.0038271472816    0.1999463180631 
 O    5.8401589122439    1.2108490602154    3.4542367689559 
 O    3.4017698823959    2.2969845121696    6.6733433156469 
 O    3.8287640168330    2.2128565582500    1.7619595668371 
 O    4.0220410505499    0.1093906052032    5.0035454729911 
 O    5.7983797101215    1.2846135963283    8.2000716114495 
 O    7.6549266691429    0.0038271472816    0.1999463180631 
 O    9.6507424179326    1.1224787383857    3.6089707197144 
 O    7.9073679011096    2.3157166585008    6.5883268571701 
 O    7.6549266691430    2.2128565582500    1.7619595668371 
 O    1.9762467451268    9.9329579746970    5.1882519030335 
 O    9.6596837404214    1.2634631899471    8.3914363114333 
 O   -1.9104627439346    3.3173712637342    0.1999463180631 
 O    0.1102744167475    4.5870570969421    3.2898527747532 
 O   -1.9506844331411    5.6289145423825    6.7507247754434 
 O   -1.9104684831671    5.5264106153449    1.7619595668371 
 O   -1.7942561416903    3.4244381443957    5.1310357174463 
 O    0.0867610107643    4.4582979454881    8.4578892213442 
 O    1.9156884299104    3.3173712637342    0.1999463180631 
 O    3.8364987230809    4.4255424356719    3.4503964595098 
 O    1.7894937839542    5.5411316131057    6.5949769154733 
 O    1.9156826906780    5.5264106153449    1.7619595668371 
 O    1.8666982265058    3.4415692508798    4.5596897790657 
 O    3.4720704299963    4.4265997223859    8.1926713287599 
 O    5.7418510822204    3.3173712637342    0.1999463180631 
 O    7.5732069428143    4.3549628813487    3.5512438158538 
 O    5.7380281220599    5.6557496044636    6.8518166561238 
 O    5.7418453429880    5.5264106153449    1.7619595668371 
 O    5.6472965954674    3.3094586118778    5.2450171328251 
 O    7.5472496568479    4.5907237028507    8.3538621362238 
 O   -3.8235440700895    6.6309253208291    0.1999463180631 
 O   -2.0277831016377    7.7859961448718    3.2804636789214 
 O   -3.6896129961156    9.0877250420629    7.0418743370338 
 O   -3.8235440700895    8.8399547317975    1.7619595668371 
 O   -3.6566692276424    6.6172720474566    5.0666411915009 
 O   -1.8140050128998    7.8021863695631    8.5547356850958 
 O    0.0026071037555    6.6309253208291    0.1999463180631 
 O    1.9271443971190    7.9171730593434    3.3084081116810 
 O    0.0108268899343    8.8523215866512    6.8770505639873 
 O    0.0026071037555    8.8399547317975    1.7619595668371 
 O    0.0917306121861    6.7878956174763    5.1464902485645 
 O    1.9730549283642    7.9538818631919    8.3782942688614 
 O    3.8287697560655    6.6309253208291    0.1999463180631 
 O    5.8020516136827    7.6126271682644    3.5323652597240 
 O    3.9989886771134    8.9248188896850    6.7736523534893 
 O    3.8287697560655    8.8399547317975    1.7619595668371 
 O    3.7771523041993    6.6449830789363    5.3600881869676 
 O    5.8556857170647    7.8078060134624    8.4446776079490 
Ce    1.9156884299104    1.1083418527658    0.9809643475031 
Ce    0.0592793272537    2.4444499642848    4.4119984485348 
Ce    0.2014922285098    0.2508744746333    7.7674628964896 
Ce    5.7418510822205    1.1083418527658    0.9809643475031 
Ce    3.8363969664887    2.3265425149868    4.2092216244181 
Ce    3.9121361829830    0.0908828191684    7.6087166480857 
Ce    9.5680022560654    1.1083418527658    0.9809643475031 
Ce    7.7288321434613    2.1990621277570    4.3263006521918 
Ce    2.1033135822460    9.9161759835702    7.4439243529856 
Ce    0.0026128429880    4.4218859692184    0.9809643475031 
Ce   -1.9150179727698    5.6227767922069    4.1513131521138 
Ce   -1.8043415801780    3.5276442784047    7.5605061204484 
Ce    3.8287754952980    4.4218859692184    0.9809643475031 
Ce    1.8231813569594    5.5967675986872    4.3643141500429 
Ce    7.6549266691429    4.4218859692184    0.9809643475031 
Ce    5.8040502440085    5.5771347307581    4.2717799368306 
Ce    5.5917819751644    3.3156781735394    7.4889022324006 
Ce   -1.9104684831671    7.7354400263133    0.9809643475031 
Ce   -3.7458226948666    9.0107604143839    4.1614809849644 
Ce   -3.7095150474405    6.7670061529553    7.7643860412912 
Ce    1.9156941691429    7.7354400263133    0.9809643475031 
Ce    0.0639920406287    8.8872494250270    4.2240833208814 
Ce   -0.0424089107123    6.5869540825363    7.5155807042771 
Ce    5.7418453429879    7.7354400263133    0.9809643475031 
Ce    3.9024724632995    8.9273692608709    4.3118623112959 
Ce    3.7097527090583    6.6970239318272    7.5356880408172 
Pd    1.8291929734339    3.3416698715286    7.5519486810814 
81
FORCE:  3.193442  ...  ENERGY:  -633.32572055
 O    0.0026128429879    0.0038271472816    0.1999463180631 
 O    2.0381241655408    1.0352691853563    3.3227223656002 
 O    0.1631228765927    2.3275463210452    6.7460185943735 
 O    0.0026128429880    2.2128565582500    1.7619595668371 
 O    0.1237830204598    0.0408678691762    5.3105124744861 
 O    1.8321820805045    1.6808275179103    8.6603001713606 
 O    3.8287640168329    0.0038271472816    0.1999463180631 
 O    5.8257979177207    1.2099395908522    3.4587011629023 
 O    3.3946529471343    2.2936260661719    6.6745435834246 
 O    3.8287640168330    2.2128565582500    1.7619595668371 
 O    4.0338172095397    0.1142152959387    4.9983345042754 
 O    5.7958754534125    1.2918380575190    8.2017483823416 
 O    7.6549266691429    0.0038271472816    0.1999463180631 
 O    9.6554254020833    1.1215991903559    3.6102177482094 
 O    7.9023604781457    2.3156833573492    6.5967592971562 
 O    7.6549266691430    2.2128565582500    1.7619595668371 
 O    1.9764072714598    9.9355060595352    5.1852491806797 
 O    9.6633353844918    1.2718310238140    8.3919431519887 
 O   -1.9104627439346    3.3173712637342    0.1999463180631 
 O    0.1047882844008    4.5773741161002    3.2977446152270 
 O   -1.9582664758045    5.6362647526981    6.7563326400035 
 O   -1.9104684831671    5.5264106153449    1.7619595668371 
 O   -1.7855381327382    3.4230134515427    5.1207479034382 
 O    0.0845352216162    4.4626302762110    8.4637632798413 
 O    1.9156884299104    3.3173712637342    0.1999463180631 
 O    3.8363161580951    4.4206268874660    3.4453216671269 
 O    1.7914315210232    5.5391483555625    6.5932456284279 
 O    1.9156826906780    5.5264106153449    1.7619595668371 
 O    1.8645505483120    3.4355669916587    4.5663094999280 
 O    3.4751187085541    4.4219084350700    8.1854957256145 
 O    5.7418510822204    3.3173712637342    0.1999463180631 
 O    7.5773997391171    4.3528008910571    3.5399767639951 
 O    5.7387500601160    5.6488294263334    6.8492582746348 
 O    5.7418453429880    5.5264106153449    1.7619595668371 
 O    5.6350075786614    3.3210067554325    5.2524048699564 
 O    7.5572866562132    4.5923348821531    8.3556050564232 
 O   -3.8235440700895    6.6309253208291    0.1999463180631 
 O   -2.0330049997202    7.7905068107173    3.2820585615330 
 O   -3.6882755253738    9.0869824760838    7.0441608220592 
 O   -3.8235440700895    8.8399547317975    1.7619595668371 
 O   -3.6563589647334    6.6230690324144    5.0564950282510 
 O   -1.8103627237783    7.8004142512620    8.5579649118022 
 O    0.0026071037555    6.6309253208291    0.1999463180631 
 O    1.9292754315386    7.9171880697133    3.3021645294667 
 O    0.0097535960645    8.8457912805116    6.8720695211401 
 O    0.0026071037555    8.8399547317975    1.7619595668371 
 O    0.0917822652786    6.7866476692432    5.1453378820094 
 O    1.9796516595920    7.9506953903059    8.3782189955116 
 O    3.8287697560655    6.6309253208291    0.1999463180631 
 O    5.7965839616646    7.6168412053440    3.5205295519227 
 O    3.9956919471808    8.9235568257399    6.7597283804838 
 O    3.8287697560655    8.8399547317975    1.7619595668371 
 O    3.7781822668637    6.6451480935983    5.3571053094060 
 O    5.8551838785749    7.7956676939750    8.4435897939939 
Ce    1.9156884299104    1.1083418527658    0.9809643475031 
Ce    0.0615702566907    2.4441240106241    4.4103577176102 
Ce    0.1959173102363    0.2493906349587    7.7662856669189 
Ce    5.7418510822205    1.1083418527658    0.9809643475031 
Ce    3.8382702519767    2.3270480960536    4.2081192119952 
Ce    3.9153756927676    0.0905073611091    7.6060503747954 
Ce    9.5680022560654    1.1083418527658    0.9809643475031 
Ce    7.7286028611229    2.2045872361482    4.3313056456503 
Ce    2.1026368119496    9.9157290522928    7.4462377539361 
Ce    0.0026128429880    4.4218859692184    0.9809643475031 
Ce   -1.9152696955072    5.6225598873921    4.1532066190129 
Ce   -1.8035658081209    3.5275439773240    7.5606917947112 
Ce    3.8287754952980    4.4218859692184    0.9809643475031 
Ce    1.8215013114297    5.5996558523046    4.3630116929903 
Ce    7.6549266691429    4.4218859692184    0.9809643475031 
Ce    5.8050389415913    5.5777284853221    4.2742591672517 
Ce    5.5913760966420    3.3182702954229    7.4866029737158 
Ce   -1.9104684831671    7.7354400263133    0.9809643475031 
Ce   -3.7489039166189    9.0102294846792    4.1653324713625 
Ce   -3.7066948459823    6.7665722439193    7.7659795552964 
Ce    1.9156941691429    7.7354400263133    0.9809643475031 
Ce    0.0626529055095    8.8862125166297    4.2216152674122 
Ce   -0.0389724878605    6.5838877920156    7.5187982978295 
Ce    5.7418453429879    7.7354400263133    0.9809643475031 
Ce    3.9015140688643    8.9257627536704    4.3101891900208 
Ce    3.7091799910471    6.7010686797686    7.5345860845963 
Pd    1.8261637491280    3.3407582152242    7.5517290197606 
81
FORCE:  3.264381  ...  ENERGY:  -633.35556195
 O    0.0026128429879    0.0038271472816    0.1999463180631 
 O    2.0388831216467    1.0462353043049    3.3243505509665 
 O    0.1573091488548    2.3230394326438    6.7443009933917 
 O    0.0026128429880    2.2128565582500    1.7619595668371 
 O    0.1208302427309    0.0361022258560    5.3185710568349 
 O    1.8336703208841    1.6902767942519    8.6600314683120 
 O    3.8287640168329    0.0038271472816    0.1999463180631 
 O    5.8113815969963    1.2088313086433    3.4630172911596 
 O    3.3875885832424    2.2901471395897    6.6757803473720 
 O    3.8287640168330    2.2128565582500    1.7619595668371 
 O    4.0451811194590    0.1187844127609    4.9936429216733 
 O    5.7930180617277    1.2989749416511    8.2035200432746 
 O    7.6549266691429    0.0038271472816    0.1999463180631 
 O    9.6600389415208    1.1207277936528    3.6111262747314 
 O    7.8968187326360    2.3155603916040    6.6055110786262 
 O    7.6549266691430    2.2128565582500    1.7619595668371 
 O    1.9764215621487    9.9378734234965    5.1819166241931 
 O    9.6672625691146    1.2802641677007    8.3923482594712 
 O   -1.9104627439346    3.3173712637342    0.1999463180631 
 O    0.0980656344119    4.5676558459782    3.3062651022223 
 O   -1.9652203020784    5.6436742092418    6.7620385880194 
 O   -1.9104684831671    5.5264106153449    1.7619595668371 
 O   -1.7765868239849    3.4221143204476    5.1102618696089 
 O    0.0823677430703    4.4670087315140    8.4693161720460 
 O    1.9156884299104    3.3173712637342    0.1999463180631 
 O    3.8367150347538    4.4162526072327    3.4400283539285 
 O    1.7931577673745    5.5366065333289    6.5920850502346 
 O    1.9156826906780    5.5264106153449    1.7619595668371 
 O    1.8628945501664    3.4291288352731    4.5738648913384 
 O    3.4785065201065    4.4169187296725    8.1784305233820 
 O    5.7418510822204    3.3173712637342    0.1999463180631 
 O    7.5820280857744    4.3508716112014    3.5282108551182 
 O    5.7392781268984    5.6415062545648    6.8463221577905 
 O    5.7418453429880    5.5264106153449    1.7619595668371 
 O    5.6227379030690    3.3326530131266    5.2598763201767 
 O    7.5679651295951    4.5936163303507    8.3574923645937 
 O   -3.8235440700895    6.6309253208291    0.1999463180631 
 O   -2.0375486353057    7.7950015715351    3.2841764798751 
 O   -3.6866774934765    9.0862186371302    7.0461503195046 
 O   -3.8235440700895    8.8399547317975    1.7619595668371 
 O   -3.6563855373799    6.6293691132786    5.0463705346019 
 O   -1.8066946655029    7.7985219505957    8.5610686829257 
 O    0.0026071037555    6.6309253208291    0.1999463180631 
 O    1.9315863908971    7.9168492926241    3.2965516466832 
 O    0.0084848813280    8.8393547146288    6.8665987453171 
 O    0.0026071037555    8.8399547317975    1.7619595668371 
 O    0.0909851432767    6.7852640312429    5.1439022139377 
 O    1.9864044405515    7.9467732104839    8.3780994705562 
 O    3.8287697560655    6.6309253208291    0.1999463180631 
 O    5.7907994466202    7.6220420499837    3.5082946672664 
 O    3.9920354247627    8.9223024160893    6.7455601112429 
 O    3.8287697560655    8.8399547317975    1.7619595668371 
 O    3.7791357829513    6.6456361791348    5.3529317443111 
 O    5.8547928646647    7.7837113876478    8.4425913956542 
Ce    1.9156884299104    1.1083418527658    0.9809643475031 
Ce    0.0638299073106    2.4436148509260    4.4085801260497 
Ce    0.1901585643457    0.2478180253484    7.7650438847483 
Ce    5.7418510822205    1.1083418527658    0.9809643475031 
Ce    3.8401880165165    2.3275257439157    4.2069661611369 
Ce    3.9187074320186    0.0901007888395    7.6033220580167 
Ce    9.5680022560654    1.1083418527658    0.9809643475031 
Ce    7.7283484983385    2.2102164230642    4.3363729106982 
Ce    2.1019294515440    9.9153875912301    7.4486330431671 
Ce    0.0026128429880    4.4218859692184    0.9809643475031 
Ce   -1.9155543040469    5.6223237971378    4.1551388630921 
Ce   -1.8028921944024    3.5273053025026    7.5608856806122 
Ce    3.8287754952980    4.4218859692184    0.9809643475031 
Ce    1.8199475290150    5.6026347645796    4.3615518462063 
Ce    7.6549266691429    4.4218859692184    0.9809643475031 
Ce    5.8059995743271    5.5782889387344    4.2768456051710 
Ce    5.5910222155660    3.3210711707946    7.4842667626593 
Ce   -1.9104684831671    7.7354400263133    0.9809643475031 
Ce   -3.7520631919332    9.0095993473644    4.1692820412164 
Ce   -3.7040026294089    6.7660963853729    7.7675632609560 
Ce    1.9156941691429    7.7354400263133    0.9809643475031 
Ce    0.0612892638675    8.8852182535879    4.2190890481727 
Ce   -0.0354448686044    6.5809068916121    7.5220959548539 
Ce    5.7418453429879    7.7354400263133    0.9809643475031 
Ce    3.9005774835127    8.9240975966804    4.3085174373520 
Ce    3.7087365205519    6.7051339054331    7.5334959896306 
Pd    1.8231489876881    3.3399147517259    7.5515506447317 
81
FORCE:  3.330995  ...  ENERGY:  -633.37549382
 O    0.0026128429879    0.0038271472816    0.1999463180631 
 O    2.0393055865510    1.0575713145532    3.3263097109708 
 O    0.1517001969325    2.3190051223768    6.7426399614728 
 O    0.0026128429880    2.2128565582500    1.7619595668371 
 O    0.1180893000735    0.0313774385755    5.3261396781067 
 O    1.8351940297205    1.6993640324013    8.6596154119785 
 O    3.8287640168329    0.0038271472816    0.1999463180631 
 O    5.7970550378682    1.2075739168001    3.4671557286912 
 O    3.3806038798975    2.2865403763476    6.6770447115475 
 O    3.8287640168330    2.2128565582500    1.7619595668371 
 O    4.0560322289544    0.1230518310895    4.9895396117050 
 O    5.7898231457796    1.3059399520780    8.2053818041263 
 O    7.6549266691429    0.0038271472816    0.1999463180631 
 O    9.6645282265746    1.1198733954479    3.6116990364930 
 O    7.8907680893806    2.3153583977527    6.6145121745549 
 O    7.6549266691430    2.2128565582500    1.7619595668371 
 O    1.9762730882039    9.9400717965390    5.1782982570783 
 O    9.6714379755430    1.2886960193040    8.3926514057800 
 O   -1.9104627439346    3.3173712637342    0.1999463180631 
 O    0.0901584642274    4.5579826069658    3.3153569823728 
 O   -1.9714772133499    5.6510837651919    6.7677839975187 
 O   -1.9104684831671    5.5264106153449    1.7619595668371 
 O   -1.7675479919360    3.4217743504813    5.0996868763663 
 O    0.0802552463717    4.4714150206155    8.4745173324161 
 O    1.9156884299104    3.3173712637342    0.1999463180631 
 O    3.8376917947330    4.4124708886863    3.4345393300207 
 O    1.7946575436114    5.5335308986044    6.5915017958242 
 O    1.9156826906780    5.5264106153449    1.7619595668371 
 O    1.8617872800402    3.4223826183830    4.5823452325471 
 O    3.4822154417173    4.4116613227782    8.1715046908972 
 O    5.7418510822204    3.3173712637342    0.1999463180631 
 O    7.5870475037343    4.3491860758947    3.5160405230619 
 O    5.7396235713026    5.6338226351067    6.8430069369845 
 O    5.7418453429880    5.5264106153449    1.7619595668371 
 O    5.6105907026980    3.3443553360433    5.2673573506415 
 O    7.5792595948011    4.5945589020526    8.3595213235224 
 O   -3.8235440700895    6.6309253208291    0.1999463180631 
 O   -2.0413752111828    7.7994589555379    3.2868131000276 
 O   -3.6848323876201    9.0854437640637    7.0478400921570 
 O   -3.8235440700895    8.8399547317975    1.7619595668371 
 O   -3.6567872262626    6.6361457485341    5.0363119621591 
 O   -1.8030016989585    7.7965240803082    8.5640374182216 
 O    0.0026071037555    6.6309253208291    0.1999463180631 
 O    1.9340559252495    7.9161453957435    3.2916237513830 
 O    0.0070594281520    8.8330582123959    6.8606829443260 
 O    0.0026071037555    8.8399547317975    1.7619595668371 
 O    0.0893322443167    6.7837349616458    5.1421855253602 
 O    1.9932821646026    7.9421586649265    8.3779420808248 
 O    3.8287697560655    6.6309253208291    0.1999463180631 
 O    5.7847292899742    7.6281788060950    3.4957395287219 
 O    3.9880038435007    8.9210751443922    6.7312652459138 
 O    3.8287697560655    8.8399547317975    1.7619595668371 
 O    3.7800148038010    6.6464346115235    5.3475795810393 
 O    5.8544764607770    7.7719968377412    8.4416780790100 
Ce    1.9156884299104    1.1083418527658    0.9809643475031 
Ce    0.0660555816741    2.4429170178373    4.4066638490446 
Ce    0.1842342989900    0.2461623119686    7.7637373218766 
Ce    5.7418510822205    1.1083418527658    0.9809643475031 
Ce    3.8421399294898    2.3279734704444    4.2057629280454 
Ce    3.9221232510256    0.0896646928622    7.6005367159731 
Ce    9.5680022560654    1.1083418527658    0.9809643475031 
Ce    7.7280712934087    2.2159314971296    4.3414876207666 
Ce    2.1011908123213    9.9151535885106    7.4510983594236 
Ce    0.0026128429880    4.4218859692184    0.9809643475031 
Ce   -1.9158683548493    5.6220691178823    4.1571016727134 
Ce   -1.8023227477538    3.5269311367268    7.5610884624546 
Ce    3.8287754952980    4.4218859692184    0.9809643475031 
Ce    1.8185243715320    5.6056876352333    4.3599350658930 
Ce    7.6549266691429    4.4218859692184    0.9809643475031 
Ce    5.8069276082224    5.5788189737813    4.2795285298388 
Ce    5.5907183232052    3.3240791097451    7.4819034075766 
Ce   -1.9104684831671    7.7354400263133    0.9809643475031 
Ce   -3.7552931171996    9.0088782531727    4.1733157803614 
Ce   -3.7014445386990    6.7655792731610    7.7691373863710 
Ce    1.9156941691429    7.7354400263133    0.9809643475031 
Ce    0.0599042148883    8.8842706121584    4.2165078565777 
Ce   -0.0318363261701    6.5780184391819    7.5254666042175 
Ce    5.7418453429879    7.7354400263133    0.9809643475031 
Ce    3.8996647733682    8.9223787602221    4.3068456846833 
Ce    3.7084287255129    6.7092039026059    7.5324157030104 
Pd    1.8201593640866    3.3391430596649    7.5514087658724 
81
FORCE:  3.391935  ...  ENERGY:  -633.38435587
 O    0.0026128429879    0.0038271472816    0.1999463180631 
 O    2.0393742277717    1.0691378482961    3.3286128473737 
 O    0.1463261517965    2.3154697329464    6.7410781535150 
 O    0.0026128429880    2.2128565582500    1.7619595668371 
 O    0.1155999653689    0.0266940043670    5.3331891413660 
 O    1.8367119993244    1.7079989713265    8.6590764091737 
 O    3.8287640168329    0.0038271472816    0.1999463180631 
 O    5.7829692969358    1.2062163232825    3.4710827165401 
 O    3.3737297141707    2.2828014025630    6.6783264114037 
 O    3.8287640168330    2.2128565582500    1.7619595668371 
 O    4.0662701588495    0.1269735138794    4.9860907236778 
 O    5.7863107928819    1.3126483945274    8.2073293309766 
 O    7.6549266691429    0.0038271472816    0.1999463180631 
 O    9.6688383901821    1.1190451411323    3.6119405955156 
 O    7.8842399993734    2.3150865211861    6.6236857148849 
 O    7.6549266691430    2.2128565582500    1.7619595668371 
 O    7.7151791980516    0.0014736008131    5.1744424367601 
 O    9.6758297510366    1.2970553042185    8.3928544157234 
 O   -1.9104627439346    3.3173712637342    0.1999463180631 
 O    0.0811387438227    4.5484414790895    3.3249525096638 
 O   -1.9769721841148    5.6584306950956    6.7735054564067 
 O   -1.9104684831671    5.5264106153449    1.7619595668371 
 O   -1.7585765958690    3.4220215742550    5.0891392552508 
 O    0.0781942879809    4.4758280693537    8.4793387045213 
 O    1.9156884299104    3.3173712637342    0.1999463180631 
 O    3.8392358204525    4.4093295463162    3.4288833361369 
 O    1.7959190269149    5.5299528638185    6.5914938122871 
 O    1.9156826906780    5.5264106153449    1.7619595668371 
 O    1.8612799892795    3.4154656212584    4.5917272572459 
 O    3.4862230903797    4.4061712054478    8.1647485656011 
 O    5.7418510822204    3.3173712637342    0.1999463180631 
 O    7.5924081190663    4.3477525358701    3.5035700100106 
 O    5.7397993066017    5.6258295634542    6.8393158056315 
 O    5.7418453429880    5.5264106153449    1.7619595668371 
 O    5.5986730142348    3.3560651144416    5.2747665292725 
 O    7.5911355016517    4.5951548435579    8.3616882835924 
 O   -3.8235440700895    6.6309253208291    0.1999463180631 
 O   -2.0444502919563    7.8038572921256    3.2899558764323 
 O   -3.6827590898795    9.0846674993073    7.0492294557135 
 O   -3.8235440700895    8.8399547317975    1.7619595668371 
 O   -3.6576012790004    6.6433646429651    5.0263706336611 
 O   -1.7992872102922    7.7944370424595    8.5668613093444 
 O    0.0026071037555    6.6309253208291    0.1999463180631 
 O    1.9366609054889    7.9150665378358    3.2874303414960 
 O    0.0055205103494    8.8269490912702    6.8543713879958 
 O    0.0026071037555    8.8399547317975    1.7619595668371 
 O    0.0868284467462    6.7820504204034    5.1401923782979 
 O    2.0002497650345    7.9369045384441    8.3777527569450 
 O    3.8287697560655    6.6309253208291    0.1999463180631 
 O    5.7784098210685    7.6351881517865    3.4829537800057 
 O    3.9835867005994    8.9198939972753    6.7169728896963 
 O    3.8287697560655    8.8399547317975    1.7619595668371 
 O    3.7808196163744    6.6475269887048    5.3410775603240 
 O    5.8541960418770    7.7605867697079    8.4408450539389 
Ce    1.9156884299104    1.1083418527658    0.9809643475031 
Ce    0.0682445249496    2.4420261374752    4.4046079741908 
Ce    0.1781667823910    0.2444308508945    7.7623659783039 
Ce    5.7418510822205    1.1083418527658    0.9809643475031 
Ce    3.8441145124314    2.3283892875114    4.2045115656302 
Ce    3.9256130487395    0.0892008624930    7.5977007354941 
Ce    9.5680022560654    1.1083418527658    0.9809643475031 
Ce    7.7277737715959    2.2217113841827    4.3466317558717 
Ce    2.1004204351428    9.9150282370114    7.4536207009451 
Ce    0.0026128429880    4.4218859692184    0.9809643475031 
Ce   -1.9162076582747    5.6217965454707    4.1590852395312 
Ce   -1.8018595342987    3.5264260526920    7.5613005964404 
Ce    3.8287754952980    4.4218859692184    0.9809643475031 
Ce    1.8172355120894    5.6087961734838    4.3581643173642 
Ce    7.6549266691429    4.4218859692184    0.9809643475031 
Ce    5.8078179927524    5.5793219702811    4.2822958518987 
Ce    5.5904625256126    3.3272898377983    7.4795249978240 
Ce   -1.9104684831671    7.7354400263133    0.9809643475031 
Ce   -3.7585847966076    9.0080748504629    4.1774181779255 
Ce   -3.6990263704774    6.7650220007542    7.7707012472384 
Ce    1.9156941691429    7.7354400263133    0.9809643475031 
Ce    0.0585012021113    8.8833737674110    4.2138771670527 
Ce   -0.0281586259840    6.5752302878324    7.5289004375748 
Ce    5.7418453429879    7.7354400263133    0.9809643475031 
Ce    3.8987780619469    8.9206125069000    4.3051732477114 
Ce    3.7082622303781    6.7132607781309    7.5313433999274 
Pd    1.8172075046348    3.3384473141111    7.5512988211615 
81
FORCE:  3.444308  ...  ENERGY:  -633.38187205
 O    0.0026128429879    0.0038271472816    0.1999463180631 
 O    2.0390737789503    1.0807919590976    3.3312665751057 
 O    0.1412159965708    2.3124550343591    6.7396559434059 
 O    0.0026128429880    2.2128565582500    1.7619595668371 
 O    0.1133996010208    0.0220546072039    5.3396934430919 
 O    1.8381835385375    1.7160934375304    8.6584413758227 
 O    3.8287640168329    0.0038271472816    0.1999463180631 
 O    5.7692768656066    1.2048069390187    3.4747624428400 
 O    3.3669993736103    2.2789276336691    6.6796142699884 
 O    3.8287640168330    2.2128565582500    1.7619595668371 
 O    4.0757952760681    0.1305091021226    4.9833594415854 
 O    5.7825066574039    1.3190160717591    8.2093566931979 
 O    7.6549266691429    0.0038271472816    0.1999463180631 
 O    9.6729154835578    1.1182531701611    3.6118587072350 
 O    7.8772711937027    2.3147529132308    6.6329509518411 
 O    7.6549266691430    2.2128565582500    1.7619595668371 
 O    7.7146610601415    0.0033818065071    5.1704013983811 
 O    9.6804021975694    1.3052666723757    8.3929613951205 
 O   -1.9104627439346    3.3173712637342    0.1999463180631 
 O    0.0710947999861    4.5391236180389    3.3349739016339 
 O   -1.9816473629093    5.6656505835908    6.7791368153760 
 O   -1.9104684831671    5.5264106153449    1.7619595668371 
 O   -1.7498329899399    3.4228752766149    5.0787401279254 
 O    0.0761819408894    4.4802247160322    8.4837538286387 
 O    1.9156884299104    3.3173712637342    0.1999463180631 
 O    3.8413319029461    4.4068690385366    3.4230911659204 
 O    1.7969349284597    5.5259110980698    6.5920512912778 
 O    1.9156826906780    5.5264106153449    1.7619595668371 
 O    1.8614158943051    3.4085171122977    4.6019753816696 
 O    3.4905040412938    4.4004888360956    8.1581945378441 
 O    5.7418510822204    3.3173712637342    0.1999463180631 
 O    7.5980562125542    4.3465763590743    3.4909129102923 
 O    5.7398205991543    5.6175872798994    6.8352590282794 
 O    5.7418453429880    5.5264106153449    1.7619595668371 
 O    5.5870906117342    3.3677273765698    5.2820158090603 
 O    7.6035494615492    4.5954007750482    8.3639861736708 
 O   -3.8235440700895    6.6309253208291    0.1999463180631 
 O   -2.0467448371098    7.8081753083235    3.2935861048022 
 O   -3.6804816476388    9.0838978947812    7.0503193225782 
 O   -3.8235440700895    8.8399547317975    1.7619595668371 
 O   -3.6588629918732    6.6509837476547    5.0166012933623 
 O   -1.7955573978751    7.7922779349541    8.5695312322517 
 O    0.0026071037555    6.6309253208291    0.1999463180631 
 O    1.9393747589689    7.9136056610448    3.2840154405267 
 O    0.0039149600575    8.8210744698961    6.8477197329851 
 O    0.0026071037555    8.8399547317975    1.7619595668371 
 O    0.0834897056317    6.7802006656861    5.1379296157827 
 O    2.0072666080814    7.9310722642062    8.3775381138475 
 O    3.8287697560655    6.6309253208291    0.1999463180631 
 O    5.7718825345539    7.6429966257117    3.4700355045737 
 O    3.9787781994340    8.9187767684883    6.7028212718328 
 O    3.8287697560655    8.8399547317975    1.7619595668371 
 O    3.7815506798103    6.6488932305811    5.3334706180741 
 O    5.8539131551071    7.7495424179044    8.4400873022176 
Ce    1.9156884299104    1.1083418527658    0.9809643475031 
Ce    0.0703939823055    2.4409392276472    4.4024140981957 
Ce    0.1719812671718    0.2426317934529    7.7609309945354 
Ce    5.7418510822205    1.1083418527658    0.9809643475031 
Ce    3.8460993112069    2.3287715052075    4.2032143549020 
Ce    3.9291648301645    0.0887115840795    7.5948221001169 
Ce    9.5680022560654    1.1083418527658    0.9809643475031 
Ce    7.7274591468703    2.2275332207463    4.3517856993224 
Ce    2.0996176886930    9.9150124313901    7.4561850130616 
Ce    0.0026128429880    4.4218859692184    0.9809643475031 
Ce   -1.9165682542527    5.6215075709993    4.1610790708967 
Ce   -1.8015033575297    3.5257954183452    7.5615225387717 
Ce    3.8287754952980    4.4218859692184    0.9809643475031 
Ce    1.8160839350883    5.6119410944851    4.3562434783380 
Ce    7.6549266691429    4.4218859692184    0.9809643475031 
Ce    5.8086653904311    5.5798018050845    4.2851336571861 
Ce    5.5902522975262    3.3306959988790    7.4771440789597 
Ce   -1.9104684831671    7.7354400263133    0.9809643475031 
Ce   -3.7619276699696    9.0071980858129    4.1815712139249 
Ce   -3.6967536917998    6.7644264568746    7.7722532468506 
Ce    1.9156941691429    7.7354400263133    0.9809643475031 
Ce    0.0570843003917    8.8825311985705    4.2112026821242 
Ce   -0.0244255995967    6.5725504894838    7.5323869622769 
Ce    5.7418453429879    7.7354400263133    0.9809643475031 
Ce    3.8979193005880    8.9188055963509    4.3034989859310 
Ce    3.7082419134950    6.7172851477556    7.5302770274719 
Pd    1.8143061504291    3.3378314913212    7.5512157923756 
81
FORCE:  3.485817  ...  ENERGY:  -633.36862899
 O    0.0026128429879    0.0038271472816    0.1999463180631 
 O    2.0383913842060    1.0923940803400    3.3342718065712 
 O    0.1363957299787    2.3099770310490    6.7384102835172 
 O    0.0026128429880    2.2128565582500    1.7619595668371 
 O    0.1115206910849    0.0174642174072    5.3456315979869 
 O    1.8395672674932    1.7235614444572    8.6577399650632 
 O    3.8287640168329    0.0038271472816    0.1999463180631 
 O    5.7561287430877    1.2033929820593    3.4781584114213 
 O    3.3604470066497    2.2749189702592    6.6808966541478 
 O    3.8287640168330    2.2128565582500    1.7619595668371 
 O    4.0845136867666    0.1336222130686    4.9814018782884 
 O    5.7784396076852    1.3249623651641    8.2114570477584 
 O    7.6549266691429    0.0038271472816    0.1999463180631 
 O    9.6767083701400    1.1175083178343    3.6114629518959 
 O    7.8699051183582    2.3143636376788    6.6422230318290 
 O    7.6549266691430    2.2128565582500    1.7619595668371 
 O    7.7139397534009    0.0051754960019    5.1662298861958 
 O    9.6851158292216    1.3132553701456    8.3929771340936 
 O   -1.9104627439346    3.3173712637342    0.1999463180631 
 O    0.0601335546190    4.5301211735683    3.3453349360823 
 O   -1.9854541958265    5.6726798105669    6.7846114689170 
 O   -1.9104684831671    5.5264106153449    1.7619595668371 
 O   -1.7414791926822    3.4243447023582    5.0686117565582 
 O    0.0742156224426    4.4845788167616    8.4877414913696 
 O    1.9156884299104    3.3173712637342    0.1999463180631 
 O    3.8439586922690    4.4051225670927    3.4171986312374 
 O    1.7977020342757    5.5214493401844    6.5931555285092 
 O    1.9156826906780    5.5264106153449    1.7619595668371 
 O    1.8622258721878    3.4016772545572    4.6130433013029 
 O    3.4950304017896    4.3946587487989    8.1518759103811 
 O    5.7418510822204    3.3173712637342    0.1999463180631 
 O    7.6039338179498    4.3456605277002    3.4781885207612 
 O    5.7397044370885    5.6091639772486    6.8308509752949 
 O    5.7418453429880    5.5264106153449    1.7619595668371 
 O    5.5759441613344    3.3792830750127    5.2890128090758 
 O    7.6164500509704    4.5952964977105    8.3664070102206 
 O   -3.8235440700895    6.6309253208291    0.1999463180631 
 O   -2.0482360044980    7.8123925264086    3.2976757287069 
 O   -3.6780295605532    9.0831417101222    7.0511126580649 
 O   -3.8235440700895    8.8399547317975    1.7619595668371 
 O   -3.6606047915446    6.6589546516749    5.0070614227300 
 O   -1.7918197227094    7.7900642533225    8.5720387472042 
 O    0.0026071037555    6.6309253208291    0.1999463180631 
 O    1.9421691912731    7.9117576956431    3.2814148603416 
 O    0.0022911590063    8.8154797770088    6.8407859169632 
 O    0.0026071037555    8.8399547317975    1.7619595668371 
 O    0.0793444301739    6.7781768503222    5.1354063618570 
 O    2.0142889033991    7.9247309296765    8.3773047664632 
 O    3.8287697560655    6.6309253208291    0.1999463180631 
 O    5.7651936886445    7.6515217205396    3.4570880322059 
 O    3.9735774217271    8.9177399594974    6.6889527273848 
 O    3.8287697560655    8.8399547317975    1.7619595668371 
 O    3.7822089697780    6.6505101754560    5.3248192010704 
 O    5.8535883719399    7.7389249172809    8.4393982089153 
Ce    1.9156884299104    1.1083418527658    0.9809643475031 
Ce    0.0725010841255    2.4396548966634    4.4000847301710 
Ce    0.1657051868637    0.2407742850345    7.7594332829754 
Ce    5.7418510822205    1.1083418527658    0.9809643475031 
Ce    3.8480809534045    2.3291186324362    4.2018749454777 
Ce    3.9327655672427    0.0881995415951    7.5919090214796 
Ce    9.5680022560654    1.1083418527658    0.9809643475031 
Ce    7.7271310923406    2.2333727516531    4.3569284658211 
Ce    2.0987822860103    9.9151058734276    7.4587764692043 
Ce    0.0026128429880    4.4218859692184    0.9809643475031 
Ce   -1.9169453792203    5.6212036855645    4.1630731303632 
Ce   -1.8012545618009    3.5250463909486    7.5617549737519 
Ce    3.8287754952980    4.4218859692184    0.9809643475031 
Ce    1.8150715344753    5.6151022187333    4.3541789356439 
Ce    7.6549266691429    4.4218859692184    0.9809643475031 
Ce    5.8094646933413    5.5802621562289    4.2880264348291 
Ce    5.5900854006451    3.3342877517512    7.4747747932495 
Ce   -1.9104684831671    7.7354400263133    0.9809643475031 
Ce   -3.7653102014281    9.0062572040201    4.1857573245781 
Ce   -3.6946310940520    6.7637950272763    7.7737920166014 
Ce    1.9156941691429    7.7354400263133    0.9809643475031 
Ce    0.0556572976229    8.8817464842681    4.2084921572283 
Ce   -0.0206518820510    6.5699870960565    7.5359143170687 
Ce    5.7418453429879    7.7354400263133    0.9809643475031 
Ce    3.8970909571613    8.9169652852438    4.3018215307357 
Ce    3.7083717923265    6.7212567325697    7.5292143046333 
Pd    1.8114684443118    3.3372990705201    7.5511546612916 
81
FORCE:  3.515161  ...  ENERGY:  -633.34618614
 O    0.0026128429879    0.0038271472816    0.1999463180631 
 O    2.0373182051209    1.1038106097908    3.3376210144352 
 O    0.1318889402658    2.3080457630649    6.7373735641995 
 O    0.0026128429880    2.2128565582500    1.7619595668371 
 O    0.1099915873700    0.0129301910523    5.3509876389768 
 O    1.8408247907263    1.7303221746850    8.6570018300330 
 O    3.8287640168329    0.0038271472816    0.1999463180631 
 O    5.7436688693302    1.2020189864820    3.4812352666197 
 O    3.3541069912915    2.2707776986812    6.6821614745255 
 O    3.8287640168330    2.2128565582500    1.7619595668371 
 O    4.0923410242270    0.1362830247904    4.9802673036160 
 O    5.7741416686429    1.3304125211125    8.2136240078284 
 O    7.6549266691429    0.0038271472816    0.1999463180631 
 O    9.6801702177917    1.1168221152970    3.6107663312587 
 O    7.8621903846394    2.3139243606960    6.6514177855576 
 O    7.6549266691430    2.2128565582500    1.7619595668371 
 O    7.7130064968041    0.0068782286197    5.1619840130650 
 O    9.6899281182805    1.3209457492404    8.3929077913714 
 O   -1.9104627439346    3.3173712637342    0.1999463180631 
 O    0.0483757037809    4.5215235120517    3.3559441444839 
 O   -1.9883554352476    5.6794572410738    6.7898634958235 
 O   -1.9104684831671    5.5264106153449    1.7619595668371 
 O   -1.7336729755973    3.4264285592015    5.0588752628121 
 O    0.0722928073781    4.4888631341822    8.4912852694377 
 O    1.9156884299104    3.3173712637342    0.1999463180631 
 O    3.8470896731671    4.4041129954617    3.4112426844597 
 O    1.7982222957018    5.5166161004966    6.5947805204607 
 O    1.9156826906780    5.5264106153449    1.7619595668371 
 O    1.8637274275868    3.3950803461143    4.6248744470830 
 O    3.4997722704657    4.3887275651702    8.1458239330571 
 O    5.7418510822204    3.3173712637342    0.1999463180631 
 O    7.6099805011348    4.3450049423411    3.4655188754846 
 O    5.7394702764025    5.6006337132867    6.8261110352681 
 O    5.7418453429880    5.5264106153449    1.7619595668371 
 O    5.5653286473331    3.3906706771944    5.2956642359854 
 O    7.6297810254367    4.5948457889891    8.3689405286940 
 O   -3.8235440700895    6.6309253208291    0.1999463180631 
 O   -2.0489092164702    7.8164908544119    3.3021925858970 
 O   -3.6754355422478    9.0824031204001    7.0516153928011 
 O   -3.8235440700895    8.8399547317975    1.7619595668371 
 O   -3.6628542263306    6.6672236755574    4.9978085032311 
 O   -1.7880846301984    7.7878132942824    8.5743772392714 
 O    0.0026071037555    6.6309253208291    0.1999463180631 
 O    1.9450146453543    7.9095207529086    3.2796541482595 
 O    0.0007003011496    8.8102075585575    6.8336333520248 
 O    0.0026071037555    8.8399547317975    1.7619595668371 
 O    0.0744319341155    6.7759715188302    5.1326342496748 
 O    2.0212722293281    7.9179556861109    8.3770593297226 
 O    3.8287697560655    6.6309253208291    0.1999463180631 
 O    5.7583922389934    7.6606760580245    3.4442178860976 
 O    3.9679880979800    8.9167987794854    6.6755079947063 
 O    3.8287697560655    8.8399547317975    1.7619595668371 
 O    3.7827944862777    6.6523519776595    5.3151997231681 
 O    5.8531842151873    7.7287916253433    8.4387716153035 
Ce    1.9156884299104    1.1083418527658    0.9809643475031 
Ce    0.0745637642860    2.4381737409622    4.3976242040368 
Ce    0.1593672376293    0.2388680674690    7.7578751246346 
Ce    5.7418510822205    1.1083418527658    0.9809643475031 
Ce    3.8500461240048    2.3294298739463    4.2004972150753 
Ce    3.9364013136391    0.0876674190133    7.5889701674226 
Ce    9.5680022560654    1.1083418527658    0.9809643475031 
Ce    7.7267936254696    2.2392053241103    4.3620388419694 
Ce    2.0979137679561    9.9153077678726    7.4613788741978 
Ce    0.0026128429880    4.4218859692184    0.9809643475031 
Ce   -1.9173343843991    5.6208869767012    4.1650566971809 
Ce   -1.8011124584042    3.5241867242034    7.5619979013808 
Ce    3.8287754952980    4.4218859692184    0.9809643475031 
Ce    1.8141992859199    5.6182595655375    4.3519782166170 
Ce    7.6549266691429    4.4218859692184    0.9809643475031 
Ce    5.8102106213894    5.5807073975971    4.2909579896522 
Ce    5.5899585636068    3.3380530682378    7.4724315110601 
Ce   -1.9104684831671    7.7354400263133    0.9809643475031 
Ce   -3.7687201090256    9.0052613504755    4.1899575774969 
Ce   -3.6926621929505    6.7631305947457    7.7753152754801 
Ce    1.9156941691429    7.7354400263133    0.9809643475031 
Ce    0.0542244408370    8.8810220102580    4.2057535759019 
Ce   -0.0168530266669    6.5675475630321    7.5394699563920 
Ce    5.7418453429879    7.7354400263133    0.9809643475031 
Ce    3.8962948108288    8.9150994266859    4.3001395135193 
Ce    3.7086545069195    6.7251552536630    7.5281520379969 
Pd    1.8087081604409    3.3368528350877    7.5511099534838 
81
FORCE:  3.527091  ...  ENERGY:  -633.31685224
 O    0.0026128429879    0.0038271472816    0.1999463180631 
 O    2.0358502242320    1.1149168917957    3.3413000564319 
 O    0.1277153129995    2.3066647096316    6.7365729294789 
 O    0.0026128429880    2.2128565582500    1.7619595668371 
 O    0.1088345580979    0.0084604806530    5.3557522139180 
 O    1.8419192623640    1.7363030615252    8.6562561676679 
 O    3.8287640168329    0.0038271472816    0.1999463180631 
 O    5.7320305667050    1.2007258083265    3.4839592494782 
 O    3.3480115820226    2.2665085904433    6.6833970979675 
 O    3.8287640168330    2.2128565582500    1.7619595668371 
 O    4.0992034245273    0.1384683755914    4.9799954071525 
 O    5.7696465295719    1.3352994402687    8.2158495898708 
 O    7.6549266691429    0.0038271472816    0.1999463180631 
 O    9.6832589579386    1.1162061931007    3.6097848123975 
 O    7.8541767516919    2.3134391579458    6.6604526404431 
 O    7.6549266691430    2.2128565582500    1.7619595668371 
 O    7.7118548624107    0.0085152535920    5.1577196637483 
 O    9.6947955613638    1.3282644477200    8.3927599818845 
 O   -1.9104627439346    3.3173712637342    0.1999463180631 
 O    0.0359526758960    4.5134155265742    3.3667059524947 
 O   -1.9903261155111    5.6859263128569    6.7948303964050 
 O   -1.9104684831671    5.5264106153449    1.7619595668371 
 O   -1.7265639030842    3.4291147195611    5.0496462939245 
 O    0.0704104539028    4.4930507291533    8.4943742139923 
 O    1.9156884299104    3.3173712637342    0.1999463180631 
 O    3.8506939685694    4.4038536441044    3.4052614184644 
 O    1.7985012224013    5.5114654561004    6.5968922800741 
 O    1.9156826906780    5.5264106153449    1.7619595668371 
 O    1.8659241762185    3.3888529313453    4.6374035821067 
 O    3.5046982537204    4.3827427020731    8.1400682590102 
 O    5.7418510822204    3.3173712637342    0.1999463180631 
 O    7.6161360001680    4.3446058255532    3.4530266928326 
 O    5.7391392374719    5.5920744226493    6.8210638431135 
 O    5.7418453429880    5.5264106153449    1.7619595668371 
 O    5.5553311912797    3.4018291475714    5.3018781650619 
 O    7.6434825821456    4.5940550108949    8.3715762364423 
 O   -3.8235440700895    6.6309253208291    0.1999463180631 
 O   -2.0487583894401    7.8204541884930    3.3070983553945 
 O   -3.6727347742180    9.0816842131497    7.0518355103240 
 O   -3.8235440700895    8.8399547317975    1.7619595668371 
 O   -3.6656343679459    6.6757343564540    4.9888977353222 
 O   -1.7843617622527    7.7855413604870    8.5765414621286 
 O    0.0026071037555    6.6309253208291    0.1999463180631 
 O    1.9478808754571    7.9068955286862    3.2787494994555 
 O   -0.0008061325970    8.8052954895763    6.8263259064667 
 O    0.0026071037555    8.8399547317975    1.7619595668371 
 O    0.0688018044253    6.7735781103860    5.1296258247945 
 O    2.0281720494242    7.9108248657706    8.3768086466577 
 O    3.8287697560655    6.6309253208291    0.1999463180631 
 O    5.7515293221622    7.6703686812894    3.4315299927361 
 O    3.9620193535723    8.9159662506936    6.6626253030396 
 O    3.8287697560655    8.8399547317975    1.7619595668371 
 O    3.7833080328018    6.6543915986445    5.3046993189720 
 O    5.8526643555074    7.7191925435224    8.4382009064514 
Ce    1.9156884299104    1.1083418527658    0.9809643475031 
Ce    0.0765803584096    2.4364980468913    4.3950379942185 
Ce    0.1529968043390    0.2369228825857    7.7562583443213 
Ce    5.7418510822205    1.1083418527658    0.9809643475031 
Ce    3.8519817375577    2.3297044344864    4.1990857257160 
Ce    3.9400583525881    0.0871182979332    7.5860146619882 
Ce    9.5680022560654    1.1083418527658    0.9809643475031 
Ce    7.7264510506816    2.2450067823572    4.3670960705706 
Ce    2.0970115606071    9.9156165242221    7.4639769452712 
Ce    0.0026128429880    4.4218859692184    0.9809643475031 
Ce   -1.9177307357956    5.6205597307570    4.1670201911054 
Ce   -1.8010754403545    3.5232253646875    7.5622517778606 
Ce    3.8287754952980    4.4218859692184    0.9809643475031 
Ce    1.8134665581067    5.6213939494580    4.3496499890976 
Ce    7.6549266691429    4.4218859692184    0.9809643475031 
Ce    5.8108985257968    5.5811414060395    4.2939121264802 
Ce    5.5898689167952    3.3419778326268    7.4701281465562 
Ce   -1.9104684831671    7.7354400263133    0.9809643475031 
Ce   -3.7721450534123    9.0042193723507    4.1941544088998 
Ce   -3.6908487102652    6.7624363402881    7.7768214267792 
Ce    1.9156941691429    7.7354400263133    0.9809643475031 
Ce    0.0527895753196    8.8803598640751    4.2029958340865 
Ce   -0.0130445867646    6.5652385506410    7.5430411065874 
Ce    5.7418453429879    7.7354400263133    0.9809643475031 
Ce    3.8955323537912    8.9132157743784    4.2984515656753 
Ce    3.7090919512206    6.7289609291573    7.5270874903499 
Pd    1.8060376381664    3.3364952701846    7.5510771069312 
81
FORCE:  3.522953  ...  ENERGY:  -633.28339343
 O    0.0026128429879    0.0038271472816    0.1999463180631 
 O    2.0339868102239    1.1256012929419    3.3452900001734 
 O    0.1238902867152    2.3058313855884    6.7360279960466 
 O    0.0026128429880    2.2128565582500    1.7619595668371 
 O    0.1080648696274    0.0040650268516    5.3599216731938 
 O    1.8428166487577    1.7414419759635    8.6555317187013 
 O    3.8287640168329    0.0038271472816    0.1999463180631 
 O    5.7213314320862    1.1995489356858    3.4863002506570 
 O    3.3421920002676    2.2621180075567    6.6845925756229 
 O    3.8287640168330    2.2128565582500    1.7619595668371 
 O    4.1050402813721    0.1401631556954    4.9806137891261 
 O    5.7649884536903    1.3395683496937    8.2181255822475 
 O    7.6549266691429    0.0038271472816    0.1999463180631 
 O    9.6859392943007    1.1156719829841    3.6085364152961 
 O    7.8459131751692    2.3129113098402    6.6692518669337 
 O    7.6549266691430    2.2128565582500    1.7619595668371 
 O    7.7104808901502    0.0101123171823    5.1534897576917 
 O    9.6996737368118    1.3351434715911    8.3925421453722 
 O   -1.9104627439346    3.3173712637342    0.1999463180631 
 O    0.0230033603909    4.5058729648303    3.3775256981748 
 O   -1.9913549877214    5.6920381179561    6.7994546891944 
 O   -1.9104684831671    5.5264106153449    1.7619595668371 
 O   -1.7202856992602    3.4323787294570    5.0410313730905 
 O    0.0685665532852    4.4971140660957    8.4970021663045 
 O    1.9156884299104    3.3173712637342    0.1999463180631 
 O    3.8547367987271    4.4043480916519    3.3992931542295 
 O    1.7985488006387    5.5060530745928    6.5994522582705 
 O    1.9156826906780    5.5264106153449    1.7619595668371 
 O    1.8688041230870    3.3831088306044    4.6505586264390 
 O    3.5097764414211    4.3767510793392    8.1346353479631 
 O    5.7418510822204    3.3173712637342    0.1999463180631 
 O    7.6223422340165    4.3444572129509    3.4408287605481 
 O    5.7387336459111    5.5835689108867    6.8157367709583 
 O    5.7418453429880    5.5264106153449    1.7619595668371 
 O    5.5460264605891    3.4126983452577    5.3075665492962 
 O    7.6574922782474    4.5929358933859    8.3743031846146 
 O   -3.8235440700895    6.6309253208291    0.1999463180631 
 O   -2.0477862208469    7.8242691087846    3.3123499260988 
 O   -3.6699638727670    9.0809841931196    7.0517837313834 
 O   -3.8235440700895    8.8399547317975    1.7619595668371 
 O   -3.6689619749495    6.6844286410137    4.9803808979439 
 O   -1.7806631138681    7.7832636611191    8.5785282223612 
 O    0.0026071037555    6.6309253208291    0.1999463180631 
 O    1.9507376932187    7.9038848063559    3.2787054759510 
 O   -0.0021776943798    8.8007750819013    6.8189267642824 
 O    0.0026071037555    8.8399547317975    1.7619595668371 
 O    0.0625132699828    6.7709920522943    5.1263956856838 
 O    2.0349442289896    7.9034182920132    8.3765604727044 
 O    3.8287697560655    6.6309253208291    0.1999463180631 
 O    5.7446550990430    7.6805085340508    3.4191247165880 
 O    3.9556839869926    8.9152530096093    6.6504323889784 
 O    3.8287697560655    8.8399547317975    1.7619595668371 
 O    3.7837507571968    6.6566004093614    5.2934137909275 
 O    5.8519946444670    7.7101715100506    8.4376787831250 
Ce    1.9156884299104    1.1083418527658    0.9809643475031 
Ce    0.0785501777882    2.4346319895207    4.3923331718490 
Ce    0.1466220092319    0.2349486710269    7.7545852230462 
Ce    5.7418510822205    1.1083418527658    0.9809643475031 
Ce    3.8538751103595    2.3299426122756    4.1976450394210 
Ce    3.9437227951470    0.0865551605475    7.5830504887135 
Ce    9.5680022560654    1.1083418527658    0.9809643475031 
Ce    7.7261075002242    2.2507546605421    4.3720809911359 
Ce    2.0960749752554    9.9160299555349    7.4665556277545 
Ce    0.0026128429880    4.4218859692184    0.9809643475031 
Ce   -1.9181301289853    5.6202246317054    4.1689544880942 
Ce   -1.8011412119590    3.5221718554176    7.5625168312923 
Ce    3.8287754952980    4.4218859692184    0.9809643475031 
Ce    1.8128718014427    5.6244873779322    4.3472042895323 
Ce    7.6549266691429    4.4218859692184    0.9809643475031 
Ce    5.8115237577853    5.5815684560323    4.2968728782390 
Ce    5.5898131888476    3.3460468357353    7.4678788420036 
Ce   -1.9104684831671    7.7354400263133    0.9809643475031 
Ce   -3.7755729248076    9.0031395203787    4.1983307112074 
Ce   -3.6891908755652    6.7617156437221    7.7783081894883 
Ce    1.9156941691429    7.7354400263133    0.9809643475031 
Ce    0.0513562020028    8.8797613380028    4.2002273715213 
Ce   -0.0092411399945    6.5630654268300    7.5466159063997 
Ce    5.7418453429879    7.7354400263133    0.9809643475031 
Ce    3.8948048486795    8.9113218832093    4.2967554061931 
Ce    3.7096842974069    6.7326555676772    7.5260172401764 
Pd    1.8034683559531    3.3362275686877    7.5510515596124 
81
FORCE:  3.498597  ...  ENERGY:  -633.24893854
 O    0.0026128429879    0.0038271472816    0.1999463180631 
 O    2.0317308901052    1.1357655002770    3.3495671231495 
 O    0.1204255120549    2.3055371425766    6.7357524499661 
 O    0.0026128429880    2.2128565582500    1.7619595668371 
 O   -5.6315404509158    9.9403966567290    5.3634994383199 
 O    1.8434845232438    1.7456883201305    8.6548544866542 
 O    3.8287640168329    0.0038271472816    0.1999463180631 
 O    5.7116723037887    1.1985190851445    3.4882324947362 
 O    3.3366759091272    2.2576141013479    6.6857367305399 
 O    3.8287640168330    2.2128565582500    1.7619595668371 
 O    4.1098055661169    0.1413602078400    4.9821404695207 
 O    5.7602018190006    1.3431750135293    8.2204451419266 
 O    7.6549266691429    0.0038271472816    0.1999463180631 
 O    9.6881841377008    1.1152306184664    3.6070414409489 
 O    7.8374490698628    2.3123429039140    6.6777468066102 
 O    7.6549266691430    2.2128565582500    1.7619595668371 
 O    7.7088834895684    0.0116971537826    5.1493444771283 
 O    9.7045198299502    1.3415207912459    8.3922629496748 
 O   -1.9104627439346    3.3173712637342    0.1999463180631 
 O    0.0096698606623    4.4989614350589    3.3883082633820 
 O   -1.9914442327867    5.6977511044866    6.8036855076553 
 O   -1.9104684831671    5.5264106153449    1.7619595668371 
 O   -1.7149565923146    3.4361846037641    5.0331265308562 
 O    0.0667589820093    4.5010273987460    8.4991693544756 
 O    1.9156884299104    3.3173712637342    0.1999463180631 
 O    3.8591821212599    4.4055891808418    3.3933750722278 
 O    1.7983788619644    5.5004355182283    6.6024168877473 
 O    1.9156826906780    5.5264106153449    1.7619595668371 
 O    1.8723423025309    3.3779489414109    4.6642638505280 
 O    3.5149753251812    4.3707979268910    8.1295477819208 
 O    5.7418510822204    3.3173712637342    0.1999463180631 
 O    7.6285442782253    4.3445512514270    3.4290345671397 
 O    5.7382771473580    5.5751961066987    6.8101587876370 
 O    5.7418453429880    5.5264106153449    1.7619595668371 
 O    5.5374777016033    3.4232202169024    5.3126484128120 
 O    7.6717473839309    4.5915034468319    8.3771101962590 
 O   -3.8235440700895    6.6309253208291    0.1999463180631 
 O   -2.0460034430555    7.8279263704895    3.3179023621014 
 O   -3.6671607168293    9.0802998793043    7.0514726015375 
 O   -3.8235440700895    8.8399547317975    1.7619595668371 
 O   -3.6728495014756    6.6932493705433    4.9723054361167 
 O   -1.7770011965714    7.7809935166393    8.5803354670596 
 O    0.0026071037555    6.6309253208291    0.1999463180631 
 O    1.9535560007301    7.9004944508964    3.2795166033203 
 O   -0.0033660024689    8.7966724794218    6.8114975127582 
 O    0.0026071037555    8.8399547317975    1.7619595668371 
 O    0.0556304380148    6.7682104617687    5.1229591151138 
 O    2.0415472733732    7.8958141976935    8.3763223351977 
 O    3.8287697560655    6.6309253208291    0.1999463180631 
 O    5.7378186400736    7.6910072439990    3.4070944385826 
 O    3.9489982976610    8.9146672075592    6.6390464964674 
 O    3.8287697560655    8.8399547317975    1.7619595668371 
 O    3.7841241516633    6.6589489855088    5.2814451002082 
 O    5.8511438606412    7.7017633171761    8.4371970336863 
Ce    1.9156884299104    1.1083418527658    0.9809643475031 
Ce    0.0804734519913    2.4325811356098    4.3895168080612 
Ce    0.1402693675623    0.2329547769964    7.7528584980220 
Ce    5.7418510822205    1.1083418527658    0.9809643475031 
Ce    3.8557148213374    2.3301447055334    4.1961804025148 
Ce    3.9473823019660    0.0859808896424    7.5800851749335 
Ce    9.5680022560654    1.1083418527658    0.9809643475031 
Ce    7.7257671063446    2.2564286797548    4.3769758117824 
Ce    2.0951029788392    9.9165452784312    7.4691010074831 
Ce    0.0026128429880    4.4218859692184    0.9809643475031 
Ce   -1.9185287760747    5.6198846617391    4.1708516046102 
Ce   -1.8013065592473    3.5210359382231    7.5627932897770 
Ce    3.8287754952980    4.4218859692184    0.9809643475031 
Ce    1.8124121463118    5.6275239459325    4.3446511543677 
Ce    7.6549266691429    4.4218859692184    0.9809643475031 
Ce    5.8120824720692    5.5819926232388    4.2998247340565 
Ce    5.5897880510093    3.3502441725359    7.4656963710615 
Ce   -1.9104684831671    7.7354400263133    0.9809643475031 
Ce   -3.7789924169234    9.0020296476670    4.2024714297496 
Ce   -3.6876867949040    6.7609717854595    7.7797737387988 
Ce    1.9156941691429    7.7354400263133    0.9809643475031 
Ce    0.0499269035410    8.8792269290733    4.1974563998444 
Ce   -0.0054564605147    6.5610321678560    7.5501827226749 
Ce    5.7418453429879    7.7354400263133    0.9809643475031 
Ce    3.8941126972400    8.9094250098475    4.2950482978601 
Ce    3.7104313733014    6.7362225683501    7.5249378659605 
Pd    1.8010105296350    3.3360507246614    7.5510292057086 
81
FORCE:  3.454470  ...  ENERGY:  -633.21663676
 O    0.0026128429879    0.0038271472816    0.1999463180631 
 O    2.0290883752852    1.1453265094379    3.3541042813340 
 O    0.1173277613131    2.3057686601355    6.7357535904714 
 O    0.0026128429880    2.2128565582500    1.7619595668371 
 O   -5.6315140504463    9.9361816255852    5.3664953176419 
 O    1.8438945914059    1.7490036237406    8.6542461411272 
 O    3.8287640168329    0.0038271472816    0.1999463180631 
 O    5.7031355397989    1.1976610089021    3.4897352245195 
 O    3.3314877003395    2.2530063154272    6.6868202105749 
 O    3.8287640168330    2.2128565582500    1.7619595668371 
 O    4.1134677129828    0.1420597308379    4.9845811508627 
 O    5.7553204869747    1.3460868264689    8.2228011977753 
 O    7.6549266691429    0.0038271472816    0.1999463180631 
 O    9.6899731712557    1.1148938295056    3.6053208746533 
 O    7.8288317844410    2.3117346360123    6.6858772407929 
 O    7.6549266691430    2.2128565582500    1.7619595668371 
 O    7.7070650137508    0.0132969013464    5.1453289860680 
 O    9.7092933791897    1.3473410373067    8.3919312907335 
 O   -1.9104627439346    3.3173712637342    0.1999463180631 
 O   -0.0039068103474    4.4927345173220    3.3989628638946 
 O   -1.9906077396499    5.7030314742646    6.8074795125863 
 O   -1.9104684831671    5.5264106153449    1.7619595668371 
 O   -1.7106766170700    3.4404865161216    5.0260175332202 
 O    0.0649853295975    4.5047668695627    8.5008812529309 
 O    1.9156884299104    3.3173712637342    0.1999463180631 
 O    3.8639922294105    4.4075601119886    3.3875434405278 
 O    1.7980084518988    5.4946695480744    6.6057396358884 
 O    1.9156826906780    5.5264106153449    1.7619595668371 
 O    1.8765001469079    3.3734567651601    4.6784410157102 
 O    3.5202656349151    4.3649245978004    8.1248228965640 
 O    5.7418510822204    3.3173712637342    0.1999463180631 
 O    7.6346910536252    4.3448776027134    3.4177453894782 
 O    5.7377940761585    5.5670347399722    6.8043609148940 
 O    5.7418453429880    5.5264106153449    1.7619595668371 
 O    5.5297343291143    3.4333413812564    5.3170505351689 
 O    7.6861868911546    4.5897758626084    8.3799865506256 
 O   -3.8235440700895    6.6309253208291    0.1999463180631 
 O   -2.0434280772557    7.8314198104095    3.3237091307858 
 O   -3.6643628409856    9.0796253073185    7.0509164911533 
 O   -3.8235440700895    8.8399547317975    1.7619595668371 
 O   -3.6773044659191    6.7021405792268    4.9647119518293 
 O   -1.7733887514589    7.7787428558184    8.5819631962238 
 O    0.0026071037555    6.6309253208291    0.1999463180631 
 O    1.9563078479292    7.8967325142282    3.2811673706915 
 O   -0.0043248560427    8.7930062711389    6.8040931242495 
 O    0.0026071037555    8.8399547317975    1.7619595668371 
 O    0.0482239010812    6.7652315494937    5.1193318520577 
 O    2.0479431888558    7.8880881316928    8.3761017614727 
 O    3.8287697560655    6.6309253208291    0.1999463180631 
 O    5.7310663182527    7.7017803156744    3.3955235561119 
 O    3.9419819711451    8.9142157035864    6.6285720957922 
 O    3.8287697560655    8.8399547317975    1.7619595668371 
 O    3.7844305118941    6.6614083004114    5.2688968046955 
 O    5.8500845704987    7.6939938105686    8.4367460778907 
Ce    1.9156884299104    1.1083418527658    0.9809643475031 
Ce    0.0823512140807    2.4303524436084    4.3865968863922 
Ce    0.1339630414990    0.2309496500401    7.7510802221582 
Ce    5.7418510822205    1.1083418527658    0.9809643475031 
Ce    3.8574907120499    2.3303116089174    4.1946956927152 
Ce    3.9510251650107    0.0853982685978    7.5771255636800 
Ce    9.5680022560654    1.1083418527658    0.9809643475031 
Ce    7.7254337717210    2.2620113444649    4.3817652497392 
Ce    2.0940945382967    9.9171593119055    7.4716007669996 
Ce    0.0026128429880    4.4218859692184    0.9809643475031 
Ce   -1.9189232335244    5.6195428030507    4.1727049257227 
Ce   -1.8015678665030    3.5198276531528    7.5630806971126 
Ce    3.8287754952980    4.4218859692184    0.9809643475031 
Ce    1.8120838048204    5.6304897365597    4.3420006200505 
Ce    7.6549266691429    4.4218859692184    0.9809643475031 
Ce    5.8125715120706    5.5824177845095    4.3027537797680 
Ce    5.5897899449560    3.3545537391879    7.4635923668841 
Ce   -1.9104684831671    7.7354400263133    0.9809643475031 
Ce   -3.7823933713183    9.0008964144460    4.2065635627660 
Ce   -3.6863331969188    6.7602080459124    7.7812167061044 
Ce    1.9156941691429    7.7354400263133    0.9809643475031 
Ce    0.0485040330196    8.8787565378801    4.1946909025930 
Ce   -0.0017026581058    6.5591414576924    7.5537315189664 
Ce    5.7418453429879    7.7354400263133    0.9809643475031 
Ce    3.8934560716497    8.9075316157106    4.2933279596656 
Ce    3.7113316867037    6.7396476166512    7.5238454899841 
Pd    1.7986728254530    3.3359642410734    7.5510063956026 
81
FORCE:  3.390937  ...  ENERGY:  -633.18937209
 O    0.0026128429879    0.0038271472816    0.1999463180631 
 O    2.0260689650669    1.1542166246507    3.3588729620943 
 O    0.1145996171442    2.3065077468898    6.7360309613604 
 O    0.0026128429880    2.2128565582500    1.7619595668371 
 O   -5.6310930777424    9.9320722634689    5.3689241377288 
 O    1.8440215432288    1.7513625381560    8.6537242459019 
 O    3.8287640168329    0.0038271472816    0.1999463180631 
 O    5.6957823203353    1.1969941906172    3.4907942977411 
 O    3.3266478629646    2.2483048886562    6.6878352602919 
 O    3.8287640168330    2.2128565582500    1.7619595668371 
 O    4.1160097912340    0.1422691801710    4.9879317273331 
 O    5.7503765399222    1.3482842054471    8.2251866786608 
 O    7.6549266691429    0.0038271472816    0.1999463180631 
 O    9.6912935964769    1.1146728490275    3.6033970703133 
 O    7.8201053962094    2.3110875001992    6.6935923029452 
 O    7.6549266691430    2.2128565582500    1.7619595668371 
 O    7.7050298819063    0.0149379025756    5.1414825178933 
 O    9.7139574238732    1.3525572899419    8.3915558363888 
 O   -1.9104627439346    3.3173712637342    0.1999463180631 
 O   -0.0175888536658    4.4872334652851    3.4094060147246 
 O   -1.9888711626800    5.7078546739037    6.8108013483231 
 O   -1.9104684831671    5.5264106153449    1.7619595668371 
 O   -1.7075245157964    3.4452291965581    5.0197771444207 
 O    0.0632438742800    4.5083096150684    8.5021476700160 
 O    1.9156884299104    3.3173712637342    0.1999463180631 
 O    3.8691284981441    4.4102363317059    3.3818313337833 
 O    1.7974562803400    5.4888102352894    6.6093721452689 
 O    1.9156826906780    5.5264106153449    1.7619595668371 
 O    1.8812267492256    3.3696988047488    4.6930091461092 
 O    3.5256197649143    4.3591695623530    8.1204743779562 
 O    5.7418510822204    3.3173712637342    0.1999463180631 
 O    7.6407351541555    4.3454245368522    3.4070515555833 
 O    5.7373084796967    5.5591596637436    6.7983746306753 
 O    5.7418453429880    5.5264106153449    1.7619595668371 
 O    5.5228331316024    3.4430132285788    5.3207095042724 
 O    7.7007538093399    4.5877741154704    8.3829222112678 
 O   -3.8235440700895    6.6309253208291    0.1999463180631 
 O   -2.0400838264780    7.8347465457583    3.3297248400412 
 O   -3.6616077224239    9.0789526240548    7.0501315954058 
 O   -3.8235440700895    8.8399547317975    1.7619595668371 
 O   -3.6823298526808    6.7110499792856    4.9576332916343 
 O   -1.7698382900575    7.7765212216730    8.5834127784601 
 O    0.0026071037555    6.6309253208291    0.1999463180631 
 O    1.9589675230543    7.8926083405549    3.2836342836554 
 O   -0.0050112682497    8.7897890816681    6.7967653776970 
 O    0.0026071037555    8.8399547317975    1.7619595668371 
 O    0.0403648830574    6.7620556136884    5.1155289511854 
 O    2.0540976548272    7.8803114678229    8.3759076474707 
 O    3.8287697560655    6.6309253208291    0.1999463180631 
 O    5.7244413500010    7.7127499138478    3.3844868863238 
 O    3.9346554965049    8.9139017781028    6.6190976901641 
 O    3.8287697560655    8.8399547317975    1.7619595668371 
 O    3.7846730518596    6.6639501226449    5.2558704093610 
 O    5.8487934727555    7.6868782988174    8.4363177041000 
Ce    1.9156884299104    1.1083418527658    0.9809643475031 
Ce    0.0841850136491    2.4279541642495    4.3835811622779 
Ce    0.1277239792405    0.2289411432654    7.7492519921623 
Ce    5.7418510822205    1.1083418527658    0.9809643475031 
Ce    3.8591942310405    2.3304444158984    4.1931959282457 
Ce    3.9546415128013    0.0848096831678    7.5741766731763 
Ce    9.5680022560654    1.1083418527658    0.9809643475031 
Ce    7.7251111694622    2.2674879425217    4.3864365313470 
Ce    2.0930478744656    9.9178687755457    7.4740439574533 
Ce    0.0026128429880    4.4218859692184    0.9809643475031 
Ce   -1.9193107465028    5.6192022366459    4.1745094332084 
Ce   -1.8019208293018    3.5185566426296    7.5633795095012 
Ce    3.8287754952980    4.4218859692184    0.9809643475031 
Ce    1.8118821281904    5.6333729204495    4.3392627230273 
Ce    7.6549266691429    4.4218859692184    0.9809643475031 
Ce    5.8129879507808    5.5828476178821    4.3056472417141 
Ce    5.5898155419329    3.3589598294765    7.4615768659179 
Ce   -1.9104684831671    7.7354400263133    0.9809643475031 
Ce   -3.7857669495741    8.9997461827266    4.2105963895068 
Ce   -3.6851248589083    6.7594275066798    7.7826357227986 
Ce    1.9156941691429    7.7354400263133    0.9809643475031 
Ce    0.0470887956774    8.8783494685784    4.1919379508998 
Ce    0.0020097644368    6.5573947874356    7.5572538555349 
Ce    5.7418453429879    7.7354400263133    0.9809643475031 
Ce    3.8928342258083    8.9056475657773    4.2915905138916 
Ce    3.7123835158440    6.7429187838095    7.5227369188325 
Pd    1.7964623600557    3.3359663286083    7.5509806201828 
81
FORCE:  3.307150  ...  ENERGY:  -633.16970753
 O    0.0026128429879    0.0038271472816    0.1999463180631 
 O    2.0226835065998    1.1623840551690    3.3638464776066 
 O    0.1122399317018    2.3077335274906    6.7365790882075 
 O    0.0026128429880    2.2128565582500    1.7619595668371 
 O   -5.6302880355997    9.9280786104289    5.3708050590696 
 O    1.8438433974520    1.7527518423225    8.6533013465367 
 O    3.8287640168329    0.0038271472816    0.1999463180631 
 O    5.6896550583260    1.1965322489700    3.4914012746617 
 O    3.3221746477618    2.2435215509926    6.6887752647602 
 O    3.8287640168330    2.2128565582500    1.7619595668371 
 O    4.1174275538385    0.1420026715512    4.9921778285650 
 O    5.7454000514215    1.3497582038859    8.2275954258544 
 O    7.6549266691429    0.0038271472816    0.1999463180631 
 O    9.6921393871705    1.1145789099579    3.6012928380348 
 O    7.8113100224032    2.3104009994427    6.7008507067755 
 O    7.6549266691430    2.2128565582500    1.7619595668371 
 O    7.7027846367600    0.0166452078889    5.1378397439651 
 O    9.7184770120746    1.3571296871760    8.3911450263797 
 O   -1.9104627439346    3.3173712637342    0.1999463180631 
 O   -0.0312440947684    4.4824858145274    3.4195619863200 
 O   -1.9862704294727    5.7122047983762    6.8136238708395 
 O   -1.9104684831671    5.5264106153449    1.7619595668371 
 O   -1.7055590008421    3.4503493231824    5.0144660393397 
 O    0.0615338699566    4.5116342628823    8.5029811512892 
 O    1.9156884299104    3.3173712637342    0.1999463180631 
 O    3.8745536224493    4.4135862287512    3.3762702299405 
 O    1.7967434676635    5.4829094700260    6.6132656022620 
 O    1.9156826906780    5.5264106153449    1.7619595668371 
 O    1.8864623640737    3.3667248627949    4.7078886344552 
 O    3.5310131512639    4.3535658234813    8.1165097534323 
 O    5.7418510822204    3.3173712637342    0.1999463180631 
 O    7.6466334781804    4.3461792304148    3.3970313041185 
 O    5.7368441757874    5.5516423512311    6.7922318691295 
 O    5.7418453429880    5.5264106153449    1.7619595668371 
 O    5.5167994190828    3.4521923182630    5.3235710320701 
 O    7.7153948210167    4.5855207706761    8.3859078260421 
 O   -3.8235440700895    6.6309253208291    0.1999463180631 
 O   -2.0360000755926    7.8379063777230    3.3359045539587 
 O   -3.6589304278550    9.0782711930258    7.0491347937736 
 O   -3.8235440700895    8.8399547317975    1.7619595668371 
 O   -3.6879229069290    6.7199290603854    4.9510972838611 
 O   -1.7663625534632    7.7743353738399    8.5846874071834 
 O    0.0026071037555    6.6309253208291    0.1999463180631 
 O    1.9615112656830    7.8881328645831    3.2868874609732 
 O   -0.0053860975243    8.7870274718335    6.7895612619190 
 O    0.0026071037555    8.8399547317975    1.7619595668371 
 O    0.0321263295883    6.7586849407007    5.1115652390658 
 O    2.0599807124936    7.8725498143229    8.3757486610318 
 O    3.8287697560655    6.6309253208291    0.1999463180631 
 O    5.7179823029608    7.7238460563976    3.3740482975151 
 O    3.9270423472013    8.9137269222050    6.6106949033158 
 O    3.8287697560655    8.8399547317975    1.7619595668371 
 O    3.7848558464147    6.6665477118817    5.2424639976606 
 O    5.8472503653132    7.6804249332492    8.4359021039687 
Ce    1.9156884299104    1.1083418527658    0.9809643475031 
Ce    0.0859774333511    2.4253949458919    4.3804773911545 
Ce    0.1215700298001    0.2269357180898    7.7473758609438 
Ce    5.7418510822205    1.1083418527658    0.9809643475031 
Ce    3.8608179173071    2.3305447169791    4.1916843025211 
Ce    3.9582233678045    0.0842172208873    7.5712426092415 
Ce    9.5680022560654    1.1083418527658    0.9809643475031 
Ce    7.7248023987537    2.2728473404060    4.3909798482601 
Ce    2.0919610360071    9.9186704883464    7.4764221391048 
Ce    0.0026128429880    4.4218859692184    0.9809643475031 
Ce   -1.9196894784555    5.6188665411557    4.1762614774503 
Ce   -1.8023611432192    3.5172321514509    7.5636892707407 
Ce    3.8287754952980    4.4218859692184    0.9809643475031 
Ce    1.8118022380740    5.6361642528046    4.3364461311384 
Ce    7.6549266691429    4.4218859692184    0.9809643475031 
Ce    5.8133298368608    5.5832855031750    4.3084939429429 
Ce    5.5898614557929    3.3634476318447    7.4596583079022 
Ce   -1.9104684831671    7.7354400263133    0.9809643475031 
Ce   -3.7891056906886    8.9985839228301    4.2145616983338 
Ce   -3.6840554677166    6.7586329511416    7.7840296483763 
Ce    1.9156941691429    7.7354400263133    0.9809643475031 
Ce    0.0456818802224    8.8780047271037    4.1892037034936 
Ce    0.0056724852260    6.5557920576792    7.5607426612476 
Ce    5.7418453429879    7.7354400263133    0.9809643475031 
Ce    3.8922460118694    8.9037780291819    4.2898323109211 
Ce    3.7135842780676    6.7460268250279    7.5216078185855 
Pd    1.7943841839674    3.3360544026990    7.5509500546407 
81
FORCE:  3.204669  ...  ENERGY:  -633.15963536
 O    0.0026128429879    0.0038271472816    0.1999463180631 
 O    2.0189440522721    1.1697924182420    3.3689958590361 
 O    0.1102450892695    2.3094220449900    6.7373863378589 
 O    0.0026128429880    2.2128565582500    1.7619595668371 
 O   -5.6291145921227    9.9242099112625    5.3721613479723 
 O    1.8433402389387    1.7531686534537    8.6529849703664 
 O    3.8287640168329    0.0038271472816    0.1999463180631 
 O    5.6847775141935    1.1962849257899    3.4915527337656 
 O    3.3180811975735    2.2386669389239    6.6896352057564 
 O    3.8287640168330    2.2128565582500    1.7619595668371 
 O    4.1177284617985    0.1412800862631    4.9972966444524 
 O    5.7404193158887    1.3505095176302    8.2300210525265 
 O    7.6549266691429    0.0038271472816    0.1999463180631 
 O    9.6925116911827    1.1146231458160    3.5990307598227 
 O    7.8024817627947    2.3096744378977    6.7076205181352 
 O    7.6549266691430    2.2128565582500    1.7619595668371 
 O    7.7003379445529    0.0184427742342    5.1344291769159 
 O    9.7228206354076    1.3610263195473    8.3907070723445 
 O   -1.9104627439346    3.3173712637342    0.1999463180631 
 O   -0.0447461557556    4.4785064760123    3.4293621202619 
 O   -1.9828503060413    5.7160732987298    6.8159276915455 
 O   -1.9104684831671    5.5264106153449    1.7619595668371 
 O   -1.7048195581268    3.4557749257443    5.0101334878060 
 O    0.0598545705271    4.5147214287519    8.5033990324312 
 O    1.9156884299104    3.3173712637342    0.1999463180631 
 O    3.8802299529611    4.4175730227480    3.3708886416319 
 O    1.7958914212066    5.4770156632123    6.6173727899484 
 O    1.9156826906780    5.5264106153449    1.7619595668371 
 O    1.8921393832934    3.3645687374822    4.7230003296802 
 O    3.5364243292342    4.3481426066735    8.1129340412157 
 O    5.7418510822204    3.3173712637342    0.1999463180631 
 O    7.6523475728421    4.3471283629407    3.3877530654020 
 O    5.7364245231071    5.5445481124544    6.7859652487081 
 O    5.7418453429880    5.5264106153449    1.7619595668371 
 O    5.5116484579141    3.4608394841782    5.3255917793606 
 O    7.7300610853165    4.5830401827991    8.3889349552094 
 O   -3.8235440700895    6.6309253208291    0.1999463180631 
 O   -2.0312092512632    7.8409019902771    3.3422058457412 
 O   -3.6563638430810    9.0775679919902    7.0479431938362 
 O   -3.8235440700895    8.8399547317975    1.7619595668371 
 O   -3.6940787503162    6.7287333878553    4.9451235452007 
 O   -1.7629733071026    7.7721891891695    8.5857905039095 
 O    0.0026071037555    6.6309253208291    0.1999463180631 
 O    1.9639170371623    7.8833176174578    3.2908910907783 
 O   -0.0054128997401    8.7847213422287    6.7825218351064 
 O    0.0026071037555    8.8399547317975    1.7619595668371 
 O    0.0235813011037    6.7551236061939    5.1074553141667 
 O    2.0655673388015    7.8648612245437    8.3756350667040 
 O    3.8287697560655    6.6309253208291    0.1999463180631 
 O    5.7117247029815    7.7350062166837    3.3642604810305 
 O    3.9191654227720    8.9136922293634    6.6034198481082 
 O    3.8287697560655    8.8399547317975    1.7619595668371 
 O    3.7849834295532    6.6691763159225    5.2287708629277 
 O    5.8454389487516    7.6746333162382    8.4354896972522 
Ce    1.9156884299104    1.1083418527658    0.9809643475031 
Ce    0.0877315149801    2.4226840333330    4.3772928722558 
Ce    0.1155158856128    0.2249389412730    7.7454529690080 
Ce    5.7418510822205    1.1083418527658    0.9809643475031 
Ce    3.8623561464017    2.3306139038495    4.1901646932594 
Ce    3.9617641299031    0.0836225716655    7.5683258809873 
Ce    9.5680022560654    1.1083418527658    0.9809643475031 
Ce    7.7245100996425    2.2780811879781    4.3953876731435 
Ce    2.0908313254818    9.9195613687084    7.4787275565182 
Ce    0.0026128429880    4.4218859692184    0.9809643475031 
Ce   -1.9200579371820    5.6185390963987    4.1779585493367 
Ce   -1.8028842168692    3.5158627285690    7.5640097527300 
Ce    3.8287754952980    4.4218859692184    0.9809643475031 
Ce    1.8118384526311    5.6388566757688    4.3335595122241 
Ce    7.6549266691429    4.4218859692184    0.9809643475031 
Ce    5.8135953337562    5.5837348202065    4.3112845313109 
Ce    5.5899244725658    3.3680034282062    7.4578435358689 
Ce   -1.9104684831671    7.7354400263133    0.9809643475031 
Ce   -3.7924037406448    8.9974138098261    4.2184535586195 
Ce   -3.6831173327721    6.7578267650518    7.7853980266352 
Ce    1.9156941691429    7.7354400263133    0.9809643475031 
Ce    0.0442829996928    8.8777208223599    4.1864934066987 
Ce    0.0092786745751    6.5543323737654    7.5641924616790 
Ce    5.7418453429879    7.7354400263133    0.9809643475031 
Ce    3.8916901098095    8.9019268827746    4.2880499292382 
Ce    3.7149313907201    6.7489646824503    7.5204549958283 
Pd    1.7924424868280    3.3362241888693    7.5509133303701 
81
FORCE:  3.197203  ...  ENERGY:  -633.16058177
 O    0.0026128429879    0.0038271472816    0.1999463180631 
 O    2.0148638023186    1.1764190492054    3.3742935061546 
 O    0.1086095801840    2.3115482489694    6.7384367432402 
 O    0.0026128429880    2.2128565582500    1.7619595668371 
 O   -5.6275934085486    9.9204753113606    5.3730187798569 
 O    1.8424950221684    1.7526202282186    8.6527762578965 
 O    3.8287640168329    0.0038271472816    0.1999463180631 
 O    5.6811568045862    1.1962571913979    3.4912514122653 
 O    3.3143784743338    2.2337528818143    6.6904116617646 
 O    3.8287640168330    2.2128565582500    1.7619595668371 
 O    4.1169304789117    0.1401257788804    5.0032569251502 
 O    5.7354604468317    1.3505481867287    8.2324576280494 
 O    7.6549266691429    0.0038271472816    0.1999463180631 
 O    9.6924164199232    1.1148163919022    3.5966322771768 
 O    7.7936520683781    2.3089070203129    6.7138784707163 
 O    7.6549266691430    2.2128565582500    1.7619595668371 
 O    7.6976996767650    0.0203530674631    5.1312738549530 
 O    9.7269596551019    1.3642208443536    8.3902504140224 
 O   -1.9104627439346    3.3173712637342    0.1999463180631 
 O   -0.0579767510455    4.4752983325261    3.4387441449607 
 O   -1.9786630194016    5.7194583856488    6.8176998086806 
 O   -1.9104684831671    5.5264106153449    1.7619595668371 
 O   -1.7053285132649    3.4614313500202    5.0068175826968 
 O    0.0582052298913    4.5175539153660    8.5034213863350 
 O    1.9156884299104    3.3173712637342    0.1999463180631 
 O    3.8861212177301    4.4221547641859    3.3657109756710 
 O    1.7949237292147    5.4711754364605    6.6216476319138 
 O    1.9156826906780    5.5264106153449    1.7619595668371 
 O    1.8981858369091    3.3632509065338    4.7382666774238 
 O    3.5418343019657    4.3429252605676    8.1097492942160 
 O    5.7418510822204    3.3173712637342    0.1999463180631 
 O    7.6578446097306    4.3482580175305    3.3792720398901 
 O    5.7360719046622    5.5379369888930    6.7796062473575 
 O    5.7418453429880    5.5264106153449    1.7619595668371 
 O    5.5073865038596    3.4689206299215    5.3267384433892 
 O    7.7447083527567    4.5803573028514    8.3919965276367 
 O   -3.8235440700895    6.6309253208291    0.1999463180631 
 O   -2.0257476828316    7.8437374590839    3.3485883415010 
 O   -3.6539394190960    9.0768279111717    7.0465739031730 
 O   -3.8235440700895    8.8399547317975    1.7619595668371 
 O   -3.7007877983240    6.7374223044681    4.9397264460201 
 O   -1.7596822590101    7.7700844569774    8.5867268587608 
 O    0.0026071037555    6.6309253208291    0.1999463180631 
 O    1.9661655536712    7.8781745279498    3.2956054834864 
 O   -0.0050586169178    8.7828659213453    6.7756826810244 
 O    0.0026071037555    8.8399547317975    1.7619595668371 
 O    0.0148010214789    6.7513772763341    5.1032117220465 
 O    2.0708361264134    7.8572960975417    8.3755748480241 
 O    3.8287697560655    6.6309253208291    0.1999463180631 
 O    5.7056999436646    7.7461760193929    3.3551663198693 
 O    3.9110499184478    8.9137962084817    6.5973135827320 
 O    3.8287697560655    8.8399547317975    1.7619595668371 
 O    3.7850625161770    6.6718121766321    5.2148792802726 
 O    5.8433455636972    7.6694966881477    8.4350706756050 
Ce    1.9156884299104    1.1083418527658    0.9809643475031 
Ce    0.0894507020755    2.4198307707765    4.3740344486137 
Ce    0.1095727381821    0.2229550872912    7.7434840006581 
Ce    5.7418510822205    1.1083418527658    0.9809643475031 
Ce    3.8638047860770    2.3306535670122    4.1886398376733 
Ce    3.9652589207493    0.0830272265988    7.5654274008179 
Ce    9.5680022560654    1.1083418527658    0.9809643475031 
Ce    7.7242363956446    2.2831842166976    4.3996554439761 
Ce    2.0896559880581    9.9205384344391    7.4809549633691 
Ce    0.0026128429880    4.4218859692184    0.9809643475031 
Ce   -1.9204155487591    5.6182234810060    4.1795997364634 
Ce   -1.8034854014736    3.5144562270914    7.5643402711659 
Ce    3.8287754952980    4.4218859692184    0.9809643475031 
Ce    1.8119850326291    5.6414452190211    4.3306094812152 
Ce    7.6549266691429    4.4218859692184    0.9809643475031 
Ce    5.8137833510129    5.5841984517629    4.3140107951800 
Ce    5.5900015504583    3.3726145939453    7.4561377961422 
Ce   -1.9104684831671    7.7354400263133    0.9809643475031 
Ce   -3.7956565080565    8.9962390247203    4.2222685488480 
Ce   -3.6823020174031    6.7570112347584    7.7867404013733 
Ce    1.9156941691429    7.7354400263133    0.9809643475031 
Ce    0.0428912932039    8.8774962632506    4.1838116225363 
Ce    0.0128240854519    6.5530139463784    7.5675993791112 
Ce    5.7418453429879    7.7354400263133    0.9809643475031 
Ce    3.8911643961125    8.9000978045933    4.2862390349229 
Ce    3.7164224433236    6.7517273857555    7.5192743447417 
Pd    1.7906394495458    3.3364713132366    7.5508704473708 
