85
CIF: Nb-Cu-CeO2-O-CO.cif | data_image0
Ce     1.93038582     1.11050507     0.88387043
Ce    -0.05185364     2.22490243     4.02996500
Ce     5.81563663    10.04227613     7.20624151
Ce     5.81181033     1.12175166     0.90127712
Ce     3.84307097     2.21425202     4.00517328
Ce     3.89247612     0.01504063     7.30544638
Ce     9.66901012     1.12377363     0.90450652
Ce     7.72254886     2.25476788     4.05308695
Ce     2.02077415     9.86109920     7.27461131
Ce    -0.00709724     4.47602159     0.89067279
Ce    -1.94293907     5.56425962     4.08953055
Ce    -1.88604078     3.29675473     7.39668255
Ce     3.86254305     4.47635356     0.87798423
Ce     1.95789067     5.56790582     4.07652805
Ce     1.81233784     3.24308293     7.14539429
Ce     7.74213807     4.46545905     0.90125422
Ce     5.81844113     5.63567616     3.99810661
Ce    -1.94645625     7.83004003     0.90010904
Ce    -3.84568417     8.97104307     4.02287219
Ce    -3.81752946     6.88341229     7.14179191
Ce     1.92815559     7.82745473     0.89060408
Ce     0.00175011     8.95420065     4.08684239
Ce     0.01395291     6.66405703     7.27334669
Ce     5.81127600     7.83258510     0.88371011
Ce     3.87531311     8.93419561     4.04227973
Ce     3.98860070     6.72092821     7.26280104
Cu     5.13501393     3.80399884     6.42739719
Nb     6.53206859     2.74531061     8.43241001
O     11.61334069     0.00154917     0.10141687
O      1.91729501     1.11173582     3.20933771
O     -0.01101494     2.20363273     6.38908291
O     -0.00785227     2.23805103     1.69392277
O      5.80136864    10.05467852     4.83819091
O      1.82911791     1.17470340     8.04577821
O     -1.93899312    10.05733740     0.10496691
O      5.82596931     1.09800539     3.23910355
O      3.88361461     2.34224681     6.40468928
O      3.86763657     2.23577757     1.68132582
O      3.89143134     0.02529274     4.82764402
O      6.15821875     0.90703028     8.68433124
O      7.73821774     0.00761509     0.10924988
O      9.65861369     1.10909657     3.22367761
O      7.39450917     2.41328267     6.76784119
O      7.74357843     2.23531483     1.71563532
O      7.78422555     0.09640503     4.94047347
O      9.66859311     0.90589919     8.00721675
O      9.67032270     3.35425987     0.10911246
O     -0.02677389     4.47531697     3.25837568
O     -2.07522346     5.54470543     6.49505467
O     -1.94403436     5.59119430     1.70564938
O      9.59128300     3.28897916     4.87763749
O      0.10142013     4.50791613     8.05861819
O      1.92738314     3.35244915     0.09928684
O      3.82133994     4.47992449     3.20493100
O      2.10380629     5.41335376     6.48475412
O      1.92862022     5.59252216     1.67404250
O      1.88449565     3.30477027     4.81344187
O      5.81155478     3.35101064     0.10766953
O      7.75874030     4.49147206     3.23740315
O      5.97833216     5.54273886     6.38364536
O      5.80528807     5.59217007     1.68114259
O      5.76288744     3.38392116     4.65675360
O      7.98583315     3.55595183     9.18391017
O     -3.87155109     6.71022987     0.10512724
O     -1.89252821     7.81536935     3.26249481
O     -3.84184202     8.97865511     6.37424583
O     -3.87509971     8.94378428     1.69355631
O     -3.84822705     6.77071930     4.81184595
O     -1.90556558     7.73595242     8.04044262
O     -0.01209783     6.71325780     0.10434852
O      1.91523919     7.83619650     3.28018489
O      0.06798853     8.95921897     6.44411704
O     -0.00628994     8.94736548     1.70514550
O      0.01743702     6.64690097     4.96637823
O      1.89295372     7.76766088     8.06732024
O      3.86815347     6.71410280     0.09951587
O      5.81294631     7.84794245     3.21145496
O      3.90840665     8.86640518     6.38381072
O      3.86556896     8.94715423     1.69389986
O      3.90250549     6.68608786     4.80682625
O      5.97934570     7.89725325     8.05326051
O      5.01602955     3.89724164     8.36633432
O      5.61969871     2.74979794    11.14097175
O      6.35701582     3.36304070    13.28798503
C      5.99824357     3.05978322    12.21307225
