83
CIF: Nb-Cu-CeO2-Ov-O2.cif | data_image0
Ce     1.93038582     1.11050507     0.88387043
Ce    -0.02502459     2.24202196     4.04109426
Ce     5.80943975    10.03185779     7.20547969
Ce     5.81181033     1.12175166     0.90127712
Ce     3.82186670     2.20471797     3.96809011
Ce     3.83102780     0.02612982     7.21146845
Ce     9.66901012     1.12377363     0.90450652
Ce     7.74093948     2.24546744     4.06636917
Ce     1.99017694    10.01499145     7.34929488
Ce    -0.00709724     4.47602159     0.89067279
Ce    -1.93342750     5.57043169     4.10496304
Ce    -1.79122288     3.29734382     7.39008470
Ce     3.86254305     4.47635356     0.87798423
Ce     1.96004934     5.56742468     4.08820365
Ce     1.84860426     3.28915959     7.23358885
Ce     7.74213807     4.46545905     0.90125422
Ce     5.82774709     5.60714792     3.94365287
Ce    -1.94645625     7.83004003     0.90010904
Ce    -3.87368440     8.94158319     4.02300504
Ce    -3.79539911     6.85470222     7.21451018
Ce     1.92815559     7.82745473     0.89060408
Ce     0.00971273     8.96288308     4.10400156
Ce     0.03035392     6.70171978     7.28336373
Ce     5.81127600     7.83258510     0.88371011
Ce     3.87551230     8.93706358     4.08821488
Ce     3.86045480     6.75876941     7.37695952
Cu     4.83239942     3.87061825     6.27839084
Nb     6.52751981     3.16312341     8.01896821
O     11.61334069     0.00154917     0.10141687
O      1.91420130     1.09549953     3.20223759
O      0.06810641     2.19956822     6.38844122
O     -0.00785227     2.23805103     1.69392277
O      5.81218394    10.04097032     4.83548709
O      1.96219804     1.02460792     7.99017389
O     -1.93899312    10.05733740     0.10496691
O      5.81132721     1.10016156     3.23521312
O      3.82003337     2.27321905     6.36124527
O      3.86763657     2.23577757     1.68132582
O      3.86040976     0.02517868     4.83300810
O      5.90184216     1.45002280     8.44125222
O      7.73821774     0.00761509     0.10924988
O      9.66781120     1.11010407     3.24635024
O      7.59268293     2.45815731     6.60809524
O      7.74357843     2.23531483     1.71563532
O      7.74623254     0.07952275     4.89137536
O      9.87357903     0.98670309     8.08955765
O      9.67032270     3.35425987     0.10911246
O     -0.01901062     4.50149020     3.25946307
O     -2.01706605     5.61855993     6.51897718
O     -1.94403436     5.59119430     1.70564938
O      9.65481847     3.32914502     4.86305415
O      0.11315408     4.53962833     8.07188888
O      1.92738314     3.35244915     0.09928684
O      3.82750555     4.49746065     3.17554818
O      2.04007582     5.47357543     6.43914013
O      1.92862022     5.59252216     1.67404250
O      1.91318385     3.33519065     4.77950216
O      5.81155478     3.35101064     0.10766953
O      7.77029042     4.48524010     3.23472015
O      6.27991613     5.01138621     6.88613193
O      5.80528807     5.59217007     1.68114259
O      5.73542199     3.39823861     4.64306781
O      7.90557974     3.76758918     9.01403862
O     -3.87155109     6.71022987     0.10512724
O     -1.93379457     7.80369044     3.28389560
O     -3.79924238     8.95149445     6.35455390
O     -3.87509971     8.94378428     1.69355631
O      7.66305449     6.70282974     4.89262545
O     -1.95345435     7.90042566     8.07114755
O     -0.01209783     6.71325780     0.10434852
O      1.95940690     7.81287865     3.30797764
O     -0.07838148     9.04646531     6.47137740
O     -0.00628994     8.94736548     1.70514550
O      0.01680946     6.70494689     4.95309221
O      1.82113934     7.72833047     8.10568684
O      3.86815347     6.71410280     0.09951587
O      5.80566596     7.83253707     3.20022866
O      3.89517353     8.89461461     6.39609656
O      3.86556896     8.94715423     1.69389986
O      4.03866409     6.59698924     4.93468908
O      5.97327216     7.82007038     7.98785504
O      4.50480304     4.26551646     8.28500783
O      3.35615617     3.75222998     8.95546522
