     139
 i =     1275, time =     1275.000, E =     -7434.6673867214
  O         3.8259439000        2.2079377400        0.0000000000
  O         7.6518878000        2.2079377400        0.0000000000
  O        11.4779847500        2.2079377400        0.0000000000
  O        15.3050000000        2.2079377400        0.0000000000
  O         5.7389923700        5.5219650800        0.0000000000
  O         9.5649362800        5.5219650800        0.0000000000
  O        13.3910332200        5.5219650800        0.0000000000
  O        17.2180484700        5.5219650800        0.0000000000
  O         7.6519643300        8.8350646000        0.0000000000
  O        11.4780612700        8.8350646000        0.0000000000
  O        15.3050765300        8.8350646000        0.0000000000
  O        19.1310204300        8.8350646000        0.0000000000
  O         9.5649362800       12.1489593900        0.0000000000
  O        13.3910332300       12.1489593900        0.0000000000
  O        17.2180484700       12.1489593900        0.0000000000
  O        21.0439923800       12.1489593900        0.0000000000
  O         1.9130484800        3.3129669800        1.5618832200
  O         5.7389923700        3.3129669800        1.5618832200
  O         9.5649362700        3.3129669800        1.5618832200
  O        13.3910332200        3.3129669800        1.5618832200
  O         3.8259439000        6.6259339500        1.5618832200
  O         7.6518878000        6.6259339500        1.5618832200
  O        11.4779847500        6.6259339500        1.5618832200
  O        15.3050000000        6.6259339500        1.5618832200
  O         5.7389923700        9.9399612900        1.5618832200
  O         9.5649362700        9.9399612900        1.5618832200
  O        13.3910332200        9.9399612900        1.5618832200
  O        17.2180484700        9.9399612900        1.5618832200
  O         7.6519643300       13.2530608100        1.5618832200
  O        11.4780612700       13.2530608100        1.5618832200
  O        15.3050765300       13.2530608100        1.5618832200
  O        19.1310204300       13.2530608100        1.5618832200
  O         1.9787768636        1.0377269947        3.2041976731
  O         5.6351458117        1.1355864147        3.0016968980
  O         9.6130972057        1.0894190376        2.9881914614
  O        13.4917304259        1.1237716210        3.2042625189
  O         3.9086620355        4.5351081228        2.9441115203
  O         7.7878433868        4.5946383941        3.1359350822
  O        11.2862234365        4.5990074054        3.4427957275
  O        15.4057867733        4.3949318627        3.1325309688
  O         5.6377890842        7.6183787902        3.1270165044
  O         9.7977923575        7.7697940009        3.2392682637
  O        13.4303669491        7.8122931161        3.0503497673
  O        17.2251275941        7.6913075540        3.1599703429
  O         7.5302465910       11.0465807130        3.0125093442
  O        11.3961093658       11.1277746587        3.3477487987
  O        15.5425327797       11.0897606025        3.0702912480
  O        19.1330927624       10.8484256231        3.0271249843
  O         3.8927045502        2.2613304046        4.9483966065
  O         7.6223763546        2.1020006491        4.4839218141
  O        11.6199049822        2.2543159106        4.5849848250
  O        15.3962836445        2.2236635453        4.7398195182
  O         5.6397306481        5.3474655234        4.6796872746
  O         9.1627782976        3.3768958185        6.2793462996
  O        13.7407740107        5.5167478684        4.8681306604
  O        17.1951703965        5.5898589344        4.9138364012
  O         7.6878832772        8.7889194681        4.5947639693
  O        11.7177584313        8.9098522361        4.5697778708
  O        15.4168430512        8.9944936962        4.7610347357
  O        19.1393073274        8.8942814617        4.8457658978
  O         9.5307800160       12.2282559690        4.6570188653
  O        13.4939031550       12.3100940758        4.7424816200
  O        17.4515836912       12.2485136974        4.6733723962
  O        21.0654459816       12.1382621337        4.6531761533
 Ce         1.9130484700        1.1039688700        0.7810650400
 Ce         5.7389923700        1.1039688700        0.7810650400
 Ce         9.5649362800        1.1039688700        0.7810650400
 Ce        13.3910332200        1.1039688700        0.7810650400
 Ce         3.8259439000        4.4169358500        0.7810650400
 Ce         7.6518878000        4.4169358500        0.7810650400
 Ce        11.4779847500        4.4169358500        0.7810650400
 Ce        15.3050000000        4.4169358500        0.7810650400
 Ce         5.7389923700        7.7309631800        0.7810650400
 Ce         9.5649362800        7.7309631800        0.7810650400
 Ce        13.3910332200        7.7309631800        0.7810650400
 Ce        17.2180484700        7.7309631800        0.7810650400
 Ce         7.6519643300       11.0440627000        0.7810650400
 Ce        11.4780612700       11.0440627000        0.7810650400
 Ce        15.3050765300       11.0440627000        0.7810650400
 Ce        19.1310204300       11.0440627000        0.7810650400
 Ce        17.2464271203        3.2745126925        3.9298937824
 Ce         5.7351904106        3.2565251677        3.9903332754
 Ce         9.5626652104        3.0976911474        4.0490494838
 Ce        13.4844826285        3.2895866991        3.9380951656
 Ce        19.0184325175        6.4969253009        3.7869616712
 Ce         7.4646912873        6.6625135446        3.8531350902
 Ce        11.6136373942        6.6077065713        3.9754422874
 Ce        15.5318137035        6.6652394473        4.0517230876
 Ce        20.9867024454        9.8820526801        3.9870438731
 Ce         9.6746252837        9.9134011775        3.9069830441
 Ce        13.6524149261        9.9651894821        3.8531819323
 Ce        17.3948032240       10.0389319896        3.9358076376
 Ce        15.3146548578       -0.1515354741        3.8726211907
 Ce         3.7461941042        0.0302616718        3.9938230817
 Ce        15.2863512486       13.2985795543        3.8805483489
 Ce        19.2501884108       13.3243054750        3.9142902187
 Pt         9.2224477865        5.4915264572        6.2563642096
 Pt        13.8356857823        5.3894292410        6.9294035467
 Pt        11.4790085640        9.7070786994        6.5017434583
 Pt         9.5802119108        3.2106668307        8.3111776684
 Pt        11.3894335435        3.5799512619       10.2175761278
 Pt         7.0646972214        7.3472414678        7.2333642967
 Pt        11.2715422905        5.3286445611        8.0339230671
 Pt        13.5437446953        4.9056276033        9.3283404058
 Pt         8.0097307060        9.5964061755        6.4726890813
 Pt         9.7289034136        7.7790295027        7.6053961598
 Pt        12.5794206151        7.5873010973        7.7916467487
 Pt        14.9330653687        7.1705398076        8.7688087719
 Pt         9.5175439048       11.9124380319        6.6964772438
 Pt        11.8758541557       11.4324937305        8.2270130846
 Pt        13.7916488010        9.8000072927        8.9661920697
 Pt         8.7072816120        4.1531615652       10.6816327610
 Pt         6.4861822675        7.0645722731       10.1684414456
 Pt         8.3861630551        5.7017241407        8.7895064154
 Pt        11.5440187085        6.5620535852       10.5040087263
 Pt        13.3439260529        4.2778433072       12.0056648720
 Pt         7.9033019594        9.2548212162        8.9584062725
 Pt        11.0194903860        9.1148884104        9.4738313841
 Pt        14.2153622197        6.6367500334       11.3312264698
 Pt         7.0906123091       11.5654580546        7.9483508064
 Pt         9.4385655852       11.4333568837        9.4413991286
 Pt        13.7440642723        8.9760566755       12.8078385687
 Pt        15.4783132103        8.7850958245       10.8151258395
 Pt        12.5459495046       10.7293400960       10.9895206269
 Pt         5.6215309842        6.8258661125       12.6053991015
 Pt         8.1886166517        5.8697357951       12.5040337838
 Pt        10.7441766684        4.9436351561       12.2813244883
 Pt         6.8966351992        9.0904202397       11.6270059104
 Pt         9.1678899439        7.6410859063       10.7336356868
 Pt        10.0087445077        6.9703790028       13.8803821106
 Pt        12.4941270875        6.4161413001       13.3966869521
 Pt         7.1307347082       11.5000489158       10.5148751923
 Pt        11.0842140686        8.5948606304       12.1127720943
 Pt        12.0787080555        8.5577521990       14.8484628462
 Pt        10.0248165658       10.9694104636       11.7927799912
 Pt        12.0180330945       10.8474824656       13.6820718631
 Pt         7.6385512434        8.1982388380       14.0771667245
 Pt         7.4870330590       10.8891018970       13.2034454538
 Pt         9.6820608607        9.8632834760       14.1923889664
     139
 i =     1276, time =     1276.000, E =     -7434.6668323898
  O         3.8259439000        2.2079377400        0.0000000000
  O         7.6518878000        2.2079377400        0.0000000000
  O        11.4779847500        2.2079377400        0.0000000000
  O        15.3050000000        2.2079377400        0.0000000000
  O         5.7389923700        5.5219650800        0.0000000000
  O         9.5649362800        5.5219650800        0.0000000000
  O        13.3910332200        5.5219650800        0.0000000000
  O        17.2180484700        5.5219650800        0.0000000000
  O         7.6519643300        8.8350646000        0.0000000000
  O        11.4780612700        8.8350646000        0.0000000000
  O        15.3050765300        8.8350646000        0.0000000000
  O        19.1310204300        8.8350646000        0.0000000000
  O         9.5649362800       12.1489593900        0.0000000000
  O        13.3910332300       12.1489593900        0.0000000000
  O        17.2180484700       12.1489593900        0.0000000000
  O        21.0439923800       12.1489593900        0.0000000000
  O         1.9130484800        3.3129669800        1.5618832200
  O         5.7389923700        3.3129669800        1.5618832200
  O         9.5649362700        3.3129669800        1.5618832200
  O        13.3910332200        3.3129669800        1.5618832200
  O         3.8259439000        6.6259339500        1.5618832200
  O         7.6518878000        6.6259339500        1.5618832200
  O        11.4779847500        6.6259339500        1.5618832200
  O        15.3050000000        6.6259339500        1.5618832200
  O         5.7389923700        9.9399612900        1.5618832200
  O         9.5649362700        9.9399612900        1.5618832200
  O        13.3910332200        9.9399612900        1.5618832200
  O        17.2180484700        9.9399612900        1.5618832200
  O         7.6519643300       13.2530608100        1.5618832200
  O        11.4780612700       13.2530608100        1.5618832200
  O        15.3050765300       13.2530608100        1.5618832200
  O        19.1310204300       13.2530608100        1.5618832200
  O         1.9849616748        1.0309783918        3.2098620789
  O         5.6416770390        1.1314300630        3.0068144601
  O         9.6157018303        1.0887677129        2.9836316206
  O        13.4870298554        1.1303968634        3.1983668776
  O         3.9186535717        4.5287033592        2.9442434560
  O         7.7892642376        4.5985673725        3.1339988304
  O        11.2841574763        4.6144884203        3.4434998456
  O        15.4157186612        4.4007637796        3.1319554177
  O         5.6327429139        7.6210911667        3.1303971475
  O         9.8014672114        7.7771877434        3.2365626434
  O        13.4299162243        7.8149631269        3.0461938526
  O        17.2295055093        7.6909398637        3.1604547036
  O         7.5243842596       11.0421523301        3.0059129435
  O        11.4011257437       11.1224155024        3.3368548611
  O        15.5430484068       11.0899716830        3.0710905197
  O        19.1363368273       10.8545855291        3.0180787059
  O         3.8929101845        2.2612215675        4.9565040984
  O         7.6240539486        2.1097541496        4.4923381568
  O        11.6181308174        2.2613437642        4.5781289793
  O        15.3928750424        2.2259766513        4.7453498469
  O         5.6369341861        5.3576331658        4.6707913499
  O         9.1548366241        3.3777819839        6.2757526229
  O        13.7359520235        5.5093879860        4.8713597758
  O        17.1955378597        5.5963492640        4.9162894488
  O         7.6862288329        8.7954876621        4.5890955495
  O        11.7132939295        8.9067974715        4.5789572715
  O        15.4169878399        8.9916006161        4.7686846099
  O        19.1379258205        8.9052233306        4.8468108244
  O         9.5324144798       12.2290629063        4.6629770799
  O        13.5082812389       12.3120806491        4.7485432034
  O        17.4625263391       12.2433878875        4.6707540054
  O        21.0642119455       12.1474208315        4.6570398410
 Ce         1.9130484700        1.1039688700        0.7810650400
 Ce         5.7389923700        1.1039688700        0.7810650400
 Ce         9.5649362800        1.1039688700        0.7810650400
 Ce        13.3910332200        1.1039688700        0.7810650400
 Ce         3.8259439000        4.4169358500        0.7810650400
 Ce         7.6518878000        4.4169358500        0.7810650400
 Ce        11.4779847500        4.4169358500        0.7810650400
 Ce        15.3050000000        4.4169358500        0.7810650400
 Ce         5.7389923700        7.7309631800        0.7810650400
 Ce         9.5649362800        7.7309631800        0.7810650400
 Ce        13.3910332200        7.7309631800        0.7810650400
 Ce        17.2180484700        7.7309631800        0.7810650400
 Ce         7.6519643300       11.0440627000        0.7810650400
 Ce        11.4780612700       11.0440627000        0.7810650400
 Ce        15.3050765300       11.0440627000        0.7810650400
 Ce        19.1310204300       11.0440627000        0.7810650400
 Ce        17.2451154509        3.2728080139        3.9348045940
 Ce         5.7351300441        3.2566684900        3.9924480276
 Ce         9.5633319806        3.0961389783        4.0509405817
 Ce        13.4814981962        3.2906530625        3.9374077581
 Ce        19.0223659714        6.5000958511        3.7873059834
 Ce         7.4645050221        6.6642099406        3.8539099721
 Ce        11.6131666219        6.6093730611        3.9750904798
 Ce        15.5299547211        6.6661490114        4.0513619497
 Ce        20.9856373798        9.8807148519        3.9890798028
 Ce         9.6719117472        9.9110052656        3.9080541405
 Ce        13.6544363255        9.9667422720        3.8533273924
 Ce        17.3953353318       10.0388515452        3.9339430930
 Ce        15.3167810286       -0.1543243590        3.8741017724
 Ce         3.7492440957        0.0313681009        3.9956038278
 Ce        15.2863479789       13.2992419312        3.8816844278
 Ce        19.2500955336       13.3264993462        3.9128319017
 Pt         9.2233396157        5.4920526873        6.2535439326
 Pt        13.8374553460        5.3889177343        6.9264221830
 Pt        11.4801856367        9.7073745111        6.4987121426
 Pt         9.5811223918        3.2117830441        8.3087572993
 Pt        11.3875010031        3.5815724567       10.2174297489
 Pt         7.0640761245        7.3507966831        7.2345662071
 Pt        11.2712396449        5.3301277317        8.0353997384
 Pt        13.5390718825        4.9052009573        9.3282974241
 Pt         8.0129464651        9.5967219699        6.4709365985
 Pt         9.7302023925        7.7802652916        7.6048342871
 Pt        12.5753457932        7.5877304982        7.7917258032
 Pt        14.9333816597        7.1713170398        8.7677470149
 Pt         9.5164308510       11.9094677584        6.6951070100
 Pt        11.8747148214       11.4334017538        8.2260513953
 Pt        13.7912453679        9.7988018103        8.9652935650
 Pt         8.7057216357        4.1519285940       10.6817353255
 Pt         6.4825758924        7.0618643144       10.1689094804
 Pt         8.3878331495        5.7006789223        8.7893452350
 Pt        11.5454396333        6.5643682194       10.5019936361
 Pt        13.3455499961        4.2781570788       12.0059857586
 Pt         7.9048976088        9.2572848650        8.9567059423
 Pt        11.0203606896        9.1146783029        9.4749864671
 Pt        14.2174973779        6.6388060595       11.3328575661
 Pt         7.0920272348       11.5640721077        7.9488766819
 Pt         9.4388407249       11.4320709760        9.4446230919
 Pt        13.7426547893        8.9794062201       12.8058477169
 Pt        15.4800117594        8.7849126540       10.8155532719
 Pt        12.5457907174       10.7279365825       10.9870804444
 Pt         5.6224511776        6.8224865507       12.6067710096
 Pt         8.1885717189        5.8719642414       12.5056887730
 Pt        10.7481450362        4.9374169391       12.2839974037
 Pt         6.8969756409        9.0924085342       11.6240143763
 Pt         9.1676688265        7.6442750871       10.7351380081
 Pt        10.0070596202        6.9717201864       13.8802651403
 Pt        12.4929481475        6.4161243417       13.3975036269
 Pt         7.1304615150       11.5002050260       10.5109827013
 Pt        11.0846186670        8.5956086548       12.1129412165
 Pt        12.0774749374        8.5575951055       14.8462578384
 Pt        10.0244251216       10.9657591329       11.7924939715
 Pt        12.0163644434       10.8462351630       13.6816101916
 Pt         7.6395599706        8.1987626845       14.0783619759
 Pt         7.4904996248       10.8889761788       13.2022894985
 Pt         9.6835772573        9.8626560676       14.1923516952
     139
 i =     1277, time =     1277.000, E =     -7434.6663130604
  O         3.8259439000        2.2079377400        0.0000000000
  O         7.6518878000        2.2079377400        0.0000000000
  O        11.4779847500        2.2079377400        0.0000000000
  O        15.3050000000        2.2079377400        0.0000000000
  O         5.7389923700        5.5219650800        0.0000000000
  O         9.5649362800        5.5219650800        0.0000000000
  O        13.3910332200        5.5219650800        0.0000000000
  O        17.2180484700        5.5219650800        0.0000000000
  O         7.6519643300        8.8350646000        0.0000000000
  O        11.4780612700        8.8350646000        0.0000000000
  O        15.3050765300        8.8350646000        0.0000000000
  O        19.1310204300        8.8350646000        0.0000000000
  O         9.5649362800       12.1489593900        0.0000000000
  O        13.3910332300       12.1489593900        0.0000000000
  O        17.2180484700       12.1489593900        0.0000000000
  O        21.0439923800       12.1489593900        0.0000000000
  O         1.9130484800        3.3129669800        1.5618832200
  O         5.7389923700        3.3129669800        1.5618832200
  O         9.5649362700        3.3129669800        1.5618832200
  O        13.3910332200        3.3129669800        1.5618832200
  O         3.8259439000        6.6259339500        1.5618832200
  O         7.6518878000        6.6259339500        1.5618832200
  O        11.4779847500        6.6259339500        1.5618832200
  O        15.3050000000        6.6259339500        1.5618832200
  O         5.7389923700        9.9399612900        1.5618832200
  O         9.5649362700        9.9399612900        1.5618832200
  O        13.3910332200        9.9399612900        1.5618832200
  O        17.2180484700        9.9399612900        1.5618832200
  O         7.6519643300       13.2530608100        1.5618832200
  O        11.4780612700       13.2530608100        1.5618832200
  O        15.3050765300       13.2530608100        1.5618832200
  O        19.1310204300       13.2530608100        1.5618832200
  O         1.9908615669        1.0249139547        3.2150313884
  O         5.6482457858        1.1273098199        3.0125383308
  O         9.6183209926        1.0882060377        2.9798339535
  O        13.4823100632        1.1369657546        3.1919109442
  O         3.9278314132        4.5213188921        2.9452659287
  O         7.7906153922        4.6019983599        3.1323348940
  O        11.2825816612        4.6295304950        3.4436340908
  O        15.4256008332        4.4066426068        3.1313346026
  O         5.6278393911        7.6242874288        3.1337395666
  O         9.8045043724        7.7840471495        3.2335382376
  O        13.4296799924        7.8170740588        3.0424016190
  O        17.2342362616        7.6907433289        3.1605645648
  O         7.5191271947       11.0375913522        2.9998316361
  O        11.4066460675       11.1170657704        3.3250352884
  O        15.5427579457       11.0902714933        3.0720356476
  O        19.1402156621       10.8614984199        3.0092303165
  O         3.8928748201        2.2613136103        4.9637452559
  O         7.6253689497        2.1175763576        4.5010470649
  O        11.6162969186        2.2679387555        4.5715556482
  O        15.3894841793        2.2285155201        4.7506059735
  O         5.6342511992        5.3680264487        4.6619374160
  O         9.1470684807        3.3789432703        6.2723059017
  O        13.7307280336        5.5019758957        4.8743328478
  O        17.1963578565        5.6023992170        4.9182357160
  O         7.6843848263        8.8023296763        4.5831865473
  O        11.7087132180        8.9036760683        4.5888982358
  O        15.4170862775        8.9884687737        4.7760898710
  O        19.1367720266        8.9161469917        4.8475623168
  O         9.5338568552       12.2295394606        4.6692600166
  O        13.5228740337       12.3138445447        4.7541629993
  O        17.4733867123       12.2382764172        4.6681855993
  O        21.0626475304       12.1564717212        4.6609885209
 Ce         1.9130484700        1.1039688700        0.7810650400
 Ce         5.7389923700        1.1039688700        0.7810650400
 Ce         9.5649362800        1.1039688700        0.7810650400
 Ce        13.3910332200        1.1039688700        0.7810650400
 Ce         3.8259439000        4.4169358500        0.7810650400
 Ce         7.6518878000        4.4169358500        0.7810650400
 Ce        11.4779847500        4.4169358500        0.7810650400
 Ce        15.3050000000        4.4169358500        0.7810650400
 Ce         5.7389923700        7.7309631800        0.7810650400
 Ce         9.5649362800        7.7309631800        0.7810650400
 Ce        13.3910332200        7.7309631800        0.7810650400
 Ce        17.2180484700        7.7309631800        0.7810650400
 Ce         7.6519643300       11.0440627000        0.7810650400
 Ce        11.4780612700       11.0440627000        0.7810650400
 Ce        15.3050765300       11.0440627000        0.7810650400
 Ce        19.1310204300       11.0440627000        0.7810650400
 Ce        17.2437446545        3.2710754481        3.9397449402
 Ce         5.7350607381        3.2568539999        3.9945071464
 Ce         9.5640078594        3.0946968206        4.0528141448
 Ce        13.4785670236        3.2917059055        3.9367412352
 Ce        19.0264002937        6.5033460394        3.7877770285
 Ce         7.4643795723        6.6658075757        3.8547438779
 Ce        11.6126901872        6.6111564895        3.9747557065
 Ce        15.5279697296        6.6670754784        4.0509837077
 Ce        20.9845645575        9.8794197205        3.9910969593
 Ce         9.6691997211        9.9085967085        3.9091194031
 Ce        13.6564001144        9.9683179439        3.8535456699
 Ce        17.3957808119       10.0387351605        3.9321223477
 Ce        15.3188404462       -0.1570180489        3.8756108750
 Ce         3.7524647880        0.0324657737        3.9973814553
 Ce        15.2863440880       13.2998214113        3.8827935133
 Ce        19.2499537115       13.3286301935        3.9113604281
 Pt         9.2242287378        5.4925772772        6.2507102097
 Pt        13.8392219659        5.3884475767        6.9234069259
 Pt        11.4813577773        9.7076452196        6.4956734717
 Pt         9.5820543537        3.2129529280        8.3063223471
 Pt        11.3855566831        3.5831878849       10.2172417564
 Pt         7.0634665797        7.3542943996        7.2358116744
 Pt        11.2709083369        5.3316064607        8.0368685248
 Pt        13.5344027833        4.9047640691        9.3283366177
 Pt         8.0161568697        9.5970491623        6.4691037193
 Pt         9.7315348641        7.7814725013        7.6042351888
 Pt        12.5712244464        7.5881846495        7.7918165322
 Pt        14.9336851841        7.1720857611        8.7666975247
 Pt         9.5153316073       11.9064486903        6.6937845590
 Pt        11.8735488461       11.4343285769        8.2251406202
 Pt        13.7908538625        9.7975643217        8.9643955330
 Pt         8.7041877539        4.1506483758       10.6818395556
 Pt         6.4789799628        7.0591279889       10.1693313375
 Pt         8.3895044054        5.6996567714        8.7892164591
 Pt        11.5468768709        6.5667248549       10.4999287290
 Pt        13.3471578534        4.2784809553       12.0062806521
 Pt         7.9064866849        9.2597630718        8.9550936923
 Pt        11.0212493507        9.1144465121        9.4761158154
 Pt        14.2196121814        6.6408665226       11.3344882587
 Pt         7.0934643925       11.5627089404        7.9494140306
 Pt         9.4391203724       11.4307925627        9.4477345667
 Pt        13.7412349700        8.9827439084       12.8038184084
 Pt        15.4816785596        8.7847453408       10.8159622531
 Pt        12.5456401251       10.7265235283       10.9846502073
 Pt         5.6234407736        6.8191249601       12.6081347982
 Pt         8.1884858126        5.8742192953       12.5073292564
 Pt        10.7520258766        4.9311931776       12.2867105956
 Pt         6.8973256144        9.0943707909       11.6210078304
 Pt         9.1674002706        7.6474388657       10.7366192698
 Pt        10.0053911016        6.9731156509       13.8801964799
 Pt        12.4918495502        6.4161283085       13.3983245702
 Pt         7.1301871539       11.5003227065       10.5071462104
 Pt        11.0850478559        8.5963445943       12.1131374992
 Pt        12.0762029089        8.5574195183       14.8440578019
 Pt        10.0240197855       10.9621263546       11.7922698125
 Pt        12.0147160514       10.8450212869       13.6811189578
 Pt         7.6405650746        8.1992796354       14.0795029660
 Pt         7.4939983216       10.8888768482       13.2011310661
 Pt         9.6850854250        9.8619787259       14.1923258456
     139
 i =     1278, time =     1278.000, E =     -7434.6652152451
  O         3.8259439000        2.2079377400        0.0000000000
  O         7.6518878000        2.2079377400        0.0000000000
  O        11.4779847500        2.2079377400        0.0000000000
  O        15.3050000000        2.2079377400        0.0000000000
  O         5.7389923700        5.5219650800        0.0000000000
  O         9.5649362800        5.5219650800        0.0000000000
  O        13.3910332200        5.5219650800        0.0000000000
  O        17.2180484700        5.5219650800        0.0000000000
  O         7.6519643300        8.8350646000        0.0000000000
  O        11.4780612700        8.8350646000        0.0000000000
  O        15.3050765300        8.8350646000        0.0000000000
  O        19.1310204300        8.8350646000        0.0000000000
  O         9.5649362800       12.1489593900        0.0000000000
  O        13.3910332300       12.1489593900        0.0000000000
  O        17.2180484700       12.1489593900        0.0000000000
  O        21.0439923800       12.1489593900        0.0000000000
  O         1.9130484800        3.3129669800        1.5618832200
  O         5.7389923700        3.3129669800        1.5618832200
  O         9.5649362700        3.3129669800        1.5618832200
  O        13.3910332200        3.3129669800        1.5618832200
  O         3.8259439000        6.6259339500        1.5618832200
  O         7.6518878000        6.6259339500        1.5618832200
  O        11.4779847500        6.6259339500        1.5618832200
  O        15.3050000000        6.6259339500        1.5618832200
  O         5.7389923700        9.9399612900        1.5618832200
  O         9.5649362700        9.9399612900        1.5618832200
  O        13.3910332200        9.9399612900        1.5618832200
  O        17.2180484700        9.9399612900        1.5618832200
  O         7.6519643300       13.2530608100        1.5618832200
  O        11.4780612700       13.2530608100        1.5618832200
  O        15.3050765300       13.2530608100        1.5618832200
  O        19.1310204300       13.2530608100        1.5618832200
  O         1.9964495579        1.0195661412        3.2196878855
  O         5.6548362548        1.1232277169        3.0188352567
  O         9.6209255702        1.0877420321        2.9768270998
  O        13.4776247244        1.1434517980        3.1849022600
  O         3.9361757970        4.5129969425        2.9471797613
  O         7.7918923443        4.6049216787        3.1309538519
  O        11.2814531937        4.6440598009        3.4431919634
  O        15.4354152863        4.4125576438        3.1306853637
  O         5.6231046172        7.6279752912        3.1370410102
  O         9.8069008826        7.7903406285        3.2302046379
  O        13.4296550450        7.8186336858        3.0390046554
  O        17.2392852364        7.6907185490        3.1603063737
  O         7.5145040462       11.0329627926        2.9943331463
  O        11.4126575166       11.1117558734        3.3123239461
  O        15.5416615356       11.0906527666        3.0731340585
  O        19.1447037332       10.8691134428        3.0006850389
  O         3.8926092512        2.2615988006        4.9701182577
  O         7.6263022836        2.1254249561        4.5100412320
  O        11.6143948184        2.2741000261        4.5652798439
  O        15.3861317799        2.2312673974        4.7555600736
  O         5.6317103544        5.3786390345        4.6531945478
  O         9.1394829374        3.3803912339        6.2690259436
  O        13.7251158169        5.4945263696        4.8769857016
  O        17.1976283208        5.6080045034        4.9196772173
  O         7.6823664291        8.8094353413        4.5770732121
  O        11.7040528523        8.9005026877        4.5995285950
  O        15.4171318536        8.9851052002        4.7832393640
  O        19.1358395473        8.9270393644        4.8480305416
  O         9.5351203587       12.2296826277        4.6757737740
  O        13.5376339053       12.3153497491        4.7593484795
  O        17.4841257473       12.2331833814        4.6656885441
  O        21.0607861124       12.1653812658        4.6649903484
 Ce         1.9130484700        1.1039688700        0.7810650400
 Ce         5.7389923700        1.1039688700        0.7810650400
 Ce         9.5649362800        1.1039688700        0.7810650400
 Ce        13.3910332200        1.1039688700        0.7810650400
 Ce         3.8259439000        4.4169358500        0.7810650400
 Ce         7.6518878000        4.4169358500        0.7810650400
 Ce        11.4779847500        4.4169358500        0.7810650400
 Ce        15.3050000000        4.4169358500        0.7810650400
 Ce         5.7389923700        7.7309631800        0.7810650400
 Ce         9.5649362800        7.7309631800        0.7810650400
 Ce        13.3910332200        7.7309631800        0.7810650400
 Ce        17.2180484700        7.7309631800        0.7810650400
 Ce         7.6519643300       11.0440627000        0.7810650400
 Ce        11.4780612700       11.0440627000        0.7810650400
 Ce        15.3050765300       11.0440627000        0.7810650400
 Ce        19.1310204300       11.0440627000        0.7810650400
 Ce        17.2423160183        3.2693184685        3.9447128464
 Ce         5.7349832846        3.2570830216        3.9965094440
 Ce         9.5646896302        3.0933689884        4.0546675897
 Ce        13.4756935044        3.2927463485        3.9360949062
 Ce        19.0305305208        6.5066673435        3.7883720260
 Ce         7.4643137980        6.6673055932        3.8556348800
 Ce        11.6122082915        6.6130610200        3.9744398231
 Ce        15.5258651333        6.6680172758        4.0505885559
 Ce        20.9834822958        9.8781732821        3.9930920916
 Ce         9.6664940102        9.9061800019        3.9101747183
 Ce        13.6583052638        9.9699141085        3.8538364070
 Ce        17.3961444551       10.0385857574        3.9303427474
 Ce        15.3208282347       -0.1596163236        3.8771463197
 Ce         3.7558554097        0.0335498110        3.9991549804
 Ce        15.2863419024       13.3003225472        3.8838752356
 Ce        19.2497660433       13.3306951428        3.9098731472
 Pt         9.2251144697        5.4931010218        6.2478642797
 Pt        13.8409836489        5.3880193328        6.9203644376
 Pt        11.4825253955        9.7078932198        6.4926312236
 Pt         9.5830058666        3.2141758986        8.3038724492
 Pt        11.3836004496        3.5847952907       10.2170095163
 Pt         7.0628701803        7.3577349245        7.2371048638
 Pt        11.2705497181        5.3330810796        8.0383264826
 Pt        13.5297393413        4.9043175241        9.3284574166
 Pt         8.0193583875        9.5973867567        6.4671883733
 Pt         9.7329004834        7.7826483004        7.6036003375
 Pt        12.5670587563        7.5886662214        7.7919180633
 Pt        14.9339757135        7.1728431175        8.7656594386
 Pt         9.5142480091       11.9033833610        6.6925145360
 Pt        11.8723572295       11.4352728018        8.2242815473
 Pt        13.7904734238        9.7962944098        8.9634967515
 Pt         8.7026805041        4.1493227289       10.6819462057
 Pt         6.4753952180        7.0563650460       10.1697080682
 Pt         8.3911776609        5.6986577851        8.7891187513
 Pt        11.5483274884        6.5691208518       10.4978175243
 Pt        13.3487505016        4.2788163307       12.0065492824
 Pt         7.9080691845        9.2622502053        8.9535701727
 Pt        11.0221571362        9.1141915525        9.4772194114
 Pt        14.2217057701        6.6429303950       11.3361179916
 Pt         7.0949231509       11.5613710904        7.9499587903
 Pt         9.4394031373       11.4295238751        9.4507278204
 Pt        13.7398041753        8.9860686768       12.8017518756
 Pt        15.4833130605        8.7845941869       10.8163537420
 Pt        12.5454981994       10.7251040634       10.9822295296
 Pt         5.6244986615        6.8157820516       12.6094901461
 Pt         8.1883606328        5.8764986767       12.5089536798
 Pt        10.7558175518        4.9249684141       12.2894649524
 Pt         6.8976866688        9.0963066263       11.6179861029
 Pt         9.1670825796        7.6505757276       10.7380783825
 Pt        10.0037400992        6.9745628168       13.8801759291
 Pt        12.4908313293        6.4161535892       13.3991488130
 Pt         7.1299103040       11.5004039954       10.5033669292
 Pt        11.0855043209        8.5970679576       12.1133605562
 Pt        12.0748931730        8.5572243807       14.8418628180
 Pt        10.0236001420       10.9585112027       11.7921127807
 Pt        12.0130891696       10.8438426157       13.6805959963
 Pt         7.6415664784        8.1997902055       14.0805908561
 Pt         7.4975279132       10.8888009875       13.1999689840
 Pt         9.6865833218        9.8612530121       14.1923122594
     139
 i =     1279, time =     1279.000, E =     -7434.6646523725
  O         3.8259439000        2.2079377400        0.0000000000
  O         7.6518878000        2.2079377400        0.0000000000
  O        11.4779847500        2.2079377400        0.0000000000
  O        15.3050000000        2.2079377400        0.0000000000
  O         5.7389923700        5.5219650800        0.0000000000
  O         9.5649362800        5.5219650800        0.0000000000
  O        13.3910332200        5.5219650800        0.0000000000
  O        17.2180484700        5.5219650800        0.0000000000
  O         7.6519643300        8.8350646000        0.0000000000
  O        11.4780612700        8.8350646000        0.0000000000
  O        15.3050765300        8.8350646000        0.0000000000
  O        19.1310204300        8.8350646000        0.0000000000
  O         9.5649362800       12.1489593900        0.0000000000
  O        13.3910332300       12.1489593900        0.0000000000
  O        17.2180484700       12.1489593900        0.0000000000
  O        21.0439923800       12.1489593900        0.0000000000
  O         1.9130484800        3.3129669800        1.5618832200
  O         5.7389923700        3.3129669800        1.5618832200
  O         9.5649362700        3.3129669800        1.5618832200
  O        13.3910332200        3.3129669800        1.5618832200
  O         3.8259439000        6.6259339500        1.5618832200
  O         7.6518878000        6.6259339500        1.5618832200
  O        11.4779847500        6.6259339500        1.5618832200
  O        15.3050000000        6.6259339500        1.5618832200
  O         5.7389923700        9.9399612900        1.5618832200
  O         9.5649362700        9.9399612900        1.5618832200
  O        13.3910332200        9.9399612900        1.5618832200
  O        17.2180484700        9.9399612900        1.5618832200
  O         7.6519643300       13.2530608100        1.5618832200
  O        11.4780612700       13.2530608100        1.5618832200
  O        15.3050765300       13.2530608100        1.5618832200
  O        19.1310204300       13.2530608100        1.5618832200
  O         2.0016921103        1.0149603016        3.2238120856
  O         5.6614298655        1.1191864854        3.0256592168
  O         9.6234854296        1.0873839383        2.9746377949
  O        13.4730254806        1.1498261870        3.1773432928
  O         3.9436587583        4.5037812872        2.9499742604
  O         7.7930922681        4.6073317123        3.1298650539
  O        11.2807258980        4.6580096104        3.4421672292
  O        15.4451265254        4.4184906267        3.1300235318
  O         5.6185712657        7.6321616147        3.1402936714
  O         9.8086489218        7.7960285631        3.2265766785
  O        13.4298398631        7.8196518994        3.0360364501
  O        17.2446119843        7.6908649388        3.1596902240
  O         7.5105426002       11.0283271175        2.9894690204
  O        11.4191503488       11.1065156004        3.2987572773
  O        15.5397663967       11.0911060275        3.0743913734
  O        19.1497649771       10.8773724819        2.9925289749
  O         3.8921243027        2.2620670660        4.9756329777
  O         7.6268362595        2.1332575655        4.5192926766
  O        11.6124167041        2.2798247208        4.5593047238
  O        15.3828373918        2.2342190605        4.7601943955
  O         5.6293323645        5.3894689800        4.6446257551
  O         9.1320814055        3.3821363556        6.2659271872
  O        13.7191229789        5.4870391703        4.8792621075
  O        17.1993452094        5.6131727000        4.9206154789
  O         7.6801899755        8.8168012495        4.5707981090
  O        11.6993399718        8.8972874522        4.6107449056
  O        15.4171215313        8.9815157637        4.7901075614
  O        19.1351199897        8.9379029961        4.8482263604
  O         9.5362197068       12.2294953533        4.6824273871
  O        13.5525346058       12.3165746858        4.7641202880
  O        17.4946974223       12.2281235951        4.6632861820
  O        21.0586728239       12.1741239602        4.6690137357
 Ce         1.9130484700        1.1039688700        0.7810650400
 Ce         5.7389923700        1.1039688700        0.7810650400
 Ce         9.5649362800        1.1039688700        0.7810650400
 Ce        13.3910332200        1.1039688700        0.7810650400
 Ce         3.8259439000        4.4169358500        0.7810650400
 Ce         7.6518878000        4.4169358500        0.7810650400
 Ce        11.4779847500        4.4169358500        0.7810650400
 Ce        15.3050000000        4.4169358500        0.7810650400
 Ce         5.7389923700        7.7309631800        0.7810650400
 Ce         9.5649362800        7.7309631800        0.7810650400
 Ce        13.3910332200        7.7309631800        0.7810650400
 Ce        17.2180484700        7.7309631800        0.7810650400
 Ce         7.6519643300       11.0440627000        0.7810650400
 Ce        11.4780612700       11.0440627000        0.7810650400
 Ce        15.3050765300       11.0440627000        0.7810650400
 Ce        19.1310204300       11.0440627000        0.7810650400
 Ce        17.2408310506        3.2675405669        3.9497063002
 Ce         5.7348981925        3.2573569048        3.9984538780
 Ce         9.5653740858        3.0921594145        4.0564982962
 Ce        13.4728819751        3.2937754763        3.9354680957
 Ce        19.0347515165        6.5100509583        3.7890882009
 Ce         7.4643060083        6.6687031462        3.8565811016
 Ce        11.6117212870        6.6150910835        3.9741448408
 Ce        15.5236475572        6.6689726864        4.0501767015
 Ce        20.9823886688        9.8769817692        3.9950617997
 Ce         9.6638002536        9.9037596918        3.9112158547
 Ce        13.6601502059        9.9715280963        3.8541990380
 Ce        17.3964309647       10.0384064129        3.9286012705
 Ce        15.3227399158       -0.1621185731        3.8787058616
 Ce         3.7594144175        0.0346157001        4.0009232677
 Ce        15.2863439233       13.3007500071        3.8849291909
 Ce        19.2495357190       13.3326915188        3.9083673423
 Pt         9.2259964979        5.4936244670        6.2450078100
 Pt        13.8427387912        5.3876337501        6.9173020721
 Pt        11.4836889696        9.7081209794        6.4895889439
 Pt         9.5839747249        3.2154516975        8.3014077815
 Pt        11.3816312340        3.5863927469       10.2167321714
 Pt         7.0622882318        7.3611176542        7.2384475248
 Pt        11.2701656213        5.3345524025        8.0397695342
 Pt        13.5250831555        4.9038626379        9.3286589545
 Pt         8.0225463878        9.5977336040        6.4651897996
 Pt         9.7342985333        7.7837893813        7.6029313771
 Pt        12.5628495938        7.5891776454        7.7920309318
 Pt        14.9342534736        7.1735860927        8.7646312064
 Pt         9.5131822939       11.9002736338        6.6913021378
 Pt        11.8711394497       11.4362332063        8.2234746031
 Pt        13.7901027630        9.7949920005        8.9625960697
 Pt         8.7012009942        4.1479535085       10.6820559747
 Pt         6.4718229282        7.0535780991       10.1700403830
 Pt         8.3928534627        5.6976819919        8.7890511374
 Pt        11.5497887138        6.5715546785       10.4956632602
 Pt        13.3503292105        4.2791644569       12.0067914265
 Pt         7.9096452630        9.2647397969        8.9521354862
 Pt        11.0230831616        9.1139128424        9.4782976839
 Pt        14.2237770285        6.6449962140       11.3377465647
 Pt         7.0964035617       11.5600614199        7.9505061761
 Pt         9.4396896263       11.4282678262        9.4535992724
 Pt        13.7383622735        8.9893796897       12.7996493780
 Pt        15.4849149860        8.7844600832       10.8167278595
 Pt        12.5453648081       10.7236807102       10.9798188621
 Pt         5.6256234609        6.8124576097       12.6108368291
 Pt         8.1881968422        5.8787994190       12.5105596057
 Pt        10.7595177121        4.9187468650       12.2922607959
 Pt         6.8980595651        9.0982140810       11.6149484367
 Pt         9.1667156052        7.6536846150       10.7395148543
 Pt        10.0021073964        6.9760585399       13.8802022440
 Pt        12.4898941846        6.4162001830       13.3999761071
 Pt         7.1296295429       11.5004511987       10.4996454889
 Pt        11.0859901989        8.5977769652       12.1136101195
 Pt        12.0735469213        8.5570087814       14.8396730358
 Pt        10.0231670430       10.9549135162       11.7920267533
 Pt        12.0114856765       10.8427017589       13.6800386862
 Pt         7.6425635351        8.2002941678       14.0816262284
 Pt         7.5010876941       10.8887469608       13.1988029409
 Pt         9.6880702579        9.8604811494       14.1923124527
     139
 i =     1280, time =     1280.000, E =     -7434.6642043947
  O         3.8259439000        2.2079377400        0.0000000000
  O         7.6518878000        2.2079377400        0.0000000000
  O        11.4779847500        2.2079377400        0.0000000000
  O        15.3050000000        2.2079377400        0.0000000000
  O         5.7389923700        5.5219650800        0.0000000000
  O         9.5649362800        5.5219650800        0.0000000000
  O        13.3910332200        5.5219650800        0.0000000000
  O        17.2180484700        5.5219650800        0.0000000000
  O         7.6519643300        8.8350646000        0.0000000000
  O        11.4780612700        8.8350646000        0.0000000000
  O        15.3050765300        8.8350646000        0.0000000000
  O        19.1310204300        8.8350646000        0.0000000000
  O         9.5649362800       12.1489593900        0.0000000000
  O        13.3910332300       12.1489593900        0.0000000000
  O        17.2180484700       12.1489593900        0.0000000000
  O        21.0439923800       12.1489593900        0.0000000000
  O         1.9130484800        3.3129669800        1.5618832200
  O         5.7389923700        3.3129669800        1.5618832200
  O         9.5649362700        3.3129669800        1.5618832200
  O        13.3910332200        3.3129669800        1.5618832200
  O         3.8259439000        6.6259339500        1.5618832200
  O         7.6518878000        6.6259339500        1.5618832200
  O        11.4779847500        6.6259339500        1.5618832200
  O        15.3050000000        6.6259339500        1.5618832200
  O         5.7389923700        9.9399612900        1.5618832200
  O         9.5649362700        9.9399612900        1.5618832200
  O        13.3910332200        9.9399612900        1.5618832200
  O        17.2180484700        9.9399612900        1.5618832200
  O         7.6519643300       13.2530608100        1.5618832200
  O        11.4780612700       13.2530608100        1.5618832200
  O        15.3050765300       13.2530608100        1.5618832200
  O        19.1310204300       13.2530608100        1.5618832200
  O         2.0065539175        1.0111134932        3.2273895545
  O         5.6679964260        1.1151953143        3.0329595053
  O         9.6259705036        1.0871396979        2.9732903569
  O        13.4685567221        1.1560609371        3.1692449037
  O         3.9502362681        4.4937223832        2.9536283722
  O         7.7942134562        4.6092248228        3.1290790936
  O        11.2803618315        4.6712744464        3.4405542764
  O        15.4546746110        4.4244066301        3.1293650256
  O         5.6142771203        7.6368508795        3.1434848167
  O         9.8097384137        7.8010712306        3.2226777395
  O        13.4302322671        7.8201390566        3.0335311126
  O        17.2501724324        7.6911828864        3.1587289918
  O         7.5072663029       11.0237411436        2.9852797611
  O        11.4261091483       11.1013794105        3.2844260684
  O        15.5370871581       11.0916200626        3.0758100977
  O        19.1553476581       10.8862171804        2.9848208011
  O         3.8914286806        2.2627049716        4.9803015545
  O         7.6269538870        2.1410262235        4.5287442003
  O        11.6103629597        2.2851137738        4.5536271711
  O        15.3796149455        2.2373592913        4.7645007474
  O         5.6271339062        5.4005036663        4.6362742540
  O         9.1248570205        3.3841922225        6.2630237989
  O        13.7127639941        5.4795121047        4.8811181423
  O        17.2015059093        5.6179143209        4.9210527536
  O         7.6778552885        8.8244100693        4.5643803511
  O        11.6945970274        8.8940338175        4.6224346616
  O        15.4170560076        8.9777069948        4.7966517579
  O        19.1346057076        8.9487367003        4.8481624808
  O         9.5371705257       12.2289815558        4.6891601776
  O        13.5675414506       12.3175209453        4.7685047289
  O        17.5050687147       12.2231108944        4.6610016767
  O        21.0563591052       12.1826920553        4.6730287639
 Ce         1.9130484700        1.1039688700        0.7810650400
 Ce         5.7389923700        1.1039688700        0.7810650400
 Ce         9.5649362800        1.1039688700        0.7810650400
 Ce        13.3910332200        1.1039688700        0.7810650400
 Ce         3.8259439000        4.4169358500        0.7810650400
 Ce         7.6518878000        4.4169358500        0.7810650400
 Ce        11.4779847500        4.4169358500        0.7810650400
 Ce        15.3050000000        4.4169358500        0.7810650400
 Ce         5.7389923700        7.7309631800        0.7810650400
 Ce         9.5649362800        7.7309631800        0.7810650400
 Ce        13.3910332200        7.7309631800        0.7810650400
 Ce        17.2180484700        7.7309631800        0.7810650400
 Ce         7.6519643300       11.0440627000        0.7810650400
 Ce        11.4780612700       11.0440627000        0.7810650400
 Ce        15.3050765300       11.0440627000        0.7810650400
 Ce        19.1310204300       11.0440627000        0.7810650400
 Ce        17.2392917967        3.2657459388        3.9547229608
 Ce         5.7348061414        3.2576767913        4.0003394560
 Ce         9.5660581485        3.0910719300        4.0583035613
 Ce        13.4701362618        3.2947942556        3.9348595785
 Ce        19.0390576723        6.5134883075        3.7899227544
 Ce         7.4643549996        6.6699996558        3.8575806228
 Ce        11.6112298202        6.6172513175        3.9738728262
 Ce        15.5213234285        6.6699402469        4.0497484374
 Ce        20.9812821207        9.8758512744        3.9970023310
 Ce         9.6611246792        9.9013391797        3.9122382259
 Ce        13.6619329255        9.9731568760        3.8546330071
 Ce        17.3966447808       10.0382002243        3.9268948681
 Ce        15.3245706157       -0.1645245579        3.8802869261
 Ce         3.7631407663        0.0356591493        4.0026847013
 Ce        15.2863528396       13.3011084161        3.8859552173
 Ce        19.2492657128       13.3346165105        3.9068403238
 Pt         9.2268739346        5.4941477851        6.2421408146
 Pt        13.8444865939        5.3872906181        6.9142251832
 Pt        11.4848488369        9.7083313853        6.4865524033
 Pt         9.5849610640        3.2167801785        8.2989275722
 Pt        11.3796486321        3.5879803416       10.2164090728
 Pt         7.0617215679        7.3644420455        7.2398403816
 Pt        11.2697541839        5.3360189860        8.0411970960
 Pt        13.5204374656        4.9034023180        9.3289393920
 Pt         8.0257194709        9.5980877983        6.4631080310
 Pt         9.7357276809        7.7848942782        7.6022284423
 Pt        12.5585973485        7.5897171520        7.7921552965
 Pt        14.9345172237        7.1743140370        8.7636131436
 Pt         9.5121352316       11.8971203547        6.6901491881
 Pt        11.8698947918       11.4372090536        8.2227189419
 Pt        13.7897429053        9.7936573757        8.9616930192
 Pt         8.6997494507        4.1465416054       10.6821699249
 Pt         6.4682642198        7.0507699937       10.1703288358
 Pt         8.3945317498        5.6967313040        8.7890138635
 Pt        11.5512597538        6.5740236449       10.4934702065
 Pt        13.3518945118        4.2795255044       12.0070065244
 Pt         7.9112151821        9.2672284370        8.9507895255
 Pt        11.0240263895        9.1136106080        9.4793503680
 Pt        14.2258247172        6.6470621039       11.3393734296
 Pt         7.0979054863       11.5587813626        7.9510546536
 Pt         9.4399802478       11.4270269647        9.4563484715
 Pt        13.7369100623        8.9926753173       12.7975101703
 Pt        15.4864851205        8.7843440615       10.8170837147
 Pt        12.5452403290       10.7222538682       10.9774200632
 Pt         5.6268146374        6.8091508039       12.6121743246
 Pt         8.1879949270        5.8811195116       12.5121461155
 Pt        10.7631253757        4.9125333303       12.2950961539
 Pt         6.8984441801        9.1000913601       11.6118948901
 Pt         9.1662994723        7.6567647518       10.7409273582
 Pt        10.0004944141        6.9776010310       13.8802737178
 Pt        12.4890386708        6.4162682471       13.4008069781
 Pt         7.1293438876       11.5004656316       10.4959844502
 Pt        11.0865053420        8.5984693800       12.1138867709
 Pt        12.0721642848        8.5567721656       14.8374894955
 Pt        10.0227203390       10.9513341930       11.7920115862
 Pt        12.0099065746       10.8416018353       13.6794475871
 Pt         7.6435558098        8.2007923978       14.0826084138
 Pt         7.5046770356       10.8887143293       13.1976319470
 Pt         9.6895452037        9.8596632701       14.1923273795
     139
 i =     1281, time =     1281.000, E =     -7434.6632120607
  O         3.8259439000        2.2079377400        0.0000000000
  O         7.6518878000        2.2079377400        0.0000000000
  O        11.4779847500        2.2079377400        0.0000000000
  O        15.3050000000        2.2079377400        0.0000000000
  O         5.7389923700        5.5219650800        0.0000000000
  O         9.5649362800        5.5219650800        0.0000000000
  O        13.3910332200        5.5219650800        0.0000000000
  O        17.2180484700        5.5219650800        0.0000000000
  O         7.6519643300        8.8350646000        0.0000000000
  O        11.4780612700        8.8350646000        0.0000000000
  O        15.3050765300        8.8350646000        0.0000000000
  O        19.1310204300        8.8350646000        0.0000000000
  O         9.5649362800       12.1489593900        0.0000000000
  O        13.3910332300       12.1489593900        0.0000000000
  O        17.2180484700       12.1489593900        0.0000000000
  O        21.0439923800       12.1489593900        0.0000000000
  O         1.9130484800        3.3129669800        1.5618832200
  O         5.7389923700        3.3129669800        1.5618832200
  O         9.5649362700        3.3129669800        1.5618832200
  O        13.3910332200        3.3129669800        1.5618832200
  O         3.8259439000        6.6259339500        1.5618832200
  O         7.6518878000        6.6259339500        1.5618832200
  O        11.4779847500        6.6259339500        1.5618832200
  O        15.3050000000        6.6259339500        1.5618832200
  O         5.7389923700        9.9399612900        1.5618832200
  O         9.5649362700        9.9399612900        1.5618832200
  O        13.3910332200        9.9399612900        1.5618832200
  O        17.2180484700        9.9399612900        1.5618832200
  O         7.6519643300       13.2530608100        1.5618832200
  O        11.4780612700       13.2530608100        1.5618832200
  O        15.3050765300       13.2530608100        1.5618832200
  O        19.1310204300       13.2530608100        1.5618832200
  O         2.0110046743        1.0080356359        3.2304130012
  O         5.6744930141        1.1112734538        3.0406944428
  O         9.6283505753        1.0870151218        2.9728044485
  O        13.4642518502        1.1621261802        3.1606400843
  O         3.9558620695        4.4828852198        2.9581122595
  O         7.7952532785        4.6106005083        3.1286055366
  O        11.2803388596        4.6837287872        3.4383499565
  O        15.4639981416        4.4302698874        3.1287238457
  O         5.6102626383        7.6420466809        3.1465976703
  O         9.8101609273        7.8054390641        3.2185393490
  O        13.4308280050        7.8201071854        3.0315235814
  O        17.2559185528        7.6916758042        3.1574391184
  O         7.5046920237       11.0192542984        2.9817997091
  O        11.4335058413       11.0963849073        3.2694675519
  O        15.5336432629       11.0921807172        3.0773906240
  O        19.1613882028       10.8955957600        2.9776010587
  O         3.8905293835        2.2634953415        4.9841345658
  O         7.6266391389        2.1486712447        4.5383191979
  O        11.6082417675        2.2899708198        4.5482452517
  O        15.3764752941        2.2406778264        4.7684777621
  O         5.6251319693        5.4117167601        4.6281590685
  O         9.1178116266        3.3865577265        6.2603189880
  O        13.7060681969        5.4719557309        4.8825161956
  O        17.2041074448        5.6222411826        4.9209922829
  O         7.6753510088        8.8322241036        4.5578169324
  O        11.6898422215        8.8907470262        4.6345156988
  O        15.4169367007        8.9736882255        4.8028182245
  O        19.1342904480        8.9595160769        4.8478553837
  O         9.5379943122       12.2281488740        4.6959294642
  O        13.5825832384       12.3181837510        4.7725319984
  O        17.5152226599       12.2181474698        4.6588576649
  O        21.0538977390       12.1910873066        4.6770108756
 Ce         1.9130484700        1.1039688700        0.7810650400
 Ce         5.7389923700        1.1039688700        0.7810650400
 Ce         9.5649362800        1.1039688700        0.7810650400
 Ce        13.3910332200        1.1039688700        0.7810650400
 Ce         3.8259439000        4.4169358500        0.7810650400
 Ce         7.6518878000        4.4169358500        0.7810650400
 Ce        11.4779847500        4.4169358500        0.7810650400
 Ce        15.3050000000        4.4169358500        0.7810650400
 Ce         5.7389923700        7.7309631800        0.7810650400
 Ce         9.5649362800        7.7309631800        0.7810650400
 Ce        13.3910332200        7.7309631800        0.7810650400
 Ce        17.2180484700        7.7309631800        0.7810650400
 Ce         7.6519643300       11.0440627000        0.7810650400
 Ce        11.4780612700       11.0440627000        0.7810650400
 Ce        15.3050765300       11.0440627000        0.7810650400
 Ce        19.1310204300       11.0440627000        0.7810650400
 Ce        17.2377006462        3.2639391065        3.9597602564
 Ce         5.7347079714        3.2580433780        4.0021653332
 Ce         9.5667386919        3.0901102760        4.0600809089
 Ce        13.4674595439        3.2958035438        3.9342676787
 Ce        19.0434428363        6.5169709919        3.7908727555
 Ce         7.4644600426        6.6711949729        3.8586311022
 Ce        11.6107349193        6.6195455901        3.9736255362
 Ce        15.5188991921        6.6709184477        4.0493041478
 Ce        20.9801615425        9.8747879465        3.9989094015
 Ce         9.6584733699        9.8989215573        3.9132369127
 Ce        13.6636516494        9.9747974485        3.8551374469
 Ce        17.3967901135       10.0379704351        3.9252203243
 Ce        15.3263156775       -0.1668340751        3.8818866412
 Ce         3.7670331005        0.0366764496        4.0044369951
 Ce        15.2863717755       13.3014026065        3.8869532486
 Ce        19.2489589190       13.3364675552        3.9052894213
 Pt         9.2277456643        5.4946712776        6.2392631529
 Pt        13.8462272084        5.3869903220        6.9111366590
 Pt        11.4860051965        9.7085277737        6.4835296848
 Pt         9.5859652863        3.2181610713        8.2964316364
 Pt        11.3776534922        3.5895575278       10.2160412523
 Pt         7.0611702854        7.3677087146        7.2412835022
 Pt        11.2693109444        5.3374800810        8.0426099916
 Pt        13.5158070555        4.9029392506        9.3292967246
 Pt         8.0288797798        9.5984477258        6.4609437299
 Pt         9.7371864642        7.7859635050        7.6014894489
 Pt        12.5543040444        7.5902788656        7.7922904008
 Pt        14.9347633379        7.1750284440        8.7626073219
 Pt         9.5111051142       11.8939233964        6.6890561093
 Pt        11.8686230042       11.4381991849        8.2220127702
 Pt        13.7893961068        9.7922911669        8.9607878529
 Pt         8.6983252914        4.1450874541       10.6822893221
 Pt         6.4647211530        7.0479412357       10.1705745021
 Pt         8.3962121977        5.6958078499        8.7890066209
 Pt        11.5527396712        6.5765254062       10.4912433214
 Pt        13.3534464665        4.2798994029       12.0071940099
 Pt         7.9127794312        9.2697171061        8.9495318559
 Pt        11.0249869008        9.1132854241        9.4803761008
 Pt        14.2278480959        6.6491270885       11.3409980996
 Pt         7.0994274711       11.5575304738        7.9516046833
 Pt         9.4402762932       11.4258018013        9.4589760543
 Pt        13.7354497388        8.9959541212       12.7953321617
 Pt        15.4880237965        8.7842465996       10.8174202646
 Pt        12.5451242126       10.7208219369       10.9750355103
 Pt         5.6280722633        6.8058623470       12.6135025747
 Pt         8.1877548064        5.8834580117       12.5137119804
 Pt        10.7666410000        4.9063332475       12.2979671222
 Pt         6.8988394325        9.1019371968       11.6088254876
 Pt         9.1658326129        7.6598150732       10.7423151083
 Pt         9.9989038268        6.9791907370       13.8803900621
 Pt        12.4882636634        6.4163572668       13.4016418430
 Pt         7.1290523795       11.5004481511       10.4923881750
 Pt        11.0870489970        8.5991419678       12.1141915836
 Pt        12.0707452921        8.5565152604       14.8353134361
 Pt        10.0222595035       10.9477758598       11.7920650092
 Pt        12.0083519103       10.8405448304       13.6788247527
 Pt         7.6445438392        8.2012853126       14.0835368330
 Pt         7.5082957215       10.8887033738       13.1964542874
 Pt         9.6910063613        9.8587970238       14.1923575236
     139
 i =     1282, time =     1282.000, E =     -7434.6626700502
  O         3.8259439000        2.2079377400        0.0000000000
  O         7.6518878000        2.2079377400        0.0000000000
  O        11.4779847500        2.2079377400        0.0000000000
  O        15.3050000000        2.2079377400        0.0000000000
  O         5.7389923700        5.5219650800        0.0000000000
  O         9.5649362800        5.5219650800        0.0000000000
  O        13.3910332200        5.5219650800        0.0000000000
  O        17.2180484700        5.5219650800        0.0000000000
  O         7.6519643300        8.8350646000        0.0000000000
  O        11.4780612700        8.8350646000        0.0000000000
  O        15.3050765300        8.8350646000        0.0000000000
  O        19.1310204300        8.8350646000        0.0000000000
  O         9.5649362800       12.1489593900        0.0000000000
  O        13.3910332300       12.1489593900        0.0000000000
  O        17.2180484700       12.1489593900        0.0000000000
  O        21.0439923800       12.1489593900        0.0000000000
  O         1.9130484800        3.3129669800        1.5618832200
  O         5.7389923700        3.3129669800        1.5618832200
  O         9.5649362700        3.3129669800        1.5618832200
  O        13.3910332200        3.3129669800        1.5618832200
  O         3.8259439000        6.6259339500        1.5618832200
  O         7.6518878000        6.6259339500        1.5618832200
  O        11.4779847500        6.6259339500        1.5618832200
  O        15.3050000000        6.6259339500        1.5618832200
  O         5.7389923700        9.9399612900        1.5618832200
  O         9.5649362700        9.9399612900        1.5618832200
  O        13.3910332200        9.9399612900        1.5618832200
  O        17.2180484700        9.9399612900        1.5618832200
  O         7.6519643300       13.2530608100        1.5618832200
  O        11.4780612700       13.2530608100        1.5618832200
  O        15.3050765300       13.2530608100        1.5618832200
  O        19.1310204300       13.2530608100        1.5618832200
  O         2.0150220105        1.0057284149        3.2328824326
  O         5.6808722441        1.1074459451        3.0488413036
  O         9.6305953339        1.0870145111        2.9731944099
  O        13.4601350582        1.1679881314        3.1515892212
  O         3.9605054186        4.4713500062        2.9633901360
  O         7.7962081392        4.6114622631        3.1284530733
  O        11.2806464970        4.6952779787        3.4355562346
  O        15.4730578874        4.4360607411        3.1281122914
  O         5.6065676338        7.6477540717        3.1496120354
  O         9.8099110133        7.8091159426        3.2141941772
  O        13.4316224667        7.8195696581        3.0300475533
  O        17.2617994662        7.6923513601        3.1558405907
  O         7.5028290834       11.0149089397        2.9790595438
  O        11.4412936065       11.0915680861        3.2539807114
  O        15.5294582036       11.0927715991        3.0791301417
  O        19.1678246936       10.9054661482        2.9709053682
  O         3.8894328418        2.2644188148        4.9871403605
  O         7.6258874940        2.1561241328        4.5479519413
  O        11.6060624984        2.2944003391        4.5431651801
  O        15.3734271931        2.2441635529        4.7721278956
  O         5.6233495207        5.4230788960        4.6202807653
  O         9.1109730673        3.3892242600        6.2578261124
  O        13.6990789252        5.4643985713        4.8834218805
  O        17.2071424631        5.6261666355        4.9204393574
  O         7.6726681768        8.8401860616        4.5511053424
  O        11.6850909326        8.8874270901        4.6469159748
  O        15.4167675265        8.9694703393        4.8085516455
  O        19.1341693157        8.9701940091        4.8473224242
  O         9.5387176545       12.2270109308        4.7026897788
  O        13.5975777563       12.3185348369        4.7762343645
  O        17.5251433582       12.2132300485        4.6568758691
  O        21.0513394630       12.1993112642        4.6809426154
 Ce         1.9130484700        1.1039688700        0.7810650400
 Ce         5.7389923700        1.1039688700        0.7810650400
 Ce         9.5649362800        1.1039688700        0.7810650400
 Ce        13.3910332200        1.1039688700        0.7810650400
 Ce         3.8259439000        4.4169358500        0.7810650400
 Ce         7.6518878000        4.4169358500        0.7810650400
 Ce        11.4779847500        4.4169358500        0.7810650400
 Ce        15.3050000000        4.4169358500        0.7810650400
 Ce         5.7389923700        7.7309631800        0.7810650400
 Ce         9.5649362800        7.7309631800        0.7810650400
 Ce        13.3910332200        7.7309631800        0.7810650400
 Ce        17.2180484700        7.7309631800        0.7810650400
 Ce         7.6519643300       11.0440627000        0.7810650400
 Ce        11.4780612700       11.0440627000        0.7810650400
 Ce        15.3050765300       11.0440627000        0.7810650400
 Ce        19.1310204300       11.0440627000        0.7810650400
 Ce        17.2360602038        3.2621246549        3.9648154457
 Ce         5.7346044764        3.2584573849        4.0039307666
 Ce         9.5674124508        3.0892781154        4.0618279733
 Ce        13.4648545348        3.2968044694        3.9336905577
 Ce        19.0479008079        6.5204906493        3.7919353221
 Ce         7.4646201576        6.6722888803        3.8597298292
 Ce        11.6102376064        6.6219768595        3.9734043246
 Ce        15.5163813685        6.6719056417        4.0488441137
 Ce        20.9790258726        9.8737979996        4.0007785706
 Ce         9.6558523215        9.8965098981        3.9142069758
 Ce        13.6653045722        9.9764467250        3.8557112417
 Ce        17.3968709842       10.0377204146        3.9235744444
 Ce        15.3279709381       -0.1690468103        3.8835019375
 Ce         3.7710892555        0.0376645374        4.0061774519
 Ce        15.2864042863       13.3016376372        3.8879232719
 Ce        19.2486182117       13.3382425350        3.9037119905
 Pt         9.2286105740        5.4951956604        6.2363762311
 Pt        13.8479605185        5.3867347036        6.9080392910
 Pt        11.4871571898        9.7087133387        6.4805285175
 Pt         9.5869866078        3.2195945371        8.2939205690
 Pt        11.3756468412        3.5911225945       10.2156308844
 Pt         7.0606351479        7.3709169210        7.2427748469
 Pt        11.2688322544        5.3389359381        8.0440079352
 Pt        13.5111959448        4.9024751002        9.3297296726
 Pt         8.0320295983        9.5988128504        6.4586984803
 Pt         9.7386730910        7.7869972733        7.6007120289
 Pt        12.5499749919        7.5908568055        7.7924359237
 Pt        14.9349866411        7.1757310654        8.7616149264
 Pt         9.5100894184       11.8906815286        6.6880251237
 Pt        11.8673239868       11.4392033513        8.2213550654
 Pt        13.7890640355        9.7908935470        8.9598806680
 Pt         8.6969278547        4.1435918114       10.6824154099
 Pt         6.4611973155        7.0450910508       10.1707777666
 Pt         8.3978937128        5.6949139466        8.7890287353
 Pt        11.5542263340        6.5790592502       10.4889861512
 Pt        13.3549851259        4.2802864370       12.0073538690
 Pt         7.9143386669        9.2722081754        8.9483617501
 Pt        11.0259649919        9.1129386960        9.4813726618
 Pt        14.2298464409        6.6511894947       11.3426195465
 Pt         7.1009672955       11.5563085276        7.9521559190
 Pt         9.4405807522       11.4245914819        9.4614825809
 Pt        13.7339843127        8.9992161362       12.7931149584
 Pt        15.4895314573        8.7841682417       10.8177364362
 Pt        12.5450152587       10.7193846290       10.9726680298
 Pt         5.6293972517        6.8025951147       12.6148216973
 Pt         8.1874762801        5.8858137340       12.5152543773
 Pt        10.7700639736        4.9001510632       12.3008697592
 Pt         6.8992426346        9.1037489056       11.6057412196
 Pt         9.1653138577        7.6628340583       10.7436785105
 Pt         9.9973390434        6.9808280045       13.8805526082
 Pt        12.4875671970        6.4164660381       13.4024801291
 Pt         7.1287534949       11.5003981623       10.4888611978
 Pt        11.0876202569        8.5997907495       12.1145250312
 Pt        12.0692899009        8.5562390985       14.8331464451
 Pt        10.0217848216       10.9442421483       11.7921851577
 Pt        12.0068226022       10.8395321037       13.6781715830
 Pt         7.6455270392        8.2017721383       14.0844094298
 Pt         7.5119442051       10.8887158606       13.1952694161
 Pt         9.6924527997        9.8578798562       14.1924032259
     139
 i =     1283, time =     1283.000, E =     -7434.6619955900
  O         3.8259439000        2.2079377400        0.0000000000
  O         7.6518878000        2.2079377400        0.0000000000
  O        11.4779847500        2.2079377400        0.0000000000
  O        15.3050000000        2.2079377400        0.0000000000
  O         5.7389923700        5.5219650800        0.0000000000
  O         9.5649362800        5.5219650800        0.0000000000
  O        13.3910332200        5.5219650800        0.0000000000
  O        17.2180484700        5.5219650800        0.0000000000
  O         7.6519643300        8.8350646000        0.0000000000
  O        11.4780612700        8.8350646000        0.0000000000
  O        15.3050765300        8.8350646000        0.0000000000
  O        19.1310204300        8.8350646000        0.0000000000
  O         9.5649362800       12.1489593900        0.0000000000
  O        13.3910332300       12.1489593900        0.0000000000
  O        17.2180484700       12.1489593900        0.0000000000
  O        21.0439923800       12.1489593900        0.0000000000
  O         1.9130484800        3.3129669800        1.5618832200
  O         5.7389923700        3.3129669800        1.5618832200
  O         9.5649362700        3.3129669800        1.5618832200
  O        13.3910332200        3.3129669800        1.5618832200
  O         3.8259439000        6.6259339500        1.5618832200
  O         7.6518878000        6.6259339500        1.5618832200
  O        11.4779847500        6.6259339500        1.5618832200
  O        15.3050000000        6.6259339500        1.5618832200
  O         5.7389923700        9.9399612900        1.5618832200
  O         9.5649362700        9.9399612900        1.5618832200
  O        13.3910332200        9.9399612900        1.5618832200
  O        17.2180484700        9.9399612900        1.5618832200
  O         7.6519643300       13.2530608100        1.5618832200
  O        11.4780612700       13.2530608100        1.5618832200
  O        15.3050765300       13.2530608100        1.5618832200
  O        19.1310204300       13.2530608100        1.5618832200
  O         2.0185932676        1.0041858259        3.2348046224
  O         5.6870910068        1.1037376712        3.0573932702
  O         9.6326746819        1.0871446021        2.9744718356
  O        13.4562244818        1.1736169201        3.1421719409
  O         3.9641540128        4.4591969263        2.9694258727
  O         7.7970751857        4.6118140470        3.1286293062
  O        11.2812773885        4.7058617690        3.4321801858
  O        15.4818317169        4.4417764266        3.1275419664
  O         5.6032278761        7.6539754435        3.1525040964
  O         9.8089920393        7.8120908348        3.2096746973
  O        13.4326090250        7.8185413889        3.0291377917
  O        17.2677624957        7.6932216297        3.1539574661
  O         7.5016819109       11.0107445880        2.9770845808
  O        11.4494218282       11.0869545544        3.2380052247
  O        15.5245556634       11.0933737770        3.0810237612
  O        19.1746080985       10.9157901200        2.9647737493
  O         3.8881468263        2.2654542204        4.9893258153
  O         7.6247073685        2.1633239483        4.5576107601
  O        11.6038334250        2.2984121552        4.5384010621
  O        15.3704730467        2.2478075665        4.7754509817
  O         5.6218171770        5.4345735967        4.6126378761
  O         9.1043752940        3.3921867610        6.2555767534
  O        13.6918384124        5.4568854767        4.8838025832
  O        17.2105943644        5.6297064224        4.9194006627
  O         7.6698186320        8.8482368713        4.5442516802
  O        11.6803558366        8.8840609813        4.6595404829
  O        15.4165501973        8.9650659078        4.8138053276
  O        19.1342314046        8.9807250450        4.8465778225
  O         9.5393629925       12.2255812413        4.7093795425
  O        13.6124735150       12.3185360659        4.7796437735
  O        17.5347943041       12.2083610384        4.6550783888
  O        21.0487271999       12.2073617049        4.6848117014
 Ce         1.9130484700        1.1039688700        0.7810650400
 Ce         5.7389923700        1.1039688700        0.7810650400
 Ce         9.5649362800        1.1039688700        0.7810650400
 Ce        13.3910332200        1.1039688700        0.7810650400
 Ce         3.8259439000        4.4169358500        0.7810650400
 Ce         7.6518878000        4.4169358500        0.7810650400
 Ce        11.4779847500        4.4169358500        0.7810650400
 Ce        15.3050000000        4.4169358500        0.7810650400
 Ce         5.7389923700        7.7309631800        0.7810650400
 Ce         9.5649362800        7.7309631800        0.7810650400
 Ce        13.3910332200        7.7309631800        0.7810650400
 Ce        17.2180484700        7.7309631800        0.7810650400
 Ce         7.6519643300       11.0440627000        0.7810650400
 Ce        11.4780612700       11.0440627000        0.7810650400
 Ce        15.3050765300       11.0440627000        0.7810650400
 Ce        19.1310204300       11.0440627000        0.7810650400
 Ce        17.2343733417        3.2603068619        3.9698857753
 Ce         5.7344961976        3.2589197385        4.0056351377
 Ce         9.5680757205        3.0885782590        4.0635420648
 Ce        13.4623245152        3.2977977755        3.9331266651
 Ce        19.0524257596        6.5240392208        3.7931077287
 Ce         7.4648341375        6.6732818989        3.8608745952
 Ce        11.6097383318        6.6245472934        3.9732102708
 Ce        15.5137772480        6.6728997159        4.0483680264
 Ce        20.9778747686        9.8728874534        4.0026063205
 Ce         9.6532654228        9.8941075837        3.9151436361
 Ce        13.6668901818        9.9781020692        3.8563526250
 Ce        17.3968919749       10.0374536104        3.9219539474
 Ce        15.3295328212       -0.1711629695        3.8851300023
 Ce         3.7753056128        0.0386211987        4.0079033963
 Ce        15.2864541468       13.3018186178        3.8888652187
 Ce        19.2482468882       13.3399390986        3.9021055170
 Pt         9.2294684566        5.4957222700        6.2334819030
 Pt        13.8496849996        5.3865246127        6.9049388750
 Pt        11.4883032182        9.7088918598        6.4775563771
 Pt         9.5880238817        3.2210804728        8.2913942971
 Pt        11.3736279755        3.5926743396       10.2151756014
 Pt         7.0601168810        7.3740649425        7.2443156578
 Pt        11.2683188686        5.3403850019        8.0453900203
 Pt        13.5066065236        4.9020109395        9.3302368982
 Pt         8.0351672959        9.5991826999        6.4563722725
 Pt         9.7401866579        7.7879958918        7.5998967872
 Pt        12.5456149344        7.5914523669        7.7925906457
 Pt        14.9351859161        7.1764210328        8.7606352119
 Pt         9.5090904683       11.8873952614        6.6870605755
 Pt        11.8659990047       11.4402204652        8.2207462432
 Pt        13.7887459662        9.7894639655        8.9589708310
 Pt         8.6955570402        4.1420562266       10.6825490204
 Pt         6.4576942979        7.0422208322       10.1709375035
 Pt         8.3995749799        5.6940509461        8.7890797647
 Pt        11.5557175889        6.5816246019       10.4867018919
 Pt        13.3565108121        4.2806875568       12.0074865809
 Pt         7.9158928715        9.2747000970        8.9472783872
 Pt        11.0269599587        9.1125696992        9.4823394954
 Pt        14.2318185503        6.6532465899       11.3442370265
 Pt         7.1025243311       11.5551170940        7.9527054387
 Pt         9.4408929983       11.4233957281        9.4638656477
 Pt        13.7325149415        9.0024622001       12.7908588097
 Pt        15.4910078783        8.7841091707       10.8180315147
 Pt        12.5449133492       10.7179436658       10.9703178178
 Pt         5.6307897283        6.7993505688       12.6161308745
 Pt         8.1871615969        5.8881846326       12.5167712050
 Pt        10.7733934532        4.8939905178       12.3038029346
 Pt         6.8996540363        9.1055251660       11.6026439015
 Pt         9.1647426452        7.6658194293       10.7450176975
 Pt         9.9958012237        6.9825119837       13.8807615403
 Pt        12.4869495601        6.4165945784       13.4033202339
 Pt         7.1284466479       11.5003155718       10.4854057901
 Pt        11.0882195298        8.6004136674       12.1148867465
 Pt        12.0677993053        8.5559430369       14.8309911805
 Pt        10.0212958491       10.9407343223       11.7923733992
 Pt        12.0053201299       10.8385643649       13.6774884469
 Pt         7.6465036382        8.2022540263       14.0852259235
 Pt         7.5156207535       10.8887507235       13.1940774616
 Pt         9.6938835398        9.8569120316       14.1924651696
     139
 i =     1284, time =     1284.000, E =     -7434.6607317636
  O         3.8259439000        2.2079377400        0.0000000000
  O         7.6518878000        2.2079377400        0.0000000000
  O        11.4779847500        2.2079377400        0.0000000000
  O        15.3050000000        2.2079377400        0.0000000000
  O         5.7389923700        5.5219650800        0.0000000000
  O         9.5649362800        5.5219650800        0.0000000000
  O        13.3910332200        5.5219650800        0.0000000000
  O        17.2180484700        5.5219650800        0.0000000000
  O         7.6519643300        8.8350646000        0.0000000000
  O        11.4780612700        8.8350646000        0.0000000000
  O        15.3050765300        8.8350646000        0.0000000000
  O        19.1310204300        8.8350646000        0.0000000000
  O         9.5649362800       12.1489593900        0.0000000000
  O        13.3910332300       12.1489593900        0.0000000000
  O        17.2180484700       12.1489593900        0.0000000000
  O        21.0439923800       12.1489593900        0.0000000000
  O         1.9130484800        3.3129669800        1.5618832200
  O         5.7389923700        3.3129669800        1.5618832200
  O         9.5649362700        3.3129669800        1.5618832200
  O        13.3910332200        3.3129669800        1.5618832200
  O         3.8259439000        6.6259339500        1.5618832200
  O         7.6518878000        6.6259339500        1.5618832200
  O        11.4779847500        6.6259339500        1.5618832200
  O        15.3050000000        6.6259339500        1.5618832200
  O         5.7389923700        9.9399612900        1.5618832200
  O         9.5649362700        9.9399612900        1.5618832200
  O        13.3910332200        9.9399612900        1.5618832200
  O        17.2180484700        9.9399612900        1.5618832200
  O         7.6519643300       13.2530608100        1.5618832200
  O        11.4780612700       13.2530608100        1.5618832200
  O        15.3050765300       13.2530608100        1.5618832200
  O        19.1310204300       13.2530608100        1.5618832200
  O         2.0217126314        1.0033974415        3.2361921350
  O         5.6931156860        1.1001718706        3.0663462472
  O         9.6345596004        1.0874116338        2.9766440782
  O        13.4525374847        1.1789896954        3.1324655152
  O         3.9668016052        4.4464883154        2.9761906845
  O         7.7978509111        4.6116645295        3.1291433052
  O        11.2822255454        4.7154252786        3.4282367931
  O        15.4902952761        4.4474179054        3.1270254406
  O         5.6002757251        7.6607069571        3.1552505278
  O         9.8074101140        7.8143546964        3.2050132279
  O        13.4337799374        7.8170367305        3.0288270878
  O        17.2737581163        7.6943011625        3.1518174045
  O         7.5012520536       11.0067980118        2.9758971088
  O        11.4578442703       11.0825554855        3.2216041282
  O        15.5189596615       11.0939678929        3.0830633202
  O        19.1817024206       10.9265192943        2.9592562943
  O         3.8866802475        2.2665808800        4.9906978182
  O         7.6231102137        2.1702233011        4.5672933918
  O        11.6015719466        2.3020216740        4.5339763635
  O        15.3676056080        2.2516055349        4.7784433959
  O         5.6205736306        5.4461980402        4.6052452420
  O         9.0980576529        3.3954499712        6.2536065860
  O        13.6843703266        5.4494569706        4.8836363322
  O        17.2144386279        5.6328757087        4.9178829803
  O         7.6668354230        8.8563274496        4.5372834379
  O        11.6756473960        8.8806306158        4.6722494009
  O        15.4162873695        8.9604871912        4.8185442568
  O        19.1344649515        8.9910849581        4.8456360190
  O         9.5399507969       12.2238753550        4.7159198334
  O        13.6272386841       12.3181662597        4.7827904795
  O        17.5441117647       12.2035513568        4.6534871135
  O        21.0460957951       12.2152295174        4.6886107217
 Ce         1.9130484700        1.1039688700        0.7810650400
 Ce         5.7389923700        1.1039688700        0.7810650400
 Ce         9.5649362800        1.1039688700        0.7810650400
 Ce        13.3910332200        1.1039688700        0.7810650400
 Ce         3.8259439000        4.4169358500        0.7810650400
 Ce         7.6518878000        4.4169358500        0.7810650400
 Ce        11.4779847500        4.4169358500        0.7810650400
 Ce        15.3050000000        4.4169358500        0.7810650400
 Ce         5.7389923700        7.7309631800        0.7810650400
 Ce         9.5649362800        7.7309631800        0.7810650400
 Ce        13.3910332200        7.7309631800        0.7810650400
 Ce        17.2180484700        7.7309631800        0.7810650400
 Ce         7.6519643300       11.0440627000        0.7810650400
 Ce        11.4780612700       11.0440627000        0.7810650400
 Ce        15.3050765300       11.0440627000        0.7810650400
 Ce        19.1310204300       11.0440627000        0.7810650400
 Ce        17.2326433267        3.2584894908        3.9749684107
 Ce         5.7343834900        3.2594307255        4.0072776425
 Ce         9.5687242310        3.0880130543        4.0652206740
 Ce        13.4598727038        3.2987828849        3.9325736877
 Ce        19.0570115806        6.5276089893        3.7943870014
 Ce         7.4651008914        6.6741747722        3.8620630413
 Ce        11.6092369821        6.6272584373        3.9730440193
 Ce        15.5110949193        6.6738987510        4.0478750660
 Ce        20.9767080285        9.8720629188        4.0043894185
 Ce         9.6507165893        9.8917186848        3.9160421643
 Ce        13.6684068439        9.9797613494        3.8570598291
 Ce        17.3968575394       10.0371736649        3.9203555252
 Ce        15.3309984917       -0.1731829644        3.8867684491
 Ce         3.7796774572        0.0395445725        4.0096120484
 Ce        15.2865251635       13.3019504838        3.8897790465
 Ce        19.2478484155       13.3415545166        3.9004675821
 Pt         9.2303191411        5.4962523469        6.2305818896
 Pt        13.8513986241        5.3863602472        6.9018422619
 Pt        11.4894421636        9.7090672194        6.4746209573
 Pt         9.5890752425        3.2226186427        8.2888528776
 Pt        11.3715953100        3.5942115019       10.2146731212
 Pt         7.0596168814        7.3771516878        7.2459092217
 Pt        11.2677739889        5.3418281045        8.0467527548
 Pt        13.5020390781        4.9015473877        9.3308159919
 Pt         8.0382882409        9.5995564906        6.4539641683
 Pt         9.7417265699        7.7889579410        7.5990454960
 Pt        12.5412270221        7.5920691829        7.7927549701
 Pt        14.9353626884        7.1770949827        8.7596660255
 Pt         9.5081113494       11.8840672142        6.6861684913
 Pt        11.8646487632       11.4412486541        8.2201869417
 Pt        13.7884399011        9.7880028694        8.9580561659
 Pt         8.6942137772        4.1404826060       10.6826899665
 Pt         6.4542133099        7.0393325307       10.1710539069
 Pt         8.4012556528        5.6932193452        8.7891601758
 Pt        11.5572112702        6.5842180077       10.4843934293
 Pt        13.3580251036        4.2811037976       12.0075917826
 Pt         7.9174416892        9.2771868179        8.9462810292
 Pt        11.0279712980        9.1121774741        9.4832763190
 Pt        14.2337634595        6.6552969189       11.3458511614
 Pt         7.1040995743       11.5539581623        7.9532491089
 Pt         9.4412120577       11.4222157839        9.4661209692
 Pt        13.7310417440        9.0056920447       12.7885655623
 Pt        15.4924531876        8.7840697283       10.8183061974
 Pt        12.5448189132       10.7165022593       10.9679837689
 Pt         5.6322479738        6.7961282983       12.6174297240
 Pt         8.1868127044        5.8905684524       12.5182615248
 Pt        10.7766269363        4.8878553804       12.3067674771
 Pt         6.9000749961        9.1072650235       11.5995337627
 Pt         9.1641182012        7.6687702963       10.7463312840
 Pt         9.9942906589        6.9842391053       13.8810153858
 Pt        12.4864108994        6.4167429745       13.4041600256
 Pt         7.1281309881       11.5002017404       10.4820223924
 Pt        11.0888498065        8.6010112690       12.1152766319
 Pt        12.0662757299        8.5556258268       14.8288489793
 Pt        10.0207925495       10.9372519631       11.7926335425
 Pt        12.0038458972       10.8376434526       13.6767736912
 Pt         7.6474717156        8.2027314388       14.0859871543
 Pt         7.5193231371       10.8888066591       13.1928780426
 Pt         9.6952970523        9.8558954688       14.1925447299
     139
 i =     1285, time =     1285.000, E =     -7434.6602663175
  O         3.8259439000        2.2079377400        0.0000000000
  O         7.6518878000        2.2079377400        0.0000000000
  O        11.4779847500        2.2079377400        0.0000000000
  O        15.3050000000        2.2079377400        0.0000000000
  O         5.7389923700        5.5219650800        0.0000000000
  O         9.5649362800        5.5219650800        0.0000000000
  O        13.3910332200        5.5219650800        0.0000000000
  O        17.2180484700        5.5219650800        0.0000000000
  O         7.6519643300        8.8350646000        0.0000000000
  O        11.4780612700        8.8350646000        0.0000000000
  O        15.3050765300        8.8350646000        0.0000000000
  O        19.1310204300        8.8350646000        0.0000000000
  O         9.5649362800       12.1489593900        0.0000000000
  O        13.3910332300       12.1489593900        0.0000000000
  O        17.2180484700       12.1489593900        0.0000000000
  O        21.0439923800       12.1489593900        0.0000000000
  O         1.9130484800        3.3129669800        1.5618832200
  O         5.7389923700        3.3129669800        1.5618832200
  O         9.5649362700        3.3129669800        1.5618832200
  O        13.3910332200        3.3129669800        1.5618832200
  O         3.8259439000        6.6259339500        1.5618832200
  O         7.6518878000        6.6259339500        1.5618832200
  O        11.4779847500        6.6259339500        1.5618832200
  O        15.3050000000        6.6259339500        1.5618832200
  O         5.7389923700        9.9399612900        1.5618832200
  O         9.5649362700        9.9399612900        1.5618832200
  O        13.3910332200        9.9399612900        1.5618832200
  O        17.2180484700        9.9399612900        1.5618832200
  O         7.6519643300       13.2530608100        1.5618832200
  O        11.4780612700       13.2530608100        1.5618832200
  O        15.3050765300       13.2530608100        1.5618832200
  O        19.1310204300       13.2530608100        1.5618832200
  O         2.0243785756        1.0033453985        3.2370616162
  O         5.6989228111        1.0967667268        3.0756784087
  O         9.6362228457        1.0878185321        2.9797109164
  O        13.4490940388        1.1840847183        3.1225193000
  O         3.9684401816        4.4332704969        2.9836658222
  O         7.7985303558        4.6110248935        3.1299988429
  O        11.2834831340        4.7239017857        3.4237426977
  O        15.4984150356        4.4529811532        3.1265730899
  O         5.5977349033        7.6679373536        3.1578255205
  O         9.8051723498        7.8159063580        3.2002311620
  O        13.4351289131        7.8150700357        3.0291396263
  O        17.2797427311        7.6956060909        3.1494496688
  O         7.5015365472       11.0031044689        2.9755135013
  O        11.4665242922       11.0783667874        3.2049178690
  O        15.5126977638       11.0945361780        3.0852350811
  O        19.1890665914       10.9375877435        2.9544085625
  O         3.8850406282        2.2677767285        4.9912674195
  O         7.6211101816        2.1767896117        4.5770042243
  O        11.5992977421        2.3052414499        4.5299167864
  O        15.3648149626        2.2555515434        4.7811004621
  O         5.6196538117        5.4579395611        4.5981308824
  O         9.0920507821        3.3990153629        6.2519339142
  O        13.6766861472        5.4421391047        4.8829115432
  O        17.2186433132        5.6356880838        4.9158949993
  O         7.6637573884        8.8644183841        4.5302467499
  O        11.6709870004        8.8771152574        4.6848675215
  O        15.4159871446        8.9557455777        4.8227476009
  O        19.1348553285        9.0012664618        4.8445136990
  O         9.5405029240       12.2219156987        4.7222177456
  O        13.6418208310       12.3174221760        4.7857024308
  O        17.5530289492       12.1988033071        4.6521154107
  O        21.0434760434       12.2229036284        4.6923367976
 Ce         1.9130484700        1.1039688700        0.7810650400
 Ce         5.7389923700        1.1039688700        0.7810650400
 Ce         9.5649362800        1.1039688700        0.7810650400
 Ce        13.3910332200        1.1039688700        0.7810650400
 Ce         3.8259439000        4.4169358500        0.7810650400
 Ce         7.6518878000        4.4169358500        0.7810650400
 Ce        11.4779847500        4.4169358500        0.7810650400
 Ce        15.3050000000        4.4169358500        0.7810650400
 Ce         5.7389923700        7.7309631800        0.7810650400
 Ce         9.5649362800        7.7309631800        0.7810650400
 Ce        13.3910332200        7.7309631800        0.7810650400
 Ce        17.2180484700        7.7309631800        0.7810650400
 Ce         7.6519643300       11.0440627000        0.7810650400
 Ce        11.4780612700       11.0440627000        0.7810650400
 Ce        15.3050765300       11.0440627000        0.7810650400
 Ce        19.1310204300       11.0440627000        0.7810650400
 Ce        17.2308738374        3.2566762692        3.9800606138
 Ce         5.7342670388        3.2599902274        4.0088584258
 Ce         9.5693539887        3.0875847253        4.0668618469
 Ce        13.4575014384        3.2997594343        3.9320294957
 Ce        19.0616518046        6.5311925593        3.7957704154
 Ce         7.4654196430        6.6749684279        3.8632930710
 Ce        11.6087335610        6.6301110843        3.9729065662
 Ce        15.5083419758        6.6749009199        4.0473643062
 Ce        20.9755255541        9.8713310604        4.0061248312
 Ce         9.6482103500        9.8893469259        3.9168982471
 Ce        13.6698520259        9.9814224238        3.8578315964
 Ce        17.3967715013       10.0368843155        3.9187760827
 Ce        15.3323656715       -0.1751070595        3.8884151344
 Ce         3.7841996603        0.0404330434        4.0113009448
 Ce        15.2866213805       13.3020381979        3.8906653893
 Ce        19.2474261255       13.3430866961        3.8987964600
 Pt         9.2311621080        5.4967861747        6.2276768555
 Pt        13.8531005224        5.3862417571        6.8987551804
 Pt        11.4905734532        9.7092436038        6.4717294460
 Pt         9.5901387719        3.2242081357        8.2862964199
 Pt        11.3695481407        3.5957322244       10.2141236426
 Pt         7.0591352469        7.3801770031        7.2475555774
 Pt        11.2671993929        5.3432668896        8.0480928718
 Pt        13.4974947729        4.9010861496        9.3314644079
 Pt         8.0413888375        9.5999332384        6.4514741071
 Pt         9.7432913148        7.7898803812        7.5981598188
 Pt        12.5368136879        7.5927099970        7.7929305471
 Pt        14.9355178615        7.1777491762        8.7587058458
 Pt         9.5071537381       11.8806988855        6.6853549211
 Pt        11.8632736893       11.4422875158        8.2196775739
 Pt        13.7881447796        9.7865109206        8.9571364072
 Pt         8.6928991225        4.1388721331       10.6828388238
 Pt         6.4507553629        7.0364282965       10.1711287804
 Pt         8.4029354963        5.6924194125        8.7892693477
 Pt        11.5587053653        6.5868356043       10.4820631346
 Pt        13.3595298976        4.2815362397       12.0076692595
 Pt         7.9189850252        9.2796621028        8.9453687615
 Pt        11.0289980427        9.1117627921        9.4841831204
 Pt        14.2356802990        6.6573408499       11.3474619855
 Pt         7.1056925464       11.5528347218        7.9537829194
 Pt         9.4415397047       11.4210541264        9.4682462944
 Pt        13.7295642731        9.0089045547       12.7862372517
 Pt        15.4938661319        8.7840501113       10.8185611893
 Pt        12.5447330913       10.7150627660       10.9656662456
 Pt         5.6337707838        6.7929282794       12.6187181358
 Pt         8.1864297818        5.8929632777       12.5197254855
 Pt        10.7797616946        4.8817489505       12.3097647416
 Pt         6.9005050363        9.1089664695       11.5964122362
 Pt         9.1634414212        7.6716863341       10.7476183962
 Pt         9.9928077123        6.9860056425       13.8813125005
 Pt        12.4859512392        6.4169120721       13.4049981681
 Pt         7.1278052030       11.5000586173       10.4787126237
 Pt        11.0895136345        8.6015833773       12.1156931488
 Pt        12.0647204808        8.5552866117       14.8267187464
 Pt        10.0202749510       10.9337944691       11.7929682397
 Pt        12.0024019186       10.8367715164       13.6760249448
 Pt         7.6484302368        8.2032042269       14.0866924045
 Pt         7.5230508555       10.8888825765       13.1916703782
 Pt         9.6966925247        9.8548316301       14.1926432094
     139
 i =     1286, time =     1286.000, E =     -7434.6591960746
  O         3.8259439000        2.2079377400        0.0000000000
  O         7.6518878000        2.2079377400        0.0000000000
  O        11.4779847500        2.2079377400        0.0000000000
  O        15.3050000000        2.2079377400        0.0000000000
  O         5.7389923700        5.5219650800        0.0000000000
  O         9.5649362800        5.5219650800        0.0000000000
  O        13.3910332200        5.5219650800        0.0000000000
  O        17.2180484700        5.5219650800        0.0000000000
  O         7.6519643300        8.8350646000        0.0000000000
  O        11.4780612700        8.8350646000        0.0000000000
  O        15.3050765300        8.8350646000        0.0000000000
  O        19.1310204300        8.8350646000        0.0000000000
  O         9.5649362800       12.1489593900        0.0000000000
  O        13.3910332300       12.1489593900        0.0000000000
  O        17.2180484700       12.1489593900        0.0000000000
  O        21.0439923800       12.1489593900        0.0000000000
  O         1.9130484800        3.3129669800        1.5618832200
  O         5.7389923700        3.3129669800        1.5618832200
  O         9.5649362700        3.3129669800        1.5618832200
  O        13.3910332200        3.3129669800        1.5618832200
  O         3.8259439000        6.6259339500        1.5618832200
  O         7.6518878000        6.6259339500        1.5618832200
  O        11.4779847500        6.6259339500        1.5618832200
  O        15.3050000000        6.6259339500        1.5618832200
  O         5.7389923700        9.9399612900        1.5618832200
  O         9.5649362700        9.9399612900        1.5618832200
  O        13.3910332200        9.9399612900        1.5618832200
  O        17.2180484700        9.9399612900        1.5618832200
  O         7.6519643300       13.2530608100        1.5618832200
  O        11.4780612700       13.2530608100        1.5618832200
  O        15.3050765300       13.2530608100        1.5618832200
  O        19.1310204300       13.2530608100        1.5618832200
  O         2.0265949604        1.0040017922        3.2374363231
  O         5.7044928019        1.0935347875        3.0853372320
  O         9.6376381226        1.0883655994        2.9836695790
  O        13.4459175204        1.1888802680        3.1123535191
  O         3.9690593941        4.4196039724        2.9918413084
  O         7.7991089112        4.6099056683        3.1312008436
  O        11.2850347338        4.7312187760        3.4187204533
  O        15.5061513009        4.4584529031        3.1261928628
  O         5.5956216397        7.6756479966        3.1602053341
  O         9.8022881530        7.8167522806        3.1953483926
  O        13.4366461339        7.8126592355        3.0300934888
  O        17.2856799245        7.6971531843        3.1468837924
  O         7.5025344361       10.9997028097        2.9759486330
  O        11.4754306629       11.0743784615        3.1880832338
  O        15.5057980172       11.0950643158        3.0875225409
  O        19.1966379866       10.9489238103        2.9502881751
  O         3.8832351212        2.2690135365        4.9910499099
  O         7.6187189876        2.1830005252        4.5867294464
  O        11.5970287253        2.3080794849        4.5262537130
  O        15.3620908324        2.2596319957        4.7834202078
  O         5.6190896947        5.4697598179        4.5913420205
  O         9.0863646118        3.4028887113        6.2505788635
  O        13.6687901589        5.4349452423        4.8816212366
  O        17.2231779133        5.6381507866        4.9134440221
  O         7.6606137926        8.8724680536        4.5231836540
  O        11.6664009384        8.8734979212        4.6972492264
  O        15.4156546994        8.9508589361        4.8263998204
  O        19.1353915039        9.0112629120        4.8432292293
  O         9.5410420972       12.2197244337        4.7281956644
  O        13.6561300701       12.3162909826        4.7884078470
  O        17.5615015831       12.1941058033        4.6509750581
  O        21.0409014456       12.2303792128        4.6959942102
 Ce         1.9130484700        1.1039688700        0.7810650400
 Ce         5.7389923700        1.1039688700        0.7810650400
 Ce         9.5649362800        1.1039688700        0.7810650400
 Ce        13.3910332200        1.1039688700        0.7810650400
 Ce         3.8259439000        4.4169358500        0.7810650400
 Ce         7.6518878000        4.4169358500        0.7810650400
 Ce        11.4779847500        4.4169358500        0.7810650400
 Ce        15.3050000000        4.4169358500        0.7810650400
 Ce         5.7389923700        7.7309631800        0.7810650400
 Ce         9.5649362800        7.7309631800        0.7810650400
 Ce        13.3910332200        7.7309631800        0.7810650400
 Ce        17.2180484700        7.7309631800        0.7810650400
 Ce         7.6519643300       11.0440627000        0.7810650400
 Ce        11.4780612700       11.0440627000        0.7810650400
 Ce        15.3050765300       11.0440627000        0.7810650400
 Ce        19.1310204300       11.0440627000        0.7810650400
 Ce        17.2290684792        3.2548716007        3.9851593812
 Ce         5.7341476529        3.2605981102        4.0103773808
 Ce         9.5699614144        3.0872958466        4.0684636209
 Ce        13.4552124081        3.3007277873        3.9314917694
 Ce        19.0663392449        6.5347829798        3.7972551300
 Ce         7.4657903567        6.6756635021        3.8645622654
 Ce        11.6082287198        6.6331043609        3.9727982986
 Ce        15.5055252806        6.6759042061        4.0468353614
 Ce        20.9743275037        9.8706984959        4.0078088473
 Ce         9.6457506944        9.8869944909        3.9177064593
 Ce        13.6712240932        9.9830826433        3.8586662457
 Ce        17.3966371867       10.0365890290        3.9172128280
 Ce        15.3336312922       -0.1769351797        3.8900670849
 Ce         3.7888676449        0.0412861440        4.0129667928
 Ce        15.2867473580       13.3020867960        3.8915247175
 Ce        19.2469830902       13.3445339551        3.8970902686
 Pt         9.2319966779        5.4973250408        6.2247671606
 Pt        13.8547906818        5.3861696732        6.8956796884
 Pt        11.4916967203        9.7094258822        6.4688920959
 Pt         9.5912150194        3.2258489678        8.2837248755
 Pt        11.3674870164        3.5972360683       10.2135261372
 Pt         7.0586721994        7.3831408314        7.2492545542
 Pt        11.2665912911        5.3447003267        8.0494111433
 Pt        13.4929779988        4.9006293598        9.3321805725
 Pt         8.0444698871        9.6003113048        6.4489042365
 Pt         9.7448799549        7.7907631180        7.5972385051
 Pt        12.5323762003        7.5933704513        7.7931162272
 Pt        14.9356493637        7.1783836359        8.7577557941
 Pt         9.5062173050       11.8772898265        6.6846230713
 Pt        11.8618744189       11.4433361948        8.2192171538
 Pt        13.7878618602        9.7849886031        8.9562114303
 Pt         8.6916122916        4.1372263324       10.6829969589
 Pt         6.4473222678        7.0335093192       10.1711622386
 Pt         8.4046138478        5.6916530000        8.7894067318
 Pt        11.5601988840        6.5894761699       10.4797159129
 Pt        13.3610254070        4.2819845152       12.0077181038
 Pt         7.9205220451        9.2821258987        8.9445405985
 Pt        11.0300391232        9.1113258768        9.4850587172
 Pt        14.2375688611        6.6593775750       11.3490684270
 Pt         7.1073021906       11.5517468420        7.9543065457
 Pt         9.4418777382       11.4199120395        9.4702412690
 Pt        13.7280835596        9.0120991887       12.7838734269
 Pt        15.4952471218        8.7840505868       10.8187957651
 Pt        12.5446552343       10.7136248999       10.9633665131
 Pt         5.6353585853        6.7897513906       12.6199962741
 Pt         8.1860136198        5.8953665484       12.5211605918
 Pt        10.7827974997        4.8756760276       12.3127928862
 Pt         6.9009435161        9.1106275474       11.5932795620
 Pt         9.1627123052        7.6745671969       10.7488778556
 Pt         9.9913554013        6.9878120885       13.8816525595
 Pt        12.4855690228        6.4171006206       13.4058345134
 Pt         7.1274682963       11.4998864441       10.4754789456
 Pt        11.0902104703        8.6021267179       12.1161363829
 Pt        12.0631340140        8.5549265010       14.8246026320
 Pt        10.0197429806       10.9303639648       11.7933764961
 Pt        12.0009886404       10.8359503687       13.6752438044
 Pt         7.6493783342        8.2036736656       14.0873413261
 Pt         7.5268031107       10.8889782540       13.1904540611
 Pt         9.6980685762        9.8537191509       14.1927613392
     139
 i =     1287, time =     1287.000, E =     -7434.6583000817
  O         3.8259439000        2.2079377400        0.0000000000
  O         7.6518878000        2.2079377400        0.0000000000
  O        11.4779847500        2.2079377400        0.0000000000
  O        15.3050000000        2.2079377400        0.0000000000
  O         5.7389923700        5.5219650800        0.0000000000
  O         9.5649362800        5.5219650800        0.0000000000
  O        13.3910332200        5.5219650800        0.0000000000
  O        17.2180484700        5.5219650800        0.0000000000
  O         7.6519643300        8.8350646000        0.0000000000
  O        11.4780612700        8.8350646000        0.0000000000
  O        15.3050765300        8.8350646000        0.0000000000
  O        19.1310204300        8.8350646000        0.0000000000
  O         9.5649362800       12.1489593900        0.0000000000
  O        13.3910332300       12.1489593900        0.0000000000
  O        17.2180484700       12.1489593900        0.0000000000
  O        21.0439923800       12.1489593900        0.0000000000
  O         1.9130484800        3.3129669800        1.5618832200
  O         5.7389923700        3.3129669800        1.5618832200
  O         9.5649362700        3.3129669800        1.5618832200
  O        13.3910332200        3.3129669800        1.5618832200
  O         3.8259439000        6.6259339500        1.5618832200
  O         7.6518878000        6.6259339500        1.5618832200
  O        11.4779847500        6.6259339500        1.5618832200
  O        15.3050000000        6.6259339500        1.5618832200
  O         5.7389923700        9.9399612900        1.5618832200
  O         9.5649362700        9.9399612900        1.5618832200
  O        13.3910332200        9.9399612900        1.5618832200
  O        17.2180484700        9.9399612900        1.5618832200
  O         7.6519643300       13.2530608100        1.5618832200
  O        11.4780612700       13.2530608100        1.5618832200
  O        15.3050765300       13.2530608100        1.5618832200
  O        19.1310204300       13.2530608100        1.5618832200
  O         2.0283683011        1.0053303665        3.2373444817
  O         5.7098061780        1.0904854992        3.0952423449
  O         9.6387803020        1.0890501632        2.9885141638
  O        13.4430327819        1.1933529983        3.1019804583
  O         3.9686536904        4.4055876489        3.0007057857
  O         7.7995817356        4.6083192459        3.1327533811
  O        11.2868579741        4.7373164042        3.4131936636
  O        15.5134701387        4.4638184459        3.1258908692
  O         5.5939481545        7.6838157127        3.1623687106
  O         9.7987683576        7.8169065930        3.1903800257
  O        13.4383193948        7.8098254709        3.0317012891
  O        17.2915367381        7.6989568368        3.1441497699
  O         7.5042453768       10.9966332211        2.9772151828
  O        11.4845283086       11.0705839905        3.1711566493
  O        15.4982935980       11.0955419440        3.0899071169
  O        19.2043457462       10.9604757728        2.9469484465
  O         3.8812713463        2.2702586745        4.9900665112
  O         7.6159454053        2.1888391605        4.5964241743
  O        11.5947785816        2.3105382271        4.5230195395
  O        15.3594253454        2.2638254552        4.7854037981
  O         5.6188958277        5.4816080025        4.5849317290
  O         9.0810037467        3.4070767336        6.2495512218
  O        13.6606990812        5.4278870382        4.8797661586
  O        17.2280116842        5.6402689364        4.9105368332
  O         7.6574267518        8.8804328396        4.5161415831
  O        11.6619163478        8.8697557615        4.7092794189
  O        15.4152932378        8.9458473075        4.8294905996
  O        19.1360621094        9.0210543332        4.8418023969
  O         9.5415963598       12.2173260746        4.7337845795
  O        13.6700803567       12.3147358538        4.7909354750
  O        17.5695020130       12.1894376901        4.6500777747
  O        21.0384115337       12.2376596030        4.6995926254
 Ce         1.9130484700        1.1039688700        0.7810650400
 Ce         5.7389923700        1.1039688700        0.7810650400
 Ce         9.5649362800        1.1039688700        0.7810650400
 Ce        13.3910332200        1.1039688700        0.7810650400
 Ce         3.8259439000        4.4169358500        0.7810650400
 Ce         7.6518878000        4.4169358500        0.7810650400
 Ce        11.4779847500        4.4169358500        0.7810650400
 Ce        15.3050000000        4.4169358500        0.7810650400
 Ce         5.7389923700        7.7309631800        0.7810650400
 Ce         9.5649362800        7.7309631800        0.7810650400
 Ce        13.3910332200        7.7309631800        0.7810650400
 Ce        17.2180484700        7.7309631800        0.7810650400
 Ce         7.6519643300       11.0440627000        0.7810650400
 Ce        11.4780612700       11.0440627000        0.7810650400
 Ce        15.3050765300       11.0440627000        0.7810650400
 Ce        19.1310204300       11.0440627000        0.7810650400
 Ce        17.2272308044        3.2530803065        3.9902613783
 Ce         5.7340260926        3.2612541772        4.0118343685
 Ce         9.5705433796        3.0871490068        4.0700241360
 Ce        13.4530067481        3.3016890459        3.9309581573
 Ce        19.0710662751        6.5383736621        3.7988382165
 Ce         7.4662129781        6.6762607812        3.8658674220
 Ce        11.6077233982        6.6362357061        3.9727187684
 Ce        15.5026510554        6.6769063155        4.0462880376
 Ce        20.9731140133        9.8701716659        4.0094371906
 Ce         9.6433414411        9.8846625894        3.9184607707
 Ce        13.6725219030        9.9847389418        3.8595615844
 Ce        17.3964573976       10.0362910969        3.9156631362
 Ce        15.3347919710       -0.1786666407        3.8917205869
 Ce         3.7936769690        0.0421044941        4.0146056773
 Ce        15.2869080910       13.3021014154        3.8923574268
 Ce        19.2465221341       13.3458952825        3.8953471570
 Pt         9.2328223305        5.4978700466        6.2218533532
 Pt        13.8564696609        5.3861458808        6.8926160956
 Pt        11.4928112676        9.7096196116        6.4661195695
 Pt         9.5923041460        3.2275413610        8.2811388905
 Pt        11.3654133576        3.5987216673       10.2128817379
 Pt         7.0582285223        7.3860428968        7.2510039237
 Pt        11.2659437805        5.3461272755        8.0507091726
 Pt        13.4884944093        4.9001789363        9.3329633572
 Pt         8.0475342600        9.6006895069        6.4462573707
 Pt         9.7464904412        7.7916070714        7.5962790842
 Pt        12.5279186683        7.5940432188        7.7933104955
 Pt        14.9357510193        7.1790009625        8.7568180100
 Pt         9.5052999758       11.8738384005        6.6839737952
 Pt        11.8604513071       11.4443940245        8.2188047004
 Pt        13.7875934468        9.7834356669        8.9552818649
 Pt         8.6903519795        4.1355456773       10.6831663960
 Pt         6.4439162089        7.0305756570       10.1711533960
 Pt         8.4062899365        5.6909224999        8.7895713698
 Pt        11.5616908037        6.5921402817       10.4773560762
 Pt        13.3625103750        4.2824488566       12.0077383091
 Pt         7.9220537385        9.2845813482        8.9437957292
 Pt        11.0310942253        9.1108678100        9.4859013071
 Pt        14.2394289005        6.6614054479       11.3506683428
 Pt         7.1089264331       11.5506944545        7.9548197350
 Pt         9.4422278320       11.4187896902        9.4721076928
 Pt        13.7266019456        9.0152759025       12.7814721926
 Pt        15.4965964081        8.7840718222       10.8190087294
 Pt        12.5445841260       10.7121878100       10.9610876409
 Pt         5.6370123155        6.7866000904       12.6212642061
 Pt         8.1855652336        5.8977762933       12.5225635380
 Pt        10.7857359728        4.8696411050       12.3158481792
 Pt         6.9013883113        9.1122456610       11.5901365214
 Pt         9.1619305604        7.6774116402       10.7501104578
 Pt         9.9899378474        6.9896600693       13.8820370596
 Pt        12.4852618531        6.4173061360       13.4066696612
 Pt         7.1271189826       11.4996847488       10.4723256159
 Pt        11.0909370312        8.6026356183       12.1166065667
 Pt        12.0615163352        8.5545467018       14.8225029936
 Pt        10.0191971212       10.9269646301       11.7938545395
 Pt        11.9996066660       10.8351817532       13.6744323640
 Pt         7.6503156906        8.2041405040       14.0879326790
 Pt         7.5305799049       10.8890949704       13.1892292188
 Pt         9.6994245519        9.8525550888       14.1928996448
     139
 i =     1288, time =     1288.000, E =     -7434.6574437889
  O         3.8259439000        2.2079377400        0.0000000000
  O         7.6518878000        2.2079377400        0.0000000000
  O        11.4779847500        2.2079377400        0.0000000000
  O        15.3050000000        2.2079377400        0.0000000000
  O         5.7389923700        5.5219650800        0.0000000000
  O         9.5649362800        5.5219650800        0.0000000000
  O        13.3910332200        5.5219650800        0.0000000000
  O        17.2180484700        5.5219650800        0.0000000000
  O         7.6519643300        8.8350646000        0.0000000000
  O        11.4780612700        8.8350646000        0.0000000000
  O        15.3050765300        8.8350646000        0.0000000000
  O        19.1310204300        8.8350646000        0.0000000000
  O         9.5649362800       12.1489593900        0.0000000000
  O        13.3910332300       12.1489593900        0.0000000000
  O        17.2180484700       12.1489593900        0.0000000000
  O        21.0439923800       12.1489593900        0.0000000000
  O         1.9130484800        3.3129669800        1.5618832200
  O         5.7389923700        3.3129669800        1.5618832200
  O         9.5649362700        3.3129669800        1.5618832200
  O        13.3910332200        3.3129669800        1.5618832200
  O         3.8259439000        6.6259339500        1.5618832200
  O         7.6518878000        6.6259339500        1.5618832200
  O        11.4779847500        6.6259339500        1.5618832200
  O        15.3050000000        6.6259339500        1.5618832200
  O         5.7389923700        9.9399612900        1.5618832200
  O         9.5649362700        9.9399612900        1.5618832200
  O        13.3910332200        9.9399612900        1.5618832200
  O        17.2180484700        9.9399612900        1.5618832200
  O         7.6519643300       13.2530608100        1.5618832200
  O        11.4780612700       13.2530608100        1.5618832200
  O        15.3050765300       13.2530608100        1.5618832200
  O        19.1310204300       13.2530608100        1.5618832200
  O         2.0297059695        1.0072960428        3.2368137883
  O         5.7148435118        1.0876301571        3.1053081958
  O         9.6396261334        1.0898708141        2.9942352852
  O        13.4404612861        1.1974880628        3.0914383731
  O         3.9672269661        4.3913292432        3.0102265050
  O         7.7999435981        4.6062842907        3.1346596298
  O        11.2889297837        4.7421597770        3.4071814789
  O        15.5203471561        4.4690704227        3.1256724075
  O         5.5927297449        7.6924148073        3.1642963774
  O         9.7946279717        7.8163809067        3.1853369780
  O        13.4401340733        7.8065895030        3.0339728099
  O        17.2972766809        7.7010246418        3.1412779083
  O         7.5066684680       10.9939331240        2.9793179697
  O        11.4937760130       11.0669824211        3.1541975227
  O        15.4902293884       11.0959610144        3.0923667649
  O        19.2121378470       10.9722124677        2.9444307122
  O         3.8791601485        2.2714825574        4.9883421584
  O         7.6127998008        2.1942921026        4.6060225668
  O        11.5925590593        2.3126232395        4.5202429521
  O        15.3568081461        2.2681103995        4.7870500894
  O         5.6190738175        5.4934579878        4.5789408669
  O         9.0759757202        3.4115943463        6.2488686706
  O        13.6524441432        5.4209865478        4.8773505584
  O        17.2331100641        5.6420529618        4.9071777730
  O         7.6542248219        8.8882755242        4.5091802693
  O        11.6575501809        8.8658519987        4.7208488075
  O        15.4149068789        8.9407234541        4.8320150624
  O        19.1368485345        9.0306085920        4.8402513870
  O         9.5421923184       12.2147510539        4.7388979187
  O        13.6836189079       12.3127163676        4.7933134233
  O        17.5770060843       12.1847751761        4.6494337632
  O        21.0360453272       12.2447542525        4.7031404798
 Ce         1.9130484700        1.1039688700        0.7810650400
 Ce         5.7389923700        1.1039688700        0.7810650400
 Ce         9.5649362800        1.1039688700        0.7810650400
 Ce        13.3910332200        1.1039688700        0.7810650400
 Ce         3.8259439000        4.4169358500        0.7810650400
 Ce         7.6518878000        4.4169358500        0.7810650400
 Ce        11.4779847500        4.4169358500        0.7810650400
 Ce        15.3050000000        4.4169358500        0.7810650400
 Ce         5.7389923700        7.7309631800        0.7810650400
 Ce         9.5649362800        7.7309631800        0.7810650400
 Ce        13.3910332200        7.7309631800        0.7810650400
 Ce        17.2180484700        7.7309631800        0.7810650400
 Ce         7.6519643300       11.0440627000        0.7810650400
 Ce        11.4780612700       11.0440627000        0.7810650400
 Ce        15.3050765300       11.0440627000        0.7810650400
 Ce        19.1310204300       11.0440627000        0.7810650400
 Ce        17.2253646415        3.2513062220        3.9953633576
 Ce         5.7339027623        3.2619577615        4.0132295017
 Ce         9.5710965810        3.0871459094        4.0715416033
 Ce        13.4508858693        3.3026432928        3.9304263956
 Ce        19.0758255160        6.5419585109        3.8005168438
 Ce         7.4666871694        6.6767612993        3.8672053928
 Ce        11.6072175115        6.6395013537        3.9726670005
 Ce        15.4997262335        6.6779048395        4.0457215379
 Ce        20.9718856597        9.8697574107        4.0110065034
 Ce         9.6409856570        9.8823538009        3.9191562203
 Ce        13.6737438227        9.9863890564        3.8605155380
 Ce        17.3962350813       10.0359939478        3.9141246062
 Ce        15.3358457984       -0.1803011289        3.8933729545
 Ce         3.7986215940        0.0428889601        4.0162142658
 Ce        15.2871082720       13.3020869503        3.8931642064
 Ce        19.2460464751       13.3471693715        3.8935657532
 Pt         9.2336381850        5.4984224512        6.2189366545
 Pt        13.8581357097        5.3861717221        6.8895673959
 Pt        11.4939168746        9.7098298824        6.4634216821
 Pt         9.5934050996        3.2292846039        8.2785383814
 Pt        11.3633267883        3.6001880880       10.2121923337
 Pt         7.0578056905        7.3888834928        7.2528046803
 Pt        11.2652561711        5.3475473786        8.0519856841
 Pt        13.4840471495        4.8997355652        9.3338114977
 Pt         8.0505811083        9.6010655371        6.4435332727
 Pt         9.7481214611        7.7924118337        7.5952811510
 Pt        12.5234455265        7.5947268504        7.7935124821
 Pt        14.9358194213        7.1796020020        8.7558921333
 Pt         9.5044015095       11.8703458634        6.6834086234
 Pt        11.8590038455       11.4454601315        8.2184398175
 Pt        13.7873400828        9.7818518655        8.9543475513
 Pt         8.6891177279        4.1338310155       10.6833474463
 Pt         6.4405390113        7.0276277467       10.1711034158
 Pt         8.4079641718        5.6902293040        8.7897629564
 Pt        11.5631792960        6.5948278687       10.4749855505
 Pt        13.3639847709        4.2829297920       12.0077305407
 Pt         7.9235815391        9.2870267935        8.9431328747
 Pt        11.0321637402        9.1103885397        9.4867106026
 Pt        14.2412591188        6.6634217804       11.3522612185
 Pt         7.1105645933       11.5496782289        7.9553199157
 Pt         9.4425896708       11.4176874523        9.4738465920
 Pt        13.7251221706        9.0184344299       12.7790335428
 Pt        15.4979146351        8.7841147699       10.8191991960
 Pt        12.5445196200       10.7107529812       10.9588314851
 Pt         5.6387308807        6.7834750925       12.6225212856
 Pt         8.1850855126        5.9001924479       12.5239342315
 Pt        10.7885770759        4.8636463447       12.3189277689
 Pt         6.9018393591        9.1138206948       11.5869836045
 Pt         9.1610944507        7.6802176061       10.7513164103
 Pt         9.9885561387        6.9915468330       13.8824660669
 Pt        12.4850296887        6.4175289193       13.4075036490
 Pt         7.1267561626       11.4994550855       10.4692561772
 Pt        11.0916931589        8.6031079119       12.1171039061
 Pt        12.0598678133        8.5541471239       14.8204206561
 Pt        10.0186369865       10.9235981449       11.7944018718
 Pt        11.9982572250       10.8344666497       13.6735903385
 Pt         7.6512418734        8.2046035925       14.0884653421
 Pt         7.5343810107       10.8892323773       13.1879945227
 Pt         9.7007592563        9.8513400371       14.1930582975
     139
 i =     1289, time =     1289.000, E =     -7434.6566089864
  O         3.8259439000        2.2079377400        0.0000000000
  O         7.6518878000        2.2079377400        0.0000000000
  O        11.4779847500        2.2079377400        0.0000000000
  O        15.3050000000        2.2079377400        0.0000000000
  O         5.7389923700        5.5219650800        0.0000000000
  O         9.5649362800        5.5219650800        0.0000000000
  O        13.3910332200        5.5219650800        0.0000000000
  O        17.2180484700        5.5219650800        0.0000000000
  O         7.6519643300        8.8350646000        0.0000000000
  O        11.4780612700        8.8350646000        0.0000000000
  O        15.3050765300        8.8350646000        0.0000000000
  O        19.1310204300        8.8350646000        0.0000000000
  O         9.5649362800       12.1489593900        0.0000000000
  O        13.3910332300       12.1489593900        0.0000000000
  O        17.2180484700       12.1489593900        0.0000000000
  O        21.0439923800       12.1489593900        0.0000000000
  O         1.9130484800        3.3129669800        1.5618832200
  O         5.7389923700        3.3129669800        1.5618832200
  O         9.5649362700        3.3129669800        1.5618832200
  O        13.3910332200        3.3129669800        1.5618832200
  O         3.8259439000        6.6259339500        1.5618832200
  O         7.6518878000        6.6259339500        1.5618832200
  O        11.4779847500        6.6259339500        1.5618832200
  O        15.3050000000        6.6259339500        1.5618832200
  O         5.7389923700        9.9399612900        1.5618832200
  O         9.5649362700        9.9399612900        1.5618832200
  O        13.3910332200        9.9399612900        1.5618832200
  O        17.2180484700        9.9399612900        1.5618832200
  O         7.6519643300       13.2530608100        1.5618832200
  O        11.4780612700       13.2530608100        1.5618832200
  O        15.3050765300       13.2530608100        1.5618832200
  O        19.1310204300       13.2530608100        1.5618832200
  O         2.0306164752        1.0098639404        3.2358726204
  O         5.7195823882        1.0849817681        3.1154746033
  O         9.6401549669        1.0908277607        3.0008163541
  O        13.4382195502        1.2012806793        3.0808077103
  O         3.9647895814        4.3768958733        3.0203342065
  O         7.8001905386        4.6038220787        3.1369210491
  O        11.2912305456        4.7457288278        3.4006941468
  O        15.5267644991        4.4742051119        3.1255433271
  O         5.5919839041        7.7014226299        3.1659696260
  O         9.7898843248        7.8151856915        3.1802284455
  O        13.4420767997        7.8029736055        3.0369146086
  O        17.3028598871        7.7033573410        3.1382972933
  O         7.5098026778       10.9916384055        2.9822545578
  O        11.5031313748       11.0635805932        3.1373527889
  O        15.4816681619       11.0963138428        3.0948761877
  O        19.2199841460       10.9841000215        2.9427623747
  O         3.8769146785        2.2726567500        4.9859043905
  O         7.6092939554        2.1993466134        4.6154667883
  O        11.5903850347        2.3143453375        4.5179474468
  O        15.3542237071        2.2724663727        4.7883560645
  O         5.6196194711        5.5053030636        4.5733945900
  O         9.0712863180        3.4164526739        6.2485508898
  O        13.6440583392        5.4142738161        4.8743905345
  O        17.2384386108        5.6435177381        4.9033684105
  O         7.6510416507        8.8959596273        4.5023541947
  O        11.6533098175        8.8617332754        4.7318096004
  O        15.4145003664        8.9354925810        4.8339714258
  O        19.1377223274        9.0398937079        4.8385920048
  O         9.5428516118       12.2120298256        4.7434450105
  O        13.6967018401       12.3102107616        4.7955687774
  O        17.5839835196       12.1800990061        4.6490512113
  O        21.0338415592       12.2516764136        4.7066427442
 Ce         1.9130484700        1.1039688700        0.7810650400
 Ce         5.7389923700        1.1039688700        0.7810650400
 Ce         9.5649362800        1.1039688700        0.7810650400
 Ce        13.3910332200        1.1039688700        0.7810650400
 Ce         3.8259439000        4.4169358500        0.7810650400
 Ce         7.6518878000        4.4169358500        0.7810650400
 Ce        11.4779847500        4.4169358500        0.7810650400
 Ce        15.3050000000        4.4169358500        0.7810650400
 Ce         5.7389923700        7.7309631800        0.7810650400
 Ce         9.5649362800        7.7309631800        0.7810650400
 Ce        13.3910332200        7.7309631800        0.7810650400
 Ce        17.2180484700        7.7309631800        0.7810650400
 Ce         7.6519643300       11.0440627000        0.7810650400
 Ce        11.4780612700       11.0440627000        0.7810650400
 Ce        15.3050765300       11.0440627000        0.7810650400
 Ce        19.1310204300       11.0440627000        0.7810650400
 Ce        17.2234742951        3.2495525846        4.0004621161
 Ce         5.7337777724        3.2627078959        4.0145631499
 Ce         9.5716174849        3.0872873878        4.0730144148
 Ce        13.4488511908        3.3035892465        3.9298937152
 Ce        19.0806098293        6.5455321420        3.8022883683
 Ce         7.4672125117        6.6771672323        3.8685736312
 Ce        11.6067101488        6.6428972745        3.9726418367
 Ce        15.4967583540        6.6788976071        4.0451344877
 Ce        20.9706435909        9.8694625888        4.0125146818
 Ce         9.6386855303        9.8800711682        3.9197889077
 Ce        13.6748878380        9.9880311331        3.8615261116
 Ce        17.3959733045       10.0357009941        3.9125951352
 Ce        15.3367917409       -0.1818389792        3.8950222275
 Ce         3.8036944952        0.0436406210        4.0177897748
 Ce        15.2873523137       13.3020479483        3.8939459914
 Ce        19.2455595753       13.3483543139        3.8917451670
 Pt         9.2344440386        5.4989834891        6.2160185300
 Pt        13.8597861103        5.3862467017        6.8865392459
 Pt        11.4950129561        9.7100619546        6.4608078481
 Pt         9.5945163710        3.2310776322        8.2759228527
 Pt        11.3612249917        3.6016347975       10.2114579043
 Pt         7.0574042953        7.3916627333        7.2546601549
 Pt        11.2645321430        5.3489602725        8.0532377601
 Pt        13.4796374913        4.8993005373        9.3347225888
 Pt         8.0536055928        9.6014370053        6.4407304050
 Pt         9.7497725257        7.7931772934        7.5942469515
 Pt        12.5189595796        7.5954245441        7.7937225311
 Pt        14.9358556881        7.1801855954        8.7549768117
 Pt         9.5035249805       11.8668163712        6.6829300254
 Pt        11.8575317637       11.4465330343        8.2181226832
 Pt        13.7871007516        9.7802374363        8.9534067948
 Pt         8.6879101524        4.1320835426       10.6835398232
 Pt         6.4371910672        7.0246669628       10.1710135684
 Pt         8.4096374274        5.6895741365        8.7899821897
 Pt        11.5646628246        6.5975366722       10.4726064278
 Pt        13.3654500300        4.2834287193       12.0076946654
 Pt         7.9251066597        9.2894553632        8.9425498445
 Pt        11.0332473564        9.1098868258        9.4874872166
 Pt        14.2430574885        6.6654239175       11.3538486732
 Pt         7.1122175600       11.5486999624        7.9558028591
 Pt         9.4429609249       11.4166063430        9.4754568716
 Pt        13.7236453393        9.0215734211       12.7765583061
 Pt        15.4992018291        8.7841797830       10.8193667426
 Pt        12.5444618333       10.7093226915       10.9565987125
 Pt         5.6405113873        6.7803748125       12.6237670035
 Pt         8.1845761541        5.9026147244       12.5252743214
 Pt        10.7913190011        4.8576944586       12.3220301979
 Pt         6.9022986181        9.1153534303       11.5838206396
 Pt         9.1602027541        7.6829833875       10.7524943412
 Pt         9.9872104113        6.9934685006       13.8829369606
 Pt        12.4848743468        6.4177705613       13.4083357034
 Pt         7.1263791811       11.4992003196       10.4662725630
 Pt        11.0924813836        8.6035435108       12.1176278597
 Pt        12.0581898443        8.5537260083       14.8183555432
 Pt        10.0180617736       10.9202647169       11.7950195791
 Pt        11.9969414161       10.8338061508       13.6727169690
 Pt         7.6521555282        8.2050623871       14.0889392748
 Pt         7.5382048426       10.8893897248       13.1867492722
 Pt         9.7020720133        9.8500761646       14.1932388103
     139
 i =     1290, time =     1290.000, E =     -7434.6558064093
  O         3.8259439000        2.2079377400        0.0000000000
  O         7.6518878000        2.2079377400        0.0000000000
  O        11.4779847500        2.2079377400        0.0000000000
  O        15.3050000000        2.2079377400        0.0000000000
  O         5.7389923700        5.5219650800        0.0000000000
  O         9.5649362800        5.5219650800        0.0000000000
  O        13.3910332200        5.5219650800        0.0000000000
  O        17.2180484700        5.5219650800        0.0000000000
  O         7.6519643300        8.8350646000        0.0000000000
  O        11.4780612700        8.8350646000        0.0000000000
  O        15.3050765300        8.8350646000        0.0000000000
  O        19.1310204300        8.8350646000        0.0000000000
  O         9.5649362800       12.1489593900        0.0000000000
  O        13.3910332300       12.1489593900        0.0000000000
  O        17.2180484700       12.1489593900        0.0000000000
  O        21.0439923800       12.1489593900        0.0000000000
  O         1.9130484800        3.3129669800        1.5618832200
  O         5.7389923700        3.3129669800        1.5618832200
  O         9.5649362700        3.3129669800        1.5618832200
  O        13.3910332200        3.3129669800        1.5618832200
  O         3.8259439000        6.6259339500        1.5618832200
  O         7.6518878000        6.6259339500        1.5618832200
  O        11.4779847500        6.6259339500        1.5618832200
  O        15.3050000000        6.6259339500        1.5618832200
  O         5.7389923700        9.9399612900        1.5618832200
  O         9.5649362700        9.9399612900        1.5618832200
  O        13.3910332200        9.9399612900        1.5618832200
  O        17.2180484700        9.9399612900        1.5618832200
  O         7.6519643300       13.2530608100        1.5618832200
  O        11.4780612700       13.2530608100        1.5618832200
  O        15.3050765300       13.2530608100        1.5618832200
  O        19.1310204300       13.2530608100        1.5618832200
  O         2.0311120305        1.0129946796        3.2345541527
  O         5.7239929083        1.0825516418        3.1257175678
  O         9.6403482399        1.0919169271        3.0082230569
  O        13.4363202139        1.2047239806        3.0701915577
  O         3.9613511841        4.3623322191        3.0309367852
  O         7.8003166600        4.6009522388        3.1395338098
  O        11.2937427266        4.7480155729        3.3937308791
  O        15.5327089882        4.4792151495        3.1255084955
  O         5.5917257620        7.7108219775        3.1673723068
  O         9.7845543047        7.8133372760        3.1750688754
  O        13.4441350787        7.7990040560        3.0405288468
  O        17.3082489563        7.7059525340        3.1352339857
  O         7.5136478849       10.9897827945        2.9860211240
  O        11.5125597051       11.0603912538        3.1207694832
  O        15.4726910435       11.0965890452        3.0974087476
  O        19.2278532856       10.9960791133        2.9419592755
  O         3.8745482756        2.2737468535        4.9827835658
  O         7.6054342785        2.2039869078        4.6247310986
  O        11.5882740961        2.3157109020        4.5161530867
  O        15.3516598532        2.2768652435        4.7893235854
  O         5.6205244276        5.5171339947        4.5683064046
  O         9.0669475421        3.4216463273        6.2486044409
  O        13.6355582306        5.4077780325        4.8709135108
  O        17.2439734931        5.6446790615        4.8991088434
  O         7.6478975114        8.9034369170        4.4956990664
  O        11.6492030074        8.8573515038        4.7419835712
  O        15.4140807136        8.9301579872        4.8353593646
  O        19.1386523548        9.0488861196        4.8368416747
  O         9.5435945408       12.2091939725        4.7473338458
  O        13.7092670032       12.3072158896        4.7977287978
  O        17.5903967834       12.1753946525        4.6489363478
  O        21.0318434539       12.2584356274        4.7101047662
 Ce         1.9130484700        1.1039688700        0.7810650400
 Ce         5.7389923700        1.1039688700        0.7810650400
 Ce         9.5649362800        1.1039688700        0.7810650400
 Ce        13.3910332200        1.1039688700        0.7810650400
 Ce         3.8259439000        4.4169358500        0.7810650400
 Ce         7.6518878000        4.4169358500        0.7810650400
 Ce        11.4779847500        4.4169358500        0.7810650400
 Ce        15.3050000000        4.4169358500        0.7810650400
 Ce         5.7389923700        7.7309631800        0.7810650400
 Ce         9.5649362800        7.7309631800        0.7810650400
 Ce        13.3910332200        7.7309631800        0.7810650400
 Ce        17.2180484700        7.7309631800        0.7810650400
 Ce         7.6519643300       11.0440627000        0.7810650400
 Ce        11.4780612700       11.0440627000        0.7810650400
 Ce        15.3050765300       11.0440627000        0.7810650400
 Ce        19.1310204300       11.0440627000        0.7810650400
 Ce        17.2215640244        3.2478231983        4.0055541435
 Ce         5.7336517737        3.2635036467        4.0158357768
 Ce         9.5721026900        3.0875749991        4.0744413586
 Ce        13.4469030496        3.3045261716        3.9293569871
 Ce        19.0854115904        6.5490896899        3.8041499260
 Ce         7.4677896058        6.6774804855        3.8699695191
 Ce        11.6062008107        6.6464173817        3.9726416676
 Ce        15.4937541746        6.6798823822        4.0445256149
 Ce        20.9693890254        9.8692941255        4.0139592848
 Ce         9.6364429746        9.8778171060        3.9203540586
 Ce        13.6759519553        9.9896629287        3.8625914886
 Ce        17.3956745656       10.0354154893        3.9110729012
 Ce        15.3376288887       -0.1832804490        3.8966659193
 Ce         3.8088887617        0.0443609294        4.0193287602
 Ce        15.2876449582       13.3019890043        3.8947038817
 Ce        19.2450644727       13.3494487965        3.8898847431
 Pt         9.2352398973        5.4995547452        6.2130999863
 Pt        13.8614201273        5.3863705006        6.8835349275
 Pt        11.4960980536        9.7103211634        6.4582873730
 Pt         9.5956369358        3.2329201557        8.2732932391
 Pt        11.3591071105        3.6030608327       10.2106766334
 Pt         7.0570245084        7.3943799849        7.2565708907
 Pt        11.2637722696        5.3503662783        8.0544634657
 Pt        13.4752673710        4.8988759184        9.3356940504
 Pt         8.0566050803        9.6018028246        6.4378501355
 Pt         9.7514415169        7.7939025577        7.5931777139
 Pt        12.5144634271        7.5961374286        7.7939409164
 Pt        14.9358608619        7.1807488285        8.7540715364
 Pt         9.5026727445       11.8632506370        6.6825438635
 Pt        11.8560368223       11.4476120633        8.2178536278
 Pt        13.7868747221        9.7785929995        8.9524586251
 Pt         8.6867302147        4.1303050831       10.6837445175
 Pt         6.4338735224        7.0216958352       10.1708833714
 Pt         8.4113083446        5.6889574847        8.7902289041
 Pt        11.5661399196        6.6002630843       10.4702227470
 Pt        13.3669075473        4.2839463239       12.0076300396
 Pt         7.9266283483        9.2918631722        8.9420456473
 Pt        11.0343431393        9.1093632177        9.4882306979
 Pt        14.2448237487        6.6674117605       11.3554302448
 Pt         7.1138846620       11.5477619012        7.9562658058
 Pt         9.4433430521       11.4155473832        9.4769362466
 Pt        13.7221706910        9.0246922995       12.7740474418
 Pt        15.5004577972        8.7842671884       10.8195119177
 Pt        12.5444107094       10.7078982520       10.9543887653
 Pt         5.6423538465        6.7772996605       12.6250013466
 Pt         8.1840378816        5.9050395332       12.5265813618
 Pt        10.7939604364        4.8517896663       12.3251569476
 Pt         6.9027657207        9.1168416066       11.5806490954
 Pt         9.1592569890        7.6857090028       10.7536430500
 Pt         9.9859019650        6.9954235981       13.8834484861
 Pt        12.4847947575        6.4180299836       13.4091640177
 Pt         7.1259877175       11.4989210351       10.4633753299
 Pt        11.0933027149        8.6039410160       12.1181771935
 Pt        12.0564840967        8.5532831131       14.8163089944
 Pt        10.0174715681       10.9169648871       11.7957088174
 Pt        11.9956604903       10.8332033109       13.6718122627
 Pt         7.6530549643        8.2055187019       14.0893551422
 Pt         7.5420494451       10.8895654115       13.1854933857
 Pt         9.7033623745        9.8487635136       14.1934424762
     139
 i =     1291, time =     1291.000, E =     -7434.6548557736
  O         3.8259439000        2.2079377400        0.0000000000
  O         7.6518878000        2.2079377400        0.0000000000
  O        11.4779847500        2.2079377400        0.0000000000
  O        15.3050000000        2.2079377400        0.0000000000
  O         5.7389923700        5.5219650800        0.0000000000
  O         9.5649362800        5.5219650800        0.0000000000
  O        13.3910332200        5.5219650800        0.0000000000
  O        17.2180484700        5.5219650800        0.0000000000
  O         7.6519643300        8.8350646000        0.0000000000
  O        11.4780612700        8.8350646000        0.0000000000
  O        15.3050765300        8.8350646000        0.0000000000
  O        19.1310204300        8.8350646000        0.0000000000
  O         9.5649362800       12.1489593900        0.0000000000
  O        13.3910332300       12.1489593900        0.0000000000
  O        17.2180484700       12.1489593900        0.0000000000
  O        21.0439923800       12.1489593900        0.0000000000
  O         1.9130484800        3.3129669800        1.5618832200
  O         5.7389923700        3.3129669800        1.5618832200
  O         9.5649362700        3.3129669800        1.5618832200
  O        13.3910332200        3.3129669800        1.5618832200
  O         3.8259439000        6.6259339500        1.5618832200
  O         7.6518878000        6.6259339500        1.5618832200
  O        11.4779847500        6.6259339500        1.5618832200
  O        15.3050000000        6.6259339500        1.5618832200
  O         5.7389923700        9.9399612900        1.5618832200
  O         9.5649362700        9.9399612900        1.5618832200
  O        13.3910332200        9.9399612900        1.5618832200
  O        17.2180484700        9.9399612900        1.5618832200
  O         7.6519643300       13.2530608100        1.5618832200
  O        11.4780612700       13.2530608100        1.5618832200
  O        15.3050765300       13.2530608100        1.5618832200
  O        19.1310204300       13.2530608100        1.5618832200
  O         2.0312052202        1.0166460782        3.2328946606
  O         5.7280416638        1.0803493686        3.1360272701
  O         9.6401896704        1.0931325709        3.0163965947
  O        13.4347713686        1.2078100489        3.0596769441
  O         3.9569194931        4.3477051341        3.0419507481
  O         7.8003157286        4.5976948760        3.1424899767
  O        11.2964519949        4.7490269643        3.3862839458
  O        15.5381628493        4.4840880087        3.1255718582
  O         5.5919663319        7.7205893701        3.1684905082
  O         9.7786537029        7.8108533181        3.1698803867
  O        13.4462964440        7.7947073335        3.0448163276
  O        17.3134101361        7.7088060605        3.1321103920
  O         7.5182048327       10.9883980943        2.9906117052
  O        11.5220381564       11.0574223481        3.1045074583
  O        15.4633832616       11.0967694504        3.0999388183
  O        19.2356886871       11.0080741464        2.9420248489
  O         3.8720756808        2.2747154765        4.9790109665
  O         7.6012277933        2.2081969432        4.6338218587
  O        11.5862433532        2.3167240063        4.5148767824
  O        15.3491074250        2.2812753171        4.7899591694
  O         5.6217846706        5.5289205396        4.5636800293
  O         9.0629790483        3.4271547392        6.2490338845
  O        13.6269428300        5.4015251859        4.8669604248
  O        17.2497012280        5.6455540927        4.8943984091
  O         7.6448026780        8.9106473951        4.4892255940
  O        11.6452320031        8.8526621637        4.7512008677
  O        15.4136572624        8.9247202590        4.8361779200
  O        19.1396063784        9.0575700714        4.8350191890
  O         9.5444455079       12.2062751687        4.7505058608
  O        13.7212424529       12.3037251949        4.7998202748
  O        17.5962068287       12.1706510787        4.6490935210
  O        21.0300942718       12.2650343534        4.7135306523
 Ce         1.9130484700        1.1039688700        0.7810650400
 Ce         5.7389923700        1.1039688700        0.7810650400
 Ce         9.5649362800        1.1039688700        0.7810650400
 Ce        13.3910332200        1.1039688700        0.7810650400
 Ce         3.8259439000        4.4169358500        0.7810650400
 Ce         7.6518878000        4.4169358500        0.7810650400
 Ce        11.4779847500        4.4169358500        0.7810650400
 Ce        15.3050000000        4.4169358500        0.7810650400
 Ce         5.7389923700        7.7309631800        0.7810650400
 Ce         9.5649362800        7.7309631800        0.7810650400
 Ce        13.3910332200        7.7309631800        0.7810650400
 Ce        17.2180484700        7.7309631800        0.7810650400
 Ce         7.6519643300       11.0440627000        0.7810650400
 Ce        11.4780612700       11.0440627000        0.7810650400
 Ce        15.3050765300       11.0440627000        0.7810650400
 Ce        19.1310204300       11.0440627000        0.7810650400
 Ce        17.2196381559        3.2461221542        4.0106356644
 Ce         5.7335254886        3.2643439619        4.0170479054
 Ce         9.5725490628        3.0880103579        4.0758215410
 Ce        13.4450411416        3.3054535574        3.9288127838
 Ce        19.0902228442        6.5526268037        3.8060984589
 Ce         7.4684197816        6.6777030525        3.8713905183
 Ce        11.6056889998        6.6500539133        3.9726642947
 Ce        15.4907199999        6.6808571413        4.0438937722
 Ce        20.9681234238        9.8692589124        4.0153373592
 Ce         9.6342602208        9.8755932144        3.9208466955
 Ce        13.6769338888        9.9912820699        3.8637102984
 Ce        17.3953406991       10.0351405056        3.9095564210
 Ce        15.3383562296       -0.1846256006        3.8983012241
 Ce         3.8141979559        0.0450515793        4.0208274239
 Ce        15.2879907724       13.3019143214        3.8954392001
 Ce        19.2445638693       13.3504518131        3.8879841125
 Pt         9.2360256148        5.5001376604        6.2101809161
 Pt        13.8630378861        5.3865439312        6.8805545865
 Pt        11.4971719912        9.7106127969        6.4558705530
 Pt         9.5967662274        3.2348118900        8.2706500504
 Pt        11.3569738554        3.6044650020       10.2098488143
 Pt         7.0566662290        7.3970352352        7.2585351797
 Pt        11.2629730873        5.3517667724        8.0556623050
 Pt        13.4709405859        4.8984631537        9.3367235226
 Pt         8.0595804303        9.6021615775        6.4348960687
 Pt         9.7531263668        7.7945866847        7.5920721728
 Pt        12.5099592213        7.5968625431        7.7941672442
 Pt        14.9358338207        7.1812899564        8.7531770646
 Pt         9.5018443572       11.8596479073        6.6822532226
 Pt        11.8545195848       11.4486965836        8.2176314476
 Pt        13.7866625005        9.7769195762        8.9515031182
 Pt         8.6855773155        4.1284974527       10.6839622021
 Pt         6.4305889638        7.0187148203       10.1707133262
 Pt         8.4129760030        5.6883807933        8.7905032338
 Pt        11.5676092830        6.6030052284       10.4678385103
 Pt        13.3683578782        4.2844823057       12.0075357590
 Pt         7.9281445594        9.2942502203        8.9416195315
 Pt        11.0354500314        9.1088189627        9.4889392976
 Pt        14.2465579828        6.6693862094       11.3570045047
 Pt         7.1155643760       11.5468643019        7.9567081121
 Pt         9.4437395682       11.4145127971        9.4782850521
 Pt        13.7206998246        9.0277901703       12.7715017279
 Pt        15.5016819316        8.7843769320       10.8196347010
 Pt        12.5443658444       10.7064797057       10.9522026165
 Pt         5.6442582989        6.7742510838       12.6262244360
 Pt         8.1834715449        5.9074644544       12.5278530767
 Pt        10.7965007578        4.8459357715       12.3283074632
 Pt         6.9032390388        9.1182823085       11.5774695800
 Pt         9.1582586562        7.6883949193       10.7547620422
 Pt         9.9846321862        6.9974118774       13.8840007437
 Pt        12.4847884115        6.4183060254       13.4099878399
 Pt         7.1255812644       11.4986167313       10.4605662707
 Pt        11.0941574948        8.6042981773       12.1187512712
 Pt        12.0547518107        8.5528198909       14.8142826120
 Pt        10.0168664293       10.9137008513       11.7964684274
 Pt        11.9944148132       10.8326594857       13.6708769865
 Pt         7.6539397330        8.2059731853       14.0897128671
 Pt         7.5459142249       10.8897593774       13.1842260480
 Pt         9.7046288009        9.8474007419       14.1936704320
     139
 i =     1292, time =     1292.000, E =     -7434.6542935365
  O         3.8259439000        2.2079377400        0.0000000000
  O         7.6518878000        2.2079377400        0.0000000000
  O        11.4779847500        2.2079377400        0.0000000000
  O        15.3050000000        2.2079377400        0.0000000000
  O         5.7389923700        5.5219650800        0.0000000000
  O         9.5649362800        5.5219650800        0.0000000000
  O        13.3910332200        5.5219650800        0.0000000000
  O        17.2180484700        5.5219650800        0.0000000000
  O         7.6519643300        8.8350646000        0.0000000000
  O        11.4780612700        8.8350646000        0.0000000000
  O        15.3050765300        8.8350646000        0.0000000000
  O        19.1310204300        8.8350646000        0.0000000000
  O         9.5649362800       12.1489593900        0.0000000000
  O        13.3910332300       12.1489593900        0.0000000000
  O        17.2180484700       12.1489593900        0.0000000000
  O        21.0439923800       12.1489593900        0.0000000000
  O         1.9130484800        3.3129669800        1.5618832200
  O         5.7389923700        3.3129669800        1.5618832200
  O         9.5649362700        3.3129669800        1.5618832200
  O        13.3910332200        3.3129669800        1.5618832200
  O         3.8259439000        6.6259339500        1.5618832200
  O         7.6518878000        6.6259339500        1.5618832200
  O        11.4779847500        6.6259339500        1.5618832200
  O        15.3050000000        6.6259339500        1.5618832200
  O         5.7389923700        9.9399612900        1.5618832200
  O         9.5649362700        9.9399612900        1.5618832200
  O        13.3910332200        9.9399612900        1.5618832200
  O        17.2180484700        9.9399612900        1.5618832200
  O         7.6519643300       13.2530608100        1.5618832200
  O        11.4780612700       13.2530608100        1.5618832200
  O        15.3050765300       13.2530608100        1.5618832200
  O        19.1310204300       13.2530608100        1.5618832200
  O         2.0309073278        1.0207751536        3.2309319474
  O         5.7316971156        1.0783830413        3.1463763885
  O         9.6396645922        1.0944680054        3.0252545169
  O        13.4335770591        1.2105288258        3.0493123511
  O         3.9515142959        4.3331020634        3.0533318783
  O         7.8001805045        4.5940742098        3.1457792526
  O        11.2993470969        4.7487844374        3.3783491038
  O        15.5430999732        4.4888084104        3.1257367131
  O         5.5927119347        7.7306796938        3.1693122104
  O         9.7721941982        7.8077503825        3.1646967267
  O        13.4485498127        7.7901116752        3.0497815904
  O        17.3183149858        7.7119138877        3.1289458376
  O         7.5234745989       10.9875136397        2.9960167995
  O        11.5315520783       11.0546727680        3.0886240617
  O        15.4538157233       11.0968350852        3.1024423185
  O        19.2434294017       11.0200348014        2.9429497960
  O         3.8695144995        2.2755248556        4.9746155903
  O         7.5966880177        2.2119602348        4.6427580809
  O        11.5843051939        2.3173875882        4.5141333105
  O        15.3465612976        2.2856648139        4.7902712387
  O         5.6234067648        5.5406201671        4.5595125932
  O         9.0594004677        3.4329525781        6.2498393549
  O        13.6182114138        5.3955463427        4.8625824062
  O        17.2556161836        5.6461623680        4.8892382058
  O         7.6417756267        8.9175346541        4.4829442832
  O        11.6413912994        8.8476195033        4.7593264380
  O        15.4132364884        8.9191822573        4.8364248027
  O        19.1405495945        9.0659297883        4.8331431859
  O         9.5454309494       12.2032991328        4.7529322517
  O        13.7325651717       12.2997086666        4.8018705591
  O        17.6013788673       12.1658577435        4.6495259324
  O        21.0286354357       12.2714678986        4.7169225964
 Ce         1.9130484700        1.1039688700        0.7810650400
 Ce         5.7389923700        1.1039688700        0.7810650400
 Ce         9.5649362800        1.1039688700        0.7810650400
 Ce        13.3910332200        1.1039688700        0.7810650400
 Ce         3.8259439000        4.4169358500        0.7810650400
 Ce         7.6518878000        4.4169358500        0.7810650400
 Ce        11.4779847500        4.4169358500        0.7810650400
 Ce        15.3050000000        4.4169358500        0.7810650400
 Ce         5.7389923700        7.7309631800        0.7810650400
 Ce         9.5649362800        7.7309631800        0.7810650400
 Ce        13.3910332200        7.7309631800        0.7810650400
 Ce        17.2180484700        7.7309631800        0.7810650400
 Ce         7.6519643300       11.0440627000        0.7810650400
 Ce        11.4780612700       11.0440627000        0.7810650400
 Ce        15.3050765300       11.0440627000        0.7810650400
 Ce        19.1310204300       11.0440627000        0.7810650400
 Ce        17.2177007322        3.2444532200        4.0157026876
 Ce         5.7333991394        3.2652274603        4.0181997986
 Ce         9.5729543042        3.0885948651        4.0771538058
 Ce        13.4432650836        3.3063709301        3.9282578219
 Ce        19.0950354111        6.5561396356        3.8081307420
 Ce         7.4691042315        6.6778369889        3.8728333058
 Ce        11.6051739680        6.6537978988        3.9727066264
 Ce        15.4876618227        6.6818195758        4.0432376994
 Ce        20.9668483182        9.8693638760        4.0166459683
 Ce         9.6321392202        9.8734005213        3.9212616929
 Ce        13.6778315803        9.9928860108        3.8648806479
 Ce        17.3949733240       10.0348789887        3.9080443533
 Ce        15.3389725987       -0.1858738252        3.8999250322
 Ce         3.8196155633        0.0457149077        4.0222818298
 Ce        15.2883939623       13.3018277833        3.8961531508
 Ce        19.2440604046       13.3513626008        3.8860430368
 Pt         9.2368007742        5.5007339123        6.2072617344
 Pt        13.8646386195        5.3867685486        6.8775983093
 Pt        11.4982346180        9.7109426074        6.4535667635
 Pt         9.5979039407        3.2367527232        8.2679938048
 Pt        11.3548252120        3.6058462941       10.2089750626
 Pt         7.0563305529        7.3996282798        7.2605522201
 Pt        11.2621320216        5.3531618468        8.0568344483
 Pt        13.4666610073        4.8980635405        9.3378087007
 Pt         8.0625319642        9.6025119898        6.4318709767
 Pt         9.7548257120        7.7952289631        7.5909293679
 Pt        12.5054504602        7.5975962100        7.7944009852
 Pt        14.9357712434        7.1818093428        8.7522928871
 Pt         9.5010391587       11.8560080191        6.6820587489
 Pt        11.8529796571       11.4497853392        8.2174548611
 Pt        13.7864645654        9.7752175152        8.9505403286
 Pt         8.6844507302        4.1266620427       10.6841936285
 Pt         6.4273392542        7.0157247876       10.1705037886
 Pt         8.4146397975        5.6878458274        8.7908056864
 Pt        11.5690705203        6.6057615163       10.4654566952
 Pt        13.3698011080        4.2850356890       12.0074118766
 Pt         7.9296549859        9.2966165222        8.9412700806
 Pt        11.0365670808        9.1082550286        9.4896119641
 Pt        14.2482603710        6.6713460229       11.3585698955
 Pt         7.1172565953       11.5460073381        7.9571284734
 Pt         9.4441519086       11.4135039186        9.4795044839
 Pt        13.7192353358        9.0308672650       12.7689217105
 Pt        15.5028752732        8.7845100645       10.8197340969
 Pt        12.5443267535       10.7050679673       10.9500417778
 Pt         5.6462247141        6.7712298745       12.6274355551
 Pt         8.1828779002        5.9098882226       12.5290882180
 Pt        10.7989392908        4.8401353047       12.3314795446
 Pt         6.9037175661        9.1196736750       11.5742826410
 Pt         9.1572082188        7.6910405858       10.7558515812
 Pt         9.9834026089        6.9994323728       13.8845939887
 Pt        12.4848535905        6.4185975845       13.4108075721
 Pt         7.1251587938       11.4982874481       10.4578476743
 Pt        11.0950443388        8.6046126208       12.1193504604
 Pt        12.0529938880        8.5523370677       14.8122787626
 Pt        10.0162463102       10.9104751869       11.7972955642
 Pt        11.9932053329       10.8321760376       13.6699118106
 Pt         7.6548089080        8.2064257204       14.0900112747
 Pt         7.5497985678       10.8899721804       13.1829468936
 Pt         9.7058700721        9.8459869768       14.1939235517
     139
 i =     1293, time =     1293.000, E =     -7434.6535998900
  O         3.8259439000        2.2079377400        0.0000000000
  O         7.6518878000        2.2079377400        0.0000000000
  O        11.4779847500        2.2079377400        0.0000000000
  O        15.3050000000        2.2079377400        0.0000000000
  O         5.7389923700        5.5219650800        0.0000000000
  O         9.5649362800        5.5219650800        0.0000000000
  O        13.3910332200        5.5219650800        0.0000000000
  O        17.2180484700        5.5219650800        0.0000000000
  O         7.6519643300        8.8350646000        0.0000000000
  O        11.4780612700        8.8350646000        0.0000000000
  O        15.3050765300        8.8350646000        0.0000000000
  O        19.1310204300        8.8350646000        0.0000000000
  O         9.5649362800       12.1489593900        0.0000000000
  O        13.3910332300       12.1489593900        0.0000000000
  O        17.2180484700       12.1489593900        0.0000000000
  O        21.0439923800       12.1489593900        0.0000000000
  O         1.9130484800        3.3129669800        1.5618832200
  O         5.7389923700        3.3129669800        1.5618832200
  O         9.5649362700        3.3129669800        1.5618832200
  O        13.3910332200        3.3129669800        1.5618832200
  O         3.8259439000        6.6259339500        1.5618832200
  O         7.6518878000        6.6259339500        1.5618832200
  O        11.4779847500        6.6259339500        1.5618832200
  O        15.3050000000        6.6259339500        1.5618832200
  O         5.7389923700        9.9399612900        1.5618832200
  O         9.5649362700        9.9399612900        1.5618832200
  O        13.3910332200        9.9399612900        1.5618832200
  O        17.2180484700        9.9399612900        1.5618832200
  O         7.6519643300       13.2530608100        1.5618832200
  O        11.4780612700       13.2530608100        1.5618832200
  O        15.3050765300       13.2530608100        1.5618832200
  O        19.1310204300       13.2530608100        1.5618832200
  O         2.0302314698        1.0253359373        3.2287023644
  O         5.7349337070        1.0766568323        3.1566980813
  O         9.6387627876        1.0959103427        3.0347028912
  O        13.4327357182        1.2128689459        3.0391164190
  O         3.9451854436        4.3185950118        3.0650654875
  O         7.7999018825        4.5901147945        3.1493821315
  O        11.3024179000        4.7473236974        3.3699349944
  O        15.5474915295        4.4933626201        3.1260016419
  O         5.5939596473        7.7410197620        3.1698250709
  O         9.7651851912        7.8040447439        3.1595594762
  O        13.4508856002        7.7852486742        3.0554271855
  O        17.3229426173        7.7152736936        3.1257543142
  O         7.5294519003       10.9871499335        3.0022120579
  O        11.5410836806       11.0521326690        3.0732529204
  O        15.4440423035       11.0967691367        3.1048935518
  O        19.2510399967       11.0319393610        2.9447116966
  O         3.8668859085        2.2761390377        4.9696262049
  O         7.5918376178        2.2152598753        4.6515467035
  O        11.5824644653        2.3177012469        4.5139316944
  O        15.3440199683        2.2900034530        4.7902704889
  O         5.6254029101        5.5522044298        4.5557935099
  O         9.0562252988        3.4390042418        6.2510136630
  O        13.6093803804        5.3898821432        4.8578139901
  O        17.2617179881        5.6465260229        4.8836368026
  O         7.6388500045        8.9240579889        4.4768767152
  O        11.6376696738        8.8421865624        4.7662622191
  O        15.4128249291        8.9135544614        4.8360987031
  O        19.1414440485        9.0739385676        4.8312306546
  O         9.5465784457       12.2002902875        4.7545822852
  O        13.7431851011       12.2951262259        4.8039053500
  O        17.6058854592       12.1610047687        4.6502340526
  O        21.0274979348       12.2777272700        4.7202775646
 Ce         1.9130484700        1.1039688700        0.7810650400
 Ce         5.7389923700        1.1039688700        0.7810650400
 Ce         9.5649362800        1.1039688700        0.7810650400
 Ce        13.3910332200        1.1039688700        0.7810650400
 Ce         3.8259439000        4.4169358500        0.7810650400
 Ce         7.6518878000        4.4169358500        0.7810650400
 Ce        11.4779847500        4.4169358500        0.7810650400
 Ce        15.3050000000        4.4169358500        0.7810650400
 Ce         5.7389923700        7.7309631800        0.7810650400
 Ce         9.5649362800        7.7309631800        0.7810650400
 Ce        13.3910332200        7.7309631800        0.7810650400
 Ce        17.2180484700        7.7309631800        0.7810650400
 Ce         7.6519643300       11.0440627000        0.7810650400
 Ce        11.4780612700       11.0440627000        0.7810650400
 Ce        15.3050765300       11.0440627000        0.7810650400
 Ce        19.1310204300       11.0440627000        0.7810650400
 Ce        17.2157555097        3.2428198288        4.0207517463
 Ce         5.7332729411        3.2661526711        4.0192924540
 Ce         9.5733165687        3.0893296966        4.0784377264
 Ce        13.4415742568        3.3072786296        3.9276899047
 Ce        19.0998411000        6.5596249804        3.8102440258
 Ce         7.4698440379        6.6778845965        3.8742946638
 Ce        11.6046551595        6.6576384949        3.9727655433
 Ce        15.4845848736        6.6827668386        4.0425565486
 Ce        20.9655654180        9.8696156542        4.0178833517
 Ce         9.6300808850        9.8712406976        3.9215947715
 Ce        13.6786433728        9.9944722861        3.8661007301
 Ce        17.3945740148       10.0346334937        3.9065360467
 Ce        15.3394777983       -0.1870242807        3.9015350294
 Ce         3.8251340867        0.0463535858        4.0236890956
 Ce        15.2888586145       13.3017333240        3.8968474969
 Ce        19.2435568798       13.3521810048        3.8840620810
 Pt         9.2375646313        5.5013454463        6.2043437596
 Pt        13.8662213413        5.3870455066        6.8746674221
 Pt        11.4992853446        9.7113155873        6.4513829720
 Pt         9.5990498484        3.2387422341        8.2653252694
 Pt        11.3526615183        3.6072042122       10.2080568129
 Pt         7.0560191725        7.4021598766        7.2626229229
 Pt        11.2612487021        5.3545502815        8.0579797728
 Pt        13.4624316542        4.8976775566        9.3389494300
 Pt         8.0654586754        9.6028518080        6.4287750573
 Pt         9.7565381114        7.7958290872        7.5897494817
 Pt        12.5009411580        7.5983371433        7.7946411394
 Pt        14.9356694265        7.1823084786        8.7514191625
 Pt         9.5002571523       11.8523326659        6.6819600055
 Pt        11.8514179235       11.4508780312        8.2173241218
 Pt        13.7862817377        9.7734863615        8.9495710279
 Pt         8.6833504690        4.1247992172       10.6844398015
 Pt         6.4241246780        7.0127269948       10.1702546847
 Pt         8.4162997731        5.6873532524        8.7911346116
 Pt        11.5705218827        6.6085329349       10.4630792489
 Pt        13.3712356633        4.2856083309       12.0072589791
 Pt         7.9311622424        9.2989600817        8.9409954646
 Pt        11.0376945753        9.1076709253        9.4902490399
 Pt        14.2499300775        6.6732887364       11.3601258971
 Pt         7.1189599147       11.5451921910        7.9575239535
 Pt         9.4445794353       11.4125203001        9.4805961560
 Pt        13.7177781556        9.0339231797       12.7663071972
 Pt        15.5040377750        8.7846668076       10.8198095526
 Pt        12.5442935950       10.7036644774       10.9479075811
 Pt         5.6482517785        6.7682365276       12.6286349850
 Pt         8.1822583892        5.9123092826       12.5302866333
 Pt        10.8012773196        4.8343908861       12.3346709467
 Pt         6.9042013308        9.1210160995       11.5710901331
 Pt         9.1561042592        7.6936442900       10.7569114233
 Pt         9.9822164388        7.0014825871       13.8852284631
 Pt        12.4849898233        6.4189038869       13.4116225992
 Pt         7.1247192048       11.4979354529       10.4552230794
 Pt        11.0959614380        8.6048809346       12.1199735278
 Pt        12.0512112687        8.5518341069       14.8102978810
 Pt        10.0156110054       10.9072894939       11.7981888142
 Pt        11.9920334661       10.8317542176       13.6689164221
 Pt         7.6556614202        8.2068765677       14.0902497901
 Pt         7.5537017079       10.8902031501       13.1816550298
 Pt         9.7070854480        9.8445225225       14.1942018167
     139
 i =     1294, time =     1294.000, E =     -7434.6532608370
  O         3.8259439000        2.2079377400        0.0000000000
  O         7.6518878000        2.2079377400        0.0000000000
  O        11.4779847500        2.2079377400        0.0000000000
  O        15.3050000000        2.2079377400        0.0000000000
  O         5.7389923700        5.5219650800        0.0000000000
  O         9.5649362800        5.5219650800        0.0000000000
  O        13.3910332200        5.5219650800        0.0000000000
  O        17.2180484700        5.5219650800        0.0000000000
  O         7.6519643300        8.8350646000        0.0000000000
  O        11.4780612700        8.8350646000        0.0000000000
  O        15.3050765300        8.8350646000        0.0000000000
  O        19.1310204300        8.8350646000        0.0000000000
  O         9.5649362800       12.1489593900        0.0000000000
  O        13.3910332300       12.1489593900        0.0000000000
  O        17.2180484700       12.1489593900        0.0000000000
  O        21.0439923800       12.1489593900        0.0000000000
  O         1.9130484800        3.3129669800        1.5618832200
  O         5.7389923700        3.3129669800        1.5618832200
  O         9.5649362700        3.3129669800        1.5618832200
  O        13.3910332200        3.3129669800        1.5618832200
  O         3.8259439000        6.6259339500        1.5618832200
  O         7.6518878000        6.6259339500        1.5618832200
  O        11.4779847500        6.6259339500        1.5618832200
  O        15.3050000000        6.6259339500        1.5618832200
  O         5.7389923700        9.9399612900        1.5618832200
  O         9.5649362700        9.9399612900        1.5618832200
  O        13.3910332200        9.9399612900        1.5618832200
  O        17.2180484700        9.9399612900        1.5618832200
  O         7.6519643300       13.2530608100        1.5618832200
  O        11.4780612700       13.2530608100        1.5618832200
  O        15.3050765300       13.2530608100        1.5618832200
  O        19.1310204300       13.2530608100        1.5618832200
  O         2.0291937264        1.0302790192        3.2262446087
  O         5.7377291767        1.0751711306        3.1669013710
  O         9.6374770045        1.0974442415        3.0446690623
  O        13.4322421773        1.2148196461        3.0291157114
  O         3.9379981826        4.3042398917        3.0771298948
  O         7.7994700994        4.5858397612        3.1532753097
  O        11.3056553185        4.7446894011        3.3610776344
  O        15.5513066921        4.4977410708        3.1263651829
  O         5.5956967868        7.7515279844        3.1700214690
  O         9.7576349479        7.7997519046        3.1545187825
  O        13.4532981039        7.7801469234        3.0617556530
  O        17.3272793927        7.7188834346        3.1225469068
  O         7.5361241832       10.9873243589        3.0091581315
  O        11.5505951431       11.0497971010        3.0585509469
  O        15.4341068432       11.0965625867        3.1072674617
  O        19.2585053974       11.0437627571        2.9472767738
  O         3.8642133229        2.2765206562        4.9640692685
  O         7.5867058663        2.2180788733        4.6601699020
  O        11.5807246225        2.3176651710        4.5142784791
  O        15.3414808198        2.2942673222        4.7899684130
  O         5.6277846945        5.5636642899        4.5525126805
  O         9.0534598490        3.4452795187        6.2525481726
  O        13.6004912891        5.3845768071        4.8526984990
  O        17.2680050634        5.6466684749        4.8776129329
  O         7.6360701763        8.9301880103        4.4710602074
  O        11.6340546818        8.8363385268        4.7719354222
  O        15.4124290459        8.9078529928        4.8351983099
  O        19.1422542130        9.0815567626        4.8292982037
  O         9.5479165937       12.1972695375        4.7554408526
  O        13.7530460326       12.2899477492        4.8059489250
  O        17.6097065093       12.1560834221        4.6512162926
  O        21.0267058378       12.2838043459        4.7235879130
 Ce         1.9130484700        1.1039688700        0.7810650400
 Ce         5.7389923700        1.1039688700        0.7810650400
 Ce         9.5649362800        1.1039688700        0.7810650400
 Ce        13.3910332200        1.1039688700        0.7810650400
 Ce         3.8259439000        4.4169358500        0.7810650400
 Ce         7.6518878000        4.4169358500        0.7810650400
 Ce        11.4779847500        4.4169358500        0.7810650400
 Ce        15.3050000000        4.4169358500        0.7810650400
 Ce         5.7389923700        7.7309631800        0.7810650400
 Ce         9.5649362800        7.7309631800        0.7810650400
 Ce        13.3910332200        7.7309631800        0.7810650400
 Ce        17.2180484700        7.7309631800        0.7810650400
 Ce         7.6519643300       11.0440627000        0.7810650400
 Ce        11.4780612700       11.0440627000        0.7810650400
 Ce        15.3050765300       11.0440627000        0.7810650400
 Ce        19.1310204300       11.0440627000        0.7810650400
 Ce        17.2138058925        3.2412250739        4.0257792802
 Ce         5.7331468464        3.2671181071        4.0203266498
 Ce         9.5736342780        3.0902158931        4.0796728436
 Ce        13.4399679388        3.3081765721        3.9271067215
 Ce        19.1046318369        6.5630801213        3.8124353741
 Ce         7.4706404653        6.6778481416        3.8757714091
 Ce        11.6041314286        6.6615640670        3.9728374572
 Ce        15.4814943355        6.6836960649        4.0418491229
 Ce        20.9642765947        9.8700210421        4.0190480638
 Ce         9.6280860001        9.8691150627        3.9218419055
 Ce        13.6793674444        9.9960383434        3.8673686831
 Ce        17.3941442659       10.0344064673        3.9050310343
 Ce        15.3398717527       -0.1880760278        3.9031290416
 Ce         3.8307455590        0.0469704641        4.0250461174
 Ce        15.2893882888       13.3016344487        3.8975240770
 Ce        19.2430561479       13.3529067998        3.8820421261
 Pt         9.2383168808        5.5019743826        6.2014289983
 Pt        13.8677843035        5.3873758670        6.8717636872
 Pt        11.5003236698        9.7117362807        6.4493243728
 Pt         9.6002028093        3.2407798398        8.2626452612
 Pt        11.3504822330        3.6085378029       10.2070950601
 Pt         7.0557341808        7.4046305508        7.2647492206
 Pt        11.2603245864        5.3559311795        8.0590969432
 Pt        13.4582545666        4.8973053002        9.3401436111
 Pt         8.0683581744        9.6031785273        6.4256080535
 Pt         9.7582617575        7.7963868813        7.5885333928
 Pt        12.4964350716        7.5990854786        7.7948868333
 Pt        14.9355258208        7.1827879608        8.7505548999
 Pt         9.4994988326       11.8486239336        6.6819559704
 Pt        11.8498349012       11.4519740603        8.2172401908
 Pt        13.7861138809        9.7717256035        8.9485947853
 Pt         8.6822763747        4.1229101528       10.6847014028
 Pt         6.4209456266        7.0097232328       10.1699660541
 Pt         8.4179561053        5.6869032594        8.7914890934
 Pt        11.5719620203        6.6113193072       10.4607070089
 Pt        13.3726607371        4.2862011079       12.0070784422
 Pt         7.9326702940        9.3012774407        8.9407935083
 Pt        11.0388322000        9.1070671315        9.4908514089
 Pt        14.2515664532        6.6752120291       11.3616726630
 Pt         7.1206741209       11.5444205427        7.9578911779
 Pt         9.4450206101       11.4115614516        9.4815601970
 Pt        13.7163282327        9.0369583804       12.7636590552
 Pt        15.5051705227        8.7848480087       10.8198601563
 Pt        12.5442662624       10.7022720483       10.9458005408
 Pt         5.6503391780        6.7652713508       12.6298223747
 Pt         8.1816142042        5.9147264445       12.5314475166
 Pt        10.8035157990        4.8287041966       12.3378807826
 Pt         6.9046907612        9.1223092580       11.5678933061
 Pt         9.1549451462        7.6962035939       10.7579422382
 Pt         9.9810758710        7.0035591668       13.8859041244
 Pt        12.4851967348        6.4192236416       13.4124324977
 Pt         7.1242612232       11.4975633835       10.4526952205
 Pt        11.0969082691        8.6051005513       12.1206202869
 Pt        12.0494041531        8.5513105889       14.8083406453
 Pt        10.0149607169       10.9041444015       11.7991477972
 Pt        11.9909008495       10.8313958584       13.6678900641
 Pt         7.6564956743        8.2073259161       14.0904275273
 Pt         7.5576222932       10.8904520978       13.1803499875
 Pt         9.7082747334        9.8430083565       14.1945055289
     139
 i =     1295, time =     1295.000, E =     -7434.6530281526
  O         3.8259439000        2.2079377400        0.0000000000
  O         7.6518878000        2.2079377400        0.0000000000
  O        11.4779847500        2.2079377400        0.0000000000
  O        15.3050000000        2.2079377400        0.0000000000
  O         5.7389923700        5.5219650800        0.0000000000
  O         9.5649362800        5.5219650800        0.0000000000
  O        13.3910332200        5.5219650800        0.0000000000
  O        17.2180484700        5.5219650800        0.0000000000
  O         7.6519643300        8.8350646000        0.0000000000
  O        11.4780612700        8.8350646000        0.0000000000
  O        15.3050765300        8.8350646000        0.0000000000
  O        19.1310204300        8.8350646000        0.0000000000
  O         9.5649362800       12.1489593900        0.0000000000
  O        13.3910332300       12.1489593900        0.0000000000
  O        17.2180484700       12.1489593900        0.0000000000
  O        21.0439923800       12.1489593900        0.0000000000
  O         1.9130484800        3.3129669800        1.5618832200
  O         5.7389923700        3.3129669800        1.5618832200
  O         9.5649362700        3.3129669800        1.5618832200
  O        13.3910332200        3.3129669800        1.5618832200
  O         3.8259439000        6.6259339500        1.5618832200
  O         7.6518878000        6.6259339500        1.5618832200
  O        11.4779847500        6.6259339500        1.5618832200
  O        15.3050000000        6.6259339500        1.5618832200
  O         5.7389923700        9.9399612900        1.5618832200
  O         9.5649362700        9.9399612900        1.5618832200
  O        13.3910332200        9.9399612900        1.5618832200
  O        17.2180484700        9.9399612900        1.5618832200
  O         7.6519643300       13.2530608100        1.5618832200
  O        11.4780612700       13.2530608100        1.5618832200
  O        15.3050765300       13.2530608100        1.5618832200
  O        19.1310204300       13.2530608100        1.5618832200
  O         2.0278113501        1.0355512715        3.2235992389
  O         5.7400652827        1.0739233908        3.1769050700
  O         9.6358035175        1.0990533097        3.0551130321
  O        13.4320889703        1.2163738143        3.0193729490
  O         3.9300043451        4.2901061171        3.0894569917
  O         7.7988748608        4.5812696595        3.1574300038
  O        11.3090504899        4.7409322230        3.3518386731
  O        15.5545162648        4.5019385136        3.1268277934
  O         5.5979031119        7.7621394038        3.1698952487
  O         9.7495603503        7.7948917973        3.1496284943
  O        13.4557843767        7.7748279066        3.0687625720
  O        17.3313178626        7.7227394740        3.1193328762
  O         7.5434666004       10.9880493121        3.0167947724
  O        11.5600316095       11.0476706647        3.0445986495
  O        15.4240606342       11.0962167411        3.1095392545
  O        19.2658051853       11.0554511657        2.9505997522
  O         3.8615202027        2.2766323884        4.9579735086
  O         7.5813286340        2.2204021214        4.6685851927
  O        11.5790966292        2.3172822188        4.5151770835
  O        15.3389328405        2.2984394478        4.7893799260
  O         5.6305535448        5.5749878677        4.5496627334
  O         9.0511043240        3.4517487248        6.2544316502
  O        13.5915883726        5.3796648046        4.8472833163
  O        17.2744699287        5.6466132548        4.8711985789
  O         7.6334783436        8.9358911924        4.4655344142
  O        11.6305406329        8.8300687691        4.7762891979
  O        15.4120582665        8.9020984978        4.8337238941
  O        19.1429486920        9.0887362491        4.8273624165
  O         9.5494696862       12.1942513041        4.7554953578
  O        13.7620845042       12.2841673550        4.8080226275
  O        17.6128272469       12.1510885124        4.6524679388
  O        21.0262757016       12.2896976741        4.7268420257
 Ce         1.9130484700        1.1039688700        0.7810650400
 Ce         5.7389923700        1.1039688700        0.7810650400
 Ce         9.5649362800        1.1039688700        0.7810650400
 Ce        13.3910332200        1.1039688700        0.7810650400
 Ce         3.8259439000        4.4169358500        0.7810650400
 Ce         7.6518878000        4.4169358500        0.7810650400
 Ce        11.4779847500        4.4169358500        0.7810650400
 Ce        15.3050000000        4.4169358500        0.7810650400
 Ce         5.7389923700        7.7309631800        0.7810650400
 Ce         9.5649362800        7.7309631800        0.7810650400
 Ce        13.3910332200        7.7309631800        0.7810650400
 Ce        17.2180484700        7.7309631800        0.7810650400
 Ce         7.6519643300       11.0440627000        0.7810650400
 Ce        11.4780612700       11.0440627000        0.7810650400
 Ce        15.3050765300       11.0440627000        0.7810650400
 Ce        19.1310204300       11.0440627000        0.7810650400
 Ce        17.2118556177        3.2396719632        4.0307814813
 Ce         5.7330209403        3.2681222103        4.0213032390
 Ce         9.5739058023        3.0912543940        4.0808590157
 Ce        13.4384447210        3.3090638636        3.9265051335
 Ce        19.1093997198        6.5665030231        3.8147016766
 Ce         7.4714953162        6.6777305545        3.8772606446
 Ce        11.6036012580        6.6655623860        3.9729182768
 Ce        15.4783954708        6.6846049462        4.0411137912
 Ce        20.9629841848        9.8705864998        4.0201390798
 Ce         9.6261549752        9.8670248677        3.9219996175
 Ce        13.6800013965        9.9975816348        3.8686831611
 Ce        17.3936852725       10.0342001705        3.9035291184
 Ce        15.3401548606       -0.1890283896        3.9047049713
 Ce         3.8364418915        0.0475679845        4.0263497746
 Ce        15.2899859135       13.3015341085        3.8981850983
 Ce        19.2425606910       13.3535395953        3.8799845200
 Pt         9.2390580825        5.5026230728        6.1985185192
 Pt        13.8693260812        5.3877601462        6.8688884034
 Pt        11.5013493108        9.7122079017        6.4473959969
 Pt         9.6013615918        3.2428646963        8.2599550596
 Pt        11.3482863012        3.6098462908       10.2060899610
 Pt         7.0554756392        7.4070401481        7.2669315420
 Pt        11.2593591820        5.3573039881        8.0601838648
 Pt        13.4541327222        4.8969477613        9.3413892629
 Pt         8.0712285998        9.6034900326        6.4223709390
 Pt         9.7599944021        7.7969033401        7.5872817652
 Pt        12.4919358819        7.5998412606        7.7951374889
 Pt        14.9353393942        7.1832475458        8.7497007184
 Pt         9.4987658701       11.8448839117        6.6820459682
 Pt        11.8482317622       11.4530726935        8.2172032134
 Pt        13.7859610484        9.7699348168        8.9476104111
 Pt         8.6812281301        4.1209958106       10.6849791273
 Pt         6.4178034531        7.0067141270       10.1696380374
 Pt         8.4196091122        5.6864967692        8.7918694250
 Pt        11.5733896973        6.6141192814       10.4583422714
 Pt        13.3740765039        4.2868149389       12.0068706884
 Pt         7.9341796984        9.3035658278        8.9406620926
 Pt        11.0399795083        9.1064439497        9.4914183400
 Pt        14.2531684059        6.6771142281       11.3632099625
 Pt         7.1223988467       11.5436942124        7.9582274613
 Pt         9.4454742657       11.4106281573        9.4823968289
 Pt        13.7148865285        9.0399725521       12.7609766480
 Pt        15.5062735321        8.7850542343       10.8198856909
 Pt        12.5442445817       10.7008918739       10.9437218467
 Pt         5.6524859225        6.7623349437       12.6309974107
 Pt         8.1809469586        5.9171386668       12.5325700690
 Pt        10.8056556103        4.8230776014       12.3411083214
 Pt         6.9051862026        9.1235524447       11.5646929259
 Pt         9.1537308680        7.6987171806       10.7589444311
 Pt         9.9799813476        7.0056602844       13.8866201672
 Pt        12.4854736351        6.4195560328       13.4132362731
 Pt         7.1237845271       11.4971722716       10.4502657889
 Pt        11.0978854929        8.6052699100       12.1212899309
 Pt        12.0475736956        8.5507666280       14.8064082507
 Pt        10.0142952344       10.9010410459       11.8001723827
 Pt        11.9898081150       10.8311020348       13.6668331681
 Pt         7.6573109500        8.2077741001       14.0905446272
 Pt         7.5615587621       10.8907179566       13.1790313793
 Pt         9.7094374086        9.8414454352       14.1948356750
     139
 i =     1296, time =     1296.000, E =     -7434.6523220053
  O         3.8259439000        2.2079377400        0.0000000000
  O         7.6518878000        2.2079377400        0.0000000000
  O        11.4779847500        2.2079377400        0.0000000000
  O        15.3050000000        2.2079377400        0.0000000000
  O         5.7389923700        5.5219650800        0.0000000000
  O         9.5649362800        5.5219650800        0.0000000000
  O        13.3910332200        5.5219650800        0.0000000000
  O        17.2180484700        5.5219650800        0.0000000000
  O         7.6519643300        8.8350646000        0.0000000000
  O        11.4780612700        8.8350646000        0.0000000000
  O        15.3050765300        8.8350646000        0.0000000000
  O        19.1310204300        8.8350646000        0.0000000000
  O         9.5649362800       12.1489593900        0.0000000000
  O        13.3910332300       12.1489593900        0.0000000000
  O        17.2180484700       12.1489593900        0.0000000000
  O        21.0439923800       12.1489593900        0.0000000000
  O         1.9130484800        3.3129669800        1.5618832200
  O         5.7389923700        3.3129669800        1.5618832200
  O         9.5649362700        3.3129669800        1.5618832200
  O        13.3910332200        3.3129669800        1.5618832200
  O         3.8259439000        6.6259339500        1.5618832200
  O         7.6518878000        6.6259339500        1.5618832200
  O        11.4779847500        6.6259339500        1.5618832200
  O        15.3050000000        6.6259339500        1.5618832200
  O         5.7389923700        9.9399612900        1.5618832200
  O         9.5649362700        9.9399612900        1.5618832200
  O        13.3910332200        9.9399612900        1.5618832200
  O        17.2180484700        9.9399612900        1.5618832200
  O         7.6519643300       13.2530608100        1.5618832200
  O        11.4780612700       13.2530608100        1.5618832200
  O        15.3050765300       13.2530608100        1.5618832200
  O        19.1310204300       13.2530608100        1.5618832200
  O         2.0261053181        1.0410942698        3.2208080468
  O         5.7419279987        1.0729090573        3.1866635048
  O         9.6337423248        1.1007201732        3.0660141652
  O        13.4322659641        1.2175280771        3.0099823755
  O         3.9212391569        4.2762751605        3.1019409105
  O         7.7981065652        4.5764193181        3.1618142360
  O        11.3125926459        4.7361105667        3.3422861961
  O        15.5570954897        4.5059544943        3.1273902929
  O         5.6005574215        7.7728077469        3.1694394424
  O         9.7409976977        7.7894943644        3.1449437043
  O        13.4583428177        7.7693054747        3.0764258170
  O        17.3350549960        7.7268349870        3.1161199835
  O         7.5514361815       10.9893291700        3.0250367340
  O        11.5693420543       11.0457602705        3.0314338687
  O        15.4139767984       11.0957404846        3.1116834006
  O        19.2728936377       11.0669300765        2.9546234004
  O         3.8588307175        2.2764362602        4.9513756718
  O         7.5757471531        2.2222238667        4.6767445044
  O        11.5775955785        2.3165572917        4.5166280204
  O        15.3363574586        2.3025087009        4.7885232074
  O         5.6336959248        5.5861361615        4.5472396271
  O         9.0491515771        3.4583768954        6.2566523447
  O        13.5826995876        5.3751662983        4.8416166858
  O        17.2810978178        5.6463837217        4.8644377278
  O         7.6311087744        8.9411288161        4.4603382531
  O        11.6271299583        8.8233900242        4.7792846438
  O        15.4117247242        8.8963167302        4.8316769075
  O        19.1435021730        9.0954297112        4.8254402354
  O         9.5512586521       12.1912466969        4.7547268183
  O        13.7702454452       12.2778007507        4.8101446451
  O        17.6152350002       12.1460196097        4.6539814599
  O        21.0262165509       12.2954134908        4.7300264610
 Ce         1.9130484700        1.1039688700        0.7810650400
 Ce         5.7389923700        1.1039688700        0.7810650400
 Ce         9.5649362800        1.1039688700        0.7810650400
 Ce        13.3910332200        1.1039688700        0.7810650400
 Ce         3.8259439000        4.4169358500        0.7810650400
 Ce         7.6518878000        4.4169358500        0.7810650400
 Ce        11.4779847500        4.4169358500        0.7810650400
 Ce        15.3050000000        4.4169358500        0.7810650400
 Ce         5.7389923700        7.7309631800        0.7810650400
 Ce         9.5649362800        7.7309631800        0.7810650400
 Ce        13.3910332200        7.7309631800        0.7810650400
 Ce        17.2180484700        7.7309631800        0.7810650400
 Ce         7.6519643300       11.0440627000        0.7810650400
 Ce        11.4780612700       11.0440627000        0.7810650400
 Ce        15.3050765300       11.0440627000        0.7810650400
 Ce        19.1310204300       11.0440627000        0.7810650400
 Ce        17.2099084664        3.2381632803        4.0357544806
 Ce         5.7328952670        3.2691632067        4.0222232207
 Ce         9.5741297080        3.0924458856        4.0819964703
 Ce        13.4370027641        3.3099390888        3.9258815160
 Ce        19.1141366864        6.5698922877        3.8170397362
 Ce         7.4724113305        6.6775355913        3.8787597683
 Ce        11.6030631676        6.6696207796        3.9730038536
 Ce        15.4752934632        6.6854915025        4.0403487696
 Ce        20.9616911632        9.8713184316        4.0211556770
 Ce         9.6242879052        9.8649718509        3.9220648877
 Ce        13.6805421932        9.9990997169        3.8700434277
 Ce        17.3931978839       10.0340167121        3.9020303778
 Ce        15.3403284787       -0.1898811087        3.9062610641
 Ce         3.8422144731        0.0481481018        4.0275970347
 Ce        15.2906536778       13.3014345451        3.8988331169
 Ce        19.2420729021       13.3540788933        3.8778910526
 Pt         9.2397889815        5.5032942118        6.1956126895
 Pt        13.8708453741        5.3881979057        6.8660420958
 Pt        11.5023619672        9.7127327860        6.4456025745
 Pt         9.6025252663        3.2449961823        8.2572560029
 Pt        11.3460727898        3.6111293036       10.2050413378
 Pt         7.0552420274        7.4093882149        7.2691694502
 Pt        11.2583512070        5.3586692782        8.0612386315
 Pt        13.4500689083        4.8966062131        9.3426844725
 Pt         8.0740691774        9.6037851696        6.4190665076
 Pt         9.7617339319        7.7973796819        7.5859944743
 Pt        12.4874465425        7.6006039082        7.7953927301
 Pt        14.9351113062        7.1836855330        8.7488572976
 Pt         9.4980603305       11.8411142293        6.6822310109
 Pt        11.8466096536       11.4541726554        8.2172120730
 Pt        13.7858229656        9.7681148423        8.9466164837
 Pt         8.6802059874        4.1190574669       10.6852730435
 Pt         6.4147004061        7.0036998382       10.1692710281
 Pt         8.4212586298        5.6861349100        8.7922762964
 Pt        11.5748036807        6.6169304316       10.4559891564
 Pt        13.3754838651        4.2874505237       12.0066347996
 Pt         7.9356877545        9.3058238191        8.9405995858
 Pt        11.0411353231        9.1058015831        9.4919482088
 Pt        14.2547348482        6.6789947795       11.3647376269
 Pt         7.1241332765       11.5430137018        7.9585312563
 Pt         9.4459416299       11.4097214438        9.4831061205
 Pt        13.7134550484        9.0429640715       12.7582599302
 Pt        15.5073465939        8.7852858820       10.8198867535
 Pt        12.5442278299       10.6995239683       10.9416724258
 Pt         5.6546904683        6.7594281125       12.6321601914
 Pt         8.1802584539        5.9195440748       12.5336530777
 Pt        10.8076967169        4.8175142970       12.3443527220
 Pt         6.9056869930        9.1247440663       11.5614900099
 Pt         9.1524629346        7.7011853428       10.7599169608
 Pt         9.9789325449        7.0077853838       13.8873750998
 Pt        12.4858191189        6.4199004114       13.4140325152
 Pt         7.1232899490       11.4967618121       10.4479352794
 Pt        11.0988946145        8.6053884390       12.1219807352
 Pt        12.0457221616        8.5502030742       14.8045020934
 Pt        10.0136141416       10.8979813585       11.8012619363
 Pt        11.9887545356       10.8308737352       13.6657470043
 Pt         7.6581067630        8.2082219195       14.0906020162
 Pt         7.5655095494       10.8909993782       13.1776985702
 Pt         9.7105725288        9.8398341807       14.1951941278
     139
 i =     1297, time =     1297.000, E =     -7434.6519140770
  O         3.8259439000        2.2079377400        0.0000000000
  O         7.6518878000        2.2079377400        0.0000000000
  O        11.4779847500        2.2079377400        0.0000000000
  O        15.3050000000        2.2079377400        0.0000000000
  O         5.7389923700        5.5219650800        0.0000000000
  O         9.5649362800        5.5219650800        0.0000000000
  O        13.3910332200        5.5219650800        0.0000000000
  O        17.2180484700        5.5219650800        0.0000000000
  O         7.6519643300        8.8350646000        0.0000000000
  O        11.4780612700        8.8350646000        0.0000000000
  O        15.3050765300        8.8350646000        0.0000000000
  O        19.1310204300        8.8350646000        0.0000000000
  O         9.5649362800       12.1489593900        0.0000000000
  O        13.3910332300       12.1489593900        0.0000000000
  O        17.2180484700       12.1489593900        0.0000000000
  O        21.0439923800       12.1489593900        0.0000000000
  O         1.9130484800        3.3129669800        1.5618832200
  O         5.7389923700        3.3129669800        1.5618832200
  O         9.5649362700        3.3129669800        1.5618832200
  O        13.3910332200        3.3129669800        1.5618832200
  O         3.8259439000        6.6259339500        1.5618832200
  O         7.6518878000        6.6259339500        1.5618832200
  O        11.4779847500        6.6259339500        1.5618832200
  O        15.3050000000        6.6259339500        1.5618832200
  O         5.7389923700        9.9399612900        1.5618832200
  O         9.5649362700        9.9399612900        1.5618832200
  O        13.3910332200        9.9399612900        1.5618832200
  O        17.2180484700        9.9399612900        1.5618832200
  O         7.6519643300       13.2530608100        1.5618832200
  O        11.4780612700       13.2530608100        1.5618832200
  O        15.3050765300       13.2530608100        1.5618832200
  O        19.1310204300       13.2530608100        1.5618832200
  O         2.0241001245        1.0468416193        3.2179143259
  O         5.7433084760        1.0721217964        3.1961632360
  O         9.6312977070        1.1024268889        3.0773403953
  O        13.4327608272        1.2182806336        3.0010433850
  O         3.9117575406        4.2628201828        3.1144931867
  O         7.7971577404        4.5712987268        3.1663976318
  O        11.3162701052        4.7302916134        3.3324676923
  O        15.5590247958        4.5097926838        3.1280537553
  O         5.6036425321        7.7834901972        3.1686486130
  O         9.7320023004        7.7835992704        3.1405126250
  O        13.4609724494        7.7635877842        3.0846973967
  O        17.3384895695        7.7311582524        3.1129155712
  O         7.5599760842       10.9911685159        3.0337903434
  O        11.5784931923       11.0440714599        3.0191235371
  O        15.4039507437       11.0951440695        3.1136739976
  O        19.2797241645       11.0781525660        2.9592842915
  O         3.8561704569        2.2758955460        4.9443269164
  O         7.5700012485        2.2235484863        4.6846199158
  O        11.5762359378        2.3154961711        4.5186281311
  O        15.3337308383        2.3064665829        4.7874180997
  O         5.6371853524        5.5970457843        4.5452416467
  O         9.0475869205        3.4651314606        6.2591980693
  O        13.5738390102        5.3710907767        4.8357465339
  O        17.2878622657        5.6460048036        4.8573832967
  O         7.6289880077        8.9458597482        4.4555138833
  O        11.6238279063        8.8163226185        4.7808965886
  O        15.4114430805        8.8905357208        4.8290593153
  O        19.1438965615        9.1015981893        4.8235489758
  O         9.5533041205       12.1882636537        4.7531198532
  O        13.7774983279       12.2708727634        4.8123295204
  O        17.6169177252       12.1408804021        4.6557463485
  O        21.0265325568       12.3009634464        4.7331275096
 Ce         1.9130484700        1.1039688700        0.7810650400
 Ce         5.7389923700        1.1039688700        0.7810650400
 Ce         9.5649362800        1.1039688700        0.7810650400
 Ce        13.3910332200        1.1039688700        0.7810650400
 Ce         3.8259439000        4.4169358500        0.7810650400
 Ce         7.6518878000        4.4169358500        0.7810650400
 Ce        11.4779847500        4.4169358500        0.7810650400
 Ce        15.3050000000        4.4169358500        0.7810650400
 Ce         5.7389923700        7.7309631800        0.7810650400
 Ce         9.5649362800        7.7309631800        0.7810650400
 Ce        13.3910332200        7.7309631800        0.7810650400
 Ce        17.2180484700        7.7309631800        0.7810650400
 Ce         7.6519643300       11.0440627000        0.7810650400
 Ce        11.4780612700       11.0440627000        0.7810650400
 Ce        15.3050765300       11.0440627000        0.7810650400
 Ce        19.1310204300       11.0440627000        0.7810650400
 Ce        17.2079679994        3.2367016279        4.0406943359
 Ce         5.7327695645        3.2702392745        4.0230875322
 Ce         9.5743050498        3.0937906892        4.0830854449
 Ce        13.4356401607        3.3108006207        3.9252320031
 Ce        19.1188346349        6.5732469399        3.8194461841
 Ce         7.4733917196        6.6772673772        3.8802663537
 Ce        11.6025157215        6.6737266062        3.9730900624
 Ce        15.4721933478        6.6863539154        4.0395521825
 Ce        20.9604006902        9.8722230103        4.0220971909
 Ce         9.6224854334        9.8629577378        3.9220349428
 Ce        13.6809861212       10.0005900143        3.8714492222
 Ce        17.3926825833       10.0338579230        3.9005351281
 Ce        15.3403945951       -0.1906338677        3.9077957355
 Ce         3.8480545541        0.0487124042        4.0287851778
 Ce        15.2913928393       13.3013372326        3.8994709954
 Ce        19.2415950329       13.3545242172        3.8757638984
 Pt         9.2405096802        5.5039903460        6.1927116603
 Pt        13.8723412418        5.3886880715        6.8632253550
 Pt        11.5033613679        9.7133127820        6.4439456165
 Pt         9.6036929978        3.2471737255        8.2545487514
 Pt        11.3438411161        3.6123861666       10.2039489567
 Pt         7.0550326462        7.4116738035        7.2714613437
 Pt        11.2573009847        5.3600290160        8.0622602115
 Pt        13.4460646338        4.8962826465        9.3440257205
 Pt         8.0768791038        9.6040635951        6.4156994105
 Pt         9.7634780834        7.7978151495        7.5846712664
 Pt        12.4829697539        7.6013731110        7.7956534873
 Pt        14.9348437403        7.1840982831        8.7480238390
 Pt         9.4973835389       11.8373156061        6.6825127884
 Pt        11.8449695544       11.4552736325        8.2172654820
 Pt        13.7856986236        9.7662672519        8.9456123064
 Pt         8.6792105705        4.1170968156       10.6855830126
 Pt         6.4116381375        7.0006816920       10.1688653250
 Pt         8.4229030706        5.6858186430        8.7927107467
 Pt        11.5762033660        6.6197484817       10.4536512696
 Pt        13.3768847490        4.2881076390       12.0063695199
 Pt         7.9371914942        9.3080500791        8.9406041957
 Pt        11.0422970928        9.1051417287        9.4924401524
 Pt        14.2562655648        6.6808554513       11.3662552180
 Pt         7.1258760382       11.5423791168        7.9588011740
 Pt         9.4464264115       11.4088429175        9.4836880608
 Pt        13.7120353905        9.0459313911       12.7555115162
 Pt        15.5083886229        8.7855424363       10.8198637359
 Pt        12.5442152249       10.6981689093       10.9396523583
 Pt         5.6569517485        6.7565514550       12.6333106983
 Pt         8.1795499170        5.9219404546       12.5346953442
 Pt        10.8096371895        4.8120172975       12.3476145242
 Pt         6.9061911883        9.1258809722       11.5582857966
 Pt         9.1511446284        7.7036092180       10.7608587499
 Pt         9.9779292333        7.0099335123       13.8881677457
 Pt        12.4862311423        6.4202562565       13.4148191124
 Pt         7.1227782599       11.4963308570       10.4457038538
 Pt        11.0999372975        8.6054562150       12.1226909830
 Pt        12.0438517123        8.5496212185       14.8026236485
 Pt        10.0129177720       10.8949668581       11.8024155972
 Pt        11.9877399267       10.8307120239       13.6646324223
 Pt         7.6588820805        8.2086708153       14.0905997881
 Pt         7.5694736546       10.8912959994       13.1763514145
 Pt         9.7116791299        9.8381743171       14.1955825875
     139
 i =     1298, time =     1298.000, E =     -7434.6513722362
  O         3.8259439000        2.2079377400        0.0000000000
  O         7.6518878000        2.2079377400        0.0000000000
  O        11.4779847500        2.2079377400        0.0000000000
  O        15.3050000000        2.2079377400        0.0000000000
  O         5.7389923700        5.5219650800        0.0000000000
  O         9.5649362800        5.5219650800        0.0000000000
  O        13.3910332200        5.5219650800        0.0000000000
  O        17.2180484700        5.5219650800        0.0000000000
  O         7.6519643300        8.8350646000        0.0000000000
  O        11.4780612700        8.8350646000        0.0000000000
  O        15.3050765300        8.8350646000        0.0000000000
  O        19.1310204300        8.8350646000        0.0000000000
  O         9.5649362800       12.1489593900        0.0000000000
  O        13.3910332300       12.1489593900        0.0000000000
  O        17.2180484700       12.1489593900        0.0000000000
  O        21.0439923800       12.1489593900        0.0000000000
  O         1.9130484800        3.3129669800        1.5618832200
  O         5.7389923700        3.3129669800        1.5618832200
  O         9.5649362700        3.3129669800        1.5618832200
  O        13.3910332200        3.3129669800        1.5618832200
  O         3.8259439000        6.6259339500        1.5618832200
  O         7.6518878000        6.6259339500        1.5618832200
  O        11.4779847500        6.6259339500        1.5618832200
  O        15.3050000000        6.6259339500        1.5618832200
  O         5.7389923700        9.9399612900        1.5618832200
  O         9.5649362700        9.9399612900        1.5618832200
  O        13.3910332200        9.9399612900        1.5618832200
  O        17.2180484700        9.9399612900        1.5618832200
  O         7.6519643300       13.2530608100        1.5618832200
  O        11.4780612700       13.2530608100        1.5618832200
  O        15.3050765300       13.2530608100        1.5618832200
  O        19.1310204300       13.2530608100        1.5618832200
  O         2.0218236197        1.0527217283        3.2149584505
  O         5.7442052888        1.0715541339        3.2053959348
  O         9.6284790546        1.1041535377        3.0890181826
  O        13.4335599674        1.2186280557        2.9926322880
  O         3.9016478903        4.2498022751        3.1270786898
  O         7.7960201489        4.5659198193        3.1711522842
  O        11.3200726508        4.7235539736        3.3223974210
  O        15.5602912304        4.5134591552        3.1288172740
  O         5.6071477105        7.7941294018        3.1675196236
  O         9.7226197285        7.7772397127        3.1363704124
  O        13.4636670428        7.7576831477        3.0935062629
  O        17.3416205642        7.7356928576        3.1097271552
  O         7.5690432507       10.9935699910        3.0429826195
  O        11.5874741760       11.0426034821        3.0077863824
  O        15.3940808814       11.0944321319        3.1154858810
  O        19.2862747624       11.0891004175        2.9645157714
  O         3.8535676291        2.2749759962        4.9368980569
  O         7.5641267585        2.2243836371        4.6922089025
  O        11.5750273507        2.3141018968        4.5211700047
  O        15.3310300963        2.3103028169        4.7860861972
  O         5.6409954864        5.6076595632        4.5436681558
  O         9.0463917032        3.4719910242        6.2620536880
  O        13.5650165140        5.3674485010        4.8297084996
  O        17.2947258605        5.6455030571        4.8500835313
  O         7.6271459069        8.9500530880        4.4511138120
  O        11.6206326323        8.8088853119        4.7811217611
  O        15.4112240122        8.8847872040        4.8258734269
  O        19.1441180045        9.1072138876        4.8217041432
  O         9.5556296308       12.1853016027        4.7506870535
  O        13.7838332639       12.2634047735        4.8145895164
  O        17.6178611470       12.1356763201        4.6577489147
  O        21.0272257922       12.3063618554        4.7361325772
 Ce         1.9130484700        1.1039688700        0.7810650400
 Ce         5.7389923700        1.1039688700        0.7810650400
 Ce         9.5649362800        1.1039688700        0.7810650400
 Ce        13.3910332200        1.1039688700        0.7810650400
 Ce         3.8259439000        4.4169358500        0.7810650400
 Ce         7.6518878000        4.4169358500        0.7810650400
 Ce        11.4779847500        4.4169358500        0.7810650400
 Ce        15.3050000000        4.4169358500        0.7810650400
 Ce         5.7389923700        7.7309631800        0.7810650400
 Ce         9.5649362800        7.7309631800        0.7810650400
 Ce        13.3910332200        7.7309631800        0.7810650400
 Ce        17.2180484700        7.7309631800        0.7810650400
 Ce         7.6519643300       11.0440627000        0.7810650400
 Ce        11.4780612700       11.0440627000        0.7810650400
 Ce        15.3050765300       11.0440627000        0.7810650400
 Ce        19.1310204300       11.0440627000        0.7810650400
 Ce        17.2060372990        3.2352893983        4.0455971885
 Ce         5.7326433026        3.2713484655        4.0238971241
 Ce         9.5744315431        3.0952892869        4.0841263947
 Ce        13.4343549193        3.3116472900        3.9245533690
 Ce        19.1234852833        6.5765663912        3.8219177935
 Ce         7.4744392286        6.6769295005        3.8817774389
 Ce        11.6019575386        6.6778663520        3.9731723000
 Ce        15.4690996505        6.6871900439        4.0387223881
 Ce        20.9591155919        9.8733059033        4.0229636590
 Ce         9.6207475752        9.8609839952        3.9219071721
 Ce        13.6813300602       10.0020500073        3.8729000629
 Ce        17.3921397490       10.0337252361        3.8990439551
 Ce        15.3403551605       -0.1912854997        3.9093073488
 Ce         3.8539535148        0.0492630636        4.0299122722
 Ce        15.2922037942       13.3012432758        3.9001017899
 Ce        19.2411291160       13.3548755392        3.8736055888
 Pt         9.2412193409        5.5047141674        6.1898162335
 Pt        13.8738124127        5.3892300177        6.8604391378
 Pt        11.5043479419        9.7139501295        6.4424248452
 Pt         9.6048647174        3.2493968012        8.2518338063
 Pt        11.3415904067        3.6136164804       10.2028123359
 Pt         7.0548484869        7.4138973977        7.2738080229
 Pt        11.2562087330        5.3613825636        8.0632485703
 Pt        13.4421225353        4.8959791300        9.3454104721
 Pt         8.0796559388        9.6043230201        6.4122704758
 Pt         9.7652256440        7.7982077885        7.5833128768
 Pt        12.4785077297        7.6021491066        7.7959197418
 Pt        14.9345368795        7.1844843358        8.7471993801
 Pt         9.4967371095       11.8334900978        6.6828895402
 Pt        11.8433121207       11.4563742784        8.2173629204
 Pt        13.7855873787        9.7643933349        8.9445981483
 Pt         8.6782425959        4.1151151571       10.6859096335
 Pt         6.4086171385        6.9976618079       10.1684210808
 Pt         8.4245413919        5.6855483122        8.7931727938
 Pt        11.5775875302        6.6225713509       10.4513312662
 Pt        13.3782803410        4.2887863776       12.0060739794
 Pt         7.9386915367        9.3102410986        8.9406741063
 Pt        11.0434635653        9.1044648503        9.4928942936
 Pt        14.2577608245        6.6826963136       11.3677626796
 Pt         7.1276264634       11.5417919564        7.9590346347
 Pt         9.4469299956       11.4079940526        9.4841430571
 Pt        13.7106274461        9.0488741101       12.7527326855
 Pt        15.5093993035        8.7858238080       10.8198164209
 Pt        12.5442072305       10.6968276106       10.9376617639
 Pt         5.6592682881        6.7537046930       12.6344490472
 Pt         8.1788220038        5.9243257421       12.5356968611
 Pt        10.8114755377        4.8065895466       12.3508940511
 Pt         6.9066980948        9.1269622053       11.5550806365
 Pt         9.1497768792        7.7059889543       10.7617681250
 Pt         9.9769735170        7.0121023484       13.8889966100
 Pt        12.4867086577        6.4206234309       13.4155952810
 Pt         7.1222486008       11.4958810164       10.4435729271
 Pt        11.1010137674        8.6054717899       12.1234204073
 Pt        12.0419633564        8.5490210713       14.8007735248
 Pt        10.0122052457       10.8919977352       11.8036318613
 Pt        11.9867665000       10.8306182828       13.6634897779
 Pt         7.6596356943        8.2091207464       14.0905385794
 Pt         7.5734499886       10.8916073283       13.1749892527
 Pt         9.7127566253        9.8364664910       14.1960020105
     139
 i =     1299, time =     1299.000, E =     -7434.6511544890
  O         3.8259439000        2.2079377400        0.0000000000
  O         7.6518878000        2.2079377400        0.0000000000
  O        11.4779847500        2.2079377400        0.0000000000
  O        15.3050000000        2.2079377400        0.0000000000
  O         5.7389923700        5.5219650800        0.0000000000
  O         9.5649362800        5.5219650800        0.0000000000
  O        13.3910332200        5.5219650800        0.0000000000
  O        17.2180484700        5.5219650800        0.0000000000
  O         7.6519643300        8.8350646000        0.0000000000
  O        11.4780612700        8.8350646000        0.0000000000
  O        15.3050765300        8.8350646000        0.0000000000
  O        19.1310204300        8.8350646000        0.0000000000
  O         9.5649362800       12.1489593900        0.0000000000
  O        13.3910332300       12.1489593900        0.0000000000
  O        17.2180484700       12.1489593900        0.0000000000
  O        21.0439923800       12.1489593900        0.0000000000
  O         1.9130484800        3.3129669800        1.5618832200
  O         5.7389923700        3.3129669800        1.5618832200
  O         9.5649362700        3.3129669800        1.5618832200
  O        13.3910332200        3.3129669800        1.5618832200
  O         3.8259439000        6.6259339500        1.5618832200
  O         7.6518878000        6.6259339500        1.5618832200
  O        11.4779847500        6.6259339500        1.5618832200
  O        15.3050000000        6.6259339500        1.5618832200
  O         5.7389923700        9.9399612900        1.5618832200
  O         9.5649362700        9.9399612900        1.5618832200
  O        13.3910332200        9.9399612900        1.5618832200
  O        17.2180484700        9.9399612900        1.5618832200
  O         7.6519643300       13.2530608100        1.5618832200
  O        11.4780612700       13.2530608100        1.5618832200
  O        15.3050765300       13.2530608100        1.5618832200
  O        19.1310204300       13.2530608100        1.5618832200
  O         2.0193049747        1.0586680413        3.2119728375
  O         5.7446238795        1.0711974841        3.2143331637
  O         9.6252976809        1.1058760312        3.1009313864
  O        13.4346484495        1.2185654798        2.9847931841
  O         3.8909928826        4.2372818356        3.1396866897
  O         7.7946864363        4.5602967681        3.1760567382
  O        11.3239944623        4.7159828248        3.3120696408
  O        15.5608871880        4.5169604587        3.1296779331
  O         5.6110614004        7.8046509718        3.1660520671
  O         9.7128725850        7.7704368147        3.1325449208
  O        13.4664156815        7.7516043113        3.1027722704
  O        17.3444468431        7.7404183270        3.1065630829
  O         7.5786091536       10.9965308462        3.0525649039
  O        11.5962854908       11.0413530325        2.9975429233
  O        15.3844494702       11.0936044756        3.1170936399
  O        19.2925418655       11.0997575179        2.9702538419
  O         3.8510514536        2.2736477149        4.9291784289
  O         7.5581539442        2.2247394796        4.6995289721
  O        11.5739747636        2.3123745788        4.5242412484
  O        15.3282348302        2.3140057100        4.7845501302
  O         5.6451078059        5.6179486382        4.5425182231
  O         9.0455430216        3.4789365460        6.2651928544
  O        13.5562488059        5.3642555703        4.8235307693
  O        17.3016559824        5.6449057136        4.8425672373
  O         7.6256115847        8.9536874157        4.4471962992
  O        11.6175312517        8.8010930655        4.7799770908
  O        15.4110752025        8.8791025453        4.8221215310
  O        19.1441579634        9.1122573413        4.8199202110
  O         9.5582592130       12.1823531660        4.7474710542
  O        13.7892475472       12.2554165338        4.8169342424
  O        17.6180496468       12.1304113611        4.6599721274
  O        21.0282945739       12.3116211891        4.7390305526
 Ce         1.9130484700        1.1039688700        0.7810650400
 Ce         5.7389923700        1.1039688700        0.7810650400
 Ce         9.5649362800        1.1039688700        0.7810650400
 Ce        13.3910332200        1.1039688700        0.7810650400
 Ce         3.8259439000        4.4169358500        0.7810650400
 Ce         7.6518878000        4.4169358500        0.7810650400
 Ce        11.4779847500        4.4169358500        0.7810650400
 Ce        15.3050000000        4.4169358500        0.7810650400
 Ce         5.7389923700        7.7309631800        0.7810650400
 Ce         9.5649362800        7.7309631800        0.7810650400
 Ce        13.3910332200        7.7309631800        0.7810650400
 Ce        17.2180484700        7.7309631800        0.7810650400
 Ce         7.6519643300       11.0440627000        0.7810650400
 Ce        11.4780612700       11.0440627000        0.7810650400
 Ce        15.3050765300       11.0440627000        0.7810650400
 Ce        19.1310204300       11.0440627000        0.7810650400
 Ce        17.2041187085        3.2339287445        4.0504593611
 Ce         5.7325157356        3.2724886129        4.0246529539
 Ce         9.5745096000        3.0969422051        4.0851202151
 Ce        13.4331449006        3.3124786418        3.9238431467
 Ce        19.1280801112        6.5798503573        3.8244514493
 Ce         7.4755565908        6.6765251275        3.8832898352
 Ce        11.6013874616        6.6820259497        3.9732460473
 Ce        15.4660160368        6.6879974197        4.0378581094
 Ce        20.9578382264        9.8745724524        4.0237555279
 Ce         9.6190745466        9.8590517566        3.9216791254
 Ce        13.6815715304       10.0034769217        3.8743951841
 Ce        17.3915695694       10.0336197736        3.8975577982
 Ce        15.3402120485       -0.1918339484        3.9107944769
 Ce         3.8599031441        0.0498027174        4.0309770013
 Ce        15.2930862491       13.3011534822        3.9007288286
 Ce        19.2406770753       13.3551334150        3.8714191063
 Pt         9.2419173395        5.5054682836        6.1869276349
 Pt        13.8752571986        5.3898243108        6.8576839069
 Pt        11.5053219135        9.7146463569        6.4410379625
 Pt         9.6060403733        3.2516645285        8.2491123852
 Pt        11.3393198202        3.6148200092       10.2016331941
 Pt         7.0546909945        7.4160602492        7.2762121222
 Pt        11.2550743599        5.3627286948        8.0642038227
 Pt        13.4382460418        4.8956965441        9.3468371998
 Pt         8.0823962923        9.6045598945        6.4087787307
 Pt         9.7669763257        7.7985568466        7.5819203474
 Pt        12.4740634937        7.6029307095        7.7961908328
 Pt        14.9341879559        7.1848450764        8.7463833816
 Pt         9.4961220933       11.8296414860        6.6833560070
 Pt        11.8416375494       11.4574732475        8.2175045358
 Pt        13.7854900862        9.7624933975        8.9435741579
 Pt         8.6773020827        4.1131136437       10.6862543344
 Pt         6.4056374745        6.9946422241       10.1679383752
 Pt         8.4261739686        5.6853246336        8.7936619431
 Pt        11.5789550597        6.6253988561       10.4490312630
 Pt        13.3796703259        4.2894870036       12.0057477963
 Pt         7.9401912577        9.3123914669        8.9408073594
 Pt        11.0446341529        9.1037708911        9.4933109523
 Pt        14.2592204615        6.6845150170       11.3692601539
 Pt         7.1293844490       11.5412543959        7.9592286926
 Pt         9.4474512555       11.4071753616        9.4844727023
 Pt        13.7092306845        9.0517922397       12.7499237996
 Pt        15.5103798938        8.7861308781       10.8197438807
 Pt        12.5442044022       10.6955013726       10.9357020454
 Pt         5.6616392561        6.7508879832       12.6355751709
 Pt         8.1780758799        5.9266985217       12.5366580805
 Pt        10.8132115095        4.8012329302       12.3541894492
 Pt         6.9072077413        9.1279875232       11.5518754939
 Pt         9.1483594401        7.7083232913       10.7626438900
 Pt         9.9760684167        7.0142888950       13.8898598787
 Pt        12.4872516463        6.4210012679       13.4163620852
 Pt         7.1216994605       11.4954151984       10.4415451948
 Pt        11.1021219662        8.6054321405       12.1241687767
 Pt        12.0400573007        8.5484016886       14.7989520831
 Pt        10.0114753089       10.8890746690       11.8049083032
 Pt        11.9858366472       10.8305947877       13.6623187255
 Pt         7.6603653181        8.2095712174       14.0904163533
 Pt         7.5774377589       10.8919334486       13.1736117637
 Pt         9.7138052519        9.8347118093       14.1964528003
