     139
 i =      300, time =      300.000, E =     -7434.6777173220
  O         3.8259439000        2.2079377400        0.0000000000
  O         7.6518878000        2.2079377400        0.0000000000
  O        11.4779847500        2.2079377400        0.0000000000
  O        15.3050000000        2.2079377400        0.0000000000
  O         5.7389923700        5.5219650800        0.0000000000
  O         9.5649362800        5.5219650800        0.0000000000
  O        13.3910332200        5.5219650800        0.0000000000
  O        17.2180484700        5.5219650800        0.0000000000
  O         7.6519643300        8.8350646000        0.0000000000
  O        11.4780612700        8.8350646000        0.0000000000
  O        15.3050765300        8.8350646000        0.0000000000
  O        19.1310204300        8.8350646000        0.0000000000
  O         9.5649362800       12.1489593900        0.0000000000
  O        13.3910332300       12.1489593900        0.0000000000
  O        17.2180484700       12.1489593900        0.0000000000
  O        21.0439923800       12.1489593900        0.0000000000
  O         1.9130484800        3.3129669800        1.5618832200
  O         5.7389923700        3.3129669800        1.5618832200
  O         9.5649362700        3.3129669800        1.5618832200
  O        13.3910332200        3.3129669800        1.5618832200
  O         3.8259439000        6.6259339500        1.5618832200
  O         7.6518878000        6.6259339500        1.5618832200
  O        11.4779847500        6.6259339500        1.5618832200
  O        15.3050000000        6.6259339500        1.5618832200
  O         5.7389923700        9.9399612900        1.5618832200
  O         9.5649362700        9.9399612900        1.5618832200
  O        13.3910332200        9.9399612900        1.5618832200
  O        17.2180484700        9.9399612900        1.5618832200
  O         7.6519643300       13.2530608100        1.5618832200
  O        11.4780612700       13.2530608100        1.5618832200
  O        15.3050765300       13.2530608100        1.5618832200
  O        19.1310204300       13.2530608100        1.5618832200
  O         1.8236827455        0.9633498510        3.0878231069
  O         5.7616058444        1.1545900648        3.0819940879
  O         9.5458225508        0.9297687641        3.1643201703
  O        13.3315132182        1.1511483664        3.1334889154
  O         3.8910326803        4.4398292736        3.0123528470
  O         7.8488741822        4.5366770485        3.1006405073
  O        11.4880596101        4.7178832129        3.1678040320
  O        15.3136380962        4.5361651593        3.1189734162
  O         5.6181025319        7.6792988174        3.0939946072
  O         9.6436999797        7.5496928146        3.0653778859
  O        13.3638849818        7.7005177728        2.9857227690
  O        17.2320999130        7.8223111443        3.0871299275
  O         7.6949439840       10.9125122752        3.0240101155
  O        11.4342359845       10.9274654065        3.0305867260
  O        15.3017301384       11.1653507961        3.1040461937
  O        19.1849063361       11.1757259505        3.0392536765
  O         3.7493437285        2.1722399972        4.6718618184
  O         7.7498174270        2.2789194431        4.3845835882
  O        11.7255838984        2.1948509440        4.6160561578
  O        15.3336207188        2.2619392243        4.5491060221
  O         5.6623411715        5.4152756753        4.8743590247
  O         9.0435908734        3.5787297644        6.2236831095
  O        13.5412296434        5.3856293183        4.8941674907
  O        17.4581003231        5.4517034358        4.7865573686
  O         7.5998536842        8.7587698279        4.4713226863
  O        11.5882566491        8.9456039443        4.6779094704
  O        15.3437073817        8.9415005149        4.6781344145
  O        19.0759174351        8.9472185768        4.7156100843
  O         9.6748014598       11.9413446724        4.6686635277
  O        13.3559161549       12.2290875145        4.7675673602
  O        17.3339939076       12.1664848154        4.7777276435
  O        20.9764964244       12.2116280233        4.6573484484
 Ce         1.9130484700        1.1039688700        0.7810650400
 Ce         5.7389923700        1.1039688700        0.7810650400
 Ce         9.5649362800        1.1039688700        0.7810650400
 Ce        13.3910332200        1.1039688700        0.7810650400
 Ce         3.8259439000        4.4169358500        0.7810650400
 Ce         7.6518878000        4.4169358500        0.7810650400
 Ce        11.4779847500        4.4169358500        0.7810650400
 Ce        15.3050000000        4.4169358500        0.7810650400
 Ce         5.7389923700        7.7309631800        0.7810650400
 Ce         9.5649362800        7.7309631800        0.7810650400
 Ce        13.3910332200        7.7309631800        0.7810650400
 Ce        17.2180484700        7.7309631800        0.7810650400
 Ce         7.6519643300       11.0440627000        0.7810650400
 Ce        11.4780612700       11.0440627000        0.7810650400
 Ce        15.3050765300       11.0440627000        0.7810650400
 Ce        19.1310204300       11.0440627000        0.7810650400
 Ce        17.2779907491        3.2478289703        3.9081122648
 Ce         5.7338906090        3.3211453620        3.8637245321
 Ce         9.6690006068        3.1696329409        4.0335920005
 Ce        13.4289453804        3.3715651262        3.9261831322
 Ce        19.2142137953        6.6495234576        3.8949014004
 Ce         7.6033178612        6.5135672182        3.9347633746
 Ce        11.6163164879        6.7301746556        3.9663302003
 Ce        15.4215337296        6.6890166784        3.7929352635
 Ce        21.0737298278        9.9597778890        3.9185919122
 Ce         9.6853960871        9.8122566118        3.9630054946
 Ce        13.4383615323       10.0652379874        3.9942912114
 Ce        17.2909611769       10.0734785007        3.8861394963
 Ce        15.1961240920       -0.0607574685        3.8864996979
 Ce         3.9207304109       -0.1180169777        3.8299190793
 Ce        15.3394934061       13.2189554463        3.9361525286
 Ce        19.2293095147       13.2284285806        3.9118336405
 Pt         9.4647249061        5.6857626092        6.2055091418
 Pt        14.1630144391        5.8555718158        6.8617761286
 Pt        11.6182484873        9.5397168313        6.7706902870
 Pt         9.6209740013        3.5188080343        8.0979116100
 Pt        11.6762173963        3.8049566939        9.7450005525
 Pt         7.3525382257        7.0341994003        7.1456625151
 Pt        11.8743634024        4.7832196234        7.1877955290
 Pt        14.0543071729        4.6799044317        9.1300542418
 Pt         7.6528705888        9.7364791602        6.3447483692
 Pt         9.7606173172        7.9871373878        7.2894229962
 Pt        12.1694431319        7.1736831392        8.0409374348
 Pt        14.8539096014        7.2186458049        8.7863869975
 Pt         9.7194179661       11.4524733302        6.7592305847
 Pt        12.0266435268       11.7124383209        8.0922882135
 Pt        13.3624659369        9.5249170005        9.0356785771
 Pt         9.1329078252        3.8935992277       10.6693503343
 Pt         6.1762578616        7.0922858264        9.4718130642
 Pt         8.1264604971        5.5729414001        9.1685166921
 Pt        11.1879477944        6.5136301994       10.3210478380
 Pt        13.1962199680        4.1741784730       11.7206115592
 Pt         7.7097025760        9.2153834943        9.0546882322
 Pt        10.9150712450        8.9343862570        9.5821767770
 Pt        13.9294198224        6.5894538685       11.0772753942
 Pt         7.3185462823       11.7650257249        8.0422114574
 Pt         9.6981189084       11.3576366337        9.4303554054
 Pt        12.7869962705        8.9306729491       11.7875286434
 Pt        15.1963709373        8.9057328348       10.7902285766
 Pt        12.0613757415       11.4380063785       10.5457358188
 Pt         6.0151355016        6.4182019665       12.2101294187
 Pt         8.4041558392        5.4547159756       12.6975567573
 Pt        10.8584509630        4.8192248678       12.3927460383
 Pt         6.7183305189        8.7666359615       11.4505006529
 Pt         8.8217505204        7.5239861712       10.7428486873
 Pt        10.2004951928        6.8996117604       13.9255465722
 Pt        12.9235782138        6.2564833643       13.3504256995
 Pt         7.5412321710       11.1280547128       10.8776093280
 Pt        10.1983867056        8.9370278382       12.3893035359
 Pt        12.0766022663        8.6188013386       14.4236218722
 Pt         9.7318138619       11.4791679865       12.1110271455
 Pt        11.9886020391       11.0475471007       13.3512998275
 Pt         7.6673253138        7.6266393096       13.7676289439
 Pt         7.5338312574       10.3117427618       13.3359390901
 Pt         9.3407740697        9.1914116105       14.8961962757
     139
 i =      301, time =      301.000, E =     -7434.6796148786
  O         3.8259439000        2.2079377400        0.0000000000
  O         7.6518878000        2.2079377400        0.0000000000
  O        11.4779847500        2.2079377400        0.0000000000
  O        15.3050000000        2.2079377400        0.0000000000
  O         5.7389923700        5.5219650800        0.0000000000
  O         9.5649362800        5.5219650800        0.0000000000
  O        13.3910332200        5.5219650800        0.0000000000
  O        17.2180484700        5.5219650800        0.0000000000
  O         7.6519643300        8.8350646000        0.0000000000
  O        11.4780612700        8.8350646000        0.0000000000
  O        15.3050765300        8.8350646000        0.0000000000
  O        19.1310204300        8.8350646000        0.0000000000
  O         9.5649362800       12.1489593900        0.0000000000
  O        13.3910332300       12.1489593900        0.0000000000
  O        17.2180484700       12.1489593900        0.0000000000
  O        21.0439923800       12.1489593900        0.0000000000
  O         1.9130484800        3.3129669800        1.5618832200
  O         5.7389923700        3.3129669800        1.5618832200
  O         9.5649362700        3.3129669800        1.5618832200
  O        13.3910332200        3.3129669800        1.5618832200
  O         3.8259439000        6.6259339500        1.5618832200
  O         7.6518878000        6.6259339500        1.5618832200
  O        11.4779847500        6.6259339500        1.5618832200
  O        15.3050000000        6.6259339500        1.5618832200
  O         5.7389923700        9.9399612900        1.5618832200
  O         9.5649362700        9.9399612900        1.5618832200
  O        13.3910332200        9.9399612900        1.5618832200
  O        17.2180484700        9.9399612900        1.5618832200
  O         7.6519643300       13.2530608100        1.5618832200
  O        11.4780612700       13.2530608100        1.5618832200
  O        15.3050765300       13.2530608100        1.5618832200
  O        19.1310204300       13.2530608100        1.5618832200
  O         1.8268281177        0.9620303061        3.0854227292
  O         5.7464566455        1.1519294520        3.0866225663
  O         9.5513901304        0.9308954467        3.1720274307
  O        13.3321833457        1.1590500888        3.1261993954
  O         3.8921560314        4.4461490704        3.0164161104
  O         7.8475143002        4.5356066778        3.1048817939
  O        11.4937230656        4.7114391165        3.1689782257
  O        15.3235920606        4.5223462012        3.1219726444
  O         5.6063991944        7.6731146456        3.0904809477
  O         9.6533962813        7.5426699021        3.0715826595
  O        13.3629544321        7.6944078690        2.9863692976
  O        17.2345838118        7.8138922203        3.0829900954
  O         7.6910311438       10.9138820647        3.0241185832
  O        11.4370567608       10.9276000168        3.0352319356
  O        15.3004130397       11.1580030566        3.1049727828
  O        19.1819356394       11.1735218271        3.0346902908
  O         3.7437077676        2.1743150295        4.6593419686
  O         7.7535719480        2.2764654663        4.3886469124
  O        11.7285884614        2.2015506570        4.6173620873
  O        15.3295109292        2.2572425283        4.5508699145
  O         5.6649283034        5.4072981183        4.8733198925
  O         9.0423195361        3.5722001883        6.2227702996
  O        13.5535192351        5.3798766772        4.8942981936
  O        17.4594485712        5.4443801558        4.7871280304
  O         7.6065204472        8.7642284283        4.4735539279
  O        11.5921223570        8.9479672282        4.6810719948
  O        15.3392030983        8.9395038465        4.6788873026
  O        19.0762536861        8.9484686569        4.7173614563
  O         9.6855305746       11.9404364686        4.6708957202
  O        13.3567646517       12.2226299864        4.7633776434
  O        17.3205441381       12.1662319923        4.7836656327
  O        20.9777072241       12.2125925393        4.6581146415
 Ce         1.9130484700        1.1039688700        0.7810650400
 Ce         5.7389923700        1.1039688700        0.7810650400
 Ce         9.5649362800        1.1039688700        0.7810650400
 Ce        13.3910332200        1.1039688700        0.7810650400
 Ce         3.8259439000        4.4169358500        0.7810650400
 Ce         7.6518878000        4.4169358500        0.7810650400
 Ce        11.4779847500        4.4169358500        0.7810650400
 Ce        15.3050000000        4.4169358500        0.7810650400
 Ce         5.7389923700        7.7309631800        0.7810650400
 Ce         9.5649362800        7.7309631800        0.7810650400
 Ce        13.3910332200        7.7309631800        0.7810650400
 Ce        17.2180484700        7.7309631800        0.7810650400
 Ce         7.6519643300       11.0440627000        0.7810650400
 Ce        11.4780612700       11.0440627000        0.7810650400
 Ce        15.3050765300       11.0440627000        0.7810650400
 Ce        19.1310204300       11.0440627000        0.7810650400
 Ce        17.2796220622        3.2485756658        3.9066220393
 Ce         5.7337031115        3.3223669841        3.8607992138
 Ce         9.6687082677        3.1677628375        4.0354399700
 Ce        13.4291037625        3.3700184481        3.9236389945
 Ce        19.2127645897        6.6491299606        3.8958820069
 Ce         7.6039423848        6.5177178358        3.9365201742
 Ce        11.6163062006        6.7325326843        3.9677051995
 Ce        15.4190821846        6.6863853879        3.7924016165
 Ce        21.0752950525        9.9584290922        3.9184849112
 Ce         9.6835505967        9.8152257345        3.9646660297
 Ce        13.4375009600       10.0654960007        3.9938765418
 Ce        17.2897976249       10.0733954560        3.8864661744
 Ce        15.1955430443       -0.0570841496        3.8861272298
 Ce         3.9231854505       -0.1168245499        3.8271774813
 Ce        15.3394138374       13.2192452288        3.9357307223
 Ce        19.2322475552       13.2286313441        3.9125994039
 Pt         9.4648990360        5.6861830470        6.2053037205
 Pt        14.1625719410        5.8545865773        6.8626370028
 Pt        11.6168958467        9.5387106210        6.7707469949
 Pt         9.6218598053        3.5197371763        8.0997362174
 Pt        11.6760188998        3.8044567151        9.7448102182
 Pt         7.3549249673        7.0313130823        7.1461043695
 Pt        11.8734506113        4.7847040280        7.1872578743
 Pt        14.0539353982        4.6811422451        9.1324246830
 Pt         7.6544992001        9.7377314043        6.3449096145
 Pt         9.7613671451        7.9857935397        7.2875788593
 Pt        12.1683548862        7.1723062990        8.0417523507
 Pt        14.8548368942        7.2193146783        8.7879956227
 Pt         9.7194325925       11.4539842299        6.7565369745
 Pt        12.0275234117       11.7110299640        8.0906678734
 Pt        13.3611167588        9.5250898316        9.0347419070
 Pt         9.1322112599        3.8936843523       10.6712636034
 Pt         6.1765965930        7.0904298962        9.4740339780
 Pt         8.1266528006        5.5729814162        9.1673444326
 Pt        11.1893609949        6.5170138391       10.3245842957
 Pt        13.1956685273        4.1733165095       11.7204328430
 Pt         7.7082529605        9.2179245606        9.0539700379
 Pt        10.9166866986        8.9329524808        9.5840594022
 Pt        13.9293082466        6.5916802625       11.0770606925
 Pt         7.3194942753       11.7674520233        8.0462127401
 Pt         9.6990408499       11.3564690643        9.4303595023
 Pt        12.7869757130        8.9280947040       11.7874446260
 Pt        15.1969609327        8.9068279435       10.7900461997
 Pt        12.0622330011       11.4360460514       10.5468563607
 Pt         6.0169511645        6.4193605154       12.2074265242
 Pt         8.4047143220        5.4561996132       12.6988017038
 Pt        10.8585918998        4.8188885286       12.3922163724
 Pt         6.7176022088        8.7702408784       11.4512315040
 Pt         8.8237604505        7.5234851568       10.7446417220
 Pt        10.1987219827        6.8962329085       13.9258121348
 Pt        12.9230205348        6.2581013869       13.3520784368
 Pt         7.5402519529       11.1308329072       10.8740178391
 Pt        10.1984023193        8.9361167668       12.3873841948
 Pt        12.0765729980        8.6182935766       14.4229963839
 Pt         9.7331910320       11.4787223685       12.1118745651
 Pt        11.9873506743       11.0468385214       13.3533503853
 Pt         7.6670495072        7.6248329526       13.7698882897
 Pt         7.5336471552       10.3131627623       13.3360183816
 Pt         9.3390850218        9.1917147280       14.8957677102
     139
 i =      302, time =      302.000, E =     -7434.6816542892
  O         3.8259439000        2.2079377400        0.0000000000
  O         7.6518878000        2.2079377400        0.0000000000
  O        11.4779847500        2.2079377400        0.0000000000
  O        15.3050000000        2.2079377400        0.0000000000
  O         5.7389923700        5.5219650800        0.0000000000
  O         9.5649362800        5.5219650800        0.0000000000
  O        13.3910332200        5.5219650800        0.0000000000
  O        17.2180484700        5.5219650800        0.0000000000
  O         7.6519643300        8.8350646000        0.0000000000
  O        11.4780612700        8.8350646000        0.0000000000
  O        15.3050765300        8.8350646000        0.0000000000
  O        19.1310204300        8.8350646000        0.0000000000
  O         9.5649362800       12.1489593900        0.0000000000
  O        13.3910332300       12.1489593900        0.0000000000
  O        17.2180484700       12.1489593900        0.0000000000
  O        21.0439923800       12.1489593900        0.0000000000
  O         1.9130484800        3.3129669800        1.5618832200
  O         5.7389923700        3.3129669800        1.5618832200
  O         9.5649362700        3.3129669800        1.5618832200
  O        13.3910332200        3.3129669800        1.5618832200
  O         3.8259439000        6.6259339500        1.5618832200
  O         7.6518878000        6.6259339500        1.5618832200
  O        11.4779847500        6.6259339500        1.5618832200
  O        15.3050000000        6.6259339500        1.5618832200
  O         5.7389923700        9.9399612900        1.5618832200
  O         9.5649362700        9.9399612900        1.5618832200
  O        13.3910332200        9.9399612900        1.5618832200
  O        17.2180484700        9.9399612900        1.5618832200
  O         7.6519643300       13.2530608100        1.5618832200
  O        11.4780612700       13.2530608100        1.5618832200
  O        15.3050765300       13.2530608100        1.5618832200
  O        19.1310204300       13.2530608100        1.5618832200
  O         1.8303661435        0.9607582133        3.0831351307
  O         5.7312041906        1.1488162762        3.0913616917
  O         9.5574041967        0.9326700084        3.1794513173
  O        13.3337056199        1.1663797410        3.1184035285
  O         3.8933575813        4.4522002893        3.0206950418
  O         7.8458492251        4.5344851370        3.1094001702
  O        11.4992349677        4.7041296078        3.1704405785
  O        15.3336721790        4.5085597686        3.1247212862
  O         5.5956194714        7.6671436575        3.0870914439
  O         9.6631194841        7.5359047344        3.0786745813
  O        13.3623298468        7.6883148281        2.9881411742
  O        17.2370098784        7.8050445193        3.0788807794
  O         7.6868674618       10.9160206986        3.0247496870
  O        11.4405238905       10.9282533803        3.0401574347
  O        15.2990931263       11.1504752649        3.1060043851
  O        19.1789014068       11.1706111017        3.0302552067
  O         3.7384459972        2.1763270068        4.6466467110
  O         7.7565981141        2.2734218476        4.3930440225
  O        11.7306083405        2.2085335200        4.6190222831
  O        15.3253494939        2.2522562259        4.5528520710
  O         5.6679170810        5.3993978363        4.8715914341
  O         9.0412745604        3.5659924941        6.2215407796
  O        13.5658912795        5.3749879957        4.8943946572
  O        17.4604007798        5.4372978373        4.7872131387
  O         7.6133791082        8.7696392485        4.4761632657
  O        11.5962815988        8.9499409232        4.6846774471
  O        15.3344069239        8.9375066994        4.6793181462
  O        19.0768689692        8.9498584600        4.7189123608
  O         9.6960878653       11.9400111185        4.6734419284
  O        13.3578051721       12.2158675642        4.7589953653
  O        17.3067612169       12.1656782332        4.7895988089
  O        20.9796739863       12.2132255245        4.6591437409
 Ce         1.9130484700        1.1039688700        0.7810650400
 Ce         5.7389923700        1.1039688700        0.7810650400
 Ce         9.5649362800        1.1039688700        0.7810650400
 Ce        13.3910332200        1.1039688700        0.7810650400
 Ce         3.8259439000        4.4169358500        0.7810650400
 Ce         7.6518878000        4.4169358500        0.7810650400
 Ce        11.4779847500        4.4169358500        0.7810650400
 Ce        15.3050000000        4.4169358500        0.7810650400
 Ce         5.7389923700        7.7309631800        0.7810650400
 Ce         9.5649362800        7.7309631800        0.7810650400
 Ce        13.3910332200        7.7309631800        0.7810650400
 Ce        17.2180484700        7.7309631800        0.7810650400
 Ce         7.6519643300       11.0440627000        0.7810650400
 Ce        11.4780612700       11.0440627000        0.7810650400
 Ce        15.3050765300       11.0440627000        0.7810650400
 Ce        19.1310204300       11.0440627000        0.7810650400
 Ce        17.2812328832        3.2493661893        3.9051418983
 Ce         5.7335040639        3.3235932899        3.8578981879
 Ce         9.6684011707        3.1659000542        4.0372631920
 Ce        13.4293144680        3.3684165891        3.9210694977
 Ce        19.2111914379        6.6486811749        3.8969251280
 Ce         7.6045411118        6.5219101601        3.9382606197
 Ce        11.6162655133        6.7348174779        3.9690326609
 Ce        15.4166677480        6.6837522206        3.7919396907
 Ce        21.0767827361        9.9570680968        3.9183404913
 Ce         9.6815689836        9.8182383016        3.9662385787
 Ce        13.4367290685       10.0656880294        3.9934039196
 Ce        17.2886308213       10.0732435681        3.8868328515
 Ce        15.1950486362       -0.0533471768        3.8857146565
 Ce         3.9255337185       -0.1155155601        3.8244681006
 Ce        15.3393750170       13.2196171565        3.9352713625
 Ce        19.2350758240       13.2288863504        3.9133430474
 Pt         9.4650710540        5.6865769968        6.2050831541
 Pt        14.1621411858        5.8535920809        6.8633856672
 Pt        11.6156189182        9.5377194022        6.7707903140
 Pt         9.6227642597        3.5206926671        8.1015843179
 Pt        11.6757347619        3.8039913386        9.7446021111
 Pt         7.3573104557        7.0284413088        7.1465466805
 Pt        11.8724740791        4.7861403312        7.1867560029
 Pt        14.0535469744        4.6823648046        9.1348417029
 Pt         7.6561283872        9.7389568525        6.3450876283
 Pt         9.7620430489        7.9844180924        7.2857376100
 Pt        12.1672818128        7.1709640900        8.0425280219
 Pt        14.8557693278        7.2200392650        8.7896139542
 Pt         9.7194453118       11.4555075968        6.7538586511
 Pt        12.0283862226       11.7096384107        8.0890093749
 Pt        13.3597993348        9.5252828499        9.0337919817
 Pt         9.1315427426        3.8937201645       10.6732022768
 Pt         6.1768911916        7.0885725421        9.4763019945
 Pt         8.1268780074        5.5729923126        9.1661095894
 Pt        11.1907799076        6.5203258669       10.3281730976
 Pt        13.1952152119        4.1724519424       11.7202560976
 Pt         7.7068408198        9.2205046440        9.0531724396
 Pt        10.9182341496        8.9315528368        9.5859602051
 Pt        13.9291920131        6.5939118411       11.0768623353
 Pt         7.3204926918       11.7698297130        8.0502436994
 Pt         9.6999444475       11.3553172378        9.4302985142
 Pt        12.7869461931        8.9255306402       11.7873790757
 Pt        15.1975503240        8.9079182497       10.7898678738
 Pt        12.0630950512       11.4340395623       10.5480907994
 Pt         6.0187496333        6.4204983362       12.2046935137
 Pt         8.4052673290        5.4576717092       12.6999833534
 Pt        10.8587228716        4.8185823002       12.3916696132
 Pt         6.7168155560        8.7738331164       11.4519835662
 Pt         8.8258239116        7.5229288708       10.7464394514
 Pt        10.1969860016        6.8927939803       13.9260800382
 Pt        12.9224024544        6.2597375698       13.3537665020
 Pt         7.5392366139       11.1336408194       10.8703804242
 Pt        10.1984197944        8.9352676014       12.3854537776
 Pt        12.0765632795        8.6177787456       14.4223552463
 Pt         9.7345947771       11.4782538975       12.1127483165
 Pt        11.9860959902       11.0461214461       13.3553549184
 Pt         7.6667335578        7.6230889124       13.7721674134
 Pt         7.5334951335       10.3145902457       13.3361169296
 Pt         9.3374362709        9.1920473454       14.8953554905
     139
 i =      303, time =      303.000, E =     -7434.6837965474
  O         3.8259439000        2.2079377400        0.0000000000
  O         7.6518878000        2.2079377400        0.0000000000
  O        11.4779847500        2.2079377400        0.0000000000
  O        15.3050000000        2.2079377400        0.0000000000
  O         5.7389923700        5.5219650800        0.0000000000
  O         9.5649362800        5.5219650800        0.0000000000
  O        13.3910332200        5.5219650800        0.0000000000
  O        17.2180484700        5.5219650800        0.0000000000
  O         7.6519643300        8.8350646000        0.0000000000
  O        11.4780612700        8.8350646000        0.0000000000
  O        15.3050765300        8.8350646000        0.0000000000
  O        19.1310204300        8.8350646000        0.0000000000
  O         9.5649362800       12.1489593900        0.0000000000
  O        13.3910332300       12.1489593900        0.0000000000
  O        17.2180484700       12.1489593900        0.0000000000
  O        21.0439923800       12.1489593900        0.0000000000
  O         1.9130484800        3.3129669800        1.5618832200
  O         5.7389923700        3.3129669800        1.5618832200
  O         9.5649362700        3.3129669800        1.5618832200
  O        13.3910332200        3.3129669800        1.5618832200
  O         3.8259439000        6.6259339500        1.5618832200
  O         7.6518878000        6.6259339500        1.5618832200
  O        11.4779847500        6.6259339500        1.5618832200
  O        15.3050000000        6.6259339500        1.5618832200
  O         5.7389923700        9.9399612900        1.5618832200
  O         9.5649362700        9.9399612900        1.5618832200
  O        13.3910332200        9.9399612900        1.5618832200
  O        17.2180484700        9.9399612900        1.5618832200
  O         7.6519643300       13.2530608100        1.5618832200
  O        11.4780612700       13.2530608100        1.5618832200
  O        15.3050765300       13.2530608100        1.5618832200
  O        19.1310204300       13.2530608100        1.5618832200
  O         1.8342604347        0.9595277959        3.0809689688
  O         5.7159168741        1.1452739950        3.0961559216
  O         9.5638609293        0.9350746377        3.1865749949
  O        13.3360383067        1.1730622771        3.1101143581
  O         3.8946387743        4.4579722389        3.0251185130
  O         7.8438806830        4.5333293971        3.1141782270
  O        11.5045782164        4.6960196504        3.1721794457
  O        15.3438663182        4.4948456192        3.1271985108
  O         5.5858308732        7.6614514022        3.0838601821
  O         9.6727980913        7.5294469382        3.0866011045
  O        13.3620148938        7.6822474850        2.9910225219
  O        17.2393731079        7.7958077419        3.0748533648
  O         7.6824669490       10.9189197404        3.0258998850
  O        11.4446203090       10.9294108347        3.0453140214
  O        15.2977887116       11.1428214162        3.1071218310
  O        19.1758101224       11.1670440821        3.0260089631
  O         3.7335934746        2.1782637839        4.6338593721
  O         7.7588483204        2.2697742470        4.3977237572
  O        11.7316467792        2.2157195276        4.6210443683
  O        15.3211504607        2.2469472852        4.5550582809
  O         5.6712971639        5.3916281385        4.8691915093
  O         9.0404728308        3.5601313308        6.2200285962
  O        13.5783599273        5.3709668589        4.8944679996
  O        17.4609449209        5.4304764936        4.7868305121
  O         7.6203769989        8.7749520076        4.4790964794
  O        11.6007031993        8.9515222680        4.6887062315
  O        15.3293454186        8.9354913648        4.6794231570
  O        19.0777522512        8.9513947394        4.7202563006
  O         9.7064353339       11.9400509833        4.6762828115
  O        13.3590490733       12.2088449560        4.7544251261
  O        17.2926773180       12.1648101710        4.7954834574
  O        20.9823653276       12.2135380789        4.6604136513
 Ce         1.9130484700        1.1039688700        0.7810650400
 Ce         5.7389923700        1.1039688700        0.7810650400
 Ce         9.5649362800        1.1039688700        0.7810650400
 Ce        13.3910332200        1.1039688700        0.7810650400
 Ce         3.8259439000        4.4169358500        0.7810650400
 Ce         7.6518878000        4.4169358500        0.7810650400
 Ce        11.4779847500        4.4169358500        0.7810650400
 Ce        15.3050000000        4.4169358500        0.7810650400
 Ce         5.7389923700        7.7309631800        0.7810650400
 Ce         9.5649362800        7.7309631800        0.7810650400
 Ce        13.3910332200        7.7309631800        0.7810650400
 Ce        17.2180484700        7.7309631800        0.7810650400
 Ce         7.6519643300       11.0440627000        0.7810650400
 Ce        11.4780612700       11.0440627000        0.7810650400
 Ce        15.3050765300       11.0440627000        0.7810650400
 Ce        19.1310204300       11.0440627000        0.7810650400
 Ce        17.2828190901        3.2502009691        3.9036724204
 Ce         5.7332938098        3.3248267041        3.8550250717
 Ce         9.6680821203        3.1640476315        4.0390620899
 Ce        13.4295790780        3.3667619428        3.9184753621
 Ce        19.2094907565        6.6481724686        3.8980321110
 Ce         7.6051142079        6.5261363997        3.9399851183
 Ce        11.6161953007        6.7370230986        3.9703137315
 Ce        15.4142924193        6.6811143812        3.7915493529
 Ce        21.0781907760        9.9556960834        3.9181588857
 Ce         9.6794597756        9.8212934436        3.9677245725
 Ce        13.4360470142       10.0658137196        3.9928741964
 Ce        17.2874587365       10.0730215273        3.8872395979
 Ce        15.1946440619       -0.0495439734        3.8852619400
 Ce         3.9277723504       -0.1140916547        3.8217929211
 Ce        15.3393770195       13.2200669916        3.9347774299
 Ce        19.2377926227       13.2291949851        3.9140632597
 Pt         9.4652412446        5.6869417060        6.2048471078
 Pt        14.1617232087        5.8525877212        6.8640235387
 Pt        11.6144182125        9.5367432559        6.7708221734
 Pt         9.6236859521        3.5216734340        8.1034538910
 Pt        11.6753662594        3.8035610691        9.7443771793
 Pt         7.3596928685        7.0255855738        7.1469888217
 Pt        11.8714339363        4.7875278950        7.1862886715
 Pt        14.0531409529        4.6835720856        9.1373047987
 Pt         7.6577574091        9.7401557826        6.3452843657
 Pt         9.7626446573        7.9830117192        7.2839008038
 Pt        12.1662235926        7.1696567249        8.0432650158
 Pt        14.8567060148        7.2208193568        8.7912404717
 Pt         9.7194567429       11.4570426963        6.7511974325
 Pt        12.0292318668       11.7082633619        8.0873157291
 Pt        13.3585152634        9.5254971728        9.0328284626
 Pt         9.1309024071        3.8937080941       10.6751664992
 Pt         6.1771423203        7.0867144975        9.4786172425
 Pt         8.1271369765        5.5729735998        9.1648136499
 Pt        11.1922049841        6.5235640635       10.3318144558
 Pt        13.1948604061        4.1715858633       11.7200813500
 Pt         7.7054660609        9.2231204740        9.0522963802
 Pt        10.9197116838        8.9301895028        9.5878781513
 Pt        13.9290704627        6.5961470881       11.0766825311
 Pt         7.3215408184       11.7721597714        8.0543031510
 Pt         9.7008324749       11.3541821430        9.4301722994
 Pt        12.7869080733        8.9229818772       11.7873324086
 Pt        15.1981380361        8.9090039609       10.7896938473
 Pt        12.0639618750       11.4319873701       10.5494376755
 Pt         6.0205309062        6.4216148935       12.2019307375
 Pt         8.4058141028        5.4591306753       12.7010994421
 Pt        10.8588444049        4.8183068699       12.3911060476
 Pt         6.7159716798        8.7774106717       11.4527557344
 Pt         8.8279358124        7.5223173134       10.7482392356
 Pt        10.1952878540        6.8892985417       13.9263502276
 Pt        12.9217237709        6.2613909688       13.3554875974
 Pt         7.5381871498       11.1364788653       10.8666999983
 Pt        10.1984399026        8.9344807539       12.3835165680
 Pt        12.0765722276        8.6172566372       14.4216988165
 Pt         9.7360239434       11.4777627107       12.1136478813
 Pt        11.9848382673       11.0453951734       13.3573124825
 Pt         7.6663778622        7.6214083241       13.7744662745
 Pt         7.5333750710       10.3160256787       13.3362342503
 Pt         9.3358299969        9.1924082525       14.8949577204
     139
 i =      304, time =      304.000, E =     -7434.6860569905
  O         3.8259439000        2.2079377400        0.0000000000
  O         7.6518878000        2.2079377400        0.0000000000
  O        11.4779847500        2.2079377400        0.0000000000
  O        15.3050000000        2.2079377400        0.0000000000
  O         5.7389923700        5.5219650800        0.0000000000
  O         9.5649362800        5.5219650800        0.0000000000
  O        13.3910332200        5.5219650800        0.0000000000
  O        17.2180484700        5.5219650800        0.0000000000
  O         7.6519643300        8.8350646000        0.0000000000
  O        11.4780612700        8.8350646000        0.0000000000
  O        15.3050765300        8.8350646000        0.0000000000
  O        19.1310204300        8.8350646000        0.0000000000
  O         9.5649362800       12.1489593900        0.0000000000
  O        13.3910332300       12.1489593900        0.0000000000
  O        17.2180484700       12.1489593900        0.0000000000
  O        21.0439923800       12.1489593900        0.0000000000
  O         1.9130484800        3.3129669800        1.5618832200
  O         5.7389923700        3.3129669800        1.5618832200
  O         9.5649362700        3.3129669800        1.5618832200
  O        13.3910332200        3.3129669800        1.5618832200
  O         3.8259439000        6.6259339500        1.5618832200
  O         7.6518878000        6.6259339500        1.5618832200
  O        11.4779847500        6.6259339500        1.5618832200
  O        15.3050000000        6.6259339500        1.5618832200
  O         5.7389923700        9.9399612900        1.5618832200
  O         9.5649362700        9.9399612900        1.5618832200
  O        13.3910332200        9.9399612900        1.5618832200
  O        17.2180484700        9.9399612900        1.5618832200
  O         7.6519643300       13.2530608100        1.5618832200
  O        11.4780612700       13.2530608100        1.5618832200
  O        15.3050765300       13.2530608100        1.5618832200
  O        19.1310204300       13.2530608100        1.5618832200
  O         1.8384714849        0.9583329737        3.0789323137
  O         5.7006946756        1.1413493656        3.1009507728
  O         9.5707612076        0.9380885692        3.1933993440
  O        13.3391299760        1.1790242817        3.1013535417
  O         3.8960027432        4.4634542295        3.0296169213
  O         7.8416122415        4.5321582387        3.1192062598
  O        11.5097292671        4.6871700279        3.1741857588
  O        15.3541293261        4.4812624109        3.1293827191
  O         5.5771046418        7.6561021142        3.0808223853
  O         9.6823480597        7.5233349324        3.0952913803
  O        13.3620117519        7.6762222946        2.9949919334
  O        17.2416634655        7.7862414538        3.0709550665
  O         7.6778426854       10.9225681378        3.0275645513
  O        11.4493256699       10.9310527303        3.0506612007
  O        15.2965165535       11.1350818847        3.1083037170
  O        19.1726663293       11.1628749456        3.0220194951
  O         3.7291843429        2.1801141097        4.6210124860
  O         7.7602798772        2.2655145231        4.4026401730
  O        11.7317089082        2.2230264876        4.6234361738
  O        15.3169212879        2.2412741480        4.5574978145
  O         5.6750566515        5.3840442480        4.8661454303
  O         9.0399354475        3.5546471131        6.2182668167
  O        13.5909225386        5.3678278844        4.8945198611
  O        17.4610726791        5.4239296947        4.7859995987
  O         7.6274548122        8.7801163412        4.4823154967
  O        11.6053465426        8.9527083834        4.6931437137
  O        15.3240508424        8.9334425485        4.6791999858
  O        19.0788958078        8.9530836008        4.7213880319
  O         9.7165389098       11.9405462212        4.6794015174
  O        13.3605059398       12.2016145372        4.7496759771
  O        17.2783566804       12.1636140738        4.8012677258
  O        20.9857467134       12.2135434752        4.6619035429
 Ce         1.9130484700        1.1039688700        0.7810650400
 Ce         5.7389923700        1.1039688700        0.7810650400
 Ce         9.5649362800        1.1039688700        0.7810650400
 Ce        13.3910332200        1.1039688700        0.7810650400
 Ce         3.8259439000        4.4169358500        0.7810650400
 Ce         7.6518878000        4.4169358500        0.7810650400
 Ce        11.4779847500        4.4169358500        0.7810650400
 Ce        15.3050000000        4.4169358500        0.7810650400
 Ce         5.7389923700        7.7309631800        0.7810650400
 Ce         9.5649362800        7.7309631800        0.7810650400
 Ce        13.3910332200        7.7309631800        0.7810650400
 Ce        17.2180484700        7.7309631800        0.7810650400
 Ce         7.6519643300       11.0440627000        0.7810650400
 Ce        11.4780612700       11.0440627000        0.7810650400
 Ce        15.3050765300       11.0440627000        0.7810650400
 Ce        19.1310204300       11.0440627000        0.7810650400
 Ce        17.2843767764        3.2510802761        3.9022139326
 Ce         5.7330727314        3.3260691577        3.8521833285
 Ce         9.6677532997        3.1622085257        4.0408371755
 Ce        13.4298992911        3.3650572638        3.9158573726
 Ce        19.2076591665        6.6475992954        3.8992039189
 Ce         7.6056617535        6.5303883653        3.9416940238
 Ce        11.6160969334        6.7391432758        3.9715497206
 Ce        15.4119581172        6.6784691259        3.7912306303
 Ce        21.0795171036        9.9543144193        3.9179399756
 Ce         9.6772322163        9.8243910363        3.9691251252
 Ce        13.4354561323       10.0658726839        3.9922883155
 Ce        17.2862790266       10.0727279437        3.8876863021
 Ce        15.1943328019       -0.0456719036        3.8847683430
 Ce         3.9298983553       -0.1125547705        3.8191539983
 Ce        15.3394196214       13.2205905024        3.9342517115
 Ce        19.2403968691       13.2295583923        3.9147580802
 Pt         9.4654098685        5.6872749296        6.2045954256
 Pt        14.1613183400        5.8515727040        6.8645525951
 Pt        11.6132941216        9.5357839431        6.7708446902
 Pt         9.6246239985        3.5226788735        8.1053425154
 Pt        11.6749146764        3.8031662787        9.7441355011
 Pt         7.3620698094        7.0227480967        7.1474300734
 Pt        11.8703302333        4.7888667182        7.1858544680
 Pt        14.0527170782        4.6847643289        9.1398133649
 Pt         7.6593855783        9.7413288253        6.3455036566
 Pt         9.7631710102        7.9815746512        7.2820697640
 Pt        12.1651790897        7.1683848325        8.0439631229
 Pt        14.8576465440        7.2216547851        8.7928733663
 Pt         9.7194675742       11.4585888920        6.7485564384
 Pt        12.0300593659       11.7069034725        8.0855895827
 Pt        13.3572663448        9.5257325150        9.0318506043
 Pt         9.1302897751        3.8936487038       10.6771554892
 Pt         6.1773514973        7.0848577575        9.4809786204
 Pt         8.1274303202        5.5729245450        9.1634583453
 Pt        11.1936370537        6.5267251311       10.3355087899
 Pt        13.1946042436        4.1707184864       11.7199091481
 Pt         7.7041282290        9.2257695327        9.0513420608
 Pt        10.9211181984        8.9288651155        9.5898104803
 Pt        13.9289431966        6.5983849928       11.0765227240
 Pt         7.3226398659       11.7744403351        8.0583897945
 Pt         9.7017073539       11.3530651613        9.4299810466
 Pt        12.7868620948        8.9204493331       11.7873043910
 Pt        15.1987246239        8.9100858044       10.7895242882
 Pt        12.0648310566       11.4298908958       10.5508950624
 Pt         6.0222935880        6.4227098451       12.1991383751
 Pt         8.4063528544        5.4605734866       12.7021483390
 Pt        10.8589583488        4.8180611034       12.3905278611
 Pt         6.7150725972        8.7809736680       11.4535468417
 Pt         8.8300902554        7.5216501539       10.7500402940
 Pt        10.1936282898        6.8857500866       13.9266237963
 Pt        12.9209859608        6.2630603320       13.3572398491
 Pt         7.5371065450       11.1393455215       10.8629791202
 Pt        10.1984630264        8.9337562861       12.3815762807
 Pt        12.0765988965        8.6167278538       14.4210285354
 Pt         9.7374759158       11.4772475280       12.1145714175
 Pt        11.9835776707       11.0446598646       13.3592222073
 Pt         7.6659823878        7.6197935541       13.7767844181
 Pt         7.5332862980       10.3174694859       13.3363689393
 Pt         9.3342677274        9.1927972780       14.8945725695
     139
 i =      305, time =      305.000, E =     -7434.6881708768
  O         3.8259439000        2.2079377400        0.0000000000
  O         7.6518878000        2.2079377400        0.0000000000
  O        11.4779847500        2.2079377400        0.0000000000
  O        15.3050000000        2.2079377400        0.0000000000
  O         5.7389923700        5.5219650800        0.0000000000
  O         9.5649362800        5.5219650800        0.0000000000
  O        13.3910332200        5.5219650800        0.0000000000
  O        17.2180484700        5.5219650800        0.0000000000
  O         7.6519643300        8.8350646000        0.0000000000
  O        11.4780612700        8.8350646000        0.0000000000
  O        15.3050765300        8.8350646000        0.0000000000
  O        19.1310204300        8.8350646000        0.0000000000
  O         9.5649362800       12.1489593900        0.0000000000
  O        13.3910332300       12.1489593900        0.0000000000
  O        17.2180484700       12.1489593900        0.0000000000
  O        21.0439923800       12.1489593900        0.0000000000
  O         1.9130484800        3.3129669800        1.5618832200
  O         5.7389923700        3.3129669800        1.5618832200
  O         9.5649362700        3.3129669800        1.5618832200
  O        13.3910332200        3.3129669800        1.5618832200
  O         3.8259439000        6.6259339500        1.5618832200
  O         7.6518878000        6.6259339500        1.5618832200
  O        11.4779847500        6.6259339500        1.5618832200
  O        15.3050000000        6.6259339500        1.5618832200
  O         5.7389923700        9.9399612900        1.5618832200
  O         9.5649362700        9.9399612900        1.5618832200
  O        13.3910332200        9.9399612900        1.5618832200
  O        17.2180484700        9.9399612900        1.5618832200
  O         7.6519643300       13.2530608100        1.5618832200
  O        11.4780612700       13.2530608100        1.5618832200
  O        15.3050765300       13.2530608100        1.5618832200
  O        19.1310204300       13.2530608100        1.5618832200
  O         1.8429579402        0.9571686051        3.0770276080
  O         5.6856605024        1.1370817381        3.1056952025
  O         9.5781028306        0.9416848684        3.1999302074
  O        13.3429167755        1.1842040340        3.0921683016
  O         3.8974537149        4.4686345676        3.0341260076
  O         7.8390483056        4.5309856770        3.1244783458
  O        11.5146709535        4.6776374466        3.1764487899
  O        15.3643957111        4.4679062163        3.1312507854
  O         5.5695243469        7.6511597429        3.0780102584
  O         9.6917020995        7.5175845687        3.1046687307
  O        13.3623196661        7.6702630843        3.0000165753
  O        17.2438627902        7.7764159706        3.0672240669
  O         7.6730117967       10.9269457466        3.0297303940
  O        11.4546132811       10.9331522549        3.0561613630
  O        15.2952928527       11.1272886919        3.1095248373
  O        19.1694720931       11.1581617405        3.0183558037
  O         3.7252531560        2.1818738251        4.6081133201
  O         7.7608623876        2.2606387505        4.4077569716
  O        11.7308037954        2.2303775415        4.6262038330
  O        15.3126645756        2.2351966759        4.5601779548
  O         5.6791909728        5.3766818632        4.8624865736
  O         9.0396781758        3.5495715016        6.2162951495
  O        13.6035579039        5.3655889647        4.8945425758
  O        17.4607818895        5.4176700328        4.7847418723
  O         7.6345585394        8.7850802852        4.4857857027
  O        11.6101611071        8.9534948298        4.6979886555
  O        15.3185637738        8.9313471529        4.6786462410
  O        19.0802912825        8.9549252176        4.7223034867
  O         9.7263681925       11.9414972846        4.6827743657
  O        13.3621896054       12.1942317390        4.7447619216
  O        17.2638802692       12.1621025818        4.8068938943
  O        20.9897713152       12.2132591766        4.6635875817
 Ce         1.9130484700        1.1039688700        0.7810650400
 Ce         5.7389923700        1.1039688700        0.7810650400
 Ce         9.5649362800        1.1039688700        0.7810650400
 Ce        13.3910332200        1.1039688700        0.7810650400
 Ce         3.8259439000        4.4169358500        0.7810650400
 Ce         7.6518878000        4.4169358500        0.7810650400
 Ce        11.4779847500        4.4169358500        0.7810650400
 Ce        15.3050000000        4.4169358500        0.7810650400
 Ce         5.7389923700        7.7309631800        0.7810650400
 Ce         9.5649362800        7.7309631800        0.7810650400
 Ce        13.3910332200        7.7309631800        0.7810650400
 Ce        17.2180484700        7.7309631800        0.7810650400
 Ce         7.6519643300       11.0440627000        0.7810650400
 Ce        11.4780612700       11.0440627000        0.7810650400
 Ce        15.3050765300       11.0440627000        0.7810650400
 Ce        19.1310204300       11.0440627000        0.7810650400
 Ce        17.2859022247        3.2520038506        3.9007671127
 Ce         5.7328410892        3.3273220622        3.8493762660
 Ce         9.6674164142        3.1603853704        4.0425889761
 Ce        13.4302767497        3.3633054120        3.9132168831
 Ce        19.2056937682        6.6469575777        3.9004411673
 Ce         7.6061837499        6.5346582677        3.9433878356
 Ce        11.6159722734        6.7411722995        3.9727425960
 Ce        15.4096666305        6.6758140989        3.7909841996
 Ce        21.0807600067        9.9529247823        3.9176841711
 Ce         9.6748959991        9.8275317407        3.9704422465
 Ce        13.4349576209       10.0658648149        3.9916480367
 Ce        17.2850890573       10.0723615690        3.8881730532
 Ce        15.1941185254       -0.0417289833        3.8842343586
 Ce         3.9319086651       -0.1109076217        3.8165544300
 Ce        15.3395019376       13.2211830308        3.9336974208
 Ce        19.2428884271       13.2299771678        3.9154258569
 Pt         9.4655766647        5.6875742919        6.2043282538
 Pt        14.1609269589        5.8505477386        6.8649751233
 Pt        11.6122468243        9.5348424681        6.7708577195
 Pt         9.6255773493        3.5237099856        8.1072483144
 Pt        11.6743791735        3.8028076201        9.7438776924
 Pt         7.3644392293        7.0199304691        7.1478707019
 Pt        11.8691624706        4.7901566324        7.1854534397
 Pt        14.0522766394        4.6859422959        9.1423666278
 Pt         7.6610124027        9.7424768079        6.3457481474
 Pt         9.7636215756        7.9801070400        7.2802456871
 Pt        12.1641478464        7.1671490069        8.0446216929
 Pt        14.8585907853        7.2225447474        8.7945106449
 Pt         9.7194784932       11.4601464295        6.7459378676
 Pt        12.0308693599       11.7055591115        8.0838320244
 Pt        13.3560540593        9.5259871607        9.0308587838
 Pt         9.1297035646        3.8935439918       10.6791684970
 Pt         6.1775218771        7.0830039138        9.4833854783
 Pt         8.1277590831        5.5728434254        9.1620461891
 Pt        11.1950773755        6.5298062793       10.3392554108
 Pt        13.1944464043        4.1698507215       11.7197401942
 Pt         7.7028264564        9.2284496490        9.0503097184
 Pt        10.9224531468        8.9275811794        9.5917546398
 Pt        13.9288099212        6.6006238537       11.0763850709
 Pt         7.3237894006       11.7766701880        8.0625016544
 Pt         9.7025696524       11.3519665478        9.4297248843
 Pt        12.7868084948        8.9179340673       11.7872941707
 Pt        15.1993106267        8.9111642045       10.7893595754
 Pt        12.0657017281       11.4277512681       10.5524617616
 Pt         6.0240383639        6.4237834211       12.1963168304
 Pt         8.4068833977        5.4619984146       12.7031279810
 Pt        10.8590648031        4.8178449248       12.3899361191
 Pt         6.7141196089        8.7845210747       11.4543559251
 Pt         8.8322838660        7.5209270576       10.7518412022
 Pt        10.1920086360        6.8821521637       13.9269010449
 Pt        12.9201898778        6.2647447079       13.3590217264
 Pt         7.5359963972       11.1422397735       10.8592213306
 Pt        10.1984896827        8.9330934144       12.3796357333
 Pt        12.0766420564        8.6161912651       14.4203447805
 Pt         9.7389479841       11.4767076056       12.1155176118
 Pt        11.9823153811       11.0439160029       13.3610852986
 Pt         7.6655463249        7.6182458997       13.7791207282
 Pt         7.5332276905       10.3189214631       13.3365201155
 Pt         9.3327497508        9.1932136310       14.8941998170
     139
 i =      306, time =      306.000, E =     -7434.6902880401
  O         3.8259439000        2.2079377400        0.0000000000
  O         7.6518878000        2.2079377400        0.0000000000
  O        11.4779847500        2.2079377400        0.0000000000
  O        15.3050000000        2.2079377400        0.0000000000
  O         5.7389923700        5.5219650800        0.0000000000
  O         9.5649362800        5.5219650800        0.0000000000
  O        13.3910332200        5.5219650800        0.0000000000
  O        17.2180484700        5.5219650800        0.0000000000
  O         7.6519643300        8.8350646000        0.0000000000
  O        11.4780612700        8.8350646000        0.0000000000
  O        15.3050765300        8.8350646000        0.0000000000
  O        19.1310204300        8.8350646000        0.0000000000
  O         9.5649362800       12.1489593900        0.0000000000
  O        13.3910332300       12.1489593900        0.0000000000
  O        17.2180484700       12.1489593900        0.0000000000
  O        21.0439923800       12.1489593900        0.0000000000
  O         1.9130484800        3.3129669800        1.5618832200
  O         5.7389923700        3.3129669800        1.5618832200
  O         9.5649362700        3.3129669800        1.5618832200
  O        13.3910332200        3.3129669800        1.5618832200
  O         3.8259439000        6.6259339500        1.5618832200
  O         7.6518878000        6.6259339500        1.5618832200
  O        11.4779847500        6.6259339500        1.5618832200
  O        15.3050000000        6.6259339500        1.5618832200
  O         5.7389923700        9.9399612900        1.5618832200
  O         9.5649362700        9.9399612900        1.5618832200
  O        13.3910332200        9.9399612900        1.5618832200
  O        17.2180484700        9.9399612900        1.5618832200
  O         7.6519643300       13.2530608100        1.5618832200
  O        11.4780612700       13.2530608100        1.5618832200
  O        15.3050765300       13.2530608100        1.5618832200
  O        19.1310204300       13.2530608100        1.5618832200
  O         1.8476783079        0.9560271552        3.0752556240
  O         5.6709205204        1.1324836342        3.1103439952
  O         9.5858738919        0.9458290302        3.2061671986
  O        13.3473273100        1.1885501592        3.0826412634
  O         3.8989953166        4.4734988338        3.0385890269
  O         7.8361942306        4.5298206026        3.1299855945
  O        11.5193994024        4.6674817557        3.1789571136
  O        15.3746275838        4.4548564676        3.1327799294
  O         5.5631746460        7.6466790849        3.0754513260
  O         9.7008084997        7.5122021919        3.1146720427
  O        13.3629360434        7.6643979856        3.0060512908
  O        17.2459471898        7.7663911566        3.0636902294
  O         7.6679990305       10.9320264228        3.0323801734
  O        11.4604480244       10.9356785757        3.0617790115
  O        15.2941329933       11.1194745658        3.1107588609
  O        19.1662291771       11.1529638896        3.0150849586
  O         3.7218293010        2.1835400426        4.5952034404
  O         7.7605767939        2.2551422145        4.4130448404
  O        11.7289484931        2.2377040048        4.6293499576
  O        15.3083846670        2.2286790081        4.5631076609
  O         5.6836971171        5.3695611567        4.8582484640
  O         9.0397112616        3.5449224849        6.2141393589
  O        13.6162511975        5.3642537877        4.8945279887
  O        17.4600696467        5.4117136930        4.7830799542
  O         7.6416500220        8.7898066326        4.4894755706
  O        11.6150885578        8.9538808227        4.7032514406
  O        15.3129273530        8.9291923918        4.6777621019
  O        19.0819279904        8.9569173742        4.7229981579
  O         9.7358924786       11.9429098740        4.6863868419
  O        13.3641140701       12.1867418598        4.7397088486
  O        17.2492953081       12.1602995339        4.8123093632
  O        20.9943850119       12.2127065613        4.6654366721
 Ce         1.9130484700        1.1039688700        0.7810650400
 Ce         5.7389923700        1.1039688700        0.7810650400
 Ce         9.5649362800        1.1039688700        0.7810650400
 Ce        13.3910332200        1.1039688700        0.7810650400
 Ce         3.8259439000        4.4169358500        0.7810650400
 Ce         7.6518878000        4.4169358500        0.7810650400
 Ce        11.4779847500        4.4169358500        0.7810650400
 Ce        15.3050000000        4.4169358500        0.7810650400
 Ce         5.7389923700        7.7309631800        0.7810650400
 Ce         9.5649362800        7.7309631800        0.7810650400
 Ce        13.3910332200        7.7309631800        0.7810650400
 Ce        17.2180484700        7.7309631800        0.7810650400
 Ce         7.6519643300       11.0440627000        0.7810650400
 Ce        11.4780612700       11.0440627000        0.7810650400
 Ce        15.3050765300       11.0440627000        0.7810650400
 Ce        19.1310204300       11.0440627000        0.7810650400
 Ce        17.2873922529        3.2529713236        3.8993324554
 Ce         5.7325996603        3.3285867239        3.8466074663
 Ce         9.6670722283        3.1585808036        4.0443185640
 Ce        13.4307126587        3.3615092188        3.9105553505
 Ce        19.2035926421        6.6462437446        3.9017443195
 Ce         7.6066802673        6.5389383455        3.9450676154
 Ce        11.6158231084        6.7431047908        3.9738946433
 Ce        15.4074198629        6.6731475300        3.7908109169
 Ce        21.0819179463        9.9515286538        3.9173924240
 Ce         9.6724608811        9.8307159501        3.9716781206
 Ce        13.4345528537       10.0657899206        3.9909551971
 Ce        17.2838862022       10.0719210849        3.8886998665
 Ce        15.1940046514       -0.0377137142        3.8836604317
 Ce         3.9338004211       -0.1091532330        3.8139972385
 Ce        15.3396228457       13.2218400463        3.9331178633
 Ce        19.2452677933       13.2304515073        3.9160650729
 Pt         9.4657417786        5.6878369426        6.2040451830
 Pt        14.1605498714        5.8495148919        6.8652938750
 Pt        11.6112765131        9.5339195263        6.7708599995
 Pt         9.6265448010        3.5247678440        8.1091688528
 Pt        11.6737595000        3.8024852066        9.7436046372
 Pt         7.3667981921        7.0171348459        7.1483104698
 Pt        11.8679303245        4.7913970996        7.1850866447
 Pt        14.0518215228        4.6871075470        9.1449635772
 Pt         7.6626375929        9.7436011479        6.3460194105
 Pt         9.7639963788        7.9786094302        7.2784299989
 Pt        12.1631317737        7.1659497708        8.0452394873
 Pt        14.8595380004        7.2234875204        8.7961502247
 Pt         9.7194906208       11.4617161543        6.7433445164
 Pt        12.0316614620       11.7042308995        8.0820443981
 Pt        13.3548791621        9.5262593289        9.0298541972
 Pt         9.1291418865        3.8933949570       10.6812051884
 Pt         6.1776556753        7.0811550082        9.4858374890
 Pt         8.1281245832        5.5727282907        9.1605799070
 Pt        11.1965269598        6.5328048396       10.3430533576
 Pt        13.1943868467        4.1689845720       11.7195747901
 Pt         7.7015599299        9.2311590908        9.0492001310
 Pt        10.9237156162        8.9263381755        9.5937087195
 Pt        13.9286703546        6.6028605359       11.0762720442
 Pt         7.3249895200       11.7788480640        8.0666366870
 Pt         9.7034192014       11.3508859707        9.4294033564
 Pt        12.7867471985        8.9154383262       11.7873008186
 Pt        15.1998958316        8.9122393000       10.7891996489
 Pt        12.0665732953       11.4255686370       10.5541361182
 Pt         6.0257657030        6.4248362815       12.1934666920
 Pt         8.4074057413        5.4634034711       12.7040376938
 Pt        10.8591643989        4.8176582526       12.3893315183
 Pt         6.7131141389        8.7880514965       11.4551819051
 Pt         8.8345139339        7.5201494633       10.7536402691
 Pt        10.1904315383        6.8785088883       13.9271826788
 Pt        12.9193359692        6.2664433644       13.3608312806
 Pt         7.5348579669       11.1451615892       10.8554304036
 Pt        10.1985199777        8.9324905342       12.3776970174
 Pt        12.0767006138        8.6156453709       14.4196470097
 Pt         9.7404382739       11.4761421327       12.1164850183
 Pt        11.9810523996       11.0431641291       13.3629028813
 Pt         7.6650678843        7.6167657780       13.7814739786
 Pt         7.5331987871       10.3203816621       13.3366865430
 Pt         9.3312754735        9.1936570437       14.8938408527
     139
 i =      307, time =      307.000, E =     -7434.6925854199
  O         3.8259439000        2.2079377400        0.0000000000
  O         7.6518878000        2.2079377400        0.0000000000
  O        11.4779847500        2.2079377400        0.0000000000
  O        15.3050000000        2.2079377400        0.0000000000
  O         5.7389923700        5.5219650800        0.0000000000
  O         9.5649362800        5.5219650800        0.0000000000
  O        13.3910332200        5.5219650800        0.0000000000
  O        17.2180484700        5.5219650800        0.0000000000
  O         7.6519643300        8.8350646000        0.0000000000
  O        11.4780612700        8.8350646000        0.0000000000
  O        15.3050765300        8.8350646000        0.0000000000
  O        19.1310204300        8.8350646000        0.0000000000
  O         9.5649362800       12.1489593900        0.0000000000
  O        13.3910332300       12.1489593900        0.0000000000
  O        17.2180484700       12.1489593900        0.0000000000
  O        21.0439923800       12.1489593900        0.0000000000
  O         1.9130484800        3.3129669800        1.5618832200
  O         5.7389923700        3.3129669800        1.5618832200
  O         9.5649362700        3.3129669800        1.5618832200
  O        13.3910332200        3.3129669800        1.5618832200
  O         3.8259439000        6.6259339500        1.5618832200
  O         7.6518878000        6.6259339500        1.5618832200
  O        11.4779847500        6.6259339500        1.5618832200
  O        15.3050000000        6.6259339500        1.5618832200
  O         5.7389923700        9.9399612900        1.5618832200
  O         9.5649362700        9.9399612900        1.5618832200
  O        13.3910332200        9.9399612900        1.5618832200
  O        17.2180484700        9.9399612900        1.5618832200
  O         7.6519643300       13.2530608100        1.5618832200
  O        11.4780612700       13.2530608100        1.5618832200
  O        15.3050765300       13.2530608100        1.5618832200
  O        19.1310204300       13.2530608100        1.5618832200
  O         1.8525923127        0.9549000211        3.0736142454
  O         5.6565790773        1.1275715603        3.1148570283
  O         9.5940504295        0.9504815317        3.2120995561
  O        13.3522856467        1.1920219472        3.0728793949
  O         3.9006307607        4.4780311759        3.0429590481
  O         7.8330564160        4.5286691117        3.1357145238
  O        11.5239188085        4.6567733100        3.1817002067
  O        15.3847965169        4.4421525200        3.1339481602
  O         5.5581253710        7.6426986210        3.0731690248
  O         9.7096108722        7.5071961056        3.1252678355
  O        13.3638575142        7.6586556117        3.0130290813
  O        17.2478955198        7.7562085246        3.0603767676
  O         7.6628393760       10.9377769661        3.0354927159
  O        11.4667827955       10.9385952253        3.0674742610
  O        15.2930534825       11.1116805645        3.1119782484
  O        19.1629405419       11.1473401459        3.0122692241
  O         3.7189388674        2.1851139165        4.5823755910
  O         7.7594142154        2.2490193313        4.4184834062
  O        11.7261677198        2.2449457789        4.6328764423
  O        15.3040896297        2.2216973214        4.5662961789
  O         5.6885754112        5.3626935895        4.8534660668
  O         9.0400448332        3.5407171795        6.2118306841
  O        13.6289964067        5.3638002847        4.8944706307
  O        17.4589341623        5.4060808653        4.7810374213
  O         7.6487063332        8.7942721647        4.4933481549
  O        11.6200633459        8.9538676053        4.7089307958
  O        15.3071865325        8.9269664295        4.6765498845
  O        19.0837947476        8.9590545564        4.7234689188
  O         9.7450718375       11.9447854256        4.6902258619
  O        13.3662984646       12.1791792313        4.7345527133
  O        17.2346177273       12.1582175843        4.8174693506
  O        20.9995231208       12.2119114728        4.6674205512
 Ce         1.9130484700        1.1039688700        0.7810650400
 Ce         5.7389923700        1.1039688700        0.7810650400
 Ce         9.5649362800        1.1039688700        0.7810650400
 Ce        13.3910332200        1.1039688700        0.7810650400
 Ce         3.8259439000        4.4169358500        0.7810650400
 Ce         7.6518878000        4.4169358500        0.7810650400
 Ce        11.4779847500        4.4169358500        0.7810650400
 Ce        15.3050000000        4.4169358500        0.7810650400
 Ce         5.7389923700        7.7309631800        0.7810650400
 Ce         9.5649362800        7.7309631800        0.7810650400
 Ce        13.3910332200        7.7309631800        0.7810650400
 Ce        17.2180484700        7.7309631800        0.7810650400
 Ce         7.6519643300       11.0440627000        0.7810650400
 Ce        11.4780612700       11.0440627000        0.7810650400
 Ce        15.3050765300       11.0440627000        0.7810650400
 Ce        19.1310204300       11.0440627000        0.7810650400
 Ce        17.2888438926        3.2539819956        3.8979104106
 Ce         5.7323493083        3.3298639778        3.8438805147
 Ce         9.6667215037        3.1567974537        4.0460269092
 Ce        13.4312078134        3.3596713993        3.9078746715
 Ce        19.2013546799        6.6454549189        3.9031134224
 Ce         7.6071514065        6.5432211117        3.9467344576
 Ce        11.6156516056        6.7449356236        3.9750089742
 Ce        15.4052194837        6.6704680464        3.7907120748
 Ce        21.0829898110        9.9501275638        3.9170658239
 Ce         9.6699368098        9.8339440029        3.9728353209
 Ce        13.4342430499       10.0656474393        3.9902116541
 Ce        17.2826676953       10.0714053958        3.8892667848
 Ce        15.1939943598       -0.0336252163        3.8830473548
 Ce         3.9355708700       -0.1072950319        3.8114857365
 Ce        15.3397811335       13.2225569115        3.9325164891
 Ce        19.2475360659       13.2309813202        3.9166742309
 Pt         9.4659064024        5.6880600398        6.2037460094
 Pt        14.1601882521        5.8484754705        6.8655114477
 Pt        11.6103839201        9.5330140560        6.7708519981
 Pt         9.6275254850        3.5258525158        8.1111012839
 Pt        11.6730556445        3.8022000410        9.7433171882
 Pt         7.3691440887        7.0143623900        7.1487488897
 Pt        11.8666327204        4.7925868335        7.1847551418
 Pt        14.0513514310        4.6882605929        9.1476032550
 Pt         7.6642606269        9.7447027837        6.3463197045
 Pt         9.7642957341        7.9770828276        7.2766232161
 Pt        12.1621333082        7.1647878327        8.0458159101
 Pt        14.8604870555        7.2244815905        8.7977906689
 Pt         9.7195044034       11.4632989012        6.7407782560
 Pt        12.0324349737       11.7029204223        8.0802284968
 Pt        13.3537428575        9.5265474513        9.0288376166
 Pt         9.1286045182        3.8932014533       10.6832638161
 Pt         6.1777532846        7.0793127482        9.4883334553
 Pt         8.1285287917        5.5725776881        9.1590615380
 Pt        11.1979863882        6.5357186636       10.3469024924
 Pt        13.1944255800        4.1681222792       11.7194127604
 Pt         7.7003285586        9.2338962015        9.0480137469
 Pt        10.9249052701        8.9251378113        9.5956716316
 Pt        13.9285235072        6.6050919768       11.0761854554
 Pt         7.3262405562       11.7809744537        8.0707939985
 Pt         9.7042543130       11.3498228287        9.4290163272
 Pt        12.7866783067        8.9129640548       11.7873254418
 Pt        15.2004791083        8.9133113674       10.7890441913
 Pt        12.0674460050       11.4233434545       10.5559159080
 Pt         6.0274744988        6.4258685734       12.1905884096
 Pt         8.4079198558        5.4647859865       12.7048773895
 Pt        10.8592582615        4.8175009505       12.3887140032
 Pt         6.7120583170        8.7915630832       11.4560241498
 Pt         8.8367766874        7.5193191455       10.7554364360
 Pt        10.1889003832        6.8748243364       13.9274698939
 Pt        12.9184243858        6.2681554911       13.3626667668
 Pt         7.5336928345       11.1481105623       10.8516098127
 Pt        10.1985537087        8.9319460345       12.3757607329
 Pt        12.0767729770        8.6150895313       14.4189336491
 Pt         9.7419447253       11.4755517196       12.1174730195
 Pt        11.9797892025       11.0424033726       13.3646760029
 Pt         7.6645456502        7.6153539954       13.7838437844
 Pt         7.5332001316       10.3218510908       13.3368674490
 Pt         9.3298459235        9.1941273574       14.8934958859
     139
 i =      308, time =      308.000, E =     -7434.6945150872
  O         3.8259439000        2.2079377400        0.0000000000
  O         7.6518878000        2.2079377400        0.0000000000
  O        11.4779847500        2.2079377400        0.0000000000
  O        15.3050000000        2.2079377400        0.0000000000
  O         5.7389923700        5.5219650800        0.0000000000
  O         9.5649362800        5.5219650800        0.0000000000
  O        13.3910332200        5.5219650800        0.0000000000
  O        17.2180484700        5.5219650800        0.0000000000
  O         7.6519643300        8.8350646000        0.0000000000
  O        11.4780612700        8.8350646000        0.0000000000
  O        15.3050765300        8.8350646000        0.0000000000
  O        19.1310204300        8.8350646000        0.0000000000
  O         9.5649362800       12.1489593900        0.0000000000
  O        13.3910332300       12.1489593900        0.0000000000
  O        17.2180484700       12.1489593900        0.0000000000
  O        21.0439923800       12.1489593900        0.0000000000
  O         1.9130484800        3.3129669800        1.5618832200
  O         5.7389923700        3.3129669800        1.5618832200
  O         9.5649362700        3.3129669800        1.5618832200
  O        13.3910332200        3.3129669800        1.5618832200
  O         3.8259439000        6.6259339500        1.5618832200
  O         7.6518878000        6.6259339500        1.5618832200
  O        11.4779847500        6.6259339500        1.5618832200
  O        15.3050000000        6.6259339500        1.5618832200
  O         5.7389923700        9.9399612900        1.5618832200
  O         9.5649362700        9.9399612900        1.5618832200
  O        13.3910332200        9.9399612900        1.5618832200
  O        17.2180484700        9.9399612900        1.5618832200
  O         7.6519643300       13.2530608100        1.5618832200
  O        11.4780612700       13.2530608100        1.5618832200
  O        15.3050765300       13.2530608100        1.5618832200
  O        19.1310204300       13.2530608100        1.5618832200
  O         1.8576608908        0.9537753353        3.0721003154
  O         5.6427594670        1.1223945850        3.1191986548
  O         9.6026031444        0.9556016140        3.2177049397
  O        13.3577148145        1.1945911555        3.0629851453
  O         3.9023615300        4.4822163116        3.0471983516
  O         7.8296410917        4.5275364037        3.1416428660
  O        11.5282309116        4.6455909271        3.1846652606
  O        15.3948418779        4.4298294127        3.1347343526
  O         5.5544247472        7.6392433597        3.0711861984
  O         9.7180376793        7.5025899678        3.1364391893
  O        13.3650820293        7.6530600058        3.0208569514
  O        17.2496923560        7.7458984012        3.0573026832
  O         7.6575776818       10.9441620239        3.0390486052
  O        11.4735572028       10.9418631032        3.0731995617
  O        15.2920746101       11.1039583845        3.1131543320
  O        19.1596142964       11.1413476807        3.0099649584
  O         3.7166042744        2.1865992166        4.5697281284
  O         7.7573706433        2.2422613610        4.4240615851
  O        11.7225024384        2.2520396684        4.6367808389
  O        15.2997965538        2.2142429714        4.5697512782
  O         5.6938254151        5.3560914834        4.8481746910
  O         9.0406793574        3.5369766844        6.2094030517
  O        13.6417882984        5.3641934231        4.8943629080
  O        17.4573774772        5.4007979102        4.7786376256
  O         7.6557102646        8.7984560549        4.4973691444
  O        11.6250150968        8.9534627151        4.7150119446
  O        15.3013868135        8.9246530868        4.6750139216
  O        19.0858844268        8.9613280645        4.7237162033
  O         9.7538608554       11.9471089439        4.6942885943
  O        13.3687625256       12.1715713709        4.7293379653
  O        17.2198738535       12.1558587212        4.8223419091
  O        21.0051113989       12.2109007011        4.6695089663
 Ce         1.9130484700        1.1039688700        0.7810650400
 Ce         5.7389923700        1.1039688700        0.7810650400
 Ce         9.5649362800        1.1039688700        0.7810650400
 Ce        13.3910332200        1.1039688700        0.7810650400
 Ce         3.8259439000        4.4169358500        0.7810650400
 Ce         7.6518878000        4.4169358500        0.7810650400
 Ce        11.4779847500        4.4169358500        0.7810650400
 Ce        15.3050000000        4.4169358500        0.7810650400
 Ce         5.7389923700        7.7309631800        0.7810650400
 Ce         9.5649362800        7.7309631800        0.7810650400
 Ce        13.3910332200        7.7309631800        0.7810650400
 Ce        17.2180484700        7.7309631800        0.7810650400
 Ce         7.6519643300       11.0440627000        0.7810650400
 Ce        11.4780612700       11.0440627000        0.7810650400
 Ce        15.3050765300       11.0440627000        0.7810650400
 Ce        19.1310204300       11.0440627000        0.7810650400
 Ce        17.2902545396        3.2550349656        3.8965013236
 Ce         5.7320912205        3.3311543830        3.8411986686
 Ce         9.6663649210        3.1550383140        4.0477150626
 Ce        13.4317622766        3.3577948156        3.9051773418
 Ce        19.1989794987        6.6445886055        3.9045477637
 Ce         7.6075973837        6.5474992480        3.9483889495
 Ce        11.6154603043        6.7466596033        3.9760896757
 Ce        15.4030668887        6.6677748356        3.7906890550
 Ce        21.0839746619        9.9487229798        3.9167052128
 Ce         9.6673338050        9.8372161809        3.9739160779
 Ce        13.4340293127       10.0654363343        3.9894192433
 Ce        17.2814305997       10.0708132996        3.8898736555
 Ce        15.1940905771       -0.0294628673        3.8823955532
 Ce         3.9372171579       -0.1053368849        3.8090231397
 Ce        15.3399751894       13.2233290285        3.9318966141
 Ce        19.2496948382       13.2315663146        3.9172519173
 Pt         9.4660707591        5.6882415721        6.2034306773
 Pt        14.1598425475        5.8474301298        6.8656297654
 Pt        11.6095695859        9.5321250023        6.7708354969
 Pt         9.6285176604        3.5269631839        8.1130419012
 Pt        11.6722684678        3.8019520157        9.7430169727
 Pt         7.3714759760        7.0116144214        7.1491869192
 Pt        11.8652700419        4.7937249892        7.1844580614
 Pt        14.0508657971        4.6894007689        9.1502836160
 Pt         7.6658807059        9.7457823516        6.3466516681
 Pt         9.7645203763        7.9755281869        7.2748259962
 Pt        12.1611537431        7.1636634935        8.0463513739
 Pt        14.8614375898        7.2255261069        8.7994293076
 Pt         9.7195199217       11.4648946136        6.7382417214
 Pt        12.0331881016       11.7016281998        8.0783871385
 Pt        13.3526462580        9.5268518502        9.0278087989
 Pt         9.1280904099        3.8929640430       10.6853430212
 Pt         6.1778152448        7.0774783023        9.4908729779
 Pt         8.1289727226        5.5723911602        9.1574922329
 Pt        11.1994567671        6.5385457802       10.3508034685
 Pt        13.1945636443        4.1672643057       11.7192545685
 Pt         7.6991315944        9.2366586805        9.0467521415
 Pt        10.9260193756        8.9239811570        9.5976438181
 Pt        13.9283690237        6.6073164301       11.0761266315
 Pt         7.3275435286       11.7830491697        8.0749732702
 Pt         9.7050761728       11.3487774234        9.4285631341
 Pt        12.7866018582        8.9105127086       11.7873688416
 Pt        15.2010605808        8.9143817883       10.7888930600
 Pt        12.0683199984       11.4210760700       10.5577980069
 Pt         6.0291655845        6.4268810049       12.1876821596
 Pt         8.4084245013        5.4661450039       12.7056461358
 Pt        10.8593460632        4.8173727767       12.3880830116
 Pt         6.7109546389        8.7950532175       11.4568810884
 Pt         8.8390695204        7.5184382900       10.7572269696
 Pt        10.1874157269        6.8711026006       13.9277642434
 Pt        12.9174553653        6.2698795742       13.3645276124
 Pt         7.5325012526       11.1510862577       10.8477620419
 Pt        10.1985913974        8.9314595408       12.3738291052
 Pt        12.0768579452        8.6145242450       14.4182061334
 Pt         9.7434648119       11.4749372788       12.1184809615
 Pt        11.9785259297       11.0416330526       13.3664045346
 Pt         7.6639786221        7.6140116842       13.7862294792
 Pt         7.5332334334       10.3233293256       13.3370616302
 Pt         9.3284617962        9.1946238287       14.8931633632
     139
 i =      309, time =      309.000, E =     -7434.6962880144
  O         3.8259439000        2.2079377400        0.0000000000
  O         7.6518878000        2.2079377400        0.0000000000
  O        11.4779847500        2.2079377400        0.0000000000
  O        15.3050000000        2.2079377400        0.0000000000
  O         5.7389923700        5.5219650800        0.0000000000
  O         9.5649362800        5.5219650800        0.0000000000
  O        13.3910332200        5.5219650800        0.0000000000
  O        17.2180484700        5.5219650800        0.0000000000
  O         7.6519643300        8.8350646000        0.0000000000
  O        11.4780612700        8.8350646000        0.0000000000
  O        15.3050765300        8.8350646000        0.0000000000
  O        19.1310204300        8.8350646000        0.0000000000
  O         9.5649362800       12.1489593900        0.0000000000
  O        13.3910332300       12.1489593900        0.0000000000
  O        17.2180484700       12.1489593900        0.0000000000
  O        21.0439923800       12.1489593900        0.0000000000
  O         1.9130484800        3.3129669800        1.5618832200
  O         5.7389923700        3.3129669800        1.5618832200
  O         9.5649362700        3.3129669800        1.5618832200
  O        13.3910332200        3.3129669800        1.5618832200
  O         3.8259439000        6.6259339500        1.5618832200
  O         7.6518878000        6.6259339500        1.5618832200
  O        11.4779847500        6.6259339500        1.5618832200
  O        15.3050000000        6.6259339500        1.5618832200
  O         5.7389923700        9.9399612900        1.5618832200
  O         9.5649362700        9.9399612900        1.5618832200
  O        13.3910332200        9.9399612900        1.5618832200
  O        17.2180484700        9.9399612900        1.5618832200
  O         7.6519643300       13.2530608100        1.5618832200
  O        11.4780612700       13.2530608100        1.5618832200
  O        15.3050765300       13.2530608100        1.5618832200
  O        19.1310204300       13.2530608100        1.5618832200
  O         1.8628459317        0.9526415468        3.0707081139
  O         5.6295788038        1.1170178753        3.1233335059
  O         9.6115087843        0.9611557669        3.2229535464
  O        13.3635402343        1.1962417772        3.0530327549
  O         3.9041858892        4.4860415361        3.0512760815
  O         7.8259566846        4.5264245221        3.1477334087
  O        11.5323257145        4.6340066703        3.1878397874
  O        15.4046871100        4.4179429458        3.1351202777
  O         5.5521018378        7.6363291738        3.0695228932
  O         9.7260097869        7.4984188967        3.1481471821
  O        13.3666094768        7.6476240003        3.0294255165
  O        17.2513295773        7.7354964728        3.0544827258
  O         7.6522609179       10.9511492318        3.0430282594
  O        11.4807010320       10.9454417445        3.0788955649
  O        15.2912219683       11.0963638628        3.1142573689
  O        19.1562648785       11.1350417626        3.0082202570
  O         3.7148433509        2.1880033388        4.5573100264
  O         7.7544484762        2.2348548875        4.4297735268
  O        11.7180105302        2.2589177248        4.6410589727
  O        15.2955245274        2.2063272118        4.5734794183
  O         5.6994361619        5.3497745994        4.8424025135
  O         9.0416189560        3.5337143577        6.2068945771
  O        13.6546116480        5.3654049922        4.8941972942
  O        17.4554021980        5.3958937301        4.7759035042
  O         7.6626387918        8.8023360701        4.5014959446
  O        11.6298764025        8.9526761718        4.7214637140
  O        15.2955716567        8.9222309261        4.6731626220
  O        19.0881895582        8.9637269524        4.7237407707
  O         9.7622130404       11.9498543895        4.6985674215
  O        13.3715299028       12.1639471063        4.7241128414
  O        17.2051343229       12.1532329810        4.8269056097
  O        21.0110616647       12.2097050953        4.6716708907
 Ce         1.9130484700        1.1039688700        0.7810650400
 Ce         5.7389923700        1.1039688700        0.7810650400
 Ce         9.5649362800        1.1039688700        0.7810650400
 Ce        13.3910332200        1.1039688700        0.7810650400
 Ce         3.8259439000        4.4169358500        0.7810650400
 Ce         7.6518878000        4.4169358500        0.7810650400
 Ce        11.4779847500        4.4169358500        0.7810650400
 Ce        15.3050000000        4.4169358500        0.7810650400
 Ce         5.7389923700        7.7309631800        0.7810650400
 Ce         9.5649362800        7.7309631800        0.7810650400
 Ce        13.3910332200        7.7309631800        0.7810650400
 Ce        17.2180484700        7.7309631800        0.7810650400
 Ce         7.6519643300       11.0440627000        0.7810650400
 Ce        11.4780612700       11.0440627000        0.7810650400
 Ce        15.3050765300       11.0440627000        0.7810650400
 Ce        19.1310204300       11.0440627000        0.7810650400
 Ce        17.2916222585        3.2561287934        3.8951055532
 Ce         5.7318267414        3.3324579260        3.8385652334
 Ce         9.6660028338        3.1533063633        4.0493836670
 Ce        13.4323756179        3.3558819416        3.9024661135
 Ce        19.1964679346        6.6436430673        3.9060461559
 Ce         7.6080182953        6.5517660030        3.9500318631
 Ce        11.6152520166        6.7482720383        3.9771414590
 Ce        15.4009635377        6.6650676213        3.7907431409
 Ce        21.0848718364        9.9473161772        3.9163116816
 Ce         9.6646616699        9.8405329917        3.9749231127
 Ce        13.4339124139       10.0651555649        3.9885798359
 Ce        17.2801719283       10.0701438740        3.8905203120
 Ce        15.1942962432       -0.0252268093        3.8817057027
 Ce         3.9387363230       -0.1032832168        3.8066131705
 Ce        15.3402029916       13.2241517530        3.9312616081
 Ce        19.2517460349       13.2322058246        3.9177968790
 Pt         9.4662351104        5.6883794166        6.2030991599
 Pt        14.1595136186        5.8463781120        6.8656505242
 Pt        11.6088335321        9.5312514967        6.7708130799
 Pt         9.6295195737        3.5280987721        8.1149874099
 Pt        11.6713994140        3.8017413257        9.7427056148
 Pt         7.3737929239        7.0088922417        7.1496249522
 Pt        11.8638433767        4.7948110053        7.1841940242
 Pt        14.0503630003        4.6905273108        9.1530031756
 Pt         7.6674969010        9.7468403856        6.3470175064
 Pt         9.7646718675        7.9739464916        7.2730394383
 Pt        12.1601925930        7.1625774782        8.0468475095
 Pt        14.8623887524        7.2266207559        8.8010637070
 Pt         9.7195371381       11.4665023080        6.7357378048
 Pt        12.0339197286       11.7003545281        8.0765233703
 Pt        13.3515911124        9.5271740335        9.0267678381
 Pt         9.1275994220        3.8926830930       10.6874409284
 Pt         6.1778413139        7.0756524835        9.4934554581
 Pt         8.1294571798        5.5721685832        9.1558730703
 Pt        11.2009390756        6.5412847377       10.3547567346
 Pt        13.1948018208        4.1664111411       11.7191002382
 Pt         7.6979679948        9.2394432904        9.0454179511
 Pt        10.9270548051        8.9228688985        9.5996256936
 Pt        13.9282062416        6.6095332573       11.0760974207
 Pt         7.3288982247       11.7850727219        8.0791746903
 Pt         9.7058883189       11.3477507731        9.4280435360
 Pt        12.7865186173        8.9080851008       11.7874316475
 Pt        15.2016395380        8.9154515084       10.7887461695
 Pt        12.0691956975       11.4187666179       10.5597799187
 Pt         6.0308388799        6.4278732926       12.1847483065
 Pt         8.4089185281        5.4674794575       12.7063429952
 Pt        10.8594281017        4.8172734459       12.3874375284
 Pt         6.7098055228        8.7985202556       11.4577505254
 Pt         8.8413888569        7.5175090841       10.7590080685
 Pt        10.1859775811        6.8673482960       13.9280669251
 Pt        12.9164288395        6.2716143326       13.3664126441
 Pt         7.5312824998       11.1540891992       10.8438888389
 Pt        10.1986338389        8.9310313387       12.3719068440
 Pt        12.0769546148        8.6139497954       14.4174655557
 Pt         9.7449964110       11.4742994518       12.1195079059
 Pt        11.9772627430       11.0408517119       13.3680874117
 Pt         7.6633669290        7.6127394935       13.7886314379
 Pt         7.5333005839       10.3248164295       13.3372678785
 Pt         9.3271247213        9.1951452443       14.8928409509
     139
 i =      310, time =      310.000, E =     -7434.6977665934
  O         3.8259439000        2.2079377400        0.0000000000
  O         7.6518878000        2.2079377400        0.0000000000
  O        11.4779847500        2.2079377400        0.0000000000
  O        15.3050000000        2.2079377400        0.0000000000
  O         5.7389923700        5.5219650800        0.0000000000
  O         9.5649362800        5.5219650800        0.0000000000
  O        13.3910332200        5.5219650800        0.0000000000
  O        17.2180484700        5.5219650800        0.0000000000
  O         7.6519643300        8.8350646000        0.0000000000
  O        11.4780612700        8.8350646000        0.0000000000
  O        15.3050765300        8.8350646000        0.0000000000
  O        19.1310204300        8.8350646000        0.0000000000
  O         9.5649362800       12.1489593900        0.0000000000
  O        13.3910332300       12.1489593900        0.0000000000
  O        17.2180484700       12.1489593900        0.0000000000
  O        21.0439923800       12.1489593900        0.0000000000
  O         1.9130484800        3.3129669800        1.5618832200
  O         5.7389923700        3.3129669800        1.5618832200
  O         9.5649362700        3.3129669800        1.5618832200
  O        13.3910332200        3.3129669800        1.5618832200
  O         3.8259439000        6.6259339500        1.5618832200
  O         7.6518878000        6.6259339500        1.5618832200
  O        11.4779847500        6.6259339500        1.5618832200
  O        15.3050000000        6.6259339500        1.5618832200
  O         5.7389923700        9.9399612900        1.5618832200
  O         9.5649362700        9.9399612900        1.5618832200
  O        13.3910332200        9.9399612900        1.5618832200
  O        17.2180484700        9.9399612900        1.5618832200
  O         7.6519643300       13.2530608100        1.5618832200
  O        11.4780612700       13.2530608100        1.5618832200
  O        15.3050765300       13.2530608100        1.5618832200
  O        19.1310204300       13.2530608100        1.5618832200
  O         1.8681113539        0.9514892433        3.0694289433
  O         5.6171266803        1.1114970496        3.1272239639
  O         9.6207532495        0.9671177330        3.2278136652
  O        13.3696890587        1.1969713847        3.0430683226
  O         3.9060994336        4.4894976155        3.0551652373
  O         7.8220143677        4.5253343367        3.1539353526
  O        11.5361813694        4.6220769128        3.1912119301
  O        15.4142801081        4.4065527143        3.1350897635
  O         5.5511718551        7.6339654640        3.0681979402
  O         9.7334553483        7.4947216021        3.1603050008
  O        13.3684381138        7.6423518586        3.0386280230
  O        17.2528069779        7.7250521248        3.0519277860
  O         7.6469312404       10.9587121775        3.0474124257
  O        11.4881413622       10.9492944998        3.0844915535
  O        15.2905266630       11.0889486887        3.1152560950
  O        19.1529122148       11.1284776424        3.0070741333
  O         3.7136709447        2.1893371736        4.5451286038
  O         7.7506531354        2.2267842713        4.4356127376
  O        11.7127635699        2.2655041447        4.6457013736
  O        15.2912886485        2.1979754452        4.5774824815
  O         5.7053833096        5.3437784522        4.8361693448
  O         9.0428719912        3.5309363703        6.2043374673
  O        13.6674515536        5.3674257781        4.8939657260
  O        17.4530148661        5.3913980262        4.7728548375
  O         7.6694609633        8.8058894918        4.5056864688
  O        11.6345813105        8.9515171804        4.7282484767
  O        15.2897817314        8.9196750363        4.6710071003
  O        19.0907036418        8.9662375989        4.7235449171
  O         9.7700890188       11.9529899577        4.7030484395
  O        13.3746252459       12.1563440415        4.7189238106
  O        17.1904782348       12.1503622914        4.8311492612
  O        21.0172751977       12.2083570314        4.6738787041
 Ce         1.9130484700        1.1039688700        0.7810650400
 Ce         5.7389923700        1.1039688700        0.7810650400
 Ce         9.5649362800        1.1039688700        0.7810650400
 Ce        13.3910332200        1.1039688700        0.7810650400
 Ce         3.8259439000        4.4169358500        0.7810650400
 Ce         7.6518878000        4.4169358500        0.7810650400
 Ce        11.4779847500        4.4169358500        0.7810650400
 Ce        15.3050000000        4.4169358500        0.7810650400
 Ce         5.7389923700        7.7309631800        0.7810650400
 Ce         9.5649362800        7.7309631800        0.7810650400
 Ce        13.3910332200        7.7309631800        0.7810650400
 Ce        17.2180484700        7.7309631800        0.7810650400
 Ce         7.6519643300       11.0440627000        0.7810650400
 Ce        11.4780612700       11.0440627000        0.7810650400
 Ce        15.3050765300       11.0440627000        0.7810650400
 Ce        19.1310204300       11.0440627000        0.7810650400
 Ce        17.2929456090        3.2572615322        3.8937235639
 Ce         5.7315573616        3.3337740841        3.8359834542
 Ce         9.6656350048        3.1516043816        4.0510333621
 Ce        13.4330470506        3.3539348732        3.8997440145
 Ce        19.1938216095        6.6426172049        3.9076069108
 Ce         7.6084141961        6.5560147288        3.9516641590
 Ce        11.6150299137        6.7497684167        3.9781694187
 Ce        15.3989110782        6.6623466472        3.7908757920
 Ce        21.0856809011        9.9459087150        3.9158865265
 Ce         9.6619300366        9.8438956771        3.9758596187
 Ce        13.4338931204       10.0648042239        3.9876955506
 Ce        17.2788887373       10.0693962585        3.8912066465
 Ce        15.1946144046       -0.0209180321        3.8809789620
 Ce         3.9401251014       -0.1011390309        3.8042601978
 Ce        15.3404621193       13.2250203783        3.9306149351
 Ce        19.2536921569       13.2328987443        3.9183080604
 Pt         9.4663999428        5.6884719152        6.2027515393
 Pt        14.1592029353        5.8453179775        6.8655759014
 Pt        11.6081750622        9.5303936399        6.7707868126
 Pt         9.6305286613        3.5292580780        8.1169355609
 Pt        11.6704500461        3.8015675559        9.7423834660
 Pt         7.3760933532        7.0061974717        7.1500632333
 Pt        11.8623529695        4.7958445203        7.1839608463
 Pt        14.0498423574        4.6916399935        9.1557612252
 Pt         7.6691086454        9.7478771036        6.3474199199
 Pt         9.7647509377        7.9723390103        7.2712641482
 Pt        12.1592487253        7.1615312653        8.0473071123
 Pt        14.8633393304        7.2277657618        8.8026922941
 Pt         9.7195568933       11.4681206282        6.7332691032
 Pt        12.0346288614       11.6990999737        8.0746400578
 Pt        13.3505795679        9.5275141037        9.0257157206
 Pt         9.1271316511        3.8923587583       10.6895557751
 Pt         6.1778322927        7.0738366648        9.4960797111
 Pt         8.1299827424        5.5719095101        9.1542065225
 Pt        11.2024341699        6.5439340582       10.3587628400
 Pt        13.1951393126        4.1655628490       11.7189502792
 Pt         7.6968368679        9.2422467699        9.0440129251
 Pt        10.9280101821        8.9218028346        9.6016154474
 Pt        13.9280341516        6.6117411549       11.0760980982
 Pt         7.3303035828       11.7870460459        8.0833980172
 Pt         9.7066933488       11.3467437241        9.4274584570
 Pt        12.7864296217        8.9056821782       11.7875139969
 Pt        15.2022159348        8.9165217903       10.7886033507
 Pt        12.0700726329       11.4164159494       10.5618596236
 Pt         6.0324939123        6.4288457180       12.1817873390
 Pt         8.4094003650        5.4687888263       12.7069664132
 Pt        10.8595055561        4.8172019817       12.3867779689
 Pt         6.7086138075        8.8019619639       11.4586304837
 Pt         8.8437308174        7.5165327850       10.7607770149
 Pt        10.1845862759        6.8635652813       13.9283783516
 Pt        12.9153451454        6.2733588478       13.3683202940
 Pt         7.5300372619       11.1571195667       10.8399916536
 Pt        10.1986821582        8.9306608955       12.3699972060
 Pt        12.0770621914        8.6133661009       14.4167119692
 Pt         9.7465376775       11.4736381581       12.1205524206
 Pt        11.9759998516       11.0400592329       13.3697242849
 Pt         7.6627109887        7.6115369721       13.7910500801
 Pt         7.5334022690       10.3263131223       13.3374848592
 Pt         9.3258358810        9.1956909997       14.8925279289
     139
 i =      311, time =      311.000, E =     -7434.6990593037
  O         3.8259439000        2.2079377400        0.0000000000
  O         7.6518878000        2.2079377400        0.0000000000
  O        11.4779847500        2.2079377400        0.0000000000
  O        15.3050000000        2.2079377400        0.0000000000
  O         5.7389923700        5.5219650800        0.0000000000
  O         9.5649362800        5.5219650800        0.0000000000
  O        13.3910332200        5.5219650800        0.0000000000
  O        17.2180484700        5.5219650800        0.0000000000
  O         7.6519643300        8.8350646000        0.0000000000
  O        11.4780612700        8.8350646000        0.0000000000
  O        15.3050765300        8.8350646000        0.0000000000
  O        19.1310204300        8.8350646000        0.0000000000
  O         9.5649362800       12.1489593900        0.0000000000
  O        13.3910332300       12.1489593900        0.0000000000
  O        17.2180484700       12.1489593900        0.0000000000
  O        21.0439923800       12.1489593900        0.0000000000
  O         1.9130484800        3.3129669800        1.5618832200
  O         5.7389923700        3.3129669800        1.5618832200
  O         9.5649362700        3.3129669800        1.5618832200
  O        13.3910332200        3.3129669800        1.5618832200
  O         3.8259439000        6.6259339500        1.5618832200
  O         7.6518878000        6.6259339500        1.5618832200
  O        11.4779847500        6.6259339500        1.5618832200
  O        15.3050000000        6.6259339500        1.5618832200
  O         5.7389923700        9.9399612900        1.5618832200
  O         9.5649362700        9.9399612900        1.5618832200
  O        13.3910332200        9.9399612900        1.5618832200
  O        17.2180484700        9.9399612900        1.5618832200
  O         7.6519643300       13.2530608100        1.5618832200
  O        11.4780612700       13.2530608100        1.5618832200
  O        15.3050765300       13.2530608100        1.5618832200
  O        19.1310204300       13.2530608100        1.5618832200
  O         1.8734216244        0.9503120780        3.0682522481
  O         5.6054921254        1.1058844654        3.1308287269
  O         9.6303212909        0.9734600034        3.2322559921
  O        13.3760892718        1.1967898528        3.0331327812
  O         3.9080935983        4.4925792766        3.0588412482
  O         7.8178292437        4.5242652667        3.1601879062
  O        11.5397759565        4.6098568508        3.1947704491
  O        15.4235827100        4.3957035523        3.1346291644
  O         5.5516366070        7.6321578736        3.0672286578
  O         9.7403220912        7.4915343458        3.1727959540
  O        13.3705631352        7.6372434730        3.0483805401
  O        17.2541290571        7.7146194300        3.0496473132
  O         7.6416209557       10.9668291570        3.0521845991
  O        11.4958107452       10.9533929357        3.0899124576
  O        15.2900232670       11.0817524284        3.1161184545
  O        19.1495803497       11.1217135427        3.0065567571
  O         3.7130981792        2.1906134381        4.5332006205
  O         7.7459911155        2.2180388312        4.4415643699
  O        11.7068394194        2.2717208100        4.6506905525
  O        15.2870933281        2.1892127510        4.5817553879
  O         5.7116282658        5.3381500660        4.8294871680
  O         9.0444493441        3.5286450898        6.2017580479
  O        13.6802971035        5.3702456109        4.8936568150
  O        17.4502254486        5.3873394992        4.7695084899
  O         7.6761430421        8.8090943954        4.5099007603
  O        11.6390734649        8.9499925672        4.7353180783
  O        15.2840567433        8.9169582149        4.6685626383
  O        19.0934198201        8.9688438105        4.7231331496
  O         9.7774661179       11.9564846432        4.7077152827
  O        13.3780676547       12.1488132662        4.7138121491
  O        17.1759398020       12.1472665931        4.8350658454
  O        21.0236554832       12.2068884364        4.6761097698
 Ce         1.9130484700        1.1039688700        0.7810650400
 Ce         5.7389923700        1.1039688700        0.7810650400
 Ce         9.5649362800        1.1039688700        0.7810650400
 Ce        13.3910332200        1.1039688700        0.7810650400
 Ce         3.8259439000        4.4169358500        0.7810650400
 Ce         7.6518878000        4.4169358500        0.7810650400
 Ce        11.4779847500        4.4169358500        0.7810650400
 Ce        15.3050000000        4.4169358500        0.7810650400
 Ce         5.7389923700        7.7309631800        0.7810650400
 Ce         9.5649362800        7.7309631800        0.7810650400
 Ce        13.3910332200        7.7309631800        0.7810650400
 Ce        17.2180484700        7.7309631800        0.7810650400
 Ce         7.6519643300       11.0440627000        0.7810650400
 Ce        11.4780612700       11.0440627000        0.7810650400
 Ce        15.3050765300       11.0440627000        0.7810650400
 Ce        19.1310204300       11.0440627000        0.7810650400
 Ce        17.2942236065        3.2584307700        3.8923558675
 Ce         5.7312847661        3.3351017732        3.8334565959
 Ce         9.6652604412        3.1499347580        4.0526653467
 Ce        13.4337757055        3.3519555819        3.8970144572
 Ce        19.1910432219        6.6415104445        3.9092277651
 Ce         7.6087848805        6.5602391674        3.9532869945
 Ce        11.6147974722        6.7511444536        3.9791784302
 Ce        15.3969111835        6.6596121891        3.7910885229
 Ce        21.0864017494        9.9445022081        3.9154311584
 Ce         9.6591481851        9.8473059868        3.9767287332
 Ce        13.4339722906       10.0643815895        3.9867684909
 Ce        17.2775780271       10.0685700593        3.8919325173
 Ce        15.1950481121       -0.0165381080        3.8802168068
 Ce         3.9413800500       -0.0989096760        3.8019689304
 Ce        15.3407499988       13.2259302795        3.9299601441
 Ce        19.2555358619       13.2336437276        3.9187847142
 Pt         9.4665656352        5.6885168962        6.2023879581
 Pt        14.1589114894        5.8442491575        6.8654088859
 Pt        11.6075930476        9.5295526095        6.7707575638
 Pt         9.6315425260        3.5304411791        8.1188843564
 Pt        11.6694215726        3.8014305862        9.7420505416
 Pt         7.3783751113        7.0035325090        7.1505017037
 Pt        11.8607989238        4.7968253717        7.1837575238
 Pt        14.0493043674        4.6927397009        9.1585571641
 Pt         7.6707155312        9.7488934430        6.3478611432
 Pt         9.7647585826        7.9707071870        7.2695008578
 Pt        12.1583211411        7.1605264984        8.0477326151
 Pt        14.8642881060        7.2289605301        8.8043135446
 Pt         9.7195802915       11.4697486764        6.7308379741
 Pt        12.0353149857       11.6978649043        8.0727392513
 Pt        13.3496130182        9.5278705971        9.0246536671
 Pt         9.1266868951        3.8919909751       10.6916862098
 Pt         6.1777893998        7.0720325022        9.4987450618
 Pt         8.1305499962        5.5716120140        9.1524956249
 Pt        11.2039429738        6.5464921939       10.3628214618
 Pt        13.1955745621        4.1647202598       11.7188049721
 Pt         7.6957372969        9.2450659685        9.0425384377
 Pt        10.9288853214        8.9207839786        9.6036099736
 Pt        13.9278519984        6.6139375918       11.0761287456
 Pt         7.3317585192       11.7889695907        8.0876420331
 Pt         9.7074925109       11.3457568218        9.4268094995
 Pt        12.7863358493        8.9033049955       11.7876152024
 Pt        15.2027907104        8.9175937856       10.7884646837
 Pt        12.0709498278       11.4140256609       10.5640354836
 Pt         6.0341303420        6.4297989238       12.1788000831
 Pt         8.4098688102        5.4700724780       12.7075148496
 Pt        10.8595802328        4.8171573061       12.3861057138
 Pt         6.7073820547        8.8053765825       11.4595194289
 Pt         8.8460918165        7.5155106008       10.7625319128
 Pt        10.1832426833        6.8597575987       13.9286993011
 Pt        12.9142048933        6.2751121685       13.3702484320
 Pt         7.5287674345       11.1601776412       10.8360723172
 Pt        10.1987370116        8.9303469683       12.3681017839
 Pt        12.0771795759        8.6127724244       14.4159454835
 Pt         9.7480870157       11.4729527021       12.1216131429
 Pt        11.9747373972       11.0392561749       13.3713154346
 Pt         7.6620110072        7.6104032560       13.7934854147
 Pt         7.5335385883       10.3278196906       13.3377111394
 Pt         9.3245949532        9.1962608178       14.8922252039
     139
 i =      312, time =      312.000, E =     -7434.7003204885
  O         3.8259439000        2.2079377400        0.0000000000
  O         7.6518878000        2.2079377400        0.0000000000
  O        11.4779847500        2.2079377400        0.0000000000
  O        15.3050000000        2.2079377400        0.0000000000
  O         5.7389923700        5.5219650800        0.0000000000
  O         9.5649362800        5.5219650800        0.0000000000
  O        13.3910332200        5.5219650800        0.0000000000
  O        17.2180484700        5.5219650800        0.0000000000
  O         7.6519643300        8.8350646000        0.0000000000
  O        11.4780612700        8.8350646000        0.0000000000
  O        15.3050765300        8.8350646000        0.0000000000
  O        19.1310204300        8.8350646000        0.0000000000
  O         9.5649362800       12.1489593900        0.0000000000
  O        13.3910332300       12.1489593900        0.0000000000
  O        17.2180484700       12.1489593900        0.0000000000
  O        21.0439923800       12.1489593900        0.0000000000
  O         1.9130484800        3.3129669800        1.5618832200
  O         5.7389923700        3.3129669800        1.5618832200
  O         9.5649362700        3.3129669800        1.5618832200
  O        13.3910332200        3.3129669800        1.5618832200
  O         3.8259439000        6.6259339500        1.5618832200
  O         7.6518878000        6.6259339500        1.5618832200
  O        11.4779847500        6.6259339500        1.5618832200
  O        15.3050000000        6.6259339500        1.5618832200
  O         5.7389923700        9.9399612900        1.5618832200
  O         9.5649362700        9.9399612900        1.5618832200
  O        13.3910332200        9.9399612900        1.5618832200
  O        17.2180484700        9.9399612900        1.5618832200
  O         7.6519643300       13.2530608100        1.5618832200
  O        11.4780612700       13.2530608100        1.5618832200
  O        15.3050765300       13.2530608100        1.5618832200
  O        19.1310204300       13.2530608100        1.5618832200
  O         1.8787399794        0.9491087087        3.0671660964
  O         5.5947952935        1.1002470804        3.1341026018
  O         9.6401766179        0.9801389664        3.2362556428
  O        13.3826681783        1.1957182655        3.0232948072
  O         3.9101554310        4.4952851671        3.0622802888
  O         7.8134209078        4.5232160034        3.1664286066
  O        11.5430996886        4.5974178773        3.1985033384
  O        15.4325343130        4.3854265880        3.1337280608
  O         5.5534861083        7.6309085229        3.0666315567
  O         9.7465721911        7.4888864259        3.1855296030
  O        13.3729770475        7.6322952221        3.0586267165
  O        17.2553008003        7.7042407154        3.0476490055
  O         7.6363538797       10.9754739635        3.0573292133
  O        11.5036473617       10.9577156193        3.0950840717
  O        15.2897490137       11.0748026776        3.1168112890
  O        19.1462936062       11.1148139647        3.0066895910
  O         3.7131325479        2.1918470271        4.5215873186
  O         7.7404725413        2.2086231434        4.4476022305
  O        11.7003140482        2.2774964635        4.6559989944
  O        15.2829302406        2.1800536547        4.5862857331
  O         5.7181275837        5.3329410131        4.8223657511
  O         9.0463505096        3.5268457872        6.1991698578
  O        13.6931284915        5.3738263685        4.8932500123
  O        17.4470483496        5.3837445712        4.7658783234
  O         7.6826531793        8.8119320046        4.5140990417
  O        11.6433083424        8.9481065988        4.7426203520
  O        15.2784392319        8.9140538536        4.6658479565
  O        19.0963319224        8.9715272843        4.7225110026
  O         9.7843375737       11.9603121767        4.7125458996
  O        13.3818660434       12.1414185261        4.7088087678
  O        17.1615234651       12.1439629735        4.8386515207
  O        21.0301146713       12.2053300241        4.6783438000
 Ce         1.9130484700        1.1039688700        0.7810650400
 Ce         5.7389923700        1.1039688700        0.7810650400
 Ce         9.5649362800        1.1039688700        0.7810650400
 Ce        13.3910332200        1.1039688700        0.7810650400
 Ce         3.8259439000        4.4169358500        0.7810650400
 Ce         7.6518878000        4.4169358500        0.7810650400
 Ce        11.4779847500        4.4169358500        0.7810650400
 Ce        15.3050000000        4.4169358500        0.7810650400
 Ce         5.7389923700        7.7309631800        0.7810650400
 Ce         9.5649362800        7.7309631800        0.7810650400
 Ce        13.3910332200        7.7309631800        0.7810650400
 Ce        17.2180484700        7.7309631800        0.7810650400
 Ce         7.6519643300       11.0440627000        0.7810650400
 Ce        11.4780612700       11.0440627000        0.7810650400
 Ce        15.3050765300       11.0440627000        0.7810650400
 Ce        19.1310204300       11.0440627000        0.7810650400
 Ce        17.2954559650        3.2596337377        3.8910029817
 Ce         5.7310109369        3.3364395395        3.8309878831
 Ce         9.6648773857        3.1482998314        4.0542811088
 Ce        13.4345603652        3.3499457086        3.8942807306
 Ce        19.1881364962        6.6403228639        3.9109059780
 Ce         7.6091299563        6.5644333653        3.9549017438
 Ce        11.6145580285        6.7523967133        3.9801734983
 Ce        15.3949656373        6.6568651444        3.7913827971
 Ce        21.0870342879        9.9430982980        3.9149473087
 Ce         9.6563253901        9.8507658714        3.9775338118
 Ce        13.4341504594       10.0638870086        3.9858010830
 Ce        17.2762368224       10.0676649246        3.8926977907
 Ce        15.1956002669       -0.0120894512        3.8794209447
 Ce         3.9424978827       -0.0966010827        3.7997444157
 Ce        15.3410635271       13.2268768274        3.9293007872
 Ce        19.2572800716       13.2344389848        3.9192262302
 Pt         9.4667324436        5.6885122385        6.2020086435
 Pt        14.1586392897        5.8431726303        6.8651532916
 Pt        11.6070868045        9.5287293540        6.7707259091
 Pt         9.6325598762        3.5316482561        8.1208311237
 Pt        11.6683150534        3.8013309167        9.7417077769
 Pt         7.3806362183        7.0008996590        7.1509405694
 Pt        11.8591815074        4.7977534456        7.1835841403
 Pt        14.0487494236        4.6938277059        9.1613895189
 Pt         7.6723170623        9.7498903636        6.3483428792
 Pt         9.7646960645        7.9690523942        7.2677503864
 Pt        12.1574100825        7.1595646756        8.0481246618
 Pt        14.8652348774        7.2302038454        8.8059255514
 Pt         9.7196079902       11.4713864460        6.7284466819
 Pt        12.0359776546       11.6966485736        8.0708229928
 Pt        13.3486915854        9.5282423244        9.0235825579
 Pt         9.1262638984        3.8915806561       10.6938316714
 Pt         6.1777149823        7.0702417515        9.5014510770
 Pt         8.1311596638        5.5712743091        9.1507431932
 Pt        11.2054666122        6.5489572272       10.3669317301
 Pt        13.1961066139        4.1638846141       11.7186648314
 Pt         7.6946683583        9.2478978218        9.0409957956
 Pt        10.9296802008        8.9198123805        9.6056061450
 Pt        13.9276591241        6.6161199308       11.0761907787
 Pt         7.3332624783       11.7908431321        8.0919047841
 Pt         9.7082865452       11.3447903513        9.4260980967
 Pt        12.7862379041        8.9009547727       11.7877344197
 Pt        15.2033640913        8.9186680368       10.7883305059
 Pt        12.0718266406       11.4115969046       10.5663051174
 Pt         6.0357479511        6.4307330927       12.1757874368
 Pt         8.4103236194        5.4713296754       12.7079873452
 Pt        10.8596534713        4.8171390848       12.3854220257
 Pt         6.7061118011        8.8087627216       11.4604156080
 Pt         8.8484680980        7.5144431681       10.7642713832
 Pt        10.1819483668        6.8559294951       13.9290307619
 Pt        12.9130085191        6.2768736112       13.3721950640
 Pt         7.5274754588       11.1632637186       10.8321329246
 Pt        10.1987987188        8.9300880643       12.3662223749
 Pt        12.0773053835        8.6121674446       14.4151665977
 Pt         9.7496426363       11.4722430479       12.1226890306
 Pt        11.9734758490       11.0384425566       13.3728616151
 Pt         7.6612667871        7.6093377064       13.7959367791
 Pt         7.5337089180       10.3293362918       13.3379459401
 Pt         9.3234021044        9.1968541959       14.8919336981
     139
 i =      313, time =      313.000, E =     -7434.7011622797
  O         3.8259439000        2.2079377400        0.0000000000
  O         7.6518878000        2.2079377400        0.0000000000
  O        11.4779847500        2.2079377400        0.0000000000
  O        15.3050000000        2.2079377400        0.0000000000
  O         5.7389923700        5.5219650800        0.0000000000
  O         9.5649362800        5.5219650800        0.0000000000
  O        13.3910332200        5.5219650800        0.0000000000
  O        17.2180484700        5.5219650800        0.0000000000
  O         7.6519643300        8.8350646000        0.0000000000
  O        11.4780612700        8.8350646000        0.0000000000
  O        15.3050765300        8.8350646000        0.0000000000
  O        19.1310204300        8.8350646000        0.0000000000
  O         9.5649362800       12.1489593900        0.0000000000
  O        13.3910332300       12.1489593900        0.0000000000
  O        17.2180484700       12.1489593900        0.0000000000
  O        21.0439923800       12.1489593900        0.0000000000
  O         1.9130484800        3.3129669800        1.5618832200
  O         5.7389923700        3.3129669800        1.5618832200
  O         9.5649362700        3.3129669800        1.5618832200
  O        13.3910332200        3.3129669800        1.5618832200
  O         3.8259439000        6.6259339500        1.5618832200
  O         7.6518878000        6.6259339500        1.5618832200
  O        11.4779847500        6.6259339500        1.5618832200
  O        15.3050000000        6.6259339500        1.5618832200
  O         5.7389923700        9.9399612900        1.5618832200
  O         9.5649362700        9.9399612900        1.5618832200
  O        13.3910332200        9.9399612900        1.5618832200
  O        17.2180484700        9.9399612900        1.5618832200
  O         7.6519643300       13.2530608100        1.5618832200
  O        11.4780612700       13.2530608100        1.5618832200
  O        15.3050765300       13.2530608100        1.5618832200
  O        19.1310204300       13.2530608100        1.5618832200
  O         1.8840286864        0.9478817732        3.0661593780
  O         5.5851739178        1.0946609332        3.1369970513
  O         9.6502571752        0.9870882437        3.2397965618
  O        13.3893542582        1.1937826785        3.0136591535
  O         3.9122683169        4.4976174544        3.0654585047
  O         7.8088135567        4.5221862522        3.1726030512
  O        11.5461568768        4.5848398845        3.2023947474
  O        15.4410558076        4.3757422181        3.1323784262
  O         5.5567009247        7.6302159054        3.0664233937
  O         9.7521705790        7.4868042914        3.1984685489
  O        13.3756687588        7.6275053088        3.0693180279
  O        17.2563277401        7.6939434532        3.0459392225
  O         7.6311555390       10.9846040255        3.0628298163
  O        11.5115867943       10.9622420337        3.0999413202
  O        15.2897399771       11.0681187460        3.1173013290
  O        19.1430727926       11.1078488155        3.0074854905
  O         3.7137777465        2.1930526562        4.5103770478
  O         7.7341186680        2.1985638681        4.4536889917
  O        11.6932557226        2.2827721359        4.6615887960
  O        15.2787856852        2.1705010929        4.5910535651
  O         5.7248434008        5.3281992782        4.8148224779
  O         9.0485684712        3.5255501058        6.1965844621
  O        13.7059136991        5.3781033351        4.8927178120
  O        17.4435036343        5.3806366757        4.7619758743
  O         7.6889669606        8.8143941515        4.5182427419
  O        11.6472493271        8.9458659623        4.7501037508
  O        15.2729766746        8.9109414693        4.6628856684
  O        19.0994342972        8.9742675866        4.7216856404
  O         9.7907018374       11.9644465830        4.7175197433
  O        13.3860166174       12.1342273069        4.7039344183
  O        17.1472603645       12.1404750682        4.8419030763
  O        21.0365778044       12.2037106421        4.6805625059
 Ce         1.9130484700        1.1039688700        0.7810650400
 Ce         5.7389923700        1.1039688700        0.7810650400
 Ce         9.5649362800        1.1039688700        0.7810650400
 Ce        13.3910332200        1.1039688700        0.7810650400
 Ce         3.8259439000        4.4169358500        0.7810650400
 Ce         7.6518878000        4.4169358500        0.7810650400
 Ce        11.4779847500        4.4169358500        0.7810650400
 Ce        15.3050000000        4.4169358500        0.7810650400
 Ce         5.7389923700        7.7309631800        0.7810650400
 Ce         9.5649362800        7.7309631800        0.7810650400
 Ce        13.3910332200        7.7309631800        0.7810650400
 Ce        17.2180484700        7.7309631800        0.7810650400
 Ce         7.6519643300       11.0440627000        0.7810650400
 Ce        11.4780612700       11.0440627000        0.7810650400
 Ce        15.3050765300       11.0440627000        0.7810650400
 Ce        19.1310204300       11.0440627000        0.7810650400
 Ce        17.2966427678        3.2608676009        3.8896653662
 Ce         5.7307381596        3.3377854273        3.8285803641
 Ce         9.6644839733        3.1467020145        4.0558823478
 Ce        13.4353993744        3.3479069981        3.8915463592
 Ce        19.1851058102        6.6390551050        3.9126382492
 Ce         7.6094489420        6.5685912797        3.9565094688
 Ce        11.6143152808        6.7535217279        3.9811600299
 Ce        15.3930759864        6.6541065105        3.7917602706
 Ce        21.0875782854        9.9416988270        3.9144368773
 Ce         9.6534708459        9.8542769093        3.9782779482
 Ce        13.4344283124       10.0633195618        3.9847957671
 Ce        17.2748621411       10.0666807079        3.8935023341
 Ce        15.1962730940       -0.0075748684        3.8785930827
 Ce         3.9434759370       -0.0942191001        3.7975914850
 Ce        15.3413995745       13.2278555202        3.9286403574
 Ce        19.2589277513       13.2352826480        3.9196322148
 Pt         9.4669009537        5.6884558489        6.2016134834
 Pt        14.1583865244        5.8420901464        6.8648135690
 Pt        11.6066564291        9.5279238388        6.7706927309
 Pt         9.6335797761        3.5328784794        8.1227728866
 Pt        11.6671317897        3.8012691598        9.7413569172
 Pt         7.3828744899        6.9983005445        7.1513798314
 Pt        11.8575009434        4.7986282460        7.1834405507
 Pt        14.0481772300        4.6949050196        9.1642560733
 Pt         7.6739127455        9.7508688087        6.3488672106
 Pt         9.7645641050        7.9673759504        7.2660138162
 Pt        12.1565171759        7.1586463757        8.0484820029
 Pt        14.8661798069        7.2314940401        8.8075261791
 Pt         9.7196399043       11.4730342842        6.7260977349
 Pt        12.0366160968       11.6954503764        8.0688939655
 Pt        13.3478152982        9.5286289708        9.0225023018
 Pt         9.1258612203        3.8911291477       10.6959915144
 Pt         6.1776111429        7.0684661140        9.5041969480
 Pt         8.1318127884        5.5708956263        9.1489513679
 Pt        11.2070059800        6.5513272482       10.3710931231
 Pt        13.1967349920        4.1630569327       11.7185307351
 Pt         7.6936295076        9.2507404303        9.0393862932
 Pt        10.9303942722        8.9188887550        9.6076020551
 Pt        13.9274551828        6.6182862200       11.0762866714
 Pt         7.3348162845       11.7926657588        8.0961842371
 Pt         9.7090758721       11.3438442776        9.4253247347
 Pt        12.7861360001        8.8986335086       11.7878716054
 Pt        15.2039356240        8.9197445175       10.7882011436
 Pt        12.0727024448       11.4091302516       10.5686657374
 Pt         6.0373462726        6.4316481467       12.1727501563
 Pt         8.4107643316        5.4725588861       12.7083835891
 Pt        10.8597265539        4.8171468761       12.3847273195
 Pt         6.7048045694        8.8121196730       11.4613175767
 Pt         8.8508553161        7.5133308743       10.7659944484
 Pt        10.1807051470        6.8520845774       13.9293739806
 Pt        12.9117567500        6.2786421628       13.3741587028
 Pt         7.5261634947       11.1663765934       10.8281767170
 Pt        10.1988672066        8.9298833022       12.3643612372
 Pt        12.0774385658        8.6115506957       14.4143760115
 Pt         9.7512019926       11.4715095211       12.1237789730
 Pt        11.9722157354       11.0376178047       13.3743637317
 Pt         7.6604778733        7.6083412333       13.7984030964
 Pt         7.5339127308       10.3308630625       13.3381884018
 Pt         9.3222584302        9.1974707425       14.8916524591
     139
 i =      314, time =      314.000, E =     -7434.7017187811
  O         3.8259439000        2.2079377400        0.0000000000
  O         7.6518878000        2.2079377400        0.0000000000
  O        11.4779847500        2.2079377400        0.0000000000
  O        15.3050000000        2.2079377400        0.0000000000
  O         5.7389923700        5.5219650800        0.0000000000
  O         9.5649362800        5.5219650800        0.0000000000
  O        13.3910332200        5.5219650800        0.0000000000
  O        17.2180484700        5.5219650800        0.0000000000
  O         7.6519643300        8.8350646000        0.0000000000
  O        11.4780612700        8.8350646000        0.0000000000
  O        15.3050765300        8.8350646000        0.0000000000
  O        19.1310204300        8.8350646000        0.0000000000
  O         9.5649362800       12.1489593900        0.0000000000
  O        13.3910332300       12.1489593900        0.0000000000
  O        17.2180484700       12.1489593900        0.0000000000
  O        21.0439923800       12.1489593900        0.0000000000
  O         1.9130484800        3.3129669800        1.5618832200
  O         5.7389923700        3.3129669800        1.5618832200
  O         9.5649362700        3.3129669800        1.5618832200
  O        13.3910332200        3.3129669800        1.5618832200
  O         3.8259439000        6.6259339500        1.5618832200
  O         7.6518878000        6.6259339500        1.5618832200
  O        11.4779847500        6.6259339500        1.5618832200
  O        15.3050000000        6.6259339500        1.5618832200
  O         5.7389923700        9.9399612900        1.5618832200
  O         9.5649362700        9.9399612900        1.5618832200
  O        13.3910332200        9.9399612900        1.5618832200
  O        17.2180484700        9.9399612900        1.5618832200
  O         7.6519643300       13.2530608100        1.5618832200
  O        11.4780612700       13.2530608100        1.5618832200
  O        15.3050765300       13.2530608100        1.5618832200
  O        19.1310204300       13.2530608100        1.5618832200
  O         1.8892501337        0.9466395665        3.0652211241
  O         5.5767465530        1.0891920107        3.1394592779
  O         9.6605082262        0.9942414122        3.2428738710
  O        13.3960791677        1.1910123212        3.0043477542
  O         3.9144117960        4.4995812098        3.0683520492
  O         7.8040363805        4.5211744473        3.1786700379
  O        11.5489593248        4.5721842352        3.2064232585
  O        15.4490778859        4.3666637401        3.1305751017
  O         5.5612519406        7.6300734958        3.0666204399
  O         9.7570798719        7.4853130962        3.2115889926
  O        13.3786244145        7.6228760205        3.0803821294
  O        17.2572141265        7.6837528363        3.0445237034
  O         7.6260626789       10.9941561120        3.0686633391
  O        11.5195548429       10.9669454892        3.1044306567
  O        15.2900293325       11.0617181262        3.1175554397
  O        19.1399311914       11.1008895078        3.0089479618
  O         3.7150338568        2.1942456230        4.4996380969
  O         7.7269750351        2.1879057812        4.4597777063
  O        11.6857312555        2.2875007912        4.6674148849
  O        15.2746482565        2.1605636056        4.5960324753
  O         5.7317476074        5.3239632097        4.8068928638
  O         9.0510947548        3.5247718053        6.1940174984
  O        13.7186294254        5.3830086935        4.8920307801
  O        17.4396140663        5.3780363076        4.7578121549
  O         7.6950666477        8.8164825184        4.5222882932
  O        11.6508674827        8.9432790291        4.7577237014
  O        15.2677231447        8.9076069072        4.6597031525
  O        19.1027184337        8.9770410622        4.7206658924
  O         9.7965549967       11.9688586378        4.7226121234
  O        13.3905086050       12.1273005669        4.6992028973
  O        17.1332214467       12.1368291030        4.8448179497
  O        21.0429803122       12.2020584455        4.6827503471
 Ce         1.9130484700        1.1039688700        0.7810650400
 Ce         5.7389923700        1.1039688700        0.7810650400
 Ce         9.5649362800        1.1039688700        0.7810650400
 Ce        13.3910332200        1.1039688700        0.7810650400
 Ce         3.8259439000        4.4169358500        0.7810650400
 Ce         7.6518878000        4.4169358500        0.7810650400
 Ce        11.4779847500        4.4169358500        0.7810650400
 Ce        15.3050000000        4.4169358500        0.7810650400
 Ce         5.7389923700        7.7309631800        0.7810650400
 Ce         9.5649362800        7.7309631800        0.7810650400
 Ce        13.3910332200        7.7309631800        0.7810650400
 Ce        17.2180484700        7.7309631800        0.7810650400
 Ce         7.6519643300       11.0440627000        0.7810650400
 Ce        11.4780612700       11.0440627000        0.7810650400
 Ce        15.3050765300       11.0440627000        0.7810650400
 Ce        19.1310204300       11.0440627000        0.7810650400
 Ce        17.2977845374        3.2621292977        3.8883434399
 Ce         5.7304689172        3.3391371117        3.8262368977
 Ce         9.6640784748        3.1451438222        4.0574706491
 Ce        13.4362903922        3.3458409846        3.8888150142
 Ce        19.1819564801        6.6377085197        3.9144207147
 Ce         7.6097412952        6.5727072123        3.9581111792
 Ce        11.6140728795        6.7545162868        3.9821437740
 Ce        15.3912437275        6.6513375635        3.7922223174
 Ce        21.0880336406        9.9403057652        3.9139018018
 Ce         9.6505933478        9.8578401630        3.9789640650
 Ce        13.4348062294       10.0626780541        3.9837548979
 Ce        17.2734512317       10.0656175363        3.8943459420
 Ce        15.1970681583       -0.0029979610        3.8777350796
 Ce         3.9443120935       -0.0917696179        3.7955148231
 Ce        15.3417549726       13.2288618207        3.9279821679
 Ce        19.2604820872       13.2361725990        3.9200025714
 Pt         9.4670720912        5.6883459794        6.2012021066
 Pt        14.1581534775        5.8410033491        6.8643942660
 Pt        11.6063025931        9.5271356948        6.7706599833
 Pt         9.6346011257        3.5341306903        8.1247074997
 Pt        11.6658734734        3.8012460329        9.7410001645
 Pt         7.3850876795        6.9957359664        7.1518191587
 Pt        11.8557579096        4.7994494445        7.1833265919
 Pt        14.0475870217        4.6959720653        9.1671546902
 Pt         7.6755021390        9.7518293157        6.3494362551
 Pt         9.7643631854        7.9656791081        7.2642923775
 Pt        12.1556441083        7.1577709176        8.0488029153
 Pt        14.8671226236        7.2328295029        8.8091131122
 Pt         9.7196757981       11.4746924608        6.7237936247
 Pt        12.0372301142       11.6942702478        8.0669548179
 Pt        13.3469846247        9.5290299758        9.0214119649
 Pt         9.1254779193        3.8906378373       10.6981647126
 Pt         6.1774794595        7.0667065902        9.5069816515
 Pt         8.1325101681        5.5704759727        9.1471215999
 Pt        11.2085618848        6.5536004741       10.3753049751
 Pt        13.1974591452        4.1622380633       11.7184029929
 Pt         7.6926206756        9.2535924952        9.0377111257
 Pt        10.9310268040        8.9180143599        9.6095975919
 Pt        13.9272400909        6.6204347759       11.0764190109
 Pt         7.3364208889       11.7944374390        8.1004788095
 Pt         9.7098607794       11.3429181636        9.4244888256
 Pt        12.7860298592        8.8963435923       11.7880278216
 Pt        15.2045047636        8.9208234117       10.7880766116
 Pt        12.0735766823       11.4066260807       10.5711146960
 Pt         6.0389255616        6.4325440326       12.1696889174
 Pt         8.4111898317        5.4737582746       12.7087032012
 Pt        10.8598002560        4.8171803843       12.3840211314
 Pt         6.7034619765        8.8154464165       11.4622245169
 Pt         8.8532489182        7.5121742842       10.7676999557
 Pt        10.1795145292        6.8482261787       13.9297300740
 Pt        12.9104506250        6.2804165138       13.3761382906
 Pt         7.5248325809       11.1695141825       10.8242084300
 Pt        10.1989422618        8.9297320834       12.3625213674
 Pt        12.0775780121        8.6109227371       14.4135742122
 Pt         9.7527622409       11.4707529016       12.1248818785
 Pt        11.9709580944       11.0367812163       13.3758226140
 Pt         7.6596438074        7.6074157963       13.8008828762
 Pt         7.5341498331       10.3324001830       13.3384375181
 Pt         9.3211654626        9.1981094369       14.8913792442
     139
 i =      315, time =      315.000, E =     -7434.7020093840
  O         3.8259439000        2.2079377400        0.0000000000
  O         7.6518878000        2.2079377400        0.0000000000
  O        11.4779847500        2.2079377400        0.0000000000
  O        15.3050000000        2.2079377400        0.0000000000
  O         5.7389923700        5.5219650800        0.0000000000
  O         9.5649362800        5.5219650800        0.0000000000
  O        13.3910332200        5.5219650800        0.0000000000
  O        17.2180484700        5.5219650800        0.0000000000
  O         7.6519643300        8.8350646000        0.0000000000
  O        11.4780612700        8.8350646000        0.0000000000
  O        15.3050765300        8.8350646000        0.0000000000
  O        19.1310204300        8.8350646000        0.0000000000
  O         9.5649362800       12.1489593900        0.0000000000
  O        13.3910332300       12.1489593900        0.0000000000
  O        17.2180484700       12.1489593900        0.0000000000
  O        21.0439923800       12.1489593900        0.0000000000
  O         1.9130484800        3.3129669800        1.5618832200
  O         5.7389923700        3.3129669800        1.5618832200
  O         9.5649362700        3.3129669800        1.5618832200
  O        13.3910332200        3.3129669800        1.5618832200
  O         3.8259439000        6.6259339500        1.5618832200
  O         7.6518878000        6.6259339500        1.5618832200
  O        11.4779847500        6.6259339500        1.5618832200
  O        15.3050000000        6.6259339500        1.5618832200
  O         5.7389923700        9.9399612900        1.5618832200
  O         9.5649362700        9.9399612900        1.5618832200
  O        13.3910332200        9.9399612900        1.5618832200
  O        17.2180484700        9.9399612900        1.5618832200
  O         7.6519643300       13.2530608100        1.5618832200
  O        11.4780612700       13.2530608100        1.5618832200
  O        15.3050765300       13.2530608100        1.5618832200
  O        19.1310204300       13.2530608100        1.5618832200
  O         1.8943672506        0.9453971375        3.0643399067
  O         5.5696013505        1.0838900774        3.1414353716
  O         9.6709022631        1.0015489492        3.2454855181
  O        13.4027799702        1.1874369142        2.9954698406
  O         3.9165616683        4.5011844708        3.0709366348
  O         7.7991242326        4.5201763322        3.1846017733
  O        11.5515151123        4.5594903300        3.2105628821
  O        15.4565520314        4.3582036994        3.1283158393
  O         5.5671009110        7.6304687649        3.0672377930
  O         9.7612627403        7.4844350156        3.2248245701
  O        13.3818276240        7.6184127818        3.0917052205
  O        17.2579628343        7.6737090050        3.0434079652
  O         7.6211234824       11.0040562655        3.0747940634
  O        11.5274685504       10.9717869173        3.1085092203
  O        15.2906466820       11.0556207861        3.1175404269
  O        19.1368750777       11.0940033680        3.0110710483
  O         3.7168966475        2.1954435073        4.4893952781
  O         7.7191050920        2.1766818656        4.4658174634
  O        11.6778151184        2.2916410116        4.6734317680
  O        15.2705147286        2.1502735809        4.6011918268
  O         5.7388180375        5.3202627787        4.7986343770
  O         9.0539242532        3.5245197843        6.1914811309
  O        13.7312696805        5.3884884716        4.8911629435
  O        17.4354030698        5.3759616215        4.7533992146
  O         7.7009377008        8.8182014032        4.5261875542
  O        11.6541412529        8.9403539255        4.7654459066
  O        15.2627388816        8.9040425090        4.6563314966
  O        19.1061727367        8.9798209035        4.7194618307
  O         9.8018857252       11.9735131010        4.7277858737
  O        13.3953323693       12.1206858889        4.6946229248
  O        17.1194712418       12.1330356845        4.8473925902
  O        21.0492636661       12.2004020542        4.6848957098
 Ce         1.9130484700        1.1039688700        0.7810650400
 Ce         5.7389923700        1.1039688700        0.7810650400
 Ce         9.5649362800        1.1039688700        0.7810650400
 Ce        13.3910332200        1.1039688700        0.7810650400
 Ce         3.8259439000        4.4169358500        0.7810650400
 Ce         7.6518878000        4.4169358500        0.7810650400
 Ce        11.4779847500        4.4169358500        0.7810650400
 Ce        15.3050000000        4.4169358500        0.7810650400
 Ce         5.7389923700        7.7309631800        0.7810650400
 Ce         9.5649362800        7.7309631800        0.7810650400
 Ce        13.3910332200        7.7309631800        0.7810650400
 Ce        17.2180484700        7.7309631800        0.7810650400
 Ce         7.6519643300       11.0440627000        0.7810650400
 Ce        11.4780612700       11.0440627000        0.7810650400
 Ce        15.3050765300       11.0440627000        0.7810650400
 Ce        19.1310204300       11.0440627000        0.7810650400
 Ce        17.2988824590        3.2634153017        3.8870375520
 Ce         5.7302059549        3.3404918963        3.8239602439
 Ce         9.6636583456        3.1436275325        4.0590476228
 Ce        13.4372307937        3.3437486386        3.8860903076
 Ce        19.1786948517        6.6362849977        3.9162490282
 Ce         7.6100063385        6.5767760935        3.9597079924
 Ce        11.6138341582        6.7553779273        3.9831305084
 Ce        15.3894707411        6.6485601406        3.7927697055
 Ce        21.0884007240        9.9389209823        3.9133441636
 Ce         9.6477009776        9.8614568276        3.9795956883
 Ce        13.4352840976       10.0619614484        3.9826809001
 Ce        17.2720014941       10.0644758361        3.8952283970
 Ce        15.1979870416        0.0016366554        3.8768490548
 Ce         3.9450043912       -0.0892588417        3.7935192435
 Ce        15.3421262187       13.2298912775        3.9273293965
 Ce        19.2619463481       13.2371063862        3.9203374012
 Pt         9.4672464933        5.6881808767        6.2007742127
 Pt        14.1579409638        5.8399134599        6.8638993559
 Pt        11.6060248721        9.5263648151        6.7706298196
 Pt         9.6356224622        3.5354048790        8.1266337013
 Pt        11.6645412851        3.8012616045        9.7406396476
 Pt         7.3872736816        6.9932070323        7.1522585632
 Pt        11.8539539919        4.8002175140        7.1832423097
 Pt        14.0469795074        4.6970295808        9.1700843751
 Pt         7.6770849763        9.7527725406        6.3500517794
 Pt         9.7640940639        7.9639635401        7.2625873565
 Pt        12.1547906001        7.1569372434        8.0490871649
 Pt        14.8680618138        7.2342084088        8.8106842076
 Pt         9.7197160821       11.4763608630        6.7215374817
 Pt        12.0378197179       11.6931094222        8.0650074830
 Pt        13.3462012832        9.5294444153        9.0203117782
 Pt         9.1251131909        3.8901071584       10.7003504649
 Pt         6.1773213439        7.0649635801        9.5098040520
 Pt         8.1332521605        5.5700151295        9.1452549629
 Pt        11.2101354746        6.5557758661       10.3795657029
 Pt        13.1982786216        4.1614298211       11.7182805378
 Pt         7.6916418439        9.2564517047        9.0359716987
 Pt        10.9315764760        8.9171904287        9.6115933925
 Pt        13.9270143574        6.6225639672       11.0765896862
 Pt         7.3380768206       11.7961582491        8.1047873075
 Pt         9.7106425869       11.3420119800        9.4235896313
 Pt        12.7859194240        8.8940862506       11.7882036292
 Pt        15.2050706034        8.9219048728       10.7879565956
 Pt        12.0744490041       11.4040841933       10.5736490719
 Pt         6.0404859309        6.4334206132       12.1666043663
 Pt         8.4115987304        5.4749254099       12.7089451223
 Pt        10.8598751758        4.8172391683       12.3833036063
 Pt         6.7020861573        8.8187419833       11.4631352514
 Pt         8.8556446930        7.5109739248       10.7693859874
 Pt        10.1783775108        6.8443581306       13.9300997572
 Pt        12.9090907991        6.2821953276       13.3781325265
 Pt         7.5234825457       11.1726755152       10.8202329438
 Pt        10.1990242132        8.9296341910       12.3607063202
 Pt        12.0777227230        8.6102837116       14.4127611113
 Pt         9.7543209155       11.4699738747       12.1259965442
 Pt        11.9697041322       11.0359328735       13.3772385729
 Pt         7.6587640250        7.6065628934       13.8033749404
 Pt         7.5344204184       10.3339483278       13.3386922419
 Pt         9.3201239366        9.1987690861       14.8911131148
     139
 i =      316, time =      316.000, E =     -7434.7020617338
  O         3.8259439000        2.2079377400        0.0000000000
  O         7.6518878000        2.2079377400        0.0000000000
  O        11.4779847500        2.2079377400        0.0000000000
  O        15.3050000000        2.2079377400        0.0000000000
  O         5.7389923700        5.5219650800        0.0000000000
  O         9.5649362800        5.5219650800        0.0000000000
  O        13.3910332200        5.5219650800        0.0000000000
  O        17.2180484700        5.5219650800        0.0000000000
  O         7.6519643300        8.8350646000        0.0000000000
  O        11.4780612700        8.8350646000        0.0000000000
  O        15.3050765300        8.8350646000        0.0000000000
  O        19.1310204300        8.8350646000        0.0000000000
  O         9.5649362800       12.1489593900        0.0000000000
  O        13.3910332300       12.1489593900        0.0000000000
  O        17.2180484700       12.1489593900        0.0000000000
  O        21.0439923800       12.1489593900        0.0000000000
  O         1.9130484800        3.3129669800        1.5618832200
  O         5.7389923700        3.3129669800        1.5618832200
  O         9.5649362700        3.3129669800        1.5618832200
  O        13.3910332200        3.3129669800        1.5618832200
  O         3.8259439000        6.6259339500        1.5618832200
  O         7.6518878000        6.6259339500        1.5618832200
  O        11.4779847500        6.6259339500        1.5618832200
  O        15.3050000000        6.6259339500        1.5618832200
  O         5.7389923700        9.9399612900        1.5618832200
  O         9.5649362700        9.9399612900        1.5618832200
  O        13.3910332200        9.9399612900        1.5618832200
  O        17.2180484700        9.9399612900        1.5618832200
  O         7.6519643300       13.2530608100        1.5618832200
  O        11.4780612700       13.2530608100        1.5618832200
  O        15.3050765300       13.2530608100        1.5618832200
  O        19.1310204300       13.2530608100        1.5618832200
  O         1.8993458301        0.9441741915        3.0635040876
  O         5.5638087180        1.0787952361        3.1428732238
  O         9.6814219543        1.0089729694        3.2476314572
  O        13.4094001310        1.1830878708        2.9871026012
  O         3.9186911289        4.5024377241        3.0731889935
  O         7.7941159203        4.5191816797        3.1903804673
  O        11.5538245983        4.5467998848        3.2147812892
  O        15.4634354334        4.3503766507        3.1255990005
  O         5.5742000256        7.6313821556        3.0682885259
  O         9.7646837679        7.4841892923        3.2380569102
  O        13.3852546476        7.6141275614        3.1031489849
  O        17.2585805238        7.6638723163        3.0425954534
  O         7.6163894250       11.0142405092        3.0811690194
  O        11.5352450077       10.9767177322        3.1121446066
  O        15.2916157214       11.0498509268        3.1172233448
  O        19.1339081780       11.0872487792        3.0138389884
  O         3.7193589807        2.1966649021        4.4796455002
  O         7.7105616926        2.1649026517        4.4717643639
  O        11.6695942558        2.2951510303        4.6795976246
  O        15.2663943922        2.1397021577        4.6064971140
  O         5.7460293559        5.3171265052        4.7901208942
  O         9.0570533245        3.5247935923        6.1889899926
  O        13.7438246005        5.3944930858        4.8900985134
  O        17.4308949791        5.3744264493        4.7487519799
  O         7.7065657504        8.8195604123        4.5298886470
  O        11.6570525855        8.9370996072        4.7732459655
  O        15.2580836623        8.9002506533        4.6528012427
  O        19.1097830897        8.9825773676        4.7180842794
  O         9.8066743400       11.9783714415        4.7329909664
  O        13.4004839664       12.1144177466        4.6902010412
  O        17.1060384886       12.1290931830        4.8496237988
  O        21.0553705105       12.1987704929        4.6869901404
 Ce         1.9130484700        1.1039688700        0.7810650400
 Ce         5.7389923700        1.1039688700        0.7810650400
 Ce         9.5649362800        1.1039688700        0.7810650400
 Ce        13.3910332200        1.1039688700        0.7810650400
 Ce         3.8259439000        4.4169358500        0.7810650400
 Ce         7.6518878000        4.4169358500        0.7810650400
 Ce        11.4779847500        4.4169358500        0.7810650400
 Ce        15.3050000000        4.4169358500        0.7810650400
 Ce         5.7389923700        7.7309631800        0.7810650400
 Ce         9.5649362800        7.7309631800        0.7810650400
 Ce        13.3910332200        7.7309631800        0.7810650400
 Ce        17.2180484700        7.7309631800        0.7810650400
 Ce         7.6519643300       11.0440627000        0.7810650400
 Ce        11.4780612700       11.0440627000        0.7810650400
 Ce        15.3050765300       11.0440627000        0.7810650400
 Ce        19.1310204300       11.0440627000        0.7810650400
 Ce        17.2999380707        3.2647219053        3.8857480563
 Ce         5.7299522209        3.3418467169        3.8217529261
 Ce         9.6632208906        3.1421553325        4.0606148403
 Ce        13.4382175510        3.3416305733        3.8833762017
 Ce        19.1753279148        6.6347869402        3.9181184986
 Ce         7.6102435617        6.5807932982        3.9613010227
 Ce        11.6136024031        6.7561046552        3.9841261907
 Ce        15.3877590801        6.6457766055        3.7934032136
 Ce        21.0886801739        9.9375462992        3.9127660816
 Ce         9.6448011514        9.8651279806        3.9801766562
 Ce        13.4358616799       10.0611686719        3.9815762134
 Ce        17.2705104029       10.0632561922        3.8961495120
 Ce        15.1990311085        0.0063235395        3.8759374793
 Ce         3.9455512247       -0.0866930131        3.7916095112
 Ce        15.3425096195       13.2309394057        3.9266849971
 Ce        19.2633239591       13.2380813623        3.9206371887
 Pt         9.4674249330        5.6879589475        6.2003294763
 Pt        14.1577496636        5.8388201675        6.8633323018
 Pt        11.6058218836        9.5256108849        6.7706045165
 Pt         9.6366421395        3.5367013107        8.1285507605
 Pt        11.6631364792        3.8013155005        9.7402767258
 Pt         7.3894303556        6.9907150347        7.1526982133
 Pt        11.8520908093        4.8009328522        7.1831867586
 Pt        14.0463555058        4.6980780184        9.1730444018
 Pt         7.6786609460        9.7536990326        6.3507155611
 Pt         9.7637579823        7.9622315792        7.2608996627
 Pt        12.1539551422        7.1561452634        8.0493368767
 Pt        14.8689958079        7.2356298562        8.8122377076
 Pt         9.7197616181       11.4780389834        6.7193323296
 Pt        12.0383848248       11.6919697858        8.0630536098
 Pt        13.3454676237        9.5298716824        9.0192027625
 Pt         9.1247663535        3.8895372265       10.7025477970
 Pt         6.1771379698        7.0632378894        9.5126629620
 Pt         8.1340389462        5.5695124448        9.1433532697
 Pt        11.2117277582        6.5578527394       10.3838741086
 Pt        13.1991928741        4.1606332383       11.7181621792
 Pt         7.6906924744        9.2593142373        9.0341701887
 Pt        10.9320420955        8.9164184255        9.6135887662
 Pt        13.9267782389        6.6246716732       11.0767984737
 Pt         7.3397837938       11.7978290887        8.1091091192
 Pt         9.7114223777       11.3411262274        9.4226277487
 Pt        12.7858050757        8.8918620034       11.7883988517
 Pt        15.2056328796        8.9229898244       10.7878407823
 Pt        12.0753188930       11.4015047097       10.5762664454
 Pt         6.0420276953        6.4342781515       12.1634974889
 Pt         8.4119895491        5.4760594769       12.7091077557
 Pt        10.8599518273        4.8173222988       12.3825756138
 Pt         6.7006801701        8.8220048167       11.4640487793
 Pt         8.8580391043        7.5097304091       10.7710503405
 Pt        10.1772941298        6.8404844709       13.9304833725
 Pt        12.9076774171        6.2839775078       13.3801404380
 Pt         7.5221142660       11.1758606986       10.8162536949
 Pt        10.1991138624        8.9295894862       12.3589188840
 Pt        12.0778717094        8.6096335285       14.4119371548
 Pt         9.7558759749       11.4691725416       12.1271216108
 Pt        11.9684543992       11.0350733072       13.3786117140
 Pt         7.6578384076        7.6057823393       13.8058782549
 Pt         7.5347250478       10.3355077428       13.3389509306
 Pt         9.3191338481        9.1994490294       14.8908540699
     139
 i =      317, time =      317.000, E =     -7434.7016776469
  O         3.8259439000        2.2079377400        0.0000000000
  O         7.6518878000        2.2079377400        0.0000000000
  O        11.4779847500        2.2079377400        0.0000000000
  O        15.3050000000        2.2079377400        0.0000000000
  O         5.7389923700        5.5219650800        0.0000000000
  O         9.5649362800        5.5219650800        0.0000000000
  O        13.3910332200        5.5219650800        0.0000000000
  O        17.2180484700        5.5219650800        0.0000000000
  O         7.6519643300        8.8350646000        0.0000000000
  O        11.4780612700        8.8350646000        0.0000000000
  O        15.3050765300        8.8350646000        0.0000000000
  O        19.1310204300        8.8350646000        0.0000000000
  O         9.5649362800       12.1489593900        0.0000000000
  O        13.3910332300       12.1489593900        0.0000000000
  O        17.2180484700       12.1489593900        0.0000000000
  O        21.0439923800       12.1489593900        0.0000000000
  O         1.9130484800        3.3129669800        1.5618832200
  O         5.7389923700        3.3129669800        1.5618832200
  O         9.5649362700        3.3129669800        1.5618832200
  O        13.3910332200        3.3129669800        1.5618832200
  O         3.8259439000        6.6259339500        1.5618832200
  O         7.6518878000        6.6259339500        1.5618832200
  O        11.4779847500        6.6259339500        1.5618832200
  O        15.3050000000        6.6259339500        1.5618832200
  O         5.7389923700        9.9399612900        1.5618832200
  O         9.5649362700        9.9399612900        1.5618832200
  O        13.3910332200        9.9399612900        1.5618832200
  O        17.2180484700        9.9399612900        1.5618832200
  O         7.6519643300       13.2530608100        1.5618832200
  O        11.4780612700       13.2530608100        1.5618832200
  O        15.3050765300       13.2530608100        1.5618832200
  O        19.1310204300       13.2530608100        1.5618832200
  O         1.9041557832        0.9429923372        3.0627028268
  O         5.5594325268        1.0739437879        3.1437242135
  O         9.6920320596        1.0164720281        3.2493134018
  O        13.4158867779        1.1780017412        2.9792944243
  O         3.9207719092        4.5033537395        3.0750883272
  O         7.7890516981        4.5181809173        3.1959940193
  O        11.5558817180        4.5341843206        3.2190423583
  O        15.4696756902        4.3431987806        3.1224236815
  O         5.5824914834        7.6327847108        3.0697852733
  O         9.7673032901        7.4845913774        3.2511812921
  O        13.3888684236        7.6100410851        3.1146019375
  O        17.2590809201        7.6543081886        3.0420882848
  O         7.6119027891       11.0246642333        3.0877218842
  O        11.5428123047       10.9816875711        3.1153134772
  O        15.2929523330       11.0444344849        3.1165717719
  O        19.1310360574       11.0806732530        3.0172258492
  O         3.7224112079        2.1979294597        4.4703902439
  O         7.7013785401        2.1525785837        4.4775874950
  O        11.6611653864        2.2979890036        4.6858809451
  O        15.2623006433        2.1289356937        4.6119262787
  O         5.7533517493        5.3145904661        4.7814264921
  O         9.0604745575        3.5255962474        6.1865653156
  O        13.7562447097        5.4009514650        4.8888246287
  O        17.4261153619        5.3734388865        4.7438910608
  O         7.7119350350        8.8205749711        4.5333464202
  O        11.6595818237        8.9335298012        4.7811028184
  O        15.2538091886        8.8962405106        4.6491378611
  O        19.1135349382        8.9852774905        4.7165451214
  O         9.8108952821       11.9833991250        4.7381732275
  O        13.4059646901       12.1085220383        4.6859431788
  O        17.0929426067       12.1250089213        4.8515083686
  O        21.0612428775       12.1971930316        4.6890293671
 Ce         1.9130484700        1.1039688700        0.7810650400
 Ce         5.7389923700        1.1039688700        0.7810650400
 Ce         9.5649362800        1.1039688700        0.7810650400
 Ce        13.3910332200        1.1039688700        0.7810650400
 Ce         3.8259439000        4.4169358500        0.7810650400
 Ce         7.6518878000        4.4169358500        0.7810650400
 Ce        11.4779847500        4.4169358500        0.7810650400
 Ce        15.3050000000        4.4169358500        0.7810650400
 Ce         5.7389923700        7.7309631800        0.7810650400
 Ce         9.5649362800        7.7309631800        0.7810650400
 Ce        13.3910332200        7.7309631800        0.7810650400
 Ce        17.2180484700        7.7309631800        0.7810650400
 Ce         7.6519643300       11.0440627000        0.7810650400
 Ce        11.4780612700       11.0440627000        0.7810650400
 Ce        15.3050765300       11.0440627000        0.7810650400
 Ce        19.1310204300       11.0440627000        0.7810650400
 Ce        17.3009532184        3.2660453505        3.8844751841
 Ce         5.7297107361        3.3431979392        3.8196170655
 Ce         9.6627638954        3.1407293245        4.0621738641
 Ce        13.4392470162        3.3394871804        3.8806769449
 Ce        19.1718629363        6.6332171746        3.9200239696
 Ce         7.6104527413        6.5847539830        3.9628905307
 Ce        11.6133808157        6.7566944044        3.9851366388
 Ce        15.3861108035        6.6429897877        3.7941239003
 Ce        21.0888724760        9.9361838979        3.9121694944
 Ce         9.6419007874        9.8688545920        3.9807100537
 Ce        13.4365391006       10.0602988319        3.9804433193
 Ce        17.2689754597       10.0619594754        3.8971091083
 Ce        15.2002012980        0.0110566524        3.8750028180
 Ce         3.9459517690       -0.0840779547        3.7897901947
 Ce        15.3429015217       13.2320016466        3.9260516645
 Ce        19.2646182385       13.2390949364        3.9209027181
 Pt         9.4676079516        5.6876788416        6.1998678533
 Pt        14.1575799252        5.8377226484        6.8626967367
 Pt        11.6056927885        9.5248735101        6.7705857334
 Pt         9.6376586935        3.5380192797        8.1304567867
 Pt        11.6616608030        3.8014079224        9.7399125928
 Pt         7.3915559565        6.9882619516        7.1531387953
 Pt        11.8501692264        4.8015950468        7.1831585007
 Pt        14.0457139337        4.6991176680        9.1760325878
 Pt         7.6802294304        9.7546089320        6.3514292400
 Pt         9.7633573516        7.9604849560        7.2592298696
 Pt        12.1531372839        7.1553967053        8.0495545931
 Pt        14.8699239245        7.2370933984        8.8137719793
 Pt         9.7198126536       11.4797260962        6.7171807534
 Pt        12.0389242794       11.6908510541        8.0610963664
 Pt        13.3447838600        9.5303122186        9.0180850964
 Pt         9.1244367894        3.8889288147       10.7047545992
 Pt         6.1769307569        7.0615308222        9.5155571997
 Pt         8.1348711825        5.5689669253        9.1414193398
 Pt        11.2133398952        6.5598302011       10.3882302412
 Pt        13.2002012825        4.1598480186       11.7180484666
 Pt         7.6897708259        9.2621772351        9.0323089127
 Pt        10.9324227361        8.9156983947        9.6155817784
 Pt        13.9265311686        6.6267560635       11.0770458324
 Pt         7.3415410011       11.7994505219        8.1134431259
 Pt         9.7122024710       11.3402615975        9.4216044227
 Pt        12.7856878099        8.8896720279       11.7886128924
 Pt        15.2061921981        8.9240795005       10.7877293838
 Pt        12.0761861764       11.3988889402       10.5789645481
 Pt         6.0435507383        6.4351169732       12.1603689921
 Pt         8.4123608143        5.4771602678       12.7091902612
 Pt        10.8600314891        4.8174282983       12.3818375387
 Pt         6.6992462346        8.8252335900       11.4649630072
 Pt         8.8604286128        7.5084453845       10.7726906249
 Pt        10.1762646965        6.8366094677       13.9308822714
 Pt        12.9062108570        6.2857620203       13.3821605859
 Pt         7.5207288818       11.1790694348       10.8122718268
 Pt        10.1992118399        8.9295968989       12.3571616848
 Pt        12.0780240813        8.6089723325       14.4111036754
 Pt         9.7574257028       11.4683492390       12.1282557918
 Pt        11.9672088757       11.0342017942       13.3799421739
 Pt         7.6568673603        7.6050729540       13.8083927971
 Pt         7.5350641275       10.3370785646       13.3392126772
 Pt         9.3181958900        9.2001488143       14.8906015250
     139
 i =      318, time =      318.000, E =     -7434.7012182143
  O         3.8259439000        2.2079377400        0.0000000000
  O         7.6518878000        2.2079377400        0.0000000000
  O        11.4779847500        2.2079377400        0.0000000000
  O        15.3050000000        2.2079377400        0.0000000000
  O         5.7389923700        5.5219650800        0.0000000000
  O         9.5649362800        5.5219650800        0.0000000000
  O        13.3910332200        5.5219650800        0.0000000000
  O        17.2180484700        5.5219650800        0.0000000000
  O         7.6519643300        8.8350646000        0.0000000000
  O        11.4780612700        8.8350646000        0.0000000000
  O        15.3050765300        8.8350646000        0.0000000000
  O        19.1310204300        8.8350646000        0.0000000000
  O         9.5649362800       12.1489593900        0.0000000000
  O        13.3910332300       12.1489593900        0.0000000000
  O        17.2180484700       12.1489593900        0.0000000000
  O        21.0439923800       12.1489593900        0.0000000000
  O         1.9130484800        3.3129669800        1.5618832200
  O         5.7389923700        3.3129669800        1.5618832200
  O         9.5649362700        3.3129669800        1.5618832200
  O        13.3910332200        3.3129669800        1.5618832200
  O         3.8259439000        6.6259339500        1.5618832200
  O         7.6518878000        6.6259339500        1.5618832200
  O        11.4779847500        6.6259339500        1.5618832200
  O        15.3050000000        6.6259339500        1.5618832200
  O         5.7389923700        9.9399612900        1.5618832200
  O         9.5649362700        9.9399612900        1.5618832200
  O        13.3910332200        9.9399612900        1.5618832200
  O        17.2180484700        9.9399612900        1.5618832200
  O         7.6519643300       13.2530608100        1.5618832200
  O        11.4780612700       13.2530608100        1.5618832200
  O        15.3050765300       13.2530608100        1.5618832200
  O        19.1310204300       13.2530608100        1.5618832200
  O         1.9087719635        0.9418739894        3.0619265615
  O         5.5565325488        1.0693697922        3.1439445458
  O         9.7026781400        1.0239972034        3.2505341149
  O        13.4221821754        1.1722286311        2.9720818810
  O         3.9227749756        4.5039468215        3.0766174114
  O         7.7839723478        4.5171598282        3.2014285724
  O        11.5576847483        4.5217399422        3.2233017760
  O        15.4752093696        4.3366793912        3.1187896376
  O         5.5919040405        7.6346388731        3.0717370190
  O         9.7690900309        7.4856507816        3.2641550863
  O        13.3926205903        7.6061763394        3.1260034603
  O        17.2594855570        7.6450680115        3.0418867645
  O         7.6076924669       11.0352873053        3.0943783680
  O        11.5501158331       10.9866491951        3.1179990325
  O        15.2946647252       11.0393967098        3.1155546309
  O        19.1282681657       11.0743167683        3.0211962124
  O         3.7260422509        2.1992572698        4.4616547959
  O         7.6916003293        2.1397550228        4.4832711457
  O        11.6526266904        2.3001205969        4.6922657516
  O        15.2582367436        2.1180415704        4.6174684173
  O         5.7607466639        5.3126962626        4.7726062654
  O         9.0641751451        3.5269329192        6.1842250932
  O        13.7684582107        5.4077721211        4.8873293308
  O        17.4210904146        5.3730000796        4.7388449303
  O         7.7170273327        8.8212658356        4.5365213567
  O        11.6617093334        8.9296566178        4.7889866088
  O        15.2499561851        8.8920249341        4.6453634533
  O        19.1174107999        8.9878857112        4.7148567768
  O         9.8145278376       11.9885740895        4.7432772276
  O        13.4117779182       12.1030215389        4.6818583070
  O        17.0802197455       12.1208063212        4.8530447645
  O        21.0668189766       12.1956996520        4.6910119681
 Ce         1.9130484700        1.1039688700        0.7810650400
 Ce         5.7389923700        1.1039688700        0.7810650400
 Ce         9.5649362800        1.1039688700        0.7810650400
 Ce        13.3910332200        1.1039688700        0.7810650400
 Ce         3.8259439000        4.4169358500        0.7810650400
 Ce         7.6518878000        4.4169358500        0.7810650400
 Ce        11.4779847500        4.4169358500        0.7810650400
 Ce        15.3050000000        4.4169358500        0.7810650400
 Ce         5.7389923700        7.7309631800        0.7810650400
 Ce         9.5649362800        7.7309631800        0.7810650400
 Ce        13.3910332200        7.7309631800        0.7810650400
 Ce        17.2180484700        7.7309631800        0.7810650400
 Ce         7.6519643300       11.0440627000        0.7810650400
 Ce        11.4780612700       11.0440627000        0.7810650400
 Ce        15.3050765300       11.0440627000        0.7810650400
 Ce        19.1310204300       11.0440627000        0.7810650400
 Ce        17.3019300259        3.2673819026        3.8832189516
 Ce         5.7294845677        3.3445415544        3.8175546280
 Ce         9.6622851201        3.1393514027        4.0637258973
 Ce        13.4403155923        3.3373188797        3.8779964329
 Ce        19.1683073945        6.6315789464        3.9219601036
 Ce         7.6106334583        6.5886537203        3.9644764359
 Ce        11.6131726312        6.7571454892        3.9861669366
 Ce        15.3845281765        6.6402027624        3.7949329209
 Ce        21.0889782607        9.9348359510        3.9115565848
 Ce         9.6390059812        9.8726376023        3.9811986701
 Ce        13.4373168132       10.0593513493        3.9792844680
 Ce        17.2673942812       10.0605864876        3.8981068771
 Ce        15.2014983795        0.0158291942        3.8740476310
 Ce         3.9462057990       -0.0814191654        3.7880655967
 Ce        15.3432980476       13.2330734163        3.9254318120
 Ce        19.2658326553       13.2401442428        3.9211350259
 Pt         9.4677963841        5.6873393496        6.1993893870
 Pt        14.1574319612        5.8366209461        6.8619968540
 Pt        11.6056373778        9.5241528713        6.7705749654
 Pt         9.6386707925        3.5393566428        8.1323489531
 Pt        11.6601166366        3.8015392936        9.7395490260
 Pt         7.3936484865        6.9858497284        7.1535805274
 Pt        11.8481896412        4.8022030562        7.1831559122
 Pt        14.0450530385        4.7001487934        9.1790461874
 Pt         7.6817896971        9.7555022788        6.3521942993
 Pt         9.7628945639        7.9587249566        7.2575785095
 Pt        12.1523382251        7.1546941796        8.0497423394
 Pt        14.8708456541        7.2385986068        8.8152855551
 Pt         9.7198691330       11.4814213487        6.7150852888
 Pt        12.0394364122       11.6897513491        8.0591398618
 Pt        13.3441491095        9.5307665687        9.0169587209
 Pt         9.1241238072        3.8882828909       10.7069689619
 Pt         6.1767013372        7.0598440867        9.5184855766
 Pt         8.1357493366        5.5683778999        9.1394566316
 Pt        11.2149731526        6.5617072401       10.3926340129
 Pt        13.2013025846        4.1590743816       11.7179413405
 Pt         7.6888753670        9.2650385958        9.0303898637
 Pt        10.9327180905        8.9150294828        9.6175699880
 Pt        13.9262715265        6.6288157212       11.0773338934
 Pt         7.3433470986       11.8010233790        8.1177875267
 Pt         9.7129854694       11.3394183790        9.4205214056
 Pt        12.7855688633        8.8875180550       11.7888455602
 Pt        15.2067487126        8.9251746907       10.7876227706
 Pt        12.0770505683       11.3962385280       10.5817407792
 Pt         6.0450545896        6.4359370869       12.1572198293
 Pt         8.4127115805        5.4782278980       12.7091929637
 Pt        10.8601163662        4.8175563198       12.3810895601
 Pt         6.6977858204        8.8284275370       11.4658757016
 Pt         8.8628094599        7.5071210418       10.7743049557
 Pt        10.1752905242        6.8327370008       13.9312979595
 Pt        12.9046916741        6.2875476528       13.3841905389
 Pt         7.5193279860       11.1823014234       10.8082880679
 Pt        10.1993184365        8.9296543374       12.3554368889
 Pt        12.0781790408        8.6082997868       14.4102613873
 Pt         9.7589681285       11.4675043744       12.1293976791
 Pt        11.9659677500       11.0333170694       13.3812303268
 Pt         7.6558513850        7.6044334431       13.8109187421
 Pt         7.5354378247       10.3386609705       13.3394768631
 Pt         9.3173114204        9.2008678260       14.8903543779
     139
 i =      319, time =      319.000, E =     -7434.7006654926
  O         3.8259439000        2.2079377400        0.0000000000
  O         7.6518878000        2.2079377400        0.0000000000
  O        11.4779847500        2.2079377400        0.0000000000
  O        15.3050000000        2.2079377400        0.0000000000
  O         5.7389923700        5.5219650800        0.0000000000
  O         9.5649362800        5.5219650800        0.0000000000
  O        13.3910332200        5.5219650800        0.0000000000
  O        17.2180484700        5.5219650800        0.0000000000
  O         7.6519643300        8.8350646000        0.0000000000
  O        11.4780612700        8.8350646000        0.0000000000
  O        15.3050765300        8.8350646000        0.0000000000
  O        19.1310204300        8.8350646000        0.0000000000
  O         9.5649362800       12.1489593900        0.0000000000
  O        13.3910332300       12.1489593900        0.0000000000
  O        17.2180484700       12.1489593900        0.0000000000
  O        21.0439923800       12.1489593900        0.0000000000
  O         1.9130484800        3.3129669800        1.5618832200
  O         5.7389923700        3.3129669800        1.5618832200
  O         9.5649362700        3.3129669800        1.5618832200
  O        13.3910332200        3.3129669800        1.5618832200
  O         3.8259439000        6.6259339500        1.5618832200
  O         7.6518878000        6.6259339500        1.5618832200
  O        11.4779847500        6.6259339500        1.5618832200
  O        15.3050000000        6.6259339500        1.5618832200
  O         5.7389923700        9.9399612900        1.5618832200
  O         9.5649362700        9.9399612900        1.5618832200
  O        13.3910332200        9.9399612900        1.5618832200
  O        17.2180484700        9.9399612900        1.5618832200
  O         7.6519643300       13.2530608100        1.5618832200
  O        11.4780612700       13.2530608100        1.5618832200
  O        15.3050765300       13.2530608100        1.5618832200
  O        19.1310204300       13.2530608100        1.5618832200
  O         1.9131751327        0.9408411238        3.0611667984
  O         5.5551571568        1.0651022575        3.1434975011
  O         9.7133140505        1.0315024660        3.2512954236
  O        13.4282203105        1.1658369236        2.9655030867
  O         3.9246693183        4.5042333499        3.0777629031
  O         7.7789179667        4.5160972125        3.2066636868
  O        11.5592471714        4.5095305062        3.2275148041
  O        15.4799745226        4.3308171639        3.1146986884
  O         5.6023519359        7.6369056371        3.0741481814
  O         9.7700248241        7.4873718298        3.2769669101
  O        13.3964607251        7.6025561978        3.1373158814
  O        17.2598182552        7.6361807347        3.0419901327
  O         7.6037796163       11.0460552151        3.1010658368
  O        11.5571148111       10.9915611072        3.1201889700
  O        15.2967528480       11.0347569213        3.1141423498
  O        19.1256182552       11.0682157528        3.0257054430
  O         3.7302369950        2.2006690273        4.4534873987
  O         7.6813083711        2.1265148661        4.4888156827
  O        11.6440715736        2.3015272429        4.6987517837
  O        15.2541941179        2.1070682720        4.6231213859
  O         5.7681672908        5.3114859734        4.7636895112
  O         9.0681478483        3.5288068273        6.1819873037
  O        13.7804219938        5.4148683751        4.8855977392
  O        17.4158452342        5.3731056841        4.7336496357
  O         7.7218183927        8.8216544182        4.5393854984
  O        11.6634206166        8.9254898061        4.7968468521
  O        15.2465572542        8.8876120778        4.6414973380
  O        19.1213911566        8.9903640868        4.7130312188
  O         9.8175617809       11.9938838950        4.7482502181
  O        13.4179205486       12.0979412055        4.6779593769
  O        17.0679152494       12.1165044989        4.8542328284
  O        21.0720335976       12.1943211287        4.6929383584
 Ce         1.9130484700        1.1039688700        0.7810650400
 Ce         5.7389923700        1.1039688700        0.7810650400
 Ce         9.5649362800        1.1039688700        0.7810650400
 Ce        13.3910332200        1.1039688700        0.7810650400
 Ce         3.8259439000        4.4169358500        0.7810650400
 Ce         7.6518878000        4.4169358500        0.7810650400
 Ce        11.4779847500        4.4169358500        0.7810650400
 Ce        15.3050000000        4.4169358500        0.7810650400
 Ce         5.7389923700        7.7309631800        0.7810650400
 Ce         9.5649362800        7.7309631800        0.7810650400
 Ce        13.3910332200        7.7309631800        0.7810650400
 Ce        17.2180484700        7.7309631800        0.7810650400
 Ce         7.6519643300       11.0440627000        0.7810650400
 Ce        11.4780612700       11.0440627000        0.7810650400
 Ce        15.3050765300       11.0440627000        0.7810650400
 Ce        19.1310204300       11.0440627000        0.7810650400
 Ce        17.3028709203        3.2687278911        3.8819792428
 Ce         5.7292770853        3.3458735250        3.8155672040
 Ce         9.6617819070        3.1380231582        4.0652721475
 Ce        13.4414195793        3.3351256479        3.8753384763
 Ce        19.1646693300        6.6298759103        3.9239214568
 Ce         7.6107852813        6.5924882965        3.9660589482
 Ce        11.6129801590        6.7574570841        3.9872218059
 Ce        15.3830139999        6.6374186221        3.7958305121
 Ce        21.0889982590        9.9335049500        3.9109297246
 Ce         9.6361222685        9.8764777923        3.9816453488
 Ce        13.4381948902       10.0583258423        3.9781018858
 Ce        17.2657650683       10.0591385434        3.8991425805
 Ce        15.2029225170        0.0206333989        3.8730747911
 Ce         3.9463141793       -0.0787216240        3.7864394456
 Ce        15.3436955716       13.2341500668        3.9248273980
 Ce        19.2669707026       13.2412260954        3.9213354085
 Pt         9.4679908293        5.6869394125        6.1988941842
 Pt        14.1573060573        5.8355160802        6.8612374763
 Pt        11.6056546069        9.5234498485        6.7705739402
 Pt         9.6396769918        3.5407129379        8.1342259645
 Pt        11.6585054735        3.8017098013        9.7391872279
 Pt         7.3957059988        6.9834798576        7.1540237059
 Pt        11.8461530960        4.8027569696        7.1831788409
 Pt        14.0443729080        4.7011722703        9.1820834815
 Pt         7.6833414106        9.7563794173        6.3530121421
 Pt         9.7623709982        7.9569531628        7.2559464328
 Pt        12.1515581204        7.1540383031        8.0499000321
 Pt        14.8717601822        7.2401438838        8.8167763068
 Pt         9.7199314482       11.4831238122        6.7130488013
 Pt        12.0399204575       11.6886708140        8.0571865979
 Pt        13.3435638749        9.5312330228        9.0158242869
 Pt         9.1238264171        3.8876002407       10.7091889720
 Pt         6.1764520894        7.0581786880        9.5214465654
 Pt         8.1366736472        5.5677446423        9.1374678162
 Pt        11.2166283536        6.5634829223       10.3970844287
 Pt        13.2024952926        4.1583133101       11.7178411567
 Pt         7.6880054272        9.2678958984        9.0284147123
 Pt        10.9329280668        8.9144119919        9.6195521881
 Pt        13.9259992782        6.6308492142       11.0776641276
 Pt         7.3452012843       11.8025480329        8.1221402519
 Pt         9.7137730749       11.3385968771        9.4193801300
 Pt        12.7854488811        8.8854015089       11.7890969920
 Pt        15.2073026791        8.9262760205       10.7875208961
 Pt        12.0779112750       11.3935542188       10.5845924318
 Pt         6.0465391260        6.4367385487       12.1540511227
 Pt         8.4130409790        5.4792612491       12.7091155697
 Pt        10.8602076046        4.8177051858       12.3803319838
 Pt         6.6963008037        8.8315862484       11.4667849006
 Pt         8.8651781008        7.5057585332       10.7758918091
 Pt        10.1743725591        6.8288709205       13.9317318860
 Pt        12.9031212885        6.2893330544       13.3862290906
 Pt         7.5179123889       11.1855558846       10.8043052026
 Pt        10.1994334834        8.9297606069       12.3537463407
 Pt        12.0783356037        8.6076156313       14.4094107420
 Pt         9.7605005599       11.4666382892       12.1305458059
 Pt        11.9647321662       11.0324192825       13.3824769922
 Pt         7.6547904631        7.6038634756       13.8134555619
 Pt         7.5358463093       10.3402551016       13.3397422629
 Pt         9.3164809278        9.2016054268       14.8901120958
     139
 i =      320, time =      320.000, E =     -7434.7001037445
  O         3.8259439000        2.2079377400        0.0000000000
  O         7.6518878000        2.2079377400        0.0000000000
  O        11.4779847500        2.2079377400        0.0000000000
  O        15.3050000000        2.2079377400        0.0000000000
  O         5.7389923700        5.5219650800        0.0000000000
  O         9.5649362800        5.5219650800        0.0000000000
  O        13.3910332200        5.5219650800        0.0000000000
  O        17.2180484700        5.5219650800        0.0000000000
  O         7.6519643300        8.8350646000        0.0000000000
  O        11.4780612700        8.8350646000        0.0000000000
  O        15.3050765300        8.8350646000        0.0000000000
  O        19.1310204300        8.8350646000        0.0000000000
  O         9.5649362800       12.1489593900        0.0000000000
  O        13.3910332300       12.1489593900        0.0000000000
  O        17.2180484700       12.1489593900        0.0000000000
  O        21.0439923800       12.1489593900        0.0000000000
  O         1.9130484800        3.3129669800        1.5618832200
  O         5.7389923700        3.3129669800        1.5618832200
  O         9.5649362700        3.3129669800        1.5618832200
  O        13.3910332200        3.3129669800        1.5618832200
  O         3.8259439000        6.6259339500        1.5618832200
  O         7.6518878000        6.6259339500        1.5618832200
  O        11.4779847500        6.6259339500        1.5618832200
  O        15.3050000000        6.6259339500        1.5618832200
  O         5.7389923700        9.9399612900        1.5618832200
  O         9.5649362700        9.9399612900        1.5618832200
  O        13.3910332200        9.9399612900        1.5618832200
  O        17.2180484700        9.9399612900        1.5618832200
  O         7.6519643300       13.2530608100        1.5618832200
  O        11.4780612700       13.2530608100        1.5618832200
  O        15.3050765300       13.2530608100        1.5618832200
  O        19.1310204300       13.2530608100        1.5618832200
  O         1.9173506771        0.9399153848        3.0604163738
  O         5.5553406240        1.0611652757        3.1423526689
  O         9.7239151379        1.0389483838        3.2515978414
  O        13.4339282525        1.1589110131        2.9596053836
  O         3.9264223979        4.5042311492        3.0785160804
  O         7.7739267269        4.5149651477        3.2116681494
  O        11.5605905931        4.4975869031        3.2316406508
  O        15.4839186615        4.3255973637        3.1101549653
  O         5.6137436884        7.6395568585        3.0770159944
  O         9.7701002663        7.4897529475        3.2895761876
  O        13.4003384130        7.5992025231        3.1484826170
  O        17.2601045500        7.6276631517        3.0423962954
  O         7.6001883399       11.0568928359        3.1077228524
  O        11.5637709182       10.9963850302        3.1218730535
  O        15.2992108961       11.0305276819        3.1123068807
  O        19.1231039265       11.0624085946        3.0307044070
  O         3.7349764265        2.2021851086        4.4459416645
  O         7.6705848148        2.1129216013        4.4942317271
  O        11.6355887031        2.3022045346        4.7053467176
  O        15.2501582247        2.0960654897        4.6288931594
  O         5.7755603204        5.3109965964        4.7546885524
  O         9.0723834921        3.5312152228        6.1798557488
  O        13.7921213000        5.4221646781        4.8836148594
  O        17.4104035454        5.3737460285        4.7283473905
  O         7.7262803908        8.8217629965        4.5419196797
  O        11.6647059294        8.9210371093        4.8046118096
  O        15.2436396717        8.8830064421        4.6375555417
  O        19.1254555264        8.9926735300        4.7110802981
  O         9.8199969737       11.9993233079        4.7530466864
  O        13.4243766021       12.0933113221        4.6742620432
  O        17.0560645500       12.1121009878        4.8550749671
  O        21.0768203691       12.1930860619        4.6948110643
 Ce         1.9130484700        1.1039688700        0.7810650400
 Ce         5.7389923700        1.1039688700        0.7810650400
 Ce         9.5649362800        1.1039688700        0.7810650400
 Ce        13.3910332200        1.1039688700        0.7810650400
 Ce         3.8259439000        4.4169358500        0.7810650400
 Ce         7.6518878000        4.4169358500        0.7810650400
 Ce        11.4779847500        4.4169358500        0.7810650400
 Ce        15.3050000000        4.4169358500        0.7810650400
 Ce         5.7389923700        7.7309631800        0.7810650400
 Ce         9.5649362800        7.7309631800        0.7810650400
 Ce        13.3910332200        7.7309631800        0.7810650400
 Ce        17.2180484700        7.7309631800        0.7810650400
 Ce         7.6519643300       11.0440627000        0.7810650400
 Ce        11.4780612700       11.0440627000        0.7810650400
 Ce        15.3050765300       11.0440627000        0.7810650400
 Ce        19.1310204300       11.0440627000        0.7810650400
 Ce        17.3037785511        3.2700795934        3.8807557505
 Ce         5.7290919093        3.3471896725        3.8136562972
 Ce         9.6612512867        3.1367461450        4.0668139872
 Ce        13.4425552544        3.3329073903        3.8727065845
 Ce        19.1609571918        6.6281120603        3.9259025727
 Ce         7.6109078276        6.5962540543        3.9676385581
 Ce        11.6128051628        6.7576290925        3.9883057171
 Ce        15.3815713292        6.6346406495        3.7968159970
 Ce        21.0889335831        9.9321932708        3.9102914017
 Ce         9.6332548040        9.8803756789        3.9820533540
 Ce        13.4391728669       10.0572220178        3.9768978474
 Ce        17.2640862400       10.0576171020        3.9002159059
 Ce        15.2044737367        0.0254606343        3.8720873625
 Ce         3.9462787057       -0.0759900642        3.7849150235
 Ce        15.3440902872       13.2352269503        3.9242400522
 Ce        19.2680359702       13.2423370494        3.9215054286
 Pt         9.4681918616        5.6864776983        6.1983817183
 Pt        14.1572023997        5.8344096835        6.8604234532
 Pt        11.6057428982        9.5227654698        6.7705846429
 Pt         9.6406758711        3.5420885041        8.1360878444
 Pt        11.6568286128        3.8019187695        9.7388287826
 Pt         7.3977254573        6.9811532790        7.1544679896
 Pt        11.8440618743        4.8032581216        7.1832276201
 Pt        14.0436757935        4.7021892898        9.1851438028
 Pt         7.6848846880        9.7572408800        6.3538839211
 Pt         9.7617874839        7.9551721692        7.2543349686
 Pt        12.1507960339        7.1534274954        8.0500270737
 Pt        14.8726661921        7.2417270352        8.8182417170
 Pt         9.7200005937       11.4848327260        6.7110745235
 Pt        12.0403761706       11.6876114528        8.0552377721
 Pt        13.3430300532        9.5317088766        9.0146827972
 Pt         9.1235430957        3.8868808997       10.7114139922
 Pt         6.1761852728        7.0565351244        9.5244388400
 Pt         8.1376438265        5.5670667703        9.1354547100
 Pt        11.2183063040        6.5651563495       10.4015794506
 Pt        13.2037778362        4.1575671818       11.7177468979
 Pt         7.6871612674        9.2707459078        9.0263849132
 Pt        10.9330526540        8.9138473802        9.6215281155
 Pt        13.9257156377        6.6328545336       11.0780371723
 Pt         7.3471034006       11.8040250997        8.1264993154
 Pt         9.7145661222       11.3377975182        9.4181812648
 Pt        12.7853276868        8.8833234236       11.7893677836
 Pt        15.2078539581        8.9273838679       10.7874234689
 Pt        12.0787672081       11.3908356763       10.5875168591
 Pt         6.0480050146        6.4375212243       12.1508643451
 Pt         8.4133479605        5.4802588756       12.7089571820
 Pt        10.8603058170        4.8178743768       12.3795659946
 Pt         6.6947935744        8.8347089173       11.4676896743
 Pt         8.8675308973        7.5043581341       10.7774503627
 Pt        10.1735114436        6.8250150756       13.9321849335
 Pt        12.9015007392        6.2911169360       13.3882756320
 Pt         7.5164829649       11.1888324662       10.8003280180
 Pt        10.1995569027        8.9299152630       12.3520915505
 Pt        12.0784924071        8.6069195112       14.4085513626
 Pt         9.7620203506       11.4657513803       12.1316988139
 Pt        11.9635037238       11.0315094175       13.3836830200
 Pt         7.6536837936        7.6033634081       13.8160013749
 Pt         7.5362894273       10.3418610693       13.3400072628
 Pt         9.3157044110        9.2023606950       14.8898749863
     139
 i =      321, time =      321.000, E =     -7434.6994109834
  O         3.8259439000        2.2079377400        0.0000000000
  O         7.6518878000        2.2079377400        0.0000000000
  O        11.4779847500        2.2079377400        0.0000000000
  O        15.3050000000        2.2079377400        0.0000000000
  O         5.7389923700        5.5219650800        0.0000000000
  O         9.5649362800        5.5219650800        0.0000000000
  O        13.3910332200        5.5219650800        0.0000000000
  O        17.2180484700        5.5219650800        0.0000000000
  O         7.6519643300        8.8350646000        0.0000000000
  O        11.4780612700        8.8350646000        0.0000000000
  O        15.3050765300        8.8350646000        0.0000000000
  O        19.1310204300        8.8350646000        0.0000000000
  O         9.5649362800       12.1489593900        0.0000000000
  O        13.3910332300       12.1489593900        0.0000000000
  O        17.2180484700       12.1489593900        0.0000000000
  O        21.0439923800       12.1489593900        0.0000000000
  O         1.9130484800        3.3129669800        1.5618832200
  O         5.7389923700        3.3129669800        1.5618832200
  O         9.5649362700        3.3129669800        1.5618832200
  O        13.3910332200        3.3129669800        1.5618832200
  O         3.8259439000        6.6259339500        1.5618832200
  O         7.6518878000        6.6259339500        1.5618832200
  O        11.4779847500        6.6259339500        1.5618832200
  O        15.3050000000        6.6259339500        1.5618832200
  O         5.7389923700        9.9399612900        1.5618832200
  O         9.5649362700        9.9399612900        1.5618832200
  O        13.3910332200        9.9399612900        1.5618832200
  O        17.2180484700        9.9399612900        1.5618832200
  O         7.6519643300       13.2530608100        1.5618832200
  O        11.4780612700       13.2530608100        1.5618832200
  O        15.3050765300       13.2530608100        1.5618832200
  O        19.1310204300       13.2530608100        1.5618832200
  O         1.9212887470        0.9391167114        3.0596711315
  O         5.5570946823        1.0575756491        3.1404890873
  O         9.7344521265        1.0462908458        3.2514407638
  O        13.4392382640        1.1515412146        2.9544459233
  O         3.9280013486        4.5039592254        3.0788742836
  O         7.7690333800        4.5137397184        3.2164027207
  O        11.5617402190        4.4859325258        3.2356395245
  O        15.4870045355        4.3209928758        3.1051693986
  O         5.6259917928        7.6425798803        3.0803297493
  O         9.7693161817        7.4927845059        3.3018872781
  O        13.4042027651        7.5961355476        3.1594027102
  O        17.2603724050        7.6195331270        3.0431013244
  O         7.5969532846       11.0677181099        3.1143060672
  O        11.5700379590       11.0010854783        3.1230464316
  O        15.3020265842       11.0267134223        3.1100234734
  O        19.1207453634       11.0569370188        3.0361438346
  O         3.7402345382        2.2038229457        4.4390587935
  O         7.6594776368        2.0989994097        4.4995354472
  O        11.6272641125        2.3021541732        4.7120546537
  O        15.2461211273        2.0851069331        4.6347984386
  O         5.7828734548        5.3112570057        4.7456174128
  O         9.0768609332        3.5341469198        6.1778360358
  O        13.8035309258        5.4295861032        4.8813810365
  O        17.4047891634        5.3749048260        4.7229830447
  O         7.7303885528        8.8216164434        4.5441127981
  O        11.6655576723        8.9163184507        4.8122057434
  O        15.2412255306        8.8782150420        4.6335484150
  O        19.1295868319        8.9947760950        4.7090145210
  O         9.8218425128       12.0048919733        4.7576395084
  O        13.4311108261       12.0891666517        4.6707848919
  O        17.0446949102       12.1075800888        4.8555758911
  O        21.0811194807       12.1920166259        4.6966341939
 Ce         1.9130484700        1.1039688700        0.7810650400
 Ce         5.7389923700        1.1039688700        0.7810650400
 Ce         9.5649362800        1.1039688700        0.7810650400
 Ce        13.3910332200        1.1039688700        0.7810650400
 Ce         3.8259439000        4.4169358500        0.7810650400
 Ce         7.6518878000        4.4169358500        0.7810650400
 Ce        11.4779847500        4.4169358500        0.7810650400
 Ce        15.3050000000        4.4169358500        0.7810650400
 Ce         5.7389923700        7.7309631800        0.7810650400
 Ce         9.5649362800        7.7309631800        0.7810650400
 Ce        13.3910332200        7.7309631800        0.7810650400
 Ce        17.2180484700        7.7309631800        0.7810650400
 Ce         7.6519643300       11.0440627000        0.7810650400
 Ce        11.4780612700       11.0440627000        0.7810650400
 Ce        15.3050765300       11.0440627000        0.7810650400
 Ce        19.1310204300       11.0440627000        0.7810650400
 Ce        17.3046555449        3.2714336786        3.8795478643
 Ce         5.7289328962        3.3484857402        3.8118232133
 Ce         9.6606912559        3.1355220090        4.0683527445
 Ce        13.4437181014        3.3306638889        3.8701043322
 Ce        19.1571794802        6.6262917697        3.9278980764
 Ce         7.6110009162        6.5999472651        3.9692152357
 Ce        11.6126490703        6.7576615356        3.9894230239
 Ce        15.3802031144        6.6318728870        3.7978884846
 Ce        21.0887850502        9.9309034278        3.9096440242
 Ce         9.6304084224        9.8843308165        3.9824251000
 Ce        13.4402504520       10.0560394710        3.9756743237
 Ce        17.2623563218       10.0560238069        3.9013264780
 Ce        15.2061512590        0.0303017825        3.8710883251
 Ce         3.9461029532       -0.0732281820        3.7834942785
 Ce        15.3444787491       13.2362993276        3.9236709750
 Ce        19.2690318150       13.2434738284        3.9216470310
 Pt         9.4684001359        5.6859532041        6.1978514017
 Pt        14.1571214265        5.8333018415        6.8595589274
 Pt        11.6059018489        9.5220985005        6.7706094356
 Pt         9.6416662728        3.5434823826        8.1379332785
 Pt        11.6550887337        3.8021662167        9.7384761839
 Pt         7.3997045893        6.9788710768        7.1549132040
 Pt        11.8419177559        4.8037063296        7.1833005507
 Pt        14.0429612052        4.7032004203        9.1882249987
 Pt         7.6864192963        9.7580863779        6.3548098844
 Pt         9.7611457224        7.9533846073        7.2527452116
 Pt        12.1500522774        7.1528617472        8.0501241540
 Pt        14.8735634947        7.2433471305        8.8196802314
 Pt         9.7200769783       11.4865486239        6.7091648863
 Pt        12.0408034945       11.6865730570        8.0532962677
 Pt        13.3425480747        9.5321956166        9.0135339058
 Pt         9.1232727040        3.8861254105       10.7136439171
 Pt         6.1759017471        7.0549140975        9.5274611195
 Pt         8.1386603715        5.5663444958        9.1334186581
 Pt        11.2200080509        6.5667269937       10.4061185119
 Pt        13.2051499128        4.1568363263       11.7176582193
 Pt         7.6863421747        9.2735860014        9.0243025573
 Pt        10.9330908939        8.9133361896        9.6234971413
 Pt        13.9254208184        6.6348294129       11.0784538206
 Pt         7.3490539207       11.8054555513        8.1308633139
 Pt         9.7153650384       11.3370203879        9.4169249253
 Pt        12.7852052077        8.8812852082       11.7896576524
 Pt        15.2084011909        8.9284986691       10.7873302836
 Pt        12.0796179666       11.3880830699       10.5905109288
 Pt         6.0494522188        6.4382849937       12.1476609942
 Pt         8.4136310051        5.4812203272       12.7087174169
 Pt        10.8604122218        4.8180630995       12.3787926034
 Pt         6.6932659765        8.8377946259       11.4685897062
 Pt         8.8698634610        7.5029201628       10.7789794349
 Pt        10.1727071811        6.8211731638       13.9326573843
 Pt        12.8998298150        6.2928983211       13.3903287955
 Pt         7.5150420141       11.1921297348       10.7963607151
 Pt        10.1996888911        8.9301181062       12.3504754725
 Pt        12.0786486442        8.6062119836       14.4076847401
 Pt         9.7635260264       11.4648443000       12.1328554229
 Pt        11.9622823366       11.0305871106       13.3848484142
 Pt         7.6525320290        7.6029336425       13.8185544374
 Pt         7.5367669449       10.3434790953       13.3402712165
 Pt         9.3149828515        9.2031328682       14.8896414659
     139
 i =      322, time =      322.000, E =     -7434.6984421238
  O         3.8259439000        2.2079377400        0.0000000000
  O         7.6518878000        2.2079377400        0.0000000000
  O        11.4779847500        2.2079377400        0.0000000000
  O        15.3050000000        2.2079377400        0.0000000000
  O         5.7389923700        5.5219650800        0.0000000000
  O         9.5649362800        5.5219650800        0.0000000000
  O        13.3910332200        5.5219650800        0.0000000000
  O        17.2180484700        5.5219650800        0.0000000000
  O         7.6519643300        8.8350646000        0.0000000000
  O        11.4780612700        8.8350646000        0.0000000000
  O        15.3050765300        8.8350646000        0.0000000000
  O        19.1310204300        8.8350646000        0.0000000000
  O         9.5649362800       12.1489593900        0.0000000000
  O        13.3910332300       12.1489593900        0.0000000000
  O        17.2180484700       12.1489593900        0.0000000000
  O        21.0439923800       12.1489593900        0.0000000000
  O         1.9130484800        3.3129669800        1.5618832200
  O         5.7389923700        3.3129669800        1.5618832200
  O         9.5649362700        3.3129669800        1.5618832200
  O        13.3910332200        3.3129669800        1.5618832200
  O         3.8259439000        6.6259339500        1.5618832200
  O         7.6518878000        6.6259339500        1.5618832200
  O        11.4779847500        6.6259339500        1.5618832200
  O        15.3050000000        6.6259339500        1.5618832200
  O         5.7389923700        9.9399612900        1.5618832200
  O         9.5649362700        9.9399612900        1.5618832200
  O        13.3910332200        9.9399612900        1.5618832200
  O        17.2180484700        9.9399612900        1.5618832200
  O         7.6519643300       13.2530608100        1.5618832200
  O        11.4780612700       13.2530608100        1.5618832200
  O        15.3050765300       13.2530608100        1.5618832200
  O        19.1310204300       13.2530608100        1.5618832200
  O         1.9249818560        0.9384662632        3.0589279197
  O         5.5604095349        1.0543451739        3.1378927669
  O         9.7448651213        1.0534737414        3.2508234705
  O        13.4440982288        1.1438070038        2.9500861543
  O         3.9293730654        4.5034373882        3.0788405529
  O         7.7642727000        4.5123925391        3.2208248221
  O        11.5627177592        4.4746092014        3.2394808221
  O        15.4892056304        4.3169705954        3.0997625502
  O         5.6390058937        7.6459668238        3.0840722246
  O         9.7676782509        7.4964545515        3.3137991519
  O        13.4080066024        7.5933679326        3.1699562203
  O        17.2606499266        7.6118174525        3.0440999885
  O         7.5941167623       11.0784628448        3.1207870428
  O        11.5758640605       11.0056278204        3.1237067840
  O        15.3051831392       11.0233101819        3.1072707136
  O        19.1185618062       11.0518470026        3.0419813625
  O         3.7459766718        2.2055990328        4.4328584898
  O         7.6480450845        2.0847960725        4.5047460356
  O        11.6191800859        2.3013803773        4.7188741745
  O        15.2420864892        2.0742975426        4.6408540738
  O         5.7900525320        5.3122856589        4.7365160409
  O         9.0815599577        3.5375880136        6.1759503929
  O        13.8145948505        5.4370478344        4.8789073890
  O        17.3990257851        5.3765624798        4.7175985052
  O         7.7341209730        8.8212418118        4.5459592363
  O        11.6659712801        8.9113510839        4.8195601911
  O        15.2393341266        8.8732447984        4.6294808296
  O        19.1337722999        8.9966345065        4.7068447259
  O         9.8231108716       12.0105943167        4.7619966428
  O        13.4380776474       12.0855434188        4.6675468896
  O        17.0338488505       12.1029354205        4.8557449139
  O        21.0848772785       12.1911295468        4.6984148347
 Ce         1.9130484700        1.1039688700        0.7810650400
 Ce         5.7389923700        1.1039688700        0.7810650400
 Ce         9.5649362800        1.1039688700        0.7810650400
 Ce        13.3910332200        1.1039688700        0.7810650400
 Ce         3.8259439000        4.4169358500        0.7810650400
 Ce         7.6518878000        4.4169358500        0.7810650400
 Ce        11.4779847500        4.4169358500        0.7810650400
 Ce        15.3050000000        4.4169358500        0.7810650400
 Ce         5.7389923700        7.7309631800        0.7810650400
 Ce         9.5649362800        7.7309631800        0.7810650400
 Ce        13.3910332200        7.7309631800        0.7810650400
 Ce        17.2180484700        7.7309631800        0.7810650400
 Ce         7.6519643300       11.0440627000        0.7810650400
 Ce        11.4780612700       11.0440627000        0.7810650400
 Ce        15.3050765300       11.0440627000        0.7810650400
 Ce        19.1310204300       11.0440627000        0.7810650400
 Ce        17.3055045796        3.2727869630        3.8783546696
 Ce         5.7288038314        3.3497573772        3.8100686963
 Ce         9.6601000139        3.1343520910        4.0698889347
 Ce        13.4449035897        3.3283949887        3.8675348590
 Ce        19.1533446573        6.6244196632        3.9299023430
 Ce         7.6110647299        6.6035650065        3.9707885203
 Ce        11.6125127203        6.7575547136        3.9905771857
 Ce        15.3789125991        6.6291196134        3.7990468565
 Ce        21.0885537657        9.9296379766        3.9089897659
 Ce         9.6275868343        9.8883426656        3.9827628634
 Ce        13.4414273984       10.0547782151        3.9744332412
 Ce        17.2605741362       10.0543603269        3.9024737500
 Ce        15.2079543549        0.0351468873        3.8700806972
 Ce         3.9457913024       -0.0704391923        3.7821790919
 Ce        15.3448574265       13.2373622587        3.9231208428
 Ce        19.2699615947       13.2446329089        3.9217620471
 Pt         9.4686167794        5.6853655123        6.1973032529
 Pt        14.1570633250        5.8321922811        6.8586475704
 Pt        11.6061305691        9.5214483882        6.7706502034
 Pt         9.6426468960        3.5448940850        8.1397612133
 Pt        11.6532876395        3.8024529793        9.7381316661
 Pt         7.4016422110        6.9766348952        7.1553602574
 Pt        11.8397220990        4.8041019783        7.1833968345
 Pt        14.0422281356        4.7042060716        9.1913250073
 Pt         7.6879445765        9.7589153274        6.3557899452
 Pt         9.7604476450        7.9515926801        7.2511778281
 Pt        12.1493264562        7.1523407444        8.0501934967
 Pt        14.8744510613        7.2450030921        8.8210907958
 Pt         9.7201600288       11.4882711778        6.7073223366
 Pt        12.0412028828       11.6855563586        8.0513637531
 Pt        13.3421184269        9.5326932816        9.0123773792
 Pt         9.1230153019        3.8853346280       10.7158770567
 Pt         6.1756030660        7.0533164376        9.5305120641
 Pt         8.1397232990        5.5655772928        9.1313617168
 Pt        11.2217349279        6.5681953538       10.4107000911
 Pt        13.2066102473        4.1561202870       11.7175747544
 Pt         7.6855471841        9.2764142053        9.0221700039
 Pt        10.9330423816        8.9128787679        9.6254580872
 Pt        13.9251144571        6.6367719988       11.0789145811
 Pt         7.3510528021       11.8068397674        8.1352308572
 Pt         9.7161707709       11.3362652233        9.4156120702
 Pt        12.7850818456        8.8792884561       11.7899664769
 Pt        15.2089448575        8.9296209574       10.7872415456
 Pt        12.0804632985       11.3852977542       10.5935727357
 Pt         6.0508803802        6.4390302067       12.1444419160
 Pt         8.4138884643        5.4821453138       12.7083954548
 Pt        10.8605278326        4.8182698982       12.3780116285
 Pt         6.6917202562        8.8408420496       11.4694832065
 Pt         8.8721720681        7.5014448612       10.7804770774
 Pt        10.1719602793        6.8173486961       13.9331500510
 Pt        12.8981092996        6.2946762821       13.3923874735
 Pt         7.5135897812       11.1954463744       10.7924060582
 Pt        10.1998301552        8.9303681661       12.3489012036
 Pt        12.0788032381        8.6054937999       14.4068115806
 Pt         9.7650156534       11.4639177561       12.1340145910
 Pt        11.9610682921       11.0296514029       13.3859739873
 Pt         7.6513360132        7.6025741590       13.8211145284
 Pt         7.5372792538       10.3451094798       13.3405331534
 Pt         9.3143168567        9.2039211299       14.8894105544
     139
 i =      323, time =      323.000, E =     -7434.6973034600
  O         3.8259439000        2.2079377400        0.0000000000
  O         7.6518878000        2.2079377400        0.0000000000
  O        11.4779847500        2.2079377400        0.0000000000
  O        15.3050000000        2.2079377400        0.0000000000
  O         5.7389923700        5.5219650800        0.0000000000
  O         9.5649362800        5.5219650800        0.0000000000
  O        13.3910332200        5.5219650800        0.0000000000
  O        17.2180484700        5.5219650800        0.0000000000
  O         7.6519643300        8.8350646000        0.0000000000
  O        11.4780612700        8.8350646000        0.0000000000
  O        15.3050765300        8.8350646000        0.0000000000
  O        19.1310204300        8.8350646000        0.0000000000
  O         9.5649362800       12.1489593900        0.0000000000
  O        13.3910332300       12.1489593900        0.0000000000
  O        17.2180484700       12.1489593900        0.0000000000
  O        21.0439923800       12.1489593900        0.0000000000
  O         1.9130484800        3.3129669800        1.5618832200
  O         5.7389923700        3.3129669800        1.5618832200
  O         9.5649362700        3.3129669800        1.5618832200
  O        13.3910332200        3.3129669800        1.5618832200
  O         3.8259439000        6.6259339500        1.5618832200
  O         7.6518878000        6.6259339500        1.5618832200
  O        11.4779847500        6.6259339500        1.5618832200
  O        15.3050000000        6.6259339500        1.5618832200
  O         5.7389923700        9.9399612900        1.5618832200
  O         9.5649362700        9.9399612900        1.5618832200
  O        13.3910332200        9.9399612900        1.5618832200
  O        17.2180484700        9.9399612900        1.5618832200
  O         7.6519643300       13.2530608100        1.5618832200
  O        11.4780612700       13.2530608100        1.5618832200
  O        15.3050765300       13.2530608100        1.5618832200
  O        19.1310204300       13.2530608100        1.5618832200
  O         1.9284245753        0.9379863652        3.0581846558
  O         5.5652505540        1.0514804665        3.1345547059
  O         9.7550760405        1.0604413819        3.2497431502
  O        13.4484716491        1.1357728367        2.9465777798
  O         3.9305040055        4.5026855931        3.0784223841
  O         7.7596798093        4.5108968023        3.2248887028
  O        11.5635356538        4.4636741932        3.2431411521
  O        15.4905043510        4.3134963756        3.0939684469
  O         5.6526806119        7.6496925724        3.0882162731
  O         9.7652062143        7.5007484456        3.3252624297
  O        13.4117049954        7.5909075147        3.1800507829
  O        17.2609615932        7.6045496909        3.0453852987
  O         7.5917227637       11.0890740717        3.1271443894
  O        11.5811979731       11.0099826351        3.1238547361
  O        15.3086600218       11.0203058688        3.1040315858
  O        19.1165689101       11.0471858794        3.0481825523
  O         3.7521558722        2.2075249646        4.4273419022
  O         7.6363837615        2.0704197394        4.5098809313
  O        11.6114146965        2.2998817581        4.7257861601
  O        15.2380721727        2.0637492664        4.6470709323
  O         5.7970410006        5.3140929326        4.7274495355
  O         9.0864538109        3.5415185676        6.1742092370
  O        13.8252594433        5.4444735076        4.8762080946
  O        17.3931338077        5.3786985707        4.7122267370
  O         7.7374610701        8.8206684649        4.5474572846
  O        11.6659488205        8.9061588928        4.8266224026
  O        15.2379810987        8.8681024191        4.6253548978
  O        19.1379997624        8.9982123451        4.7045795187
  O         9.8238209836       12.0164338159        4.7660839568
  O        13.4452330194       12.0824673754        4.6645722398
  O        17.0235818422       12.0981776610        4.8555934242
  O        21.0880465549       12.1904391286        4.7001589523
 Ce         1.9130484700        1.1039688700        0.7810650400
 Ce         5.7389923700        1.1039688700        0.7810650400
 Ce         9.5649362800        1.1039688700        0.7810650400
 Ce        13.3910332200        1.1039688700        0.7810650400
 Ce         3.8259439000        4.4169358500        0.7810650400
 Ce         7.6518878000        4.4169358500        0.7810650400
 Ce        11.4779847500        4.4169358500        0.7810650400
 Ce        15.3050000000        4.4169358500        0.7810650400
 Ce         5.7389923700        7.7309631800        0.7810650400
 Ce         9.5649362800        7.7309631800        0.7810650400
 Ce        13.3910332200        7.7309631800        0.7810650400
 Ce        17.2180484700        7.7309631800        0.7810650400
 Ce         7.6519643300       11.0440627000        0.7810650400
 Ce        11.4780612700       11.0440627000        0.7810650400
 Ce        15.3050765300       11.0440627000        0.7810650400
 Ce        19.1310204300       11.0440627000        0.7810650400
 Ce        17.3063284090        3.2741365829        3.8771751465
 Ce         5.7287087141        3.3510003736        3.8083933447
 Ce         9.6594758408        3.1332373972        4.0714230923
 Ce        13.4461072454        3.3261001581        3.8650014784
 Ce        19.1494611788        6.6225005218        3.9319101528
 Ce         7.6110995224        6.6071044767        3.9723580004
 Ce        11.6123961055        6.7573096860        3.9917711040
 Ce        15.3777036477        6.6263853483        3.8002894809
 Ce        21.0882409299        9.9283996546        3.9083311629
 Ce         9.6247929392        9.8924107211        3.9830690574
 Ce        13.4427034403       10.0534386898        3.9731764358
 Ce        17.2587389749       10.0526285807        3.9036572805
 Ce        15.2098818464        0.0399852022        3.8690678645
 Ce         3.9453490442       -0.0676257399        3.7809708150
 Ce        15.3452231117       13.2384106577        3.9225898493
 Ce        19.2708287302       13.2458105563        3.9218528313
 Pt         9.4688427144        5.6847143409        6.1967373301
 Pt        14.1570287351        5.8310810240        6.8576934163
 Pt        11.6064276193        9.5208160985        6.7707089551
 Pt         9.6436159161        3.5463223165        8.1415704235
 Pt        11.6514278419        3.8027790419        9.7377967413
 Pt         7.4035368140        6.9744464177        7.1558096531
 Pt        11.8374769379        4.8044460675        7.1835154843
 Pt        14.0414767482        4.7052071286        9.1944422549
 Pt         7.6894599941        9.7597273010        6.3568238305
 Pt         9.7596951632        7.9497983642        7.2496335698
 Pt        12.1486178095        7.1518647949        8.0502374243
 Pt        14.8753271797        7.2466937062        8.8224720365
 Pt         9.7202503960       11.4899990064        6.7055498759
 Pt        12.0415735887       11.6845614156        8.0494425896
 Pt        13.3417414083        9.5332008005        9.0112138265
 Pt         9.1227701101        3.8845086226       10.7181121500
 Pt         6.1752909977        7.0517429231        9.5335902823
 Pt         8.1408319983        5.5647649467        9.1292864048
 Pt        11.2234880693        6.5695616116       10.4153221182
 Pt        13.2081568393        4.1554196772       11.7174967338
 Pt         7.6847755961        9.2792281430        9.0199895793
 Pt        10.9329072317        8.9124750214        9.6274095705
 Pt        13.9247961804        6.6386806092       11.0794201860
 Pt         7.3530990350       11.8081786579        8.1396003931
 Pt         9.7169861125       11.3355322511        9.4142443889
 Pt        12.7849587535        8.8773347388       11.7902941269
 Pt        15.2094854189        8.9307515250       10.7871571723
 Pt        12.0813020673       11.3824804318       10.5966995198
 Pt         6.0522893251        6.4397572475       12.1412083491
 Pt         8.4141189172        5.4830341350       12.7079910168
 Pt        10.8606541200        4.8184934729       12.3772239081
 Pt         6.6901587720        8.8438500592       11.4703680072
 Pt         8.8744530545        7.4999331715       10.7819417852
 Pt        10.1712711012        6.8135450400       13.9336640548
 Pt        12.8963404232        6.2964497726       13.3944502997
 Pt         7.5121263118       11.1987820185       10.7884666911
 Pt        10.1999809682        8.9306642224       12.3473708582
 Pt        12.0789553372        8.6047649329       14.4059320494
 Pt         9.7664869890       11.4629720781       12.1351746981
 Pt        11.9598625889       11.0287021995       13.3870602060
 Pt         7.6500965711        7.6022840244       13.8236815688
 Pt         7.5378265848       10.3467525684       13.3407914541
 Pt         9.3137066477        9.2047245643       14.8891820563
     139
 i =      324, time =      324.000, E =     -7434.6963200733
  O         3.8259439000        2.2079377400        0.0000000000
  O         7.6518878000        2.2079377400        0.0000000000
  O        11.4779847500        2.2079377400        0.0000000000
  O        15.3050000000        2.2079377400        0.0000000000
  O         5.7389923700        5.5219650800        0.0000000000
  O         9.5649362800        5.5219650800        0.0000000000
  O        13.3910332200        5.5219650800        0.0000000000
  O        17.2180484700        5.5219650800        0.0000000000
  O         7.6519643300        8.8350646000        0.0000000000
  O        11.4780612700        8.8350646000        0.0000000000
  O        15.3050765300        8.8350646000        0.0000000000
  O        19.1310204300        8.8350646000        0.0000000000
  O         9.5649362800       12.1489593900        0.0000000000
  O        13.3910332300       12.1489593900        0.0000000000
  O        17.2180484700       12.1489593900        0.0000000000
  O        21.0439923800       12.1489593900        0.0000000000
  O         1.9130484800        3.3129669800        1.5618832200
  O         5.7389923700        3.3129669800        1.5618832200
  O         9.5649362700        3.3129669800        1.5618832200
  O        13.3910332200        3.3129669800        1.5618832200
  O         3.8259439000        6.6259339500        1.5618832200
  O         7.6518878000        6.6259339500        1.5618832200
  O        11.4779847500        6.6259339500        1.5618832200
  O        15.3050000000        6.6259339500        1.5618832200
  O         5.7389923700        9.9399612900        1.5618832200
  O         9.5649362700        9.9399612900        1.5618832200
  O        13.3910332200        9.9399612900        1.5618832200
  O        17.2180484700        9.9399612900        1.5618832200
  O         7.6519643300       13.2530608100        1.5618832200
  O        11.4780612700       13.2530608100        1.5618832200
  O        15.3050765300       13.2530608100        1.5618832200
  O        19.1310204300       13.2530608100        1.5618832200
  O         1.9316124521        0.9376999370        3.0574423634
  O         5.5715584834        1.0489841085        3.1304688607
  O         9.7650218826        1.0671597790        3.2481966510
  O        13.4523300698        1.1274934443        2.9439612666
  O         3.9313613408        4.5017235458        3.0776333474
  O         7.7552891834        4.5092283778        3.2285498761
  O        11.5641966725        4.4531704512        3.2466032925
  O        15.4908913100        4.3105353242        3.0878368758
  O         5.6669066506        7.6537109456        3.0927265403
  O         9.7619264126        7.5056505661        3.3362678519
  O        13.4152549735        7.5887619686        3.1896359845
  O        17.2613291224        7.5977644515        3.0469502711
  O         7.5898079009       11.0994988117        3.1333580828
  O        11.5859956638       11.0141307744        3.1234954438
  O        15.3124352870       11.0176820489        3.1002969850
  O        19.1147785152       11.0429978656        3.0547220524
  O         3.7587146473        2.2096062165        4.4224993483
  O         7.6245691979        2.0559666118        4.5149495252
  O        11.6040375865        2.2976486704        4.7327553099
  O        15.2341006789        2.0535542566        4.6534481753
  O         5.8037819963        5.3166837534        4.7184932861
  O         9.0915132602        3.5459112866        6.1726158928
  O        13.8354929432        5.4517991386        4.8733017515
  O        17.3871298200        5.3812926082        4.7068906279
  O         7.7403973397        8.8199317712        4.5486112162
  O        11.6654986784        8.9007784430        4.8333560682
  O        15.2371807039        8.8627969358        4.6211735271
  O        19.1422568112        8.9994755273        4.7022267506
  O         9.8239952458       12.0224084778        4.7698771013
  O        13.4525441336       12.0799501514        4.6618840456
  O        17.0139392500       12.0933272924        4.8551364584
  O        21.0905886805       12.1899563026        4.7018745267
 Ce         1.9130484700        1.1039688700        0.7810650400
 Ce         5.7389923700        1.1039688700        0.7810650400
 Ce         9.5649362800        1.1039688700        0.7810650400
 Ce        13.3910332200        1.1039688700        0.7810650400
 Ce         3.8259439000        4.4169358500        0.7810650400
 Ce         7.6518878000        4.4169358500        0.7810650400
 Ce        11.4779847500        4.4169358500        0.7810650400
 Ce        15.3050000000        4.4169358500        0.7810650400
 Ce         5.7389923700        7.7309631800        0.7810650400
 Ce         9.5649362800        7.7309631800        0.7810650400
 Ce        13.3910332200        7.7309631800        0.7810650400
 Ce        17.2180484700        7.7309631800        0.7810650400
 Ce         7.6519643300       11.0440627000        0.7810650400
 Ce        11.4780612700       11.0440627000        0.7810650400
 Ce        15.3050765300       11.0440627000        0.7810650400
 Ce        19.1310204300       11.0440627000        0.7810650400
 Ce        17.3071296118        3.2754798832        3.8760079044
 Ce         5.7286516018        3.3522104696        3.8067975336
 Ce         9.6588174571        3.1321791046        4.0729558225
 Ce        13.4473245265        3.3237792657        3.8625074434
 Ce        19.1455375275        6.6205393279        3.9339163945
 Ce         7.6111058961        6.6105633536        3.9739232316
 Ce        11.6122988857        6.7569278227        3.9930072507
 Ce        15.3765798976        6.6236746894        3.8016139607
 Ce        21.0878481099        9.9271908284        3.9076705853
 Ce         9.6220294441        9.8965339459        3.9833458072
 Ce        13.4440780976       10.0520214676        3.9719052498
 Ce        17.2568502416       10.0508305024        3.9048762292
 Ce        15.2119323695        0.0448058348        3.8680528538
 Ce         3.9447825367       -0.0647898832        3.7798696638
 Ce        15.3455726535       13.2394393845        3.9220775364
 Ce        19.2716365482       13.2470031658        3.9219218584
 Pt         9.4690784798        5.6839988532        6.1961531501
 Pt        14.1570182802        5.8299683179        6.8567007681
 Pt        11.6067917588        9.5202025639        6.7707874875
 Pt         9.6445717122        3.5477657130        8.1433606670
 Pt        11.6495116485        3.8031442479        9.7374731205
 Pt         7.4053855630        6.9723069702        7.1562608591
 Pt        11.8351845389        4.8047392024        7.1836552776
 Pt        14.0407075286        4.7062044852        9.1975752303
 Pt         7.6909656471        9.7605224391        6.3579112793
 Pt         9.7588905384        7.9480041368        7.2481133981
 Pt        12.1479254752        7.1514346463        8.0502576723
 Pt        14.8761906197        7.2484180300        8.8238224083
 Pt         9.7203490031       11.4917310140        6.7038497485
 Pt        12.0419143641       11.6835874053        8.0475357540
 Pt        13.3414171697        9.5337174633        9.0100437563
 Pt         9.1225363537        3.8836481885       10.7203478622
 Pt         6.1749673075        7.0501940393        9.5366946391
 Pt         8.1419864878        5.5639068936        9.1271957352
 Pt        11.2252685152        6.5708258331       10.4199826145
 Pt        13.2097873559        4.1547358430       11.7174246225
 Pt         7.6840269089        9.2820246674        9.0177635941
 Pt        10.9326857603        8.9121241720        9.6293505390
 Pt        13.9244661126        6.6405535768       11.0799713943
 Pt         7.3551913607       11.8094736989        8.1439699918
 Pt         9.7178134053       11.3348220620        9.4128231013
 Pt        12.7848370791        8.8754253059       11.7906408459
 Pt        15.2100221725        8.9318908482       10.7870767600
 Pt        12.0821335471       11.3796315059       10.5998882378
 Pt         6.0536794458        6.4404656771       12.1379619237
 Pt         8.4143215205        5.4838866704       12.7075037284
 Pt        10.8607923332        4.8187329065       12.3764305233
 Pt         6.6885830246        8.8468181496       11.4712429389
 Pt         8.8767026059        7.4983860967       10.7833725480
 Pt        10.1706398339        6.8097656948       13.9342005727
 Pt        12.8945241819        6.2982177425       13.3965155177
 Pt         7.5106533671       11.2021369745       10.7845451703
 Pt        10.2001411023        8.9310051446       12.3458859045
 Pt        12.0791040677        8.6040250040       14.4050465510
 Pt         9.7679380623       11.4620080363       12.1363344655
 Pt        11.9586661637       11.0277395295       13.3881074636
 Pt         7.6488141365        7.6020621295       13.8262542040
 Pt         7.5384084071       10.3484084227       13.3410452047
 Pt         9.3131530017        9.2055424278       14.8889560627
