89
CIF: CH2CHCHO+Olat.cif | data_VESTA_phase_1
O      0.00781110     0.10540063     0.08330251
O      1.92880682     1.20609813     3.26241541
O     -0.01033636     2.31840630     6.44766423
O      0.01574271     2.31584161     1.70373244
O      0.01197778     0.10927748     4.89646297
O      1.88099902     1.20277795     8.06855037
O      3.84129127     0.11103697     0.08530980
O      5.74286543     1.20429887     3.26567726
O      3.84649675     2.43260440     6.57268642
O      3.83922515     2.32370466     1.72029257
O      3.83453045     0.15318530     4.94073739
O      5.73934728     1.06657127     8.05007418
O      7.65754227     0.10492348     0.08626782
O      9.57511741     1.21399100     3.25468278
O      7.64807827     2.32434086     6.52061095
O      7.66234600     2.31676609     1.70838570
O      7.65619355     0.12401945     4.90565545
O      9.58751415     1.20444798     8.09083584
O     -1.90110355     3.42072412     0.08378152
O      0.00549818     4.51750501     3.26412617
O     -1.86506117     5.65094698     6.43698910
O     -1.90404777     5.63439581     1.71066671
O     -1.91898700     3.41682739     4.90864357
O      0.01739561     4.51725649     8.09521538
O      1.92842229     3.42237427     0.08432896
O      3.83410001     4.52837013     3.28568172
O      1.95493755     5.60881854     6.45959392
O      1.92690714     5.62752683     1.72271045
O      1.91335681     3.40055456     4.90976127
O      3.64335662     4.68122738     8.40513629
O      5.74835214     3.41961077     0.08389557
O      7.66677669     4.53136226     3.26389807
O      5.66589659     5.57176976     6.55731241
O      5.75226056     5.62391837     1.71520592
O      5.76487539     3.41208570     4.89098855
O     -3.81633135     6.73036156     0.07944760
O     -1.91566398     7.84585074     3.28939977
O     -3.81431114     8.93573282     6.45589868
O     -3.80977140     8.93952020     1.69764214
O     -3.85034204     6.71151411     4.93560512
O     -1.90460448     7.83910104     8.08825830
O      0.01394633     6.73088842     0.08419210
O      1.92507632     7.84404154     3.26830042
O      0.00658864     8.89586090     6.43064789
O      0.00835058     8.93481828     1.71477253
O      0.02976940     6.71889006     4.88916374
O      1.92991450     7.84383279     8.08479116
O      3.83563239     6.72947685     0.08708898
O      5.75545157     7.83964778     3.26036250
O      3.82813121     8.96819895     6.43911044
O      3.82798773     8.94089201     1.70418864
O      3.84699033     6.75525293     4.90216550
O      5.72938972     7.86703425     8.08205395
O      5.81027846     3.35732270     9.73284413
O      7.77397982     4.59550923     8.05315354
Ce     1.92927744     1.21572067     0.89107679
Ce     0.00581958     2.31084147     4.06758934
Ce     0.00048783     0.11388994     7.27776961
Ce     5.74745108     1.21134679     0.90013240
Ce     3.85187441     2.33324768     4.11918580
Ce     3.83376140     0.09908832     7.28255973
Ce     9.57472141     1.21141637     0.88494087
Ce     7.64675825     2.32616994     4.09505271
Ce     7.65522936     0.10513223     7.27259172
Ce     0.01310267     4.52632236     0.90031488
Ce    -1.90608520     5.62524048     4.08791315
Ce    -1.90257279     3.42537634     7.27877325
Ce     3.83761816     4.52354892     0.90289243
Ce     1.92521980     5.62710932     4.09302261
Ce     1.85316374     3.38262164     7.26805251
Ce     7.66191556     4.52514936     0.89146456
Ce     5.74648115     5.60895771     4.11435006
Ce     5.81838799     3.38787030     7.48023211
Ce    -1.90040910     7.83513473     0.89604939
Ce    -3.82382678     8.94843696     4.08474254
Ce    -3.81175144     6.73672357     7.28189824
Ce     1.91952075     7.83302731     0.90257308
Ce     0.01059462     8.94586233     4.08802720
Ce     0.01186873     6.73269761     7.26061641
Ce     5.74795039     7.83357404     0.88886421
Ce     3.83799121     8.95350669     4.06186401
Ce     3.83234381     6.82416146     7.24649695
C      3.44146764     4.81442205     9.84782987
C      3.60465123     3.50278412    10.54214669
C      4.79949631     2.86227872    10.43067370
H      2.44169334     5.24751595    10.03279702
H      4.19601601     5.53947262    10.21580250
H      2.79256705     3.07858709    11.13343026
H      4.96969899     1.88829459    10.91862749
