83
CIF: Ti-Mo-CeO2-Ov-O2.cif | data_image0
Ce     1.93596140     1.11772783     0.89035214
Ce     0.02451178     2.25338181     4.07722429
Ce     5.80560914    10.05114089     7.20437614
Ce     5.80789581     1.11772783     0.89035214
Ce     3.77258735     2.17421053     4.01725404
Ce    -2.09692398     9.87561309     7.22651930
Ce     9.67981860     1.11772783     0.89035214
Ce     7.84172934     2.14368124     3.99313608
Ce     1.97200155    10.01645130     7.41253251
Ce     0.00000000     4.47091133     0.89035214
Ce    -1.96251911     5.58098565     4.07390832
Ce    -1.79042353     3.34579053     7.25848504
Ce     3.87193441     4.47091133     0.89035214
Ce     1.94185437     5.57094740     4.11368423
Ce     1.85572184     3.38797471     7.44711801
Ce     7.74385721     4.47091133     0.89035214
Ce     5.78798071     5.72693769     3.95241219
Ce    -1.93596721     7.82410489     0.89035214
Ce    -3.88097806     8.93394097     4.03398010
Ce    -3.84920597     6.70566492     7.27510290
Ce     1.93596721     7.82410489     0.89035214
Ce     0.00725559     8.96636285     4.09499158
Ce     0.00492530     6.71741828     7.26278596
Ce     5.80789000     7.82410489     0.89035214
Ce     3.84172584     8.93355998     4.11383298
Ce     3.76938027     6.74751818     7.40185675
Mo     5.74135048     3.37731246     7.03190389
O      0.00000000     0.00000000     0.09999685
O      1.87524045     1.06621528     3.22580444
O      0.04531039     2.20177119     6.45884709
O      0.00000000     2.23545567     1.68070743
O      5.81383326    10.03385444     4.90875460
O      1.99142166     0.93911448     8.00154829
O      3.87192279     0.00000000     0.09999685
O      5.79987225     1.08297661     3.28452507
O      4.30070607     2.29036351     6.62462882
O      3.87192279     2.23545567     1.68070743
O     -2.01674149    10.00328656     4.94285882
O      5.13798877     3.94413786     8.73373552
O      7.74385721     0.00000000     0.09999685
O      9.75959201     1.06525709     3.24450486
O      6.75288155     1.42803560     9.11631838
O      7.74385721     2.23545567     1.68070743
O      1.95981310     9.97157780     4.94150338
O      9.77952419     1.23899187     8.00470898
O     -1.93596140     3.35318350     0.09999685
O     -0.02427999     4.50262838     3.26275057
O     -2.04503947     5.58262322     6.45395404
O     -1.93596721     5.58864923     1.68070743
O     -1.88688546     3.35331957     4.94489148
O     -0.13690074     4.53666803     8.06071533
O      1.93596140     3.35318350     0.09999685
O      3.97729629     4.49452588     3.31036626
O      1.91306290     5.59873025     6.41006707
O      1.93595559     5.58864923     1.68070743
O      1.90063020     3.36157602     4.86753877
O      5.80789581     3.35318350     0.09999685
O      7.65625833     4.49615895     3.30298536
O      5.87485055     5.09192780     6.34316382
O      5.80789000     5.58864923     1.68070743
O      7.20019798     2.48823407     6.36553192
O      8.05158910     4.25087482     8.58957178
O     -3.87192860     6.70637706     0.09999685
O     -1.95274982     7.80894101     3.26135841
O     -3.90007954     8.85260954     6.41336859
O     -3.87192860     8.94183273     1.68070743
O      7.66728374     6.70523149     4.90460228
O     -2.02562814     7.78136944     8.10166524
O     -0.00000581     6.70637706     0.09999685
O      1.92590709     7.80262733     3.27512828
O     -0.12015623     9.05307062     6.56326868
O     -0.00000581     8.94183273     1.68070743
O     -0.04655362     6.74571689     4.93509476
O      3.87192860     6.70637706     0.09999685
O      5.80203993     7.84755475     3.22017006
O      3.94186768     8.93167434     6.55130034
O      3.87192860     8.94183273     1.68070743
O      3.93912097     6.72493357     4.90815251
O      5.97207286     7.64264498     8.03742833
O      1.77401561     7.77020730     8.13141072
O      2.70917193     5.03355911     9.13841518
O      2.49478941     3.87156546     9.78106735
Ti     6.75466323     3.17259066     9.32542105
