84
CIF: CeO2-O2+CO.cif | data_image0
O      0.26648405     0.31160569     0.54999989
O      2.18015428     1.41277739     3.69494880
O      0.24812095     2.50810852     6.86860317
O      0.26648405     2.52062196     2.11203561
O      0.26311954     0.30594475     5.32730250
O      2.15387744     1.41820535     8.51365680
O      4.09272724     0.31160569     0.54999989
O      6.00904306     1.41296422     3.69570729
O      4.08034987     2.55477988     6.92016884
O      4.09272724     2.52062196     2.11203561
O      4.09807137     0.33146606     5.33715246
O      6.00969402     1.38873587     8.51805288
O      7.91885565     0.31160569     0.54999989
O      9.82963271     1.41383489     3.68992984
O      7.91998299     2.51531731     6.89377371
O      7.91885565     2.52062196     2.11203561
O      7.92669190     0.30842899     5.33508098
O      9.83239568     1.40819899     8.52113196
O     -1.64658015     3.62513009     0.54999989
O      0.26521373     4.73052981     3.69372737
O     -1.62514509     5.84763857     6.86962780
O     -1.64663754     5.83424576     2.11203561
O     -1.65191870     3.62474031     5.32459191
O      0.25819851     4.70660152     8.50802087
O      2.17966304     3.62513009     0.54999989
O      4.09008677     4.72807647     3.70544329
O      2.22674659     5.80226155     6.92635905
O      2.17960565     5.83424576     2.11203561
O      2.16176461     3.61428412     5.32576970
O      6.00579145     3.62513009     0.54999989
O      7.91959059     4.73264129     3.69432139
O      5.96338443     5.82761708     6.90612419
O      6.00573405     5.83424576     2.11203561
O      6.01175552     3.62052273     5.32712982
O      7.99282901     4.74082240     8.49066354
O     -3.55970174     6.93875389     0.54999989
O     -1.64233266     8.04310270     3.70720874
O     -3.54078987     9.15167946     6.87653440
O     -3.55970174     9.14777016     2.11203561
O     -3.56967596     6.92933839     5.34439590
O     -1.63889067     8.04095375     8.51608602
O      0.26654145     6.93875389     0.54999989
O      2.17873500     8.04495171     3.69273119
O      0.25726564     9.14574125     6.87429065
O      0.26654145     9.14777016     2.11203561
O      0.29568745     6.93018500     5.33946958
O      2.15191129     8.06450448     8.50660236
O      4.09266985     6.93875389     0.54999989
O      6.01034256     8.04163080     3.69689725
O      4.09810178     9.13816805     6.90457975
O      4.09266985     9.14777016     2.11203561
O      4.08802315     6.95281249     5.33338373
O      6.05283910     8.08979079     8.51597648
O      5.14830898     4.88420275     9.48792400
O      3.94206131     4.75280286     8.69951358
O      4.28961868     7.09209204    11.77092479
Ce     2.17954826     1.41611382     1.33101775
Ce     0.25935232     2.51645503     4.48622633
Ce     0.26497725     0.30617225     7.70141094
Ce     6.00579145     1.41611382     1.33101775
Ce     4.09856289     2.52394099     4.51896473
Ce     4.09913631     0.30934955     7.70184809
Ce     9.83191985     1.41611382     1.33101775
Ce     7.91493166     2.52452521     4.50601459
Ce     7.91636405     0.31511497     7.70322623
Ce     0.26648405     4.72963822     1.33101775
Ce    -1.64514719     5.83207889     4.50685393
Ce    -1.65287112     3.62503851     7.69909138
Ce     4.09272724     4.72963822     1.33101775
Ce     2.19145668     5.83634209     4.52266839
Ce     2.09854466     3.56910398     7.67347467
Ce     7.91885565     4.72963822     1.33101775
Ce     5.99844883     5.83177258     4.52548531
Ce     6.04127224     3.61340284     7.75126584
Ce    -1.64663754     8.04326203     1.33101775
Ce    -3.55916188     9.14694025     4.51064854
Ce    -3.54863689     6.93459966     7.70634271
Ce     2.17960565     8.04326203     1.33101775
Ce     0.27198984     9.14851449     4.50831944
Ce     0.27535213     6.93525910     7.69701097
Ce     6.00573405     8.04326203     1.33101775
Ce     4.09470585     9.13904360     4.50610055
Ce     4.11695443     6.99415120     7.77529856
C      4.15881783     7.09156631    10.63523514
