83
CIF: CeO2-Ov+CO2.cif | data_image0
O      0.09997773     0.10000317     0.00000000
O      2.02163172     1.19870356     3.13660373
O      0.04711549     2.28094270     6.33342308
O      0.09997774     2.30901943     1.56203572
O      0.11237207     0.09553567     4.76757156
O      2.02098623     1.06294093     8.01031107
O      3.92622092     0.10000317     0.00000000
O      5.83370527     1.20187562     3.13497651
O      4.00178871     2.47159088     6.50126910
O      3.92622093     2.30901943     1.56203572
O      3.92586147     0.18347195     4.82285431
O      5.90371647     1.19409228     8.00321526
O      7.75234933     0.10000317     0.00000000
O      9.67251689     1.20185427     3.13192926
O      7.80653694     2.27907601     6.30710979
O      7.75234933     2.30901943     1.56203572
O      7.74423107     0.09597647     4.76391245
O      9.66318164     1.20981430     8.02518766
O     -1.81308647     3.41352756     0.00000000
O      0.09887101     4.52779143     3.14931382
O     -1.83651908     5.64654823     6.32228932
O     -1.81314386     5.62264324     1.56203572
O     -1.81148784     3.42372723     4.76534666
O     -0.04537077     4.58144799     8.05877588
O      2.01315672     3.41352756     0.00000000
O      3.93406631     4.51376468     3.16352695
O      2.02921287     5.61625064     6.41596255
O      2.01309933     5.62264324     1.56203572
O      2.00311195     3.38862811     4.75339968
O      3.32447787     5.62483303     9.69000520
O      5.83928513     3.41352756     0.00000000
O      7.75368237     4.52422260     3.13441388
O      5.74834213     5.48298098     6.48634678
O      5.83922773     5.62264324     1.56203572
O      5.88879454     3.38434775     4.75969818
O      7.79430025     4.47247812     8.00193358
O     -3.72620806     6.72715137     0.00000000
O     -1.82432770     7.83993190     3.17874750
O     -3.68675712     8.91658384     6.29330555
O     -3.72620806     8.93616763     1.56203572
O     -3.79467776     6.69154544     4.81763316
O     -1.82790281     7.84351659     7.99101568
O      0.10003513     6.72715137     0.00000000
O      2.00228448     7.82978755     3.14858048
O      0.07509997     8.94582063     6.32689744
O      0.10003513     8.93616763     1.56203572
O      0.11392796     6.72051726     4.79727977
O      1.89609846     7.92906485     8.07695284
O      3.92616353     6.72715137     0.00000000
O      5.85140020     7.83058950     3.13427530
O      3.92539181     9.00735742     6.32922012
O      3.92616353     8.93616763     1.56203572
O      3.94390595     6.75002406     4.73893791
O      5.96834468     7.90273530     8.00870765
O      2.18607380     6.98609061    11.23623283
Ce     2.01304194     1.20451130     0.78101786
Ce     0.10255300     2.31025037     3.94346161
Ce     0.12392740     0.08978683     7.16901830
Ce     5.83928513     1.20451130     0.78101786
Ce     3.92438399     2.32326705     3.97094495
Ce     3.92166374     0.09954607     7.17511039
Ce     9.66541353     1.20451130     0.78101786
Ce     7.77511320     2.29615211     3.91612005
Ce     7.76004963     0.08591109     7.19069177
Ce     0.09997773     4.51803570     0.78101786
Ce    -1.81850291     5.61775759     3.96648507
Ce    -1.79685800     3.41967860     7.18746578
Ce     3.92622092     4.51803570     0.78101786
Ce     2.01286179     5.62339041     3.99545456
Ce     1.86720494     3.35810368     7.17143301
Ce     7.75234933     4.51803570     0.78101786
Ce     5.82853443     5.61831783     3.96752576
Ce     6.02763721     3.30847391     7.07714661
Ce    -1.81314386     7.83165950     0.78101786
Ce    -3.73373722     8.94177591     3.95998318
Ce    -3.72510739     6.73667237     7.17178187
Ce     2.01309933     7.83165950     0.78101786
Ce     0.10360839     8.94516965     3.96694326
Ce     0.07967531     6.74032010     7.17068698
Ce     5.83922774     7.83165950     0.78101786
Ce     3.92711658     8.93736800     3.94147287
Ce     3.91576927     6.88058500     7.15053805
C      2.73803613     6.32734763    10.44664438
