80
CIF: CeO2-Ov.cif | data_image0
O      0.09997773     0.10000317     0.00000000
O      2.02216657     1.19738959     3.13277063
O      0.04589653     2.27362672     6.32450376
O      0.09997774     2.30901943     1.56203572
O      0.11668213     0.09300302     4.76163494
O      2.01708919     1.05712190     8.00877837
O      3.92622092     0.10000317     0.00000000
O      5.83374048     1.19982124     3.13232906
O      3.99819205     2.46052355     6.49780058
O      3.92622093     2.30901943     1.56203572
O      3.92179883     0.17850787     4.81484004
O      5.90347416     1.19535502     7.99999292
O      7.75234933     0.10000317     0.00000000
O      9.67229619     1.20078867     3.13055680
O      7.80264484     2.28107077     6.29603704
O      7.75234933     2.30901943     1.56203572
O      7.74441135     0.09462391     4.76060313
O      9.65879761     1.20955353     8.01025735
O     -1.81308647     3.41352756     0.00000000
O      0.10052450     4.52799006     3.14807608
O     -1.83909658     5.64835032     6.31894153
O     -1.81314386     5.62264324     1.56203572
O     -1.81140518     3.42305227     4.76143014
O     -0.05047732     4.56783519     8.04396842
O      2.01315672     3.41352756     0.00000000
O      3.93052950     4.51454040     3.16356511
O      2.03954131     5.60606411     6.43594110
O      2.01309933     5.62264324     1.56203572
O      2.00324678     3.38747892     4.74870568
O      5.83928513     3.41352756     0.00000000
O      7.75163576     4.52439499     3.13394916
O      5.73517463     5.47784826     6.50037120
O      5.83922773     5.62264324     1.56203572
O      5.88388732     3.38482333     4.75467328
O      7.79075113     4.46870688     7.99845810
O     -3.72620806     6.72715137     0.00000000
O     -1.82361309     7.83505835     3.17778369
O     -3.68571094     8.91167481     6.29130876
O     -3.72620806     8.93616763     1.56203572
O     -3.80131005     6.68693695     4.81907809
O     -1.82695606     7.83886617     7.99036933
O      0.10003513     6.72715137     0.00000000
O      2.00512840     7.82718572     3.14749062
O      0.06468088     8.94796997     6.31802627
O      0.10003513     8.93616763     1.56203572
O      0.12081612     6.71599529     4.80124842
O      1.89372364     7.93779508     8.04393297
O      3.92616353     6.72715137     0.00000000
O      5.84820085     7.82659508     3.13444803
O      3.93156170     9.00813633     6.32098694
O      3.92616353     8.93616763     1.56203572
O      3.94142413     6.74857622     4.75144392
O      5.96892558     7.89982523     8.01031056
Ce     2.01304194     1.20451130     0.78101786
Ce     0.10278337     2.30867635     3.93834225
Ce     0.12709775     0.08573072     7.16543406
Ce     5.83928513     1.20451130     0.78101786
Ce     3.92277435     2.31932580     3.96786572
Ce     3.92142567     0.09517858     7.17136850
Ce     9.66541353     1.20451130     0.78101786
Ce     7.77359905     2.29700152     3.91146741
Ce     7.75554200     0.08933785     7.18034208
Ce     0.09997773     4.51803570     0.78101786
Ce    -1.81763921     5.61589242     3.96695034
Ce    -1.80040973     3.41788576     7.18257715
Ce     3.92622092     4.51803570     0.78101786
Ce     2.01521362     5.62187382     3.99836263
Ce     1.85784205     3.34468478     7.15974872
Ce     7.75234933     4.51803570     0.78101786
Ce     5.82522094     5.61818191     3.97040656
Ce     6.02355792     3.30522866     7.07017017
Ce    -1.81314386     7.83165950     0.78101786
Ce    -3.73385422     8.93859130     3.95810569
Ce    -3.72569319     6.73222539     7.17282504
Ce     2.01309933     7.83165950     0.78101786
Ce     0.10344127     8.94174366     3.96553464
Ce     0.08233770     6.73752001     7.17653613
Ce     5.83922774     7.83165950     0.78101786
Ce     3.92823267     8.93464365     3.93971741
Ce     3.90647781     6.89777142     7.16720910
