85
CIF: Cu-Mo-CeO2-O-CO.cif | data_image0
Ce     1.93596140     1.11772783     0.89035214
Ce     0.00202246     2.25913415     4.05782664
Ce     0.01831248     0.07959567     7.20326052
Ce     5.80789581     1.11772783     0.89035214
Ce     3.82142931     2.21635527     3.97254540
Ce    -2.05309824    10.01991495     7.28412534
Ce     9.67981860     1.11772783     0.89035214
Ce     7.79090591     2.21691930     3.97944180
Ce     2.07472825     9.99477808     7.27464097
Ce     0.00000000     4.47091133     0.89035214
Ce    -1.95249088     5.59875181     4.06212254
Ce    -1.79385661     3.44492223     7.29858830
Ce     3.87193441     4.47091133     0.89035214
Ce     1.94806260     5.59873023     4.05172125
Ce     1.89766079     3.45758691     7.28763215
Ce     7.74385721     4.47091133     0.89035214
Ce     5.81179732     5.59318952     4.03910108
Ce    -1.93596721     7.82410489     0.89035214
Ce    -3.87995219     8.93234144     4.06692036
Ce    -3.78063184     6.72607993     7.33132588
Ce     1.93596721     7.82410489     0.89035214
Ce    -0.00156469     8.97381971     4.08600752
Ce     0.00449372     6.76968823     7.21391615
Ce     5.80789000     7.82410489     0.89035214
Ce     3.88934024     8.93186167     4.07147327
Ce     3.78731177     6.66945316     7.31306189
Mo     5.78064811     3.19333252     6.79893915
O      0.00000000     0.00000000     0.09999685
O      1.91121945     1.11805066     3.22238341
O      0.01858153     2.31823950     6.39883635
O      0.00000000     2.23545567     1.68070743
O      0.00596943     0.05034619     4.89163255
O      1.83874551     1.22740879     8.02229269
O      3.87192279     0.00000000     0.09999685
O      5.81318986     1.09680661     3.21796562
O      4.11935664     2.38314587     6.47222333
O      3.87192279     2.23545567     1.68070743
O      3.83251702     0.04896845     4.85735335
O      5.74115253     2.32918041     8.47035180
O      7.74385721     0.00000000     0.09999685
O      9.70358134     1.12020494     3.22531778
O      7.45056867     2.40656986     6.47385098
O      7.74385721     2.23545567     1.68070743
O      7.79622018     0.05327498     4.86567160
O      9.77659903     1.26398644     8.01634167
O     -1.93596140     3.35318350     0.09999685
O     -0.00379009     4.47492499     3.28156540
O     -1.88214051     5.59297106     6.39509510
O     -1.93596721     5.58864923     1.68070743
O      9.63319237     3.30620524     4.92398395
O      0.02606716     4.52308072     8.07802023
O      1.93596140     3.35318350     0.09999685
O      3.80357175     4.43395936     3.21855371
O      1.83883390     5.62181449     6.34527716
O      1.93595559     5.58864923     1.68070743
O      1.99115277     3.31391353     4.90394548
O      5.80789581     3.35318350     0.09999685
O      7.81512048     4.42795896     3.22848904
O      5.86972145     5.01521029     6.71732090
O      5.80789000     5.58864923     1.68070743
O      5.79032601     3.23670143     4.80262254
O      8.33293942     4.75436604     8.53640876
O     -3.87192860     6.70637706     0.09999685
O     -1.96136446     7.83079117     3.26017030
O     -3.92016483     8.94909187     6.46918922
O     -3.87192860     8.94183273     1.68070743
O     -3.86955181     6.70763804     4.98156073
O     -1.93929607     7.75700890     8.09498839
O     -0.00000581     6.70637706     0.09999685
O      1.95858625     7.83245128     3.26854027
O      0.00875476     9.02968793     6.49511777
O     -0.00000581     8.94183273     1.68070743
O     -0.02255747     6.78500628     4.85554330
O      3.87192860     6.70637706     0.09999685
O      5.80952142     7.90218354     3.24669076
O      3.94948968     8.94475027     6.47564197
O      3.87192860     8.94183273     1.68070743
O      3.88215043     6.69757958     4.97693908
O      5.84436144     7.59879252     7.97379801
O      1.94644873     7.73448753     8.09428052
O      3.48568776     4.67067082     8.18262462
O      6.76347955     3.38849272    11.50638124
O      5.02820116     4.09385203    12.93191823
Cu     7.02169101     3.58354804     9.01159926
C      5.89130483     3.74236589    12.21928671
