84
CIF: Cu-Mo-CeO2-Ov-CO2.cif | data_image0
Ce     1.93596140     1.11772783     0.89035214
Ce    -0.00433975     2.24012928     4.04169311
Ce     0.04309056     0.01960893     7.23612714
Ce     5.80789581     1.11772783     0.89035214
Ce     3.83427530     2.20136986     3.96944049
Ce    -2.04545077     9.97291171     7.29751183
Ce     9.67981860     1.11772783     0.89035214
Ce     7.76918299     2.22255814     4.02452268
Ce     2.06006126     9.98621643     7.27563467
Ce     0.00000000     4.47091133     0.89035214
Ce    -1.94479204     5.57947839     4.08036713
Ce    -1.79876591     3.43893127     7.30354332
Ce     3.87193441     4.47091133     0.89035214
Ce     1.96354890     5.58847236     4.09147822
Ce     1.80873548     3.31201763     7.24946568
Ce     7.74385721     4.47091133     0.89035214
Ce     5.81153628     5.62118820     3.95824747
Ce    -1.93596721     7.82410489     0.89035214
Ce    -3.87125080     8.93478099     4.06942012
Ce    -3.74077125     6.76038512     7.37725247
Ce     1.93596721     7.82410489     0.89035214
Ce     0.01367173     8.96510141     4.10597139
Ce     0.05132147     6.74833804     7.24889377
Ce     5.80789000     7.82410489     0.89035214
Ce     3.88787844     8.94976867     4.04789078
Ce     3.86317502     6.83626451     7.30495952
Mo     5.74520776     3.23351863     6.85427641
O      0.00000000     0.00000000     0.09999685
O      1.92336141     1.09942307     3.21439811
O     -0.00440806     2.24157283     6.37706845
O      0.00000000     2.23545567     1.68070743
O     -5.76871487    10.05014185     4.87328885
O      1.80592169     1.05424033     8.09970934
O      3.87192279     0.00000000     0.09999685
O      5.74092067     1.08499128     3.23385426
O      4.11602115     2.37186050     6.55822020
O      3.87192279     2.23545567     1.68070743
O      3.83001318     0.06455117     4.87144260
O      5.53299194     2.64369673     8.65038011
O      7.74385721     0.00000000     0.09999685
O      9.75962975     1.08483059     3.22770485
O      7.36495622     2.38235494     6.60792844
O      7.74385721     2.23545567     1.68070743
O      1.97939173    10.01664012     4.88345447
O      9.74802056     1.28182244     8.02817078
O     -1.93596140     3.35318350     0.09999685
O     -0.00074810     4.48219743     3.27645696
O     -1.90822519     5.64965074     6.39801489
O     -1.93596721     5.58864923     1.68070743
O     -1.93725931     3.37790569     4.95210187
O     -0.03830256     4.53078302     8.08801263
O      1.93596140     3.35318350     0.09999685
O      3.87608689     4.47521671     3.21468346
O      1.99530624     5.57452151     6.44843408
O      1.93595559     5.58864923     1.68070743
O      1.99294903     3.30240310     4.83385098
O      5.80789581     3.35318350     0.09999685
O      7.73862467     4.55375515     3.22030598
O      5.66291765     5.04441622     6.92846632
O      5.80789000     5.58864923     1.68070743
O      5.73025272     3.39499768     4.87485672
O      8.36753253     4.77878152     8.57845897
O     -3.87192860     6.70637706     0.09999685
O     -1.96671479     7.80580621     3.30795059
O     -3.85003345     8.89841046     6.41572614
O     -3.87192860     8.94183273     1.68070743
O      7.58858226     6.61914606     5.00928660
O     -1.91447141     7.75236907     8.14786405
O     -0.00000581     6.70637706     0.09999685
O      1.96482209     7.80827986     3.26626865
O     -0.00734086     9.01819127     6.49353876
O     -0.00000581     8.94183273     1.68070743
O      0.04451930     6.74033723     4.89702119
O      3.87192860     6.70637706     0.09999685
O      5.83171803     7.82889104     3.21647757
O      3.95139522     8.97361970     6.46217636
O      3.87192860     8.94183273     1.68070743
O      3.99349501     6.68534396     4.88682491
O      5.97843653     7.78568957     8.06817515
O      3.41289743     4.67920388     9.42926398
O      1.86891721     7.78595149     8.15750574
O      4.56175004     3.94891024    11.34814570
Cu     7.01503134     3.69263057     9.04363509
C      4.00909000     4.29130108    10.37780785
