83
CIF: Cu-Mo-CeO2-Ov-O2.cif | data_image0
Ce     1.93596140     1.11772783     0.89035214
Ce    -0.00047416     2.24730245     4.04815383
Ce     0.02122465     0.02302051     7.20842764
Ce     5.80789581     1.11772783     0.89035214
Ce     3.80764991     2.20665591     3.96334475
Ce    -2.02394711    10.01426789     7.28902449
Ce     9.67981860     1.11772783     0.89035214
Ce     7.80014884     2.21387839     3.97009393
Ce     2.03598759    10.02793273     7.28782378
Ce     0.00000000     4.47091133     0.89035214
Ce    -1.94802690     5.58587136     4.07470624
Ce    -1.83602965     3.42183421     7.29380824
Ce     3.87193441     4.47091133     0.89035214
Ce     1.95631199     5.58894011     4.08862531
Ce     1.79012879     3.35594960     7.29398181
Ce     7.74385721     4.47091133     0.89035214
Ce     5.79759716     5.60704652     4.02180637
Ce    -1.93596721     7.82410489     0.89035214
Ce    -3.87510710     8.92530167     4.06892874
Ce    -3.74069409     6.75717166     7.35226775
Ce     1.93596721     7.82410489     0.89035214
Ce     0.00889761     8.97049670     4.09123236
Ce     0.03605036     6.75385026     7.23806605
Ce     5.80789000     7.82410489     0.89035214
Ce     3.88157582     8.92655029     4.06645134
Ce     3.83149898     6.78499664     7.34438832
Mo     5.78080819     3.14731584     6.77593891
O      0.00000000     0.00000000     0.09999685
O      1.91154080     1.10654845     3.21179577
O     -0.00751633     2.28527601     6.39768265
O      0.00000000     2.23545567     1.68070743
O      0.01344076     0.02682945     4.88402407
O      1.82921521     1.17647561     7.99894367
O      3.87192279     0.00000000     0.09999685
O      5.81557390     1.10911888     3.21587361
O      4.07940198     2.42781435     6.51477138
O      3.87192279     2.23545567     1.68070743
O      3.84646044     0.07789853     4.84826836
O      5.81676634     2.15769451     8.40402497
O      7.74385721     0.00000000     0.09999685
O      9.70362506     1.11764639     3.22086626
O      7.49985798     2.43721216     6.42892982
O      7.74385721     2.23545567     1.68070743
O      7.78774485     0.05851633     4.85650373
O      9.75155698     1.27104292     8.03059242
O     -1.93596140     3.35318350     0.09999685
O     -0.00207387     4.47479271     3.28112402
O     -1.89223258     5.59566940     6.40535115
O     -1.93596721     5.58864923     1.68070743
O      9.64676983     3.31344223     4.90301379
O     -0.01787092     4.48958321     8.06691634
O      1.93596140     3.35318350     0.09999685
O      3.80331151     4.42367394     3.22758511
O      1.92583700     5.51306805     6.45158720
O      1.93595559     5.58864923     1.68070743
O      1.96341412     3.28072826     4.89020316
O      5.80789581     3.35318350     0.09999685
O      7.80497328     4.42871402     3.22927136
O      5.69830157     4.95150328     6.88110631
O      5.80789000     5.58864923     1.68070743
O      5.78427406     3.24427229     4.82778471
O      8.28293416     4.72419704     8.54002255
O     -3.87192860     6.70637706     0.09999685
O     -1.95197921     7.81641971     3.28564718
O     -3.85778831     8.94549960     6.42236626
O     -3.87192860     8.94183273     1.68070743
O      7.71530417     6.67297393     5.00612430
O     -1.91461011     7.76108442     8.10981590
O     -0.00000581     6.70637706     0.09999685
O      1.94509583     7.83179403     3.26528557
O     -0.00456179     9.03321058     6.45509868
O     -0.00000581     8.94183273     1.68070743
O      0.02830321     6.74754883     4.89309985
O      3.87192860     6.70637706     0.09999685
O      5.81888243     7.89433652     3.23570263
O      3.92879148     8.98471730     6.47429906
O      3.87192860     8.94183273     1.68070743
O      3.86990061     6.72228458     4.92718433
O      5.97397970     7.76859420     8.00077124
O      1.83699890     7.78652838     8.11952510
O      3.49407889     4.50948027     8.71059819
O      2.64240357     3.89524270     9.54008322
Cu     7.04969066     3.46462558     8.96324956
