84
CIF: CO+Olatt—CO2.cif | data_image0
Ce     1.93038582     1.11050507     0.88387043
Ce    -0.00504729     2.23152303     4.03904282
Ce     5.81235696    10.03085399     7.22487493
Ce     5.81181033     1.12175166     0.90127712
Ce     3.84506815     2.22276449     4.00391274
Ce    -2.00274302     9.98781672     7.21377558
Ce     9.66901012     1.12377363     0.90450652
Ce     7.76036054     2.23121055     4.04822009
Ce     2.04741130     9.93688450     7.32080329
Ce    -0.00709724     4.47602159     0.89067279
Ce    -1.94789482     5.58615721     4.10683484
Ce    -1.74713844     3.32556975     7.33153638
Ce     3.86254305     4.47635356     0.87798423
Ce     1.93557143     5.59490686     4.03718677
Ce     1.89692132     3.32845909     7.18016481
Ce     7.74213807     4.46545905     0.90125422
Ce     5.81453942     5.62043978     4.01118014
Ce    -1.94645625     7.83004003     0.90010904
Ce    -3.87692311     8.93003138     4.04688230
Ce    -3.86826817     6.74766625     7.30828740
Ce     1.92815559     7.82745473     0.89060408
Ce     0.00335970     8.96526892     4.08249046
Ce     0.01787434     6.70861075     7.22688247
Ce     5.81127600     7.83258510     0.88371011
Ce     3.86780211     8.95173660     4.03008331
Ce     3.86188470     6.76878922     7.17641455
Fe     4.99671727     3.81088160     6.58037107
W      6.51107319     2.93698932     7.92383206
O     11.61334069     0.00154917     0.10141687
O      1.93162724     1.11293010     3.21623037
O      0.09557913     2.21508621     6.37356050
O     -0.00785227     2.23805103     1.69392277
O     -5.80344843    10.05625350     4.83190196
O      2.00058511     1.10524226     8.00914121
O     -1.93899312    10.05733740     0.10496691
O      5.80395611     1.15095496     3.25283574
O      3.95307123     2.26049562     6.45375122
O      3.86763657     2.23577757     1.68132582
O      3.84829163     0.02353256     4.86709726
O      6.04371114     1.27713097     8.55608603
O      7.73821774     0.00761509     0.10924988
O      9.67804625     1.12336394     3.22545053
O      7.63814604     2.30454240     6.56675288
O      7.74357843     2.23531483     1.71563532
O      7.75722732     0.05734736     4.84656361
O      9.87179578     1.00586432     8.07248250
O      9.67032270     3.35425987     0.10911246
O     -0.00642189     4.48178488     3.25868333
O     -1.90850810     5.58891186     6.47441042
O     -1.94403436     5.59119430     1.70564938
O      9.65225588     3.30951123     4.86082181
O      0.18711024     4.50743857     8.07244384
O      1.92738314     3.35244915     0.09928684
O      3.87230395     4.46754261     3.20650697
O      1.96547436     5.56713239     6.33937021
O      1.92862022     5.59252216     1.67404250
O      1.96556410     3.33448355     4.83083639
O      3.87201201     4.45906621     7.97300000
O      5.81155478     3.35101064     0.10766953
O      7.72147370     4.44899564     3.25523251
O      5.76983762     5.49464179     6.44378495
O      5.80528807     5.59217007     1.68114259
O      5.74422565     3.38576309     4.91999131
O      7.70325211     4.17028929     8.58048413
O     -3.87155109     6.71022987     0.10512724
O     -1.93388413     7.83047648     3.26408682
O     -3.85498818     8.94912779     6.41793360
O     -3.87509971     8.94378428     1.69355631
O      7.71897797     6.69834795     4.84329906
O     -1.84928125     7.91974426     8.08692246
O     -0.01209783     6.71325780     0.10434852
O      1.92192754     7.83275729     3.24688787
O     -0.03356653     9.01807381     6.45471299
O     -0.00628994     8.94736548     1.70514550
O     -0.00454339     6.73942076     4.88800689
O      1.95826974     7.66903704     8.04525721
O      3.86815347     6.71410280     0.09951587
O      5.81036516     7.83211802     3.21472228
O      3.90625603     8.89080812     6.33736899
O      3.86556896     8.94715423     1.69389986
O      3.89407139     6.69933645     4.81452522
O      5.69015342     7.85146187     8.03534278
O      4.47806837     3.97215524    10.48404640
C      4.98282921     3.75805935     9.46307505
