81
CIF: Fe-CeO2.cif | data_image0
Ce     1.93596140     1.11772783     0.89035214
Ce    -0.01498224     2.23334381     4.03222487
Ce    11.60006002     0.00922490     7.20157286
Ce     5.80789581     1.11772783     0.89035214
Ce     3.84869038     2.20534944     4.00675512
Ce    -1.85818598     9.99266195     7.26477377
Ce     9.67981860     1.11772783     0.89035214
Ce     7.75271787     2.23037319     4.10436164
Ce     7.70017943     0.05400106     7.22408821
Ce     0.00000000     4.47091133     0.89035214
Ce    -1.93271104     5.58381598     4.03178864
Ce     9.61122858     3.36416560     7.22402941
Ce     3.87193441     4.47091133     0.89035214
Ce     1.94042857     5.58612596     4.03323842
Ce     1.81315535     3.31239758     7.19400557
Ce     7.74385721     4.47091133     0.89035214
Ce     5.82236973     5.62390734     4.00670172
Ce    -1.93596721     7.82410489     0.89035214
Ce    -3.86456695     8.93768526     4.07866603
Ce    -3.77503436     6.67271851     7.26471784
Ce     1.93596721     7.82410489     0.89035214
Ce     0.00588390     8.94153406     4.03178843
Ce     0.02707455     6.69086931     7.16356506
Ce     5.80789000     7.82410489     0.89035214
Ce     3.86631659     8.95597370     4.03222392
Ce     3.84592999     6.83328325     7.19399694
Fe     5.07604587     3.77572955     6.67253715
O      0.00000000     0.00000000     0.09999685
O      1.93365567     1.11092586     3.22576172
O     -0.04259381     2.23367073     6.36950931
O      0.00000000     2.23545567     1.68070743
O     -5.79022984    10.04945006     4.85556272
O      1.90970159     1.16989006     7.94367017
O      3.87192279     0.00000000     0.09999685
O      5.79573790     1.15781711     3.24645448
O      3.99234301     2.33191484     6.46219632
O      3.87192279     2.23545567     1.68070743
O      3.86371804     0.04674601     4.87726536
O      5.77565318     0.63408395     8.15977706
O      7.74385721     0.00000000     0.09999685
O      9.68079589     1.11722389     3.24127101
O      7.78950992     2.20913857     6.38833400
O      7.74385721     2.23545567     1.68070743
O      7.73021790     0.00187778     4.81837964
O      9.70498756     1.10333225     8.02189161
O     -1.93596140     3.35318350     0.09999685
O      0.01562549     4.45369511     3.22461831
O     -1.86258540     5.62136413     6.30572875
O     -1.93596721     5.58864923     1.68070743
O      9.67137876     3.36419191     4.81840042
O      0.03071257     4.45457171     7.98248600
O      1.93596140     3.35318350     0.09999685
O      3.87543747     4.46893505     3.23074174
O      1.94664978     5.58258340     6.38407133
O      1.93595559     5.58864923     1.68070743
O      1.94695144     3.31657817     4.86953933
O      3.91608087     4.44554852     7.86818911
O      5.80789581     3.35318350     0.09999685
O      7.70308988     4.46148865     3.24645419
O      5.78458860     5.43639991     6.46210568
O      5.80789000     5.58864923     1.68070743
O      5.71587813     3.40640645     4.94428509
O      8.14638227     4.74073805     8.15951535
O     -3.87192860     6.70637706     0.09999685
O     -1.95086206     7.83274201     3.24937282
O     -3.83684383     8.92170545     6.44073413
O     -3.87192860     8.94183273     1.68070743
O      7.69929795     6.69025279     4.87728102
O     -1.87628089     7.78975701     8.01169858
O     -0.00000581     6.70637706     0.09999685
O      1.95874087     7.81923250     3.22459720
O      0.00850594     8.86208460     6.30571874
O     -0.00000581     8.94183273     1.68070743
O      0.03559089     6.68590990     4.78223805
O      1.96563848     7.80581868     7.98251218
O      3.87192860     6.70637706     0.09999685
O      5.81268380     7.82956928     3.22575503
O      3.85231566     8.97973486     6.36953752
O      3.87192860     8.94183273     1.68070743
O      3.90916822     6.71529758     4.86950359
O      5.74977191     7.82090854     7.94364182
