83
CIF: Re-Fe-CeO2-Ov-O2.cif | data_image0
Ce     1.93038582     1.11050507     0.88387043
Ce    -0.00690638     2.24107846     4.04728623
Ce     0.00787268     0.02106849     7.23609209
Ce     5.81181033     1.12175166     0.90127712
Ce     3.82723225     2.20795340     4.01576529
Ce    -2.01318617    10.00852618     7.30844897
Ce     9.66901012     1.12377363     0.90450652
Ce     7.75209936     2.22750733     4.03658707
Ce     2.03401959     9.95193036     7.32588372
Ce    -0.00709724     4.47602159     0.89067279
Ce    -1.95299035     5.57558162     4.08371950
Ce    -1.81190070     3.32259795     7.30512273
Ce     3.86254305     4.47635356     0.87798423
Ce     1.94259413     5.57505834     4.07492360
Ce     1.84909498     3.28748102     7.29239977
Ce     7.74213807     4.46545905     0.90125422
Ce     5.80630107     5.63750439     3.99319975
Ce    -1.94645625     7.83004003     0.90010904
Ce    -3.87205538     8.95468186     4.03772449
Ce    -3.85355718     6.80903245     7.19491483
Ce     1.92815559     7.82745473     0.89060408
Ce    -0.00627816     8.95288892     4.11770388
Ce    -0.00035898     6.69444285     7.26541757
Ce     5.81127600     7.83258510     0.88371011
Ce     3.86750994     8.95996695     4.03139545
Ce     3.87626561     6.82067814     7.18896980
Fe     5.05584058     3.79275940     6.54018723
Re     6.45413268     3.00349563     8.01880933
O     11.61334069     0.00154917     0.10141687
O      1.92751449     1.11181154     3.21301507
O      0.00346052     2.21747980     6.35677378
O     -0.00785227     2.23805103     1.69392277
O      5.80680063    10.05586538     4.82067395
O      1.80525131     1.02515729     8.09418241
O     -1.93899312    10.05733740     0.10496691
O      5.80941797     1.14527513     3.25533429
O      3.97829713     2.30838861     6.44604466
O      3.86763657     2.23577757     1.68132582
O      3.85521393     0.02531304     4.84016138
O      6.04434052     1.33188168     8.60407671
O      7.73821774     0.00761509     0.10924988
O      9.66575204     1.12152571     3.22456883
O      7.58286133     2.33786272     6.64882506
O      7.74357843     2.23531483     1.71563532
O      7.75721457     0.07658034     4.87898161
O      9.81651814     1.03404200     8.07766185
O      9.67032270     3.35425987     0.10911246
O     -0.01956899     4.48496534     3.25401906
O     -2.07666044     5.58272591     6.43877218
O     -1.94403436     5.59119430     1.70564938
O      9.61438352     3.31351053     4.85376078
O      0.00132656     4.63181957     8.07691074
O      1.92738314     3.35244915     0.09928684
O      3.88355564     4.47414041     3.22448938
O      2.09839025     5.57863609     6.42634757
O      1.92862022     5.59252216     1.67404250
O      1.94415337     3.33799589     4.80064337
O      5.81155478     3.35101064     0.10766953
O      7.71314321     4.46206871     3.24352683
O      5.79971150     5.50994175     6.43139819
O      5.80528807     5.59217007     1.68114259
O      5.78123425     3.38321774     4.91793468
O      7.72267763     4.17719753     8.58981371
O     -3.87155109     6.71022987     0.10512724
O     -1.92535715     7.81448332     3.27254938
O     -3.88266438     8.89690244     6.38218890
O     -3.87509971     8.94378428     1.69355631
O      7.69723862     6.71616937     4.84252140
O     -2.00075427     7.70144032     8.09108691
O     -0.01209783     6.71325780     0.10434852
O      1.91449021     7.83156417     3.27293715
O      0.00537154     8.92855866     6.48366777
O     -0.00628994     8.94736548     1.70514550
O     -0.00299969     6.66767635     4.92982234
O      2.00048724     7.70204328     8.09612814
O      3.86815347     6.71410280     0.09951587
O      5.80634176     7.83619688     3.20268914
O      3.90271933     8.89866765     6.37721127
O      3.86556896     8.94715423     1.69389986
O      3.91280297     6.72486323     4.82362028
O      5.82576354     7.78550679     7.99775470
O      4.10492535     4.39169931     8.13043744
O      5.04125115     3.90504269     9.13830095
