84
CIF: Re-Fe-CeO2-CO.cif | data_image0
Ce     1.93038582     1.11050507     0.88387043
Ce    -0.00573823     2.23107136     4.02792389
Ce     0.03191930     0.00872513     7.22895316
Ce     5.81181033     1.12175166     0.90127712
Ce     3.85349801     2.22069170     4.02876318
Ce    -1.97305488    10.03425791     7.28167031
Ce     9.66901012     1.12377363     0.90450652
Ce     7.76596300     2.21786414     4.03668442
Ce     2.07069898     9.88399049     7.32468736
Ce    -0.00709724     4.47602159     0.89067279
Ce    -1.95244877     5.57618692     4.08151003
Ce    -1.74614996     3.31821653     7.31275815
Ce     3.86254305     4.47635356     0.87798423
Ce     1.92942934     5.58827100     4.03501590
Ce     1.89780766     3.33643106     7.17144105
Ce     7.74213807     4.46545905     0.90125422
Ce     5.80821756     5.61399016     4.02119511
Ce    -1.94645625     7.83004003     0.90010904
Ce    -3.86601103     8.95362093     4.03831304
Ce    -3.84367015     6.80400171     7.20575422
Ce     1.92815559     7.82745473     0.89060408
Ce    -0.00203720     8.95227831     4.10375577
Ce     0.00989346     6.68678914     7.21967103
Ce     5.81127600     7.83258510     0.88371011
Ce     3.87864690     8.94498637     4.03799642
Ce     3.88337629     6.73376726     7.18184815
Fe     5.09595502     3.77985311     6.70865538
Re     6.54782492     2.93515463     7.92258759
O     11.61334069     0.00154917     0.10141687
O      1.93484983     1.11592812     3.21505499
O      0.06510907     2.22999769     6.33190137
O     -0.00785227     2.23805103     1.69392277
O     -5.80091260    10.05757081     4.82339590
O      1.85230850     1.19518682     8.03416235
O     -1.93899312    10.05733740     0.10496691
O      5.82089746     1.16186882     3.25973398
O      3.93059414     2.31331080     6.45316342
O      3.86763657     2.23577757     1.68132582
O      3.86949708     0.02381941     4.83702122
O      6.00399250     1.26974644     8.50793366
O      7.73821774     0.00761509     0.10924988
O      9.67256476     1.11561233     3.22378728
O      7.65941636     2.27736319     6.58455380
O      7.74357843     2.23531483     1.71563532
O      7.77101630     0.04961131     4.86344528
O      9.87575444     1.00775346     8.08743101
O      9.67032270     3.35425987     0.10911246
O     -0.01310662     4.47458021     3.24473789
O     -2.00522659     5.57649114     6.44951676
O     -1.94403436     5.59119430     1.70564938
O      9.63550966     3.30904521     4.84539257
O      0.14998522     4.52626553     8.05606366
O      1.92738314     3.35244915     0.09928684
O      3.88866604     4.46438689     3.21463347
O      1.92774498     5.59730861     6.31723986
O      1.92862022     5.59252216     1.67404250
O      1.95934275     3.33969125     4.81574077
O      3.82351129     4.51294368     7.89382091
O      5.81155478     3.35101064     0.10766953
O      7.70544579     4.44770385     3.25491081
O      5.83462816     5.51710722     6.46540593
O      5.80528807     5.59217007     1.68114259
O      5.74092573     3.40062927     4.99904280
O      7.71309457     4.25153416     8.48283926
O     -3.87155109     6.71022987     0.10512724
O     -1.94296590     7.82349283     3.25555655
O     -3.87242197     8.92087764     6.40436752
O     -3.87509971     8.94378428     1.69355631
O      7.71865635     6.71474218     4.85989402
O     -1.98055083     7.69987729     8.08521906
O     -0.01209783     6.71325780     0.10434852
O      1.92736750     7.82789867     3.25882341
O      0.02211383     8.90950196     6.47005845
O     -0.00628994     8.94736548     1.70514550
O     -0.04102477     6.70255732     4.86528868
O      2.00320989     7.63739133     8.08552458
O      3.86815347     6.71410280     0.09951587
O      5.81123630     7.82626671     3.21682306
O      3.94379766     8.86751295     6.36817535
O      3.86556896     8.94715423     1.69389986
O      3.90699362     6.68371752     4.83163523
O      5.85781988     7.78915105     8.01994010
O      4.76924257     3.93916256    10.56339619
C      5.31227052     3.64391983     9.59948946
