83
CIF: Re-Fe-CeO2-O.cif | data_image0
Ce     1.93038582     1.11050507     0.88387043
Ce     0.00439407     2.22190117     4.00474262
Ce    -5.75801085    10.05710881     7.20465471
Ce     5.81181033     1.12175166     0.90127712
Ce     3.86307574     2.21708293     4.01710557
Ce    -1.94510255    10.03215143     7.29237396
Ce     9.66901012     1.12377363     0.90450652
Ce     7.74097145     2.22647918     4.10798281
Ce     2.05027055     9.98273241     7.27858046
Ce    -0.00709724     4.47602159     0.89067279
Ce    -1.95126358     5.58156012     4.06151234
Ce    -1.81729342     3.27968663     7.18776324
Ce     3.86254305     4.47635356     0.87798423
Ce     1.92718008     5.58722924     4.03612635
Ce     1.87554408     3.33313053     7.17058734
Ce     7.74213807     4.46545905     0.90125422
Ce     5.80710729     5.60759726     4.01497195
Ce    -1.94645625     7.83004003     0.90010904
Ce    -3.85939517     8.94622665     4.04973434
Ce    -3.84199412     6.76196719     7.22151889
Ce     1.92815559     7.82745473     0.89060408
Ce    -0.00219726     8.95255702     4.09635870
Ce     0.00176376     6.68620116     7.20330599
Ce     5.81127600     7.83258510     0.88371011
Ce     3.87740816     8.94445473     4.03975958
Ce     3.85841280     6.74916218     7.19906685
Fe     5.04517184     3.80587407     6.65457334
Re     6.45165811     3.06587025     8.14645586
O     11.61334069     0.00154917     0.10141687
O      1.93898481     1.11272233     3.20879603
O      0.02862874     2.23728325     6.31229529
O     -0.00785227     2.23805103     1.69392277
O     -5.78259408    10.05444015     4.82766294
O      1.84947500     1.19537920     7.98826599
O     -1.93899312    10.05733740     0.10496691
O      5.81457370     1.15074198     3.26058539
O      3.95361063     2.32678857     6.44078691
O      3.86763657     2.23577757     1.68132582
O      3.86783225     0.02930422     4.84220796
O      6.05988102     1.26905188     8.33185844
O      7.73821774     0.00761509     0.10924988
O      9.67834415     1.11642697     3.23782553
O      7.75625175     2.31035027     6.58855454
O      7.74357843     2.23531483     1.71563532
O      7.76530609     0.03159310     4.84455365
O      9.89961960     1.14238630     8.03521874
O      9.67032270     3.35425987     0.10911246
O     -0.00571994     4.47119921     3.23563283
O     -1.98346107     5.52864791     6.42148586
O     -1.94403436     5.59119430     1.70564938
O      9.66673539     3.31903968     4.84590606
O      0.02566853     4.42834963     7.98937897
O      1.92738314     3.35244915     0.09928684
O      3.87954675     4.46999637     3.21659422
O      1.88982629     5.57812310     6.33941924
O      1.92862022     5.59252216     1.67404250
O      1.95892074     3.32998870     4.82520190
O      5.81155478     3.35101064     0.10766953
O      7.71693226     4.45664827     3.26049958
O      5.81328853     5.50188075     6.44434981
O      5.80528807     5.59217007     1.68114259
O      5.76664027     3.38453281     4.94204051
O      7.88173566     4.28741377     8.24905220
O     -3.87155109     6.71022987     0.10512724
O     -1.94702977     7.82261629     3.25544249
O     -3.85749243     8.90829832     6.41194704
O     -3.87509971     8.94378428     1.69355631
O      7.71962290     6.70318424     4.87612379
O     -1.96406480     7.67345824     8.05899068
O     -0.01209783     6.71325780     0.10434852
O      1.92988116     7.81991267     3.25396057
O      0.01900589     8.89925489     6.44951640
O     -0.00628994     8.94736548     1.70514550
O     -0.04034590     6.69987184     4.85484751
O      1.99160407     7.64357141     8.05526896
O      3.86815347     6.71410280     0.09951587
O      5.81005390     7.82050113     3.22392763
O      3.95935595     8.89326501     6.38000283
O      3.86556896     8.94715423     1.69389986
O      3.88763471     6.68603039     4.85002259
O      5.86806049     7.78410796     7.99680583
O      3.83396175     4.49758049     7.83417226
O      5.66276338     3.62558945     9.58912268
