84
CIF: CO+Olatt—CO2.cif | data_image0
Ce     1.93038582     1.11050507     0.88387043
Ce    -0.00219162     2.23358629     4.04083824
Ce    -5.78547732    10.04643321     7.22118044
Ce     5.81181033     1.12175166     0.90127712
Ce     3.85769200     2.22086300     4.00943363
Ce    -1.92518497    10.04809436     7.21433499
Ce     9.66901012     1.12377363     0.90450652
Ce     7.73557216     2.23996122     4.08357027
Ce     1.97534922    10.05065176     7.22446830
Ce    -0.00709724     4.47602159     0.89067279
Ce    -1.93399112     5.58412427     4.06052266
Ce    -1.90908662     3.32290631     7.22460060
Ce     3.86254305     4.47635356     0.87798423
Ce     1.95010765     5.58024389     4.05930371
Ce     1.88604824     3.31031123     7.21117197
Ce     7.74213807     4.46545905     0.90125422
Ce     5.81323901     5.60800179     4.00935054
Ce    -1.94645625     7.83004003     0.90010904
Ce    -3.86507194     8.93775449     4.05650717
Ce    -3.85693144     6.70230756     7.21433556
Ce     1.92815559     7.82745473     0.89060408
Ce     0.00471980     8.94201639     4.06038356
Ce     0.01741062     6.69609128     7.22459553
Ce     5.81127600     7.83258510     0.88371011
Ce     3.87239204     8.94441178     4.04082716
Ce     3.88388937     6.77067781     7.21115968
Rh     4.87998072     3.88850168     6.41797679
Co     6.54953320     2.92428100     7.87980846
O     11.61334069     0.00154917     0.10141687
O      1.93136951     1.11002250     3.23036556
O      0.01541509     2.21780628     6.41081555
O     -0.00785227     2.23805103     1.69392277
O     -5.79519777    10.05198899     4.86419024
O      1.94543412     1.09423377     8.00958144
O     -1.93899312    10.05733740     0.10496691
O      5.80692921     1.09086494     3.24214747
O      3.81731924     2.19438305     6.39135908
O      3.86763657     2.23577757     1.68132582
O     -1.93547605    10.04369448     4.86873703
O      5.94559031     1.13881986     8.07069110
O      7.73821774     0.00761509     0.10924988
O      9.68014069     1.11743409     3.25034723
O      7.76273939     2.22387500     6.48744218
O      7.74357843     2.23531483     1.71563532
O      7.75329486     0.00166891     4.87731731
O      9.73799465     1.08381956     8.02036931
O      9.67032270     3.35425987     0.10911246
O     -0.00388390     4.47823240     3.24086626
O     -1.94873898     5.58007311     6.44743274
O     -1.94403436     5.59119430     1.70564938
O      9.68262418     3.34382660     4.87743837
O      0.02286577     4.45757260     8.00676626
O      1.92738314     3.35244915     0.09928684
O      3.84156432     4.48835351     3.21029155
O      1.98337453     5.56105813     6.46016352
O      1.92862022     5.59252216     1.67404250
O      1.90848686     3.35281237     4.85284604
O      3.98471037     4.40545102     8.14674578
O      5.81155478     3.35101064     0.10766953
O      7.76635001     4.48482795     3.24205638
O      5.81591658     5.65588368     6.39136590
O      5.80528807     5.59217007     1.68114259
O      5.81384008     3.34954980     4.70861885
O      7.79382405     4.33991944     8.07053297
O     -3.87155109     6.71022987     0.10512724
O     -1.92642217     7.81848073     3.25315865
O     -3.84702098     8.92721223     6.42262188
O     -3.87509971     8.94378428     1.69355631
O     -3.85823765     6.71361624     4.86869044
O     -1.92941505     7.82004542     8.00673217
O     -0.01209783     6.71325780     0.10434852
O      1.92752858     7.82333136     3.24068251
O      0.00078188     8.95657442     6.44723538
O     -0.00628994     8.94736548     1.70514550
O      0.01555951     6.69707925     4.90314139
O      1.95873058     7.81075522     8.00695196
O      3.86815347     6.71410280     0.09951587
O      5.81223888     7.83178612     3.23010361
O      3.89484691     8.93676331     6.41079864
O      3.86556896     8.94715423     1.69389986
O      3.85854329     6.73012578     4.85277505
O      5.83280383     7.82709926     8.00963260
O      5.16988628     3.72191039    10.29142418
C      5.37547074     3.60243922     9.14271966
