84
CIF: Co-Rh-CeO2-CO.cif | data_image0
Ce     1.93038582     1.11050507     0.88387043
Ce     0.00359779     2.23178878     4.03657719
Ce    -5.77504095    10.04020766     7.21836480
Ce     5.81181033     1.12175166     0.90127712
Ce     3.86461378     2.22837259     4.02173450
Ce    -1.94424007    10.04597858     7.20656276
Ce     9.66901012     1.12377363     0.90450652
Ce     7.73386183     2.24076520     4.08827249
Ce     1.99800864    10.01568275     7.20987697
Ce    -0.00709724     4.47602159     0.89067279
Ce    -1.94252615     5.58811863     4.05342612
Ce    -1.86759285     3.32021690     7.20990733
Ce     3.86254305     4.47635356     0.87798423
Ce     1.93920343     5.58643277     4.04320278
Ce     1.89349623     3.35740331     7.21083906
Ce     7.74213807     4.46545905     0.90125422
Ce     5.81008231     5.59811675     4.02162542
Ce    -1.94645625     7.83004003     0.90010904
Ce    -3.87094416     8.94105361     4.04306556
Ce    -3.86483098     6.71982866     7.20653236
Ce     1.92815559     7.82745473     0.89060408
Ce    -0.00310203     8.94712854     4.05333606
Ce    -0.00464772     6.70845147     7.19314309
Ce     5.81127600     7.83258510     0.88371011
Ce     3.87673673     8.94006106     4.03663255
Ce     3.84665651     6.74026580     7.21086826
Rh     4.90006329     3.87662284     6.53160956
Co     6.67745362     2.85001638     7.94777022
O     11.61334069     0.00154917     0.10141687
O      1.93541455     1.11391927     3.22680009
O      0.02660788     2.22311909     6.39604440
O     -0.00785227     2.23805103     1.69392277
O     -5.79469201    10.05160990     4.85530976
O      1.94766748     1.07299055     8.00554066
O     -1.93899312    10.05733740     0.10496691
O      5.80521111     1.10832251     3.24386733
O      3.84095566     2.19560896     6.42800690
O      3.86763657     2.23577757     1.68132582
O     -1.94022351    10.05810119     4.86500279
O      6.00441776     1.09560666     8.07887506
O      7.73821774     0.00761509     0.10924988
O      9.68055199     1.11701761     3.24875991
O      7.76722362     2.22113397     6.50112547
O      7.74357843     2.23531483     1.71563532
O      7.75450465     0.00248696     4.87141969
O      9.75613381     1.07314672     8.00843159
O      9.67032270     3.35425987     0.10911246
O     -0.00493341     4.47351847     3.23942796
O     -1.95319260     5.58848541     6.43221917
O     -1.94403436     5.59119430     1.70564938
O      9.68228377     3.34211072     4.87155492
O      0.01527014     4.47173909     8.00300230
O      1.92738314     3.35244915     0.09928684
O      3.86279621     4.47603509     3.21447619
O      1.88903186     5.61526949     6.36262348
O      1.92862022     5.59252216     1.67404250
O      1.93384484     3.35091735     4.84686427
O      3.70939982     4.56430233     8.03820946
O      5.81155478     3.35101064     0.10766953
O      7.75024802     4.47746375     3.24373108
O      5.82682449     5.63468305     6.42799392
O      5.80528807     5.59217007     1.68114259
O      5.83059333     3.33976781     4.80469736
O      7.86068124     4.31030864     8.07915154
O     -3.87155109     6.71022987     0.10512724
O     -1.94425548     7.82871994     3.24190608
O     -3.84199045     8.92407689     6.40121066
O     -3.87509971     8.94378428     1.69355631
O     -3.87309269     6.71031225     4.86495506
O     -1.94716069     7.83001737     8.00479389
O     -0.01209783     6.71325780     0.10434852
O      1.93099958     7.82648110     3.23927277
O     -0.00880138     8.95563693     6.43191193
O     -0.00628994     8.94736548     1.70514550
O     -0.02725444     6.72149213     4.85640517
O      1.94257802     7.80957624     8.00308751
O      3.86815347     6.71410280     0.09951587
O      5.81076348     7.82619755     3.22658465
O      3.89570260     8.92422002     6.39606488
O      3.86556896     8.94715423     1.69389986
O      3.87263940     6.70887403     4.84689814
O      5.85217745     7.83544971     8.00557544
O      5.36118767     3.60693750    10.42462804
C      5.82847235     3.33913612     9.40245717
