87
CIF: 6-OH+2H-H2O+H_fs.cif | data_image0
Ce    -0.00274789     0.03170956     8.78186658
Ce     1.92429174     1.12332505     5.60319821
Ce     0.00000000     2.23543938     2.47426506
Ce     3.82817203     0.06664329     8.77891783
Ce     5.78393956     1.12741614     5.62783797
Ce     3.87189458     2.23543938     2.47426506
Ce     7.78897014     0.03939198     8.74811726
Ce     9.66106079     1.13127372     5.58841624
Ce     7.74390532     2.23543938     2.47426506
Ce     9.63936753     3.28413429     8.73515092
Ce    -0.02025704     4.47927444     5.63975115
Ce    -1.93600537     5.58869904     2.47426506
Ce     1.79097926     3.33870475     8.74518085
Ce     3.83866266     4.50836665     5.64576026
Ce     1.93588921     5.58869904     2.47426506
Ce     5.75194661     3.38149230     8.78508508
Ce     7.72475375     4.48458200     5.62068224
Ce     5.80789995     5.58869904     2.47426506
Ce     7.70712357     6.71561824     8.78405736
Ce    -1.92534769     7.81991900     5.61584471
Ce    -3.87195266     8.94185811     2.47426506
Ce     1.95328498     7.82993845     5.63506712
Ce    -0.00005808     8.94185811     2.47426506
Ce     3.93778506     6.82601697     8.84705116
Ce     5.80789150     7.83718592     5.61334663
Ce     3.87195266     8.94185811     2.47426506
Mn    -0.06959375     7.26649480     8.56213195
O     -0.00098110     0.00369429     6.41122726
O     -0.02725280     2.19106920     9.64329954
O      1.93594729     1.11771969     3.26466483
O     -0.00099658     2.23934055     4.81255822
O      0.00000000     0.00000000     1.68386529
O      1.89473083     1.17348492     7.96764344
O     -1.96961259    10.04043353     6.46816835
O      3.82828001     2.24150622     9.55360084
O      5.80795803     1.11771969     3.26466483
O      3.87004891     2.22849140     4.81979654
O      3.87189458     0.00000000     1.68386529
O      5.77407331     1.14335751     7.98801253
O      7.71925931     0.05120438     6.40558740
O      7.71108542     2.22988926     9.53769958
O      9.67985261     1.11771969     3.26466483
O      7.68278369     2.25192093     4.80248183
O      7.74390532     0.00000000     1.68386529
O      9.68021766     1.13414083     7.92418485
O      9.59001362     3.33401290     6.34654789
O     -2.22250776     5.37483507     9.89931436
O      0.00000000     4.47087876     3.26466483
O     -1.93641517     5.61625784     4.82672938
O     -1.93594729     3.35315907     1.68386529
O     -0.09755857     4.16864542     7.86639363
O      1.96339243     3.36277139     6.41209695
O      0.86565320     5.86817098     9.59714452
O      3.87201074     4.47087876     3.26466483
O      1.92096921     5.60404709     4.82248790
O      1.93594729     3.35315907     1.68386529
O      3.67954302     4.59077542     8.12650138
O      5.72572712     3.40679314     6.49273156
O      5.87718197     5.59363192     9.51839324
O      7.74390532     4.47087876     3.26466483
O      5.82194161     5.59515436     4.81252923
O      5.80795803     3.35315907     1.68386529
O      7.75287761     4.48815550     7.96037430
O     -3.86225300     6.74881142     6.46179673
O     -3.84924936     8.96883239     9.53137243
O     -1.93600537     7.82413842     3.26466483
O     -3.86339932     8.94306139     4.80557011
O     -3.87195266     6.70641873     1.68386529
O     -1.84556157     7.76320538     8.06475775
O      0.02525327     6.70894048     6.51919302
O      0.01213743     8.89122161     9.50049743
O      1.93600537     7.82413842     3.26466483
O     -0.01540785     8.94187789     4.82818477
O     -0.00005808     6.70641873     1.68386529
O      2.10848389     7.93840615     7.95150161
O      3.91395202     6.70658942     6.37977126
O      3.94676350     9.10461523     9.60631267
O      5.80789995     7.82413842     3.26466483
O      3.86781591     8.95501796     4.80962292
O      3.87195266     6.70641873     1.68386529
O      5.81240398     7.85667886     7.99743730
O      3.09690884     6.43747460    10.86368096
H     -1.35796655     5.67143755    10.25387579
H      3.20227036     6.84287307    11.74096411
H      1.49167062     6.20597635    10.29607072
N      5.84858050     7.44305972    12.94856175
N      6.73226626     7.20987886    12.30600672
