85
CIF: Mo-Rh-CeO2-O-CO.cif | data_image0
Ce     1.93038582     1.11050507     0.88387043
Ce     0.01361909     2.23442475     4.04875938
Ce     5.81784459    10.03207585     7.23053512
Ce     5.81181033     1.12175166     0.90127712
Ce     3.84595732     2.22142241     4.02586898
Ce    -2.03619800     9.99962123     7.20103270
Ce     9.66901012     1.12377363     0.90450652
Ce     7.72876751     2.24752805     4.05509911
Ce     2.03863230     9.96549493     7.20875789
Ce    -0.00709724     4.47602159     0.89067279
Ce    -1.95480123     5.59465789     4.07198047
Ce    -1.76122411     3.33732939     7.21121021
Ce     3.86254305     4.47635356     0.87798423
Ce     1.93658590     5.58538269     4.07473507
Ce     1.92739733     3.35097421     7.33894188
Ce     7.74213807     4.46545905     0.90125422
Ce     5.81545722     5.61965806     4.00574964
Ce    -1.94645625     7.83004003     0.90010904
Ce    -3.88043979     8.92850172     4.03493513
Ce    -3.88340478     6.75603269     7.28320935
Ce     1.92815559     7.82745473     0.89060408
Ce    -0.00989728     8.95876880     4.06131577
Ce    -0.01974409     6.72342580     7.22125110
Ce     5.81127600     7.83258510     0.88371011
Ce     3.86970968     8.94728290     4.02223000
Ce     3.84260139     6.76594622     7.23905891
Rh     4.97297608     3.84699036     6.60357428
Mo     6.60880480     2.89526917     8.06471792
O     11.61334069     0.00154917     0.10141687
O      1.93048583     1.11562627     3.22662697
O      0.00659811     2.20982220     6.41643716
O     -0.00785227     2.23805103     1.69392277
O      5.80580162    10.05329956     4.84435431
O      1.93923303     0.94465241     8.08930265
O     -1.93899312    10.05733740     0.10496691
O      5.79930276     1.11393858     3.24262594
O      3.91926431     2.14675725     6.46177061
O      3.86763657     2.23577757     1.68132582
O     -1.96165192    10.04248798     4.85114273
O      6.10559138     1.13224264     8.48596250
O      7.73821774     0.00761509     0.10924988
O      9.67828503     1.12277526     3.23455064
O      7.71157266     2.26796973     6.53042414
O      7.74357843     2.23531483     1.71563532
O      7.76087387     0.03968667     4.87718524
O      9.70709837     1.08194233     8.01540403
O      9.67032270     3.35425987     0.10911246
O     -0.00864314     4.48250333     3.26331242
O     -1.95618093     5.52432181     6.44618818
O     -1.94403436     5.59119430     1.70564938
O      9.67096084     3.31506385     4.88343134
O     -0.08463291     4.52594254     8.09580354
O      1.92738314     3.35244915     0.09928684
O      3.87258798     4.47600863     3.22605314
O      1.89052023     5.66608260     6.40813057
O      1.92862022     5.59252216     1.67404250
O      1.96496744     3.35352456     4.84528228
O      5.81155478     3.35101064     0.10766953
O      7.74425698     4.46516485     3.23912233
O      5.78247765     5.63149830     6.39691875
O      5.80528807     5.59217007     1.68114259
O      5.82015622     3.33643664     4.82338064
O      7.88796389     4.20930406     8.49129327
O     -3.87155109     6.71022987     0.10512724
O     -1.93248919     7.82880703     3.23606385
O     -3.87296958     8.94138354     6.38633451
O     -3.87509971     8.94378428     1.69355631
O      7.73834348     6.71071688     4.81125751
O     -1.84436584     7.88821600     8.03763998
O     -0.01209783     6.71325780     0.10434852
O      1.91883482     7.83346970     3.25114808
O      0.01560009     9.06274768     6.46278024
O     -0.00628994     8.94736548     1.70514550
O     -0.04665203     6.75318812     4.89566323
O      1.93872345     7.86797251     8.05113679
O      3.86815347     6.71410280     0.09951587
O      5.79626412     7.83075783     3.21524836
O      3.86142633     8.93849792     6.36862151
O      3.86556896     8.94715423     1.69389986
O      3.86998027     6.70892507     4.84212383
O      5.69492457     7.92008498     8.06218532
O      3.87023002     4.64729664     8.10554563
O      5.53656725     3.50462360    10.27900123
O      5.65399529     3.53030859    12.62642860
C      5.60696074     3.51201375    11.45493393
