81
CIF: 2-O2 — 2Olat.cif | data_image0
O      0.39818343     0.52990743     0.59999690
O      2.31798254     1.63892193     3.75722091
O      0.26809981     2.58299385     6.89450319
O      0.39818343     2.73892370     2.16203261
O      0.39175291     0.46130970     5.34832694
O      4.22442662     0.52990743     0.59999690
O      6.13905146     1.62939978     3.74313532
O      4.14893681     2.69139723     7.01928561
O      4.22442662     2.73892370     2.16203261
O      4.24585363     0.50283751     5.37838379
O      6.16435478     1.59836694     8.56251076
O      8.05055502     0.52990743     0.59999690
O      9.97099224     1.63093873     3.74988533
O      8.11381096     2.73787349     6.96389726
O      8.05055502     2.73892370     2.16203261
O      8.04810592     0.52340102     5.36447367
O      9.87606417     1.49613212     8.64878109
O     -1.51488078     3.84343183     0.59999690
O      0.42189448     4.93598043     3.75122742
O     -1.50092274     6.03667043     6.93094514
O     -1.51493817     6.05254750     2.16203261
O     -1.49589837     3.85848146     5.35918644
O      2.31136241     3.84343183     0.59999690
O      4.23870558     4.93419592     3.75032961
O      2.32209107     5.93245226     6.97748182
O      2.31130502     6.05254750     2.16203261
O      2.34460546     3.82733890     5.44311219
O      4.29468139     4.92280674     8.42882544
O      6.13749082     3.84343183     0.59999690
O      8.03880365     4.97099168     3.77282366
O      6.20901046     6.06160232     6.90715001
O      6.13743343     6.05254750     2.16203261
O      6.14618657     3.79977277     5.41250456
O      8.04989550     4.98646979     8.60706748
O     -3.42800237     7.15705564     0.59999690
O     -1.51424644     8.25631456     3.74124110
O     -3.43338587     9.63354086     7.14024479
O     -3.42800237     9.36607190     2.16203261
O     -3.40397186     7.25520149     5.45024350
O     -1.50932735     8.28929511     8.54469335
O      0.39824082     7.15705564     0.59999690
O      2.31283840     8.25046983     3.72861596
O      0.40938736     9.35144531     6.91442925
O      0.39824082     9.36607190     2.16203261
O      0.42740554     7.14755200     5.38926049
O      2.33482128     8.24504870     8.52912886
O      4.22436922     7.15705564     0.59999690
O      6.14391602     8.23261762     3.73214935
O      4.21221700     9.35884895     6.89576662
O      4.22436922     9.36607190     2.16203261
O      4.21401623     7.15264786     5.38391043
O      6.10443486     8.24407925     8.54826134
O      0.64324948     3.17107258     8.95595726
O     -0.00199016     5.31856223     8.97472265
Ce     2.31124763     1.63441557     1.38101475
Ce     0.39458822     2.73635271     4.59240466
Ce     0.23776726     0.50501277     7.73712494
Ce     6.13749082     1.63441557     1.38101475
Ce     4.23582948     2.73190327     4.55957927
Ce     4.36786849     0.49279649     7.68052186
Ce     9.96361922     1.63441557     1.38101475
Ce     8.07878940     2.74513236     4.58676051
Ce     8.05575093     0.52410436     7.74950698
Ce     0.39818343     4.94793996     1.38101475
Ce    -1.49866883     6.04288957     4.58399346
Ce    -1.38463688     3.83431202     7.91480048
Ce     4.22442662     4.94793996     1.38101475
Ce     2.31477500     6.03207886     4.56002260
Ce     8.05055502     4.94793996     1.38101475
Ce     6.14405795     6.04898425     4.57212794
Ce     6.23053451     3.84757907     7.74636867
Ce    -1.51493817     8.26156377     1.38101475
Ce    -3.42990072     9.38020223     4.55984150
Ce    -3.41117167     7.14714608     7.78365628
Ce     2.31130502     8.26156377     1.38101475
Ce     0.41403125     9.35042102     4.52785505
Ce     0.41512035     7.12186351     7.79569853
Ce     6.13743343     8.26156377     1.38101475
Ce     4.22182173     9.35348689     4.52449988
Ce     4.23352611     7.13209919     7.73087669
Ni     3.18167220     4.31455589     7.06125884
