82
CIF: Ni-CeO2-Ov+O2.cif | data_image0
O      0.39818343     0.52990743     0.59999690
O      2.30312699     1.66340302     3.76063160
O      0.23030544     2.71202478     6.96997970
O      0.39818343     2.73892370     2.16203261
O      0.40588085     0.53575830     5.37032186
O      2.27669187     1.13963669     8.76834619
O      4.22442662     0.52990743     0.59999690
O      6.12982867     1.63431877     3.72667976
O      4.12955267     2.79346445     6.95534741
O      4.22442662     2.73892370     2.16203261
O      4.21585806     0.55929663     5.38388698
O      6.11123243     1.67110248     8.54247025
O      8.05055502     0.52990743     0.59999690
O      9.96761789     1.63566148     3.75474509
O      8.02972378     2.70560621     6.89499906
O      8.05055502     2.73892370     2.16203261
O      8.03744146     0.51981455     5.36309882
O      9.84712792     1.60186322     8.62858934
O     -1.51488078     3.84343183     0.59999690
O      0.41416311     4.94062574     3.76963309
O     -1.35448341     5.95246053     7.06406987
O     -1.51493817     6.05254750     2.16203261
O     -1.56628984     3.85588635     5.34846644
O      2.31136241     3.84343183     0.59999690
O      4.21756400     4.95485362     3.74685418
O      2.22976128     5.98774060     7.01340062
O      2.31130502     6.05254750     2.16203261
O      2.33432702     3.88485310     5.45559568
O      4.18359223     4.95984073     8.41723856
O      6.13749082     3.84343183     0.59999690
O      8.03650382     4.94776488     3.72742101
O      6.13817949     6.06092028     6.90505081
O      6.13743343     6.05254750     2.16203261
O      6.13032730     3.82159978     5.37379468
O      8.00054195     4.90919600     8.52589659
O     -3.42800237     7.15705564     0.59999690
O     -1.51719078     8.26089541     3.74538835
O     -3.45516000     9.29502046     6.85758123
O     -3.42800237     9.36607190     2.16203261
O     -3.36349456     7.08557433     5.40694814
O     -1.54002750     8.25645220     8.54250041
O      0.39824082     7.15705564     0.59999690
O      2.30751965     8.26596700     3.73553225
O      0.36654787     9.39145019     6.93220238
O      0.39824082     9.36607190     2.16203261
O      0.39759744     7.18960293     5.37587881
O      2.29638581     8.29814453     8.54601371
O      4.22436922     7.15705564     0.59999690
O      6.14620833     8.24187500     3.76491854
O      4.22492714     9.38408743     6.92982508
O      4.22436922     9.36607190     2.16203261
O      4.18692971     7.16527651     5.39733617
O      6.12590649     8.20011281     8.56337920
O     -0.30232153     4.61104723     9.81289384
O      0.35546022     5.72000354     9.79937978
Ce     2.31124763     1.63441557     1.38101475
Ce     0.38744545     2.73544608     4.63960802
Ce     0.42533068     0.54498759     7.79874026
Ce     6.13749082     1.63441557     1.38101475
Ce     4.21800376     2.73097420     4.54447805
Ce     4.11070801     0.54870152     7.80666814
Ce     9.96361922     1.63441557     1.38101475
Ce     8.04222479     2.73022349     4.52198508
Ce     8.02195919     0.53651370     7.75880746
Ce     0.39818343     4.94793996     1.38101475
Ce    -1.50141952     6.03799184     4.56584531
Ce    -1.60414492     3.70758415     7.72445292
Ce     4.22442662     4.94793996     1.38101475
Ce     2.30023608     6.07693829     4.54919763
Ce     8.05055502     4.94793996     1.38101475
Ce     6.13889464     6.04173344     4.56052867
Ce     6.13472351     3.81364318     7.72927641
Ce    -1.51493817     8.26156377     1.38101475
Ce    -3.42548799     9.36677316     4.56124596
Ce    -3.42951894     7.13034828     7.75381463
Ce     2.31130502     8.26156377     1.38101475
Ce     0.38518479     9.38356092     4.54723967
Ce     0.39060893     7.29627508     7.72442573
Ce     6.13743343     8.26156377     1.38101475
Ce     4.22635983     9.37781989     4.56245275
Ce     4.23474099     7.21721850     7.73581202
Ni     3.11306071     4.34466445     7.07759571
