80
CIF: 12-CO.cif | data_VESTA_phase_1
O      0.00261135     0.00382715     0.19995339
O      1.92396865     1.08427556     3.34514767
O      0.00299588     2.37485920     6.67688299
O      0.00261135     2.21285656     1.76196664
O     -0.01834833     0.05462383     4.94272187
O      3.82876252     0.00382715     0.19995339
O      5.73651784     1.10463399     3.31396625
O      3.80093299     2.32632899     6.66709745
O      3.82876252     2.21285656     1.76196664
O      3.85769973     0.03116391     4.95661322
O      5.87985517     1.16607710     8.23298842
O      7.65492518     0.00382715     0.19995339
O      9.56507376     1.10977330     3.30814967
O      7.64777409     2.18148389     6.44127740
O      7.65492518     2.21285656     1.76196664
O      1.91304689     9.93901202     4.92593363
O      9.42295888     1.16468541     8.22313445
O     -1.91046424     3.31737126     0.19995339
O     -0.01833685     4.44079307     3.34729182
O     -1.79705126     5.38133688     6.62948359
O     -1.91046998     5.52641061     1.76196664
O      9.54640403     3.28310587     4.92844274
O      1.91568694     3.31737126     0.19995339
O      3.85452020     4.44156844     3.34900257
O      2.02988619     5.46435118     6.65968417
O      1.91568120     5.52641061     1.76196664
O      1.91511875     3.31740108     4.84965664
O      3.16043464     4.00784828     9.45875790
O      5.74184959     3.31737126     0.19995339
O      7.64881863     4.44482897     3.34551263
O      5.53698195     5.38715216     6.66244419
O      5.74184385     5.52641061     1.76196664
O      5.75119306     3.28906031     4.95168624
O      7.62980456     4.35370310     8.13907921
O     -3.82354556     6.63092532     0.19995339
O     -1.93723776     7.71828247     3.38034366
O     -3.83638423     8.91300851     6.58342998
O     -3.82354556     8.83995473     1.76196664
O      7.63759843     6.58269332     5.10084152
O     -2.04446958     7.63327010     8.26163791
O      0.00260561     6.63092532     0.19995339
O      1.91969866     7.73035041     3.32598718
O      0.04694118     8.85219166     6.54031888
O      0.00260561     8.83995473     1.76196664
O      0.02971775     6.63100484     4.96240699
O      2.04410800     7.83674511     8.25598101
O      3.82876826     6.63092532     0.19995339
O      5.77118855     7.72471407     3.36572238
O      3.80597777     8.87221211     6.48778721
O      3.82876826     8.83995473     1.76196664
O      3.83210276     6.66839160     4.96302286
O      5.71465137     7.63505942     8.19145122
Ce     1.91568694     1.10834185     0.98097142
Ce     0.02192961     2.23226069     4.17064540
Ce    11.38912237     0.02802267     7.32952574
Ce     5.74184959     1.10834185     0.98097142
Ce     3.81178014     2.21594810     4.16106516
Ce    -1.81650152     9.90586992     7.35108129
Ce     9.56800076     1.10834185     0.98097142
Ce     7.64798644     2.19014219     4.07951903
Ce     7.66098581     0.00897640     7.37489504
Ce     0.00261135     4.42188597     0.98097142
Ce    -1.89893412     5.51994920     4.18501577
Ce     9.48042008     3.21241796     7.24540207
Ce     3.82877400     4.42188597     0.98097142
Ce     1.91989953     5.51904460     4.17064540
Ce     7.65492518     4.42188597     0.98097142
Ce     5.73282752     5.51928317     4.17221930
Ce     5.82741581     3.20700031     7.27637819
Ce    -1.91046998     7.73544002     0.98097142
Ce    -3.82352261     8.85524344     4.20554486
Ce    -3.82053247     6.63169075     7.42462107
Ce     1.91569268     7.73544002     0.98097142
Ce     0.01064054     8.83750933     4.13784447
Ce     0.05264598     6.71195149     7.36720804
Ce     5.74184385     7.73544002     0.98097142
Ce     3.82681119     8.86022370     4.10860191
Ce     3.81235406     6.78148629     7.29772845
Cu     2.10006552     3.44449220     6.94950937
C      2.30608101     3.53306332     8.79895277
