81
CIF: O2→O-Ov+O-Ov.cif | data_image0
O      0.00261135     0.00382715     0.19995339
O      1.92691857     1.10002043     3.34029783
O      0.13270346     2.30630583     6.59258021
O      0.00261135     2.21285656     1.76196664
O     -0.00509971     0.04395507     4.98781698
O      3.82876252     0.00382715     0.19995339
O      5.74724683     1.10341420     3.33507310
O      3.83991494     2.34297422     6.57257551
O      3.82876252     2.21285656     1.76196664
O      3.84431736     0.03693662     5.00483008
O      5.79078552     1.11497823     8.14068777
O      7.65492518     0.00382715     0.19995339
O      9.57408051     1.11154254     3.32226566
O      7.69863693     2.21376971     6.51480525
O      7.65492518     2.21285656     1.76196664
O      7.65272229     0.01568315     4.95920815
O      9.61594058     1.11203210     8.12304328
O     -1.91046424     3.31737126     0.19995339
O      0.01583206     4.42426002     3.34818644
O     -1.96462593     5.56801747     6.44071522
O     -1.91046998     5.52641062     1.76196664
O     -1.87204291     3.29693863     4.98026423
O      1.91568694     3.31737126     0.19995339
O      3.83298344     4.42061155     3.35722382
O      1.98889866     5.61485723     6.58025449
O      1.91568120     5.52641062     1.76196664
O      1.93974353     3.29491762     4.95093382
O      5.74184959     3.31737126     0.19995339
O      7.66046342     4.42163717     3.33674355
O      5.51034633     5.39069716     6.70746537
O      5.74184385     5.52641062     1.76196664
O      5.79348400     3.30166030     4.96000623
O      7.64776738     4.42917408     8.13467188
O     -3.82354556     6.63092532     0.19995339
O     -1.93406041     7.73399912     3.37481976
O     -3.82008619     8.80813616     6.47952498
O     -3.82354556     8.83995473     1.76196664
O      7.53817311     6.58668269     5.01441160
O     -1.95578445     7.73045444     8.14725044
O      0.00260561     6.63092532     0.19995339
O      1.91458392     7.73927843     3.34913588
O      0.02017053     8.82987217     6.54208242
O      0.00260561     8.83995473     1.76196664
O      0.01405150     6.62025641     4.97194595
O      1.96201960     7.82737733     8.21359081
O      3.82876826     6.63092532     0.19995339
O      5.74548292     7.74922311     3.33037108
O      3.81447959     8.87056278     6.48702280
O      3.82876826     8.83995473     1.76196664
O      3.85696865     6.67212209     4.94475711
O      5.71492987     7.75078864     8.11269784
O     -0.43509579     4.72921157     8.37655351
O      1.95813916     0.66119093     8.35917610
O      2.05844602     2.61447687     8.57024796
Ce     1.91568694     1.10834185     0.98097142
Ce     0.00936534     2.22359718     4.15565696
Ce     0.01658575     0.01668907     7.37229454
Ce     5.74184959     1.10834185     0.98097142
Ce     3.85249182     2.20354462     4.14311479
Ce    -1.89275851     9.89048331     7.37781452
Ce     9.56800076     1.10834185     0.98097142
Ce     7.68625219     2.20975319     4.13315737
Ce     7.67753718     0.01941713     7.34692596
Ce     0.00261135     4.42188597     0.98097142
Ce    -1.91250062     5.51795279     4.15672266
Ce    -1.81706954     3.39136749     7.40478927
Ce     3.82877400     4.42188597     0.98097142
Ce     1.91353439     5.53967494     4.20937553
Ce     7.65492518     4.42188597     0.98097142
Ce     5.72208638     5.51664032     4.15025685
Ce     5.88309943     3.22081782     7.28047146
Ce    -1.91046998     7.73544003     0.98097142
Ce    -3.83486697     8.84538566     4.16175265
Ce     7.63415882     6.62825902     7.35360487
Ce     1.91569268     7.73544003     0.98097142
Ce     0.00400298     8.83494039     4.17122666
Ce    -0.00848946     6.59488494     7.38850018
Ce     5.74184385     7.73544003     0.98097142
Ce     3.83189865     8.86286551     4.11796466
Ce     3.74844457     6.79050194     7.27262968
Cu     1.98523704     2.82077997     6.79763864
