81
CIF: O-Ov+O-Ov.cif | data_image0
O      0.00261135     0.00382715     0.19995339
O      1.92049296     1.11312354     3.34178928
O      0.10669059     2.26432444     6.56222151
O      0.00261135     2.21285656     1.76196664
O     -0.00962248     0.02316482     4.97658562
O      3.82876252     0.00382715     0.19995339
O      5.74462537     1.11173447     3.33463284
O      3.77652667     2.26745226     6.58893022
O      3.82876252     2.21285656     1.76196664
O      3.84430860     0.02618911     4.98698283
O      5.75250626     1.10690013     8.14619838
O      7.65492518     0.00382715     0.19995339
O      9.56651236     1.11253609     3.33116090
O      7.67985984     2.22456733     6.54081738
O      7.65492518     2.21285656     1.76196664
O      7.64574673     0.01960790     4.96355341
O      9.60562722     1.10764081     8.13113693
O     -1.91046424     3.31737126     0.19995339
O      0.02647933     4.40874169     3.35602985
O     -1.96174755     5.59001131     6.45569100
O     -1.91046998     5.52641062     1.76196664
O     -1.88033546     3.30228570     4.98860779
O      1.91568694     3.31737126     0.19995339
O      3.81232641     4.40786072     3.35862149
O      1.92897073     5.68109531     6.54695137
O      1.91568120     5.52641062     1.76196664
O      1.93266326     3.28211253     5.04111254
O      5.74184959     3.31737126     0.19995339
O      7.64914851     4.41523835     3.34742290
O      5.69828294     5.51370473     6.58522067
O      5.74184385     5.52641062     1.76196664
O      5.74272369     3.30096598     4.99367437
O      7.68278795     4.44204324     8.15106499
O     -3.82354556     6.63092532     0.19995339
O     -1.93150010     7.73937650     3.35546330
O     -3.81133842     8.82844347     6.50104664
O     -3.82354556     8.83995473     1.76196664
O      7.57885213     6.61750024     4.97924243
O     -1.95176462     7.77642378     8.17874912
O      0.00260561     6.63092532     0.19995339
O      1.91582571     7.73526131     3.35339499
O      0.01230676     8.82856296     6.52956127
O      0.00260561     8.83995473     1.76196664
O     -0.01139686     6.62873922     4.95191335
O      1.93355056     7.82970893     8.23594041
O      3.82876826     6.63092532     0.19995339
O      5.73927249     7.74477484     3.32860159
O      3.80088288     8.86371581     6.49742968
O      3.82876826     8.83995473     1.76196664
O      3.85672199     6.64712782     4.95444553
O      5.74240475     7.81839965     8.13384752
O     -0.42125834     4.68845364     8.36517722
O      1.93616399     1.12667322     8.05143058
O      4.49960085     4.81317768     8.41416965
Ce     1.91568694     1.10834185     0.98097142
Ce    -0.01362860     2.21833393     4.12885402
Ce     5.70869268     9.93181695     7.34017436
Ce     5.74184959     1.10834185     0.98097142
Ce     3.85599133     2.20682075     4.13096642
Ce    -1.87093836     9.89223569     7.34007901
Ce     9.56800076     1.10834185     0.98097142
Ce     7.66656704     2.21496027     4.16552184
Ce     7.66878992     0.02085311     7.35656252
Ce     0.00261135     4.42188597     0.98097142
Ce    -1.91592790     5.52518717     4.15971537
Ce    -1.86601463     3.41123481     7.41563764
Ce     3.82877400     4.42188597     0.98097142
Ce     1.91051238     5.54634191     4.23740662
Ce     7.65492518     4.42188597     0.98097142
Ce     5.72270531     5.52189776     4.14453967
Ce     5.82958438     3.28156236     7.36813047
Ce    -1.91046998     7.73544003     0.98097142
Ce    -3.83399365     8.83687584     4.15569433
Ce    -3.83254235     6.65370543     7.36500245
Ce     1.91569268     7.73544003     0.98097142
Ce     0.00490320     8.83185291     4.15981338
Ce    -0.00019383     6.59586929     7.39463141
Ce     5.74184385     7.73544003     0.98097142
Ce     3.82247713     8.84545773     4.13532219
Ce     3.74109060     6.72278962     7.35171347
Cu     1.93775194     2.39927836     6.69855599
