81
CIF: O2.cif | data_image0
O      0.00261135     0.00382715     0.19995339
O      1.92612687     1.09305389     3.34587286
O      0.06268527     2.22915771     6.57063786
O      0.00261135     2.21285656     1.76196664
O     11.46292231     0.01589164     4.97183513
O      3.82876252     0.00382715     0.19995339
O      5.74394697     1.10707558     3.33616889
O      3.86408324     2.29755890     6.62277849
O      3.82876252     2.21285656     1.76196664
O      3.84819304     0.03244991     5.00340875
O      5.80924062     1.09049687     8.17521227
O      7.65492518     0.00382715     0.19995339
O      9.57094515     1.11464124     3.32310447
O      7.69118590     2.20789107     6.51338481
O      7.65492518     2.21285656     1.76196664
O      7.64929401     0.01347700     4.95695817
O      9.57507900     1.09645914     8.16048910
O     -1.91046424     3.31737126     0.19995339
O      0.00105608     4.42985600     3.34638422
O     -1.97174272     5.57518245     6.45190024
O     -1.91046998     5.52641062     1.76196664
O     -1.88453161     3.30976057     4.97761785
O      1.91568694     3.31737126     0.19995339
O      3.84459344     4.42664658     3.35672494
O      1.99484218     5.59498438     6.60607469
O      1.91568120     5.52641062     1.76196664
O      1.93549630     3.31083297     4.91974807
O      5.74184959     3.31737126     0.19995339
O      7.65525198     4.43456385     3.34316870
O      5.50430007     5.39575167     6.71550810
O      5.74184385     5.52641062     1.76196664
O      5.78601424     3.30654891     4.96552413
O      7.64322958     4.43526657     8.12987108
O     -3.82354556     6.63092532     0.19995339
O     -1.93577498     7.73332517     3.37742674
O     -3.82304299     8.88306728     6.53515145
O     -3.82354556     8.83995473     1.76196664
O      7.53094315     6.61961756     5.04021383
O     -1.95501489     7.74243655     8.15076962
O      0.00260561     6.63092532     0.19995339
O      1.91132887     7.73683304     3.34406295
O      0.01525145     8.83007246     6.53753857
O      0.00260561     8.83995473     1.76196664
O      0.02043221     6.61445168     4.98348707
O      1.94866554     7.81735677     8.21508458
O      3.82876826     6.63092532     0.19995339
O      5.74496159     7.74274425     3.32687795
O      3.80651523     8.87745057     6.49053287
O      3.82876826     8.83995473     1.76196664
O      3.84894884     6.67494971     4.95063184
O      5.70612570     7.76631263     8.11659159
O     -0.41185741     4.69532237     8.35666007
O      1.95221840     0.71779365     8.54071863
O      1.96138623     2.14605727     8.64679523
Ce     1.91568694     1.10834185     0.98097142
Ce     0.00983466     2.22531176     4.15781661
Ce    11.43145212     0.02291996     7.35092831
Ce     5.74184959     1.10834185     0.98097142
Ce     3.83923577     2.21317131     4.15771996
Ce    -1.84102138     9.89463014     7.35881106
Ce     9.56800076     1.10834185     0.98097142
Ce     7.67987035     2.21043050     4.13065791
Ce     7.67026589     0.01453828     7.36016736
Ce     0.00261135     4.42188597     0.98097142
Ce    -1.91316986     5.52150576     4.16026631
Ce    -1.83562885     3.38250519     7.39324431
Ce     3.82877400     4.42188597     0.98097142
Ce     1.91208101     5.52184533     4.20862941
Ce     7.65492518     4.42188597     0.98097142
Ce     5.71945719     5.52334096     4.15248725
Ce     5.87596073     3.21345695     7.27772742
Ce    -1.91046998     7.73544003     0.98097142
Ce    -3.83839293     8.85179987     4.17159349
Ce     7.62984686     6.64615773     7.36137566
Ce     1.91569268     7.73544003     0.98097142
Ce     0.00754215     8.83427841     4.16141457
Ce    -0.00742956     6.57948416     7.38831394
Ce     5.74184385     7.73544003     0.98097142
Ce     3.82408931     8.85963649     4.11018000
Ce     3.74223036     6.78254087     7.27236471
Cu     1.94823156     2.76845140     6.82569406
