89
CIF: CH2CCH2+O2.cif | data_VESTA_phase_1
O      0.00261135     0.00382715     0.19995339
O      1.91545737     1.10180091     3.33992415
O      0.00856293     2.28147681     6.59278213
O      0.00261135     2.21285656     1.76196664
O      0.00124541     0.02782386     4.99477453
O      1.92598886     1.00767297     8.10967699
O      3.82876252     0.00382715     0.19995339
O      5.74256125     1.10677123     3.32872439
O      3.83070239     2.27112860     6.56798754
O      3.82876252     2.21285656     1.76196664
O      3.83199945     0.02599478     4.98273080
O      5.75398807     1.12107582     8.15306181
O      7.65492518     0.00382715     0.19995339
O      9.57591517     1.10387850     3.33198623
O      7.67726801     2.21447688     6.52932441
O      7.65492518     2.21285656     1.76196664
O      7.66337333     0.01458292     4.95793621
O      9.57073264     1.07062706     8.15714482
O     -1.91046424     3.31737126     0.19995339
O      0.00929756     4.42611074     3.35814943
O     -1.80996454     5.49106169     6.58324750
O     -1.91046998     5.52641061     1.76196664
O      9.56352990     3.30515421     4.96213327
O      1.91568694     3.31737126     0.19995339
O      3.82794755     4.42178656     3.35454543
O      1.90076493     5.67131536     6.62213873
O      1.91568120     5.52641061     1.76196664
O      1.91753497     3.30854397     4.97146260
O      4.25480297     4.57949485     8.58129874
O      5.74184959     3.31737126     0.19995339
O      7.65809323     4.42256193     3.33661669
O      5.68278141     5.51031671     6.51807903
O      5.74184385     5.52641061     1.76196664
O      5.75849910     3.29690348     4.96507577
O      7.62940281     4.44112111     8.10963137
O     -3.82354556     6.63092532     0.19995339
O     -1.91735132     7.73871049     3.34754273
O     -3.81541881     8.79329335     6.49862201
O     -3.82354556     8.83995473     1.76196664
O     -3.80183978     6.58517848     5.00088764
O     -1.88400064     7.75981448     8.13907921
O      0.00260561     6.63092532     0.19995339
O      1.91690366     7.73509210     3.34772521
O      0.01479574     8.86287785     6.50074335
O      0.00260561     8.83995473     1.76196664
O     -0.00200299     6.65431565     4.96760769
O      1.88796644     7.86921125     8.20630060
O      3.82876826     6.63092532     0.19995339
O      5.75566966     7.73656332     3.35646148
O      3.82460158     8.82995444     6.51830713
O      3.82876826     8.83995473     1.76196664
O      3.82701206     6.63655172     4.96991152
O      5.75551470     7.74394921     8.13919326
O     -0.21615671     4.54829117     8.71273057
O     -1.14691674     4.11546567     9.56893071
Ce     1.91568694     1.10834185     0.98097142
Ce    -0.00322545     2.22205165     4.15075499
Ce     5.73911772     9.91972718     7.34604026
Ce     5.74184959     1.10834185     0.98097142
Ce     3.83593083     2.22044127     4.14240649
Ce    -1.90084528     9.93883309     7.34111327
Ce     9.56800076     1.10834185     0.98097142
Ce     7.66535336     2.21209113     4.13654429
Ce     7.66811393     0.03197905     7.34298370
Ce     0.00261135     4.42188597     0.98097142
Ce    -1.89861846     5.51407428     4.16596933
Ce     9.54814302     3.28073006     7.37532843
Ce     3.82877400     4.42188597     0.98097142
Ce     1.91989953     5.52445231     4.22272087
Ce     7.65492518     4.42188597     0.98097142
Ce     5.73768291     5.51890543     4.16076863
Ce     5.77619316     3.29446802     7.32792903
Ce    -1.91046998     7.73544002     0.98097142
Ce    -3.81887383     8.84017342     4.15602412
Ce     7.65763409     6.61242578     7.33260511
Ce     1.91569268     7.73544002     0.98097142
Ce     0.00787423     8.84975620     4.12910820
Ce     0.05333469     6.74948736     7.31645555
Ce     5.74184385     7.73544002     0.98097142
Ce     3.82832634     8.83849345     4.14708256
Ce     3.80256293     6.68223891     7.36497265
Cu     1.92034719     2.42444313     6.74335164
C      3.22616033     6.77367294    11.06513680
C      3.05528616     5.86968087    10.12898724
C      3.43261774     4.50393603     9.73428117
H      2.81583964     7.78366208    10.97569837
H      3.80522019     6.54862674    11.97503193
H      2.53284957     3.88321250     9.54461513
H      3.98384807     4.02640745    10.57948683
