89
CIF: CH2+CH2CO-O.cif | data_VESTA_phase_1
O      0.00261135     0.00382715     0.19995339
O      1.91944613     1.09010077     3.32993332
O     -0.02508619     2.31488731     6.63304196
O      0.00261135     2.21285656     1.76196664
O      0.07041464     0.03957370     5.02896688
O      1.94456676     0.66363728     8.36613101
O      3.82876252     0.00382715     0.19995339
O      5.74978121     1.09953444     3.33068606
O      3.77677656     2.26174464     6.63787771
O      3.82876252     2.21285656     1.76196664
O      3.82842391     0.06630408     4.98633479
O      5.77253153     1.16027177     8.19122312
O      7.65492518     0.00382715     0.19995339
O      9.57577742     1.09393786     3.35554907
O      7.67910456     2.19702111     6.52152336
O      7.65492518     2.21285656     1.76196664
O      1.89028509     9.92720254     4.99769422
O      9.54955487     1.12202018     8.18365016
O     -1.91046424     3.31737126     0.19995339
O     -0.01136368     4.42809887     3.34519329
O     -1.93740419     5.49641970     6.48012301
O     -1.91046998     5.52641061     1.76196664
O      9.55829572     3.29233078     4.96192798
O      1.91568694     3.31737126     0.19995339
O      3.85535239     4.44147897     3.33257930
O      1.98734126     5.43014543     6.64597529
O      1.91568120     5.52641061     1.76196664
O      1.94321804     3.32553253     4.83854812
O      4.05849252     4.55175052     8.72792210
O      5.74184959     3.31737126     0.19995339
O      7.64325158     4.40761121     3.33748347
O      5.63860654     5.46032522     6.56470289
O      5.74184385     5.52641061     1.76196664
O      5.74390424     3.27967635     4.98562768
O      7.61666745     4.38784921     8.12274718
O     -3.82354556     6.63092532     0.19995339
O     -1.91992249     7.73879002     3.37263384
O     -3.69191626     8.72314224     6.51290114
O     -3.82354556     8.83995473     1.76196664
O      7.59178214     6.58041692     4.96893068
O     -1.99914112     7.51342572     8.56854789
O      0.00260561     6.63092532     0.19995339
O      1.92810664     7.75529149     3.33362856
O     -0.08840714     8.87234134     6.61166889
O      0.00260561     8.83995473     1.76196664
O      0.05090699     6.63772472     4.94367989
O      2.05427218     7.83170520     8.18307991
O      3.82876826     6.63092532     0.19995339
O      5.73543887     7.74784595     3.35078176
O      3.86755974     8.90181535     6.50895499
O      3.82876826     8.83995473     1.76196664
O      3.80892774     6.66433582     4.98711034
O      5.76093254     7.72609582     8.11193519
O     -0.84136575     4.95361092     8.96236437
O     -1.63633554     4.90682032    11.08760475
Ce     1.91568694     1.10834185     0.98097142
Ce     0.02159099     2.22849319     4.20417626
Ce     0.07638345     0.07907781     7.39168328
Ce     5.74184959     1.10834185     0.98097142
Ce     3.82735641     2.20600745     4.12954159
Ce     3.77920425     0.07793464     7.38748622
Ce     9.56800076     1.10834185     0.98097142
Ce     7.65945917     2.20094767     4.13186822
Ce     7.67136808     0.01240592     7.36447082
Ce     0.00261135     4.42188597     0.98097142
Ce    -1.90849568     5.51213585     4.16202318
Ce     9.55864008     3.26207147     7.34738605
Ce     3.82877400     4.42188597     0.98097142
Ce     1.91401682     5.53772306     4.14067292
Ce     7.65492518     4.42188597     0.98097142
Ce     5.72319708     5.51447190     4.14076416
Ce     5.81557003     3.24761778     7.33557042
Ce    -1.91046998     7.73544002     0.98097142
Ce    -3.81396104     8.84333455     4.16247938
Ce     7.58548046     6.55023713     7.28773763
Ce     1.91569268     7.73544002     0.98097142
Ce    -0.00412077     8.84078974     4.17801307
Ce     0.06915775     6.63774460     7.35477653
Ce     5.74184385     7.73544002     0.98097142
Ce     3.83775590     8.85635679     4.14959167
Ce     3.85304522     6.77576048     7.33128212
Cu     2.41928163     3.59678284     6.78224287
C     -1.94684523     6.96090494     9.89256049
C     -1.45484379     5.48360621    10.02433447
C      2.90760423     3.90586723     8.74327330
H     -2.93928479     6.99424585    10.37935096
H     -1.28119757     7.56696602    10.53619325
H      2.89702682     2.83755634     9.02814871
H      2.01060236     4.46648963     9.06455364
