90
CIF: CH2CHCH2→CH2CCH2+H.cif | data_image0
O      0.00260992     0.00383004     0.19994992
O      1.92082340     1.09686626     3.34586122
O      0.04780666     2.18635065     6.57903902
O      0.00261004     2.21286003     1.76197005
O      5.72036301     9.93519654     4.96850427
O      1.93958434     1.08396426     8.31916327
O      3.82876002     0.00383004     0.19994992
O      5.74610412     1.11011897     3.33220640
O      3.83674261     2.23298900     6.59396763
O      3.82876002     2.21286003     1.76197005
O      3.85584991     0.00820588     4.98427460
O      5.75156078     1.09232801     8.18132061
O      7.65492998     0.00383004     0.19994992
O      9.57015720     1.11163965     3.33088654
O      7.65484581     2.21337395     6.56356366
O      7.65492998     2.21286003     1.76197005
O      7.65991795     0.02102874     4.95751820
O      9.58324183     1.00860096     8.18944212
O     -1.91046008     3.31737005     0.19994992
O      0.00904995     4.41675461     3.35251046
O     -1.88947077     5.55768692     6.53450198
O     -1.91046995     5.52640997     1.76197005
O     -1.89524360     3.30841787     4.97867081
O     -0.18045810     4.60717333     8.45929661
O      1.91569002     3.31737005     0.19994992
O      3.83138064     4.41086179     3.35093237
O      1.92884846     5.66113451     6.52905455
O      1.91568004     5.52640997     1.76197005
O      1.92630263     3.28687866     4.96893402
O      4.09229342     4.62220712     8.56629655
O      5.74185000     3.31737005     0.19994992
O      7.65786100     4.42919732     3.35398659
O      5.67724867     5.49149034     6.52461795
O      5.74184001     5.52640997     1.76197005
O      5.75211637     3.29682859     4.98271499
O      7.59430675     4.48595932     8.16247900
O     -3.82354999     6.63093003     0.19994992
O     -1.92267751     7.73969151     3.34657773
O     -3.81885963     8.91186400     6.55659504
O     -3.82354993     8.83994997     1.76197005
O      7.63886615     6.64451328     5.01059132
O     -1.89509290     7.78259590     8.14178904
O      0.00260998     6.63093003     0.19994992
O      1.91441735     7.73439095     3.33992032
O      0.04626148     8.84371490     6.51216318
O      0.00261004     8.83994997     1.76197005
O     -0.00772176     6.63975053     4.95094841
O      1.92658967     7.78430453     8.21586581
O      3.82876995     6.63093003     0.19994992
O      5.75620525     7.73710488     3.33450096
O      3.79476991     8.82715537     6.49189898
O      3.82877001     8.83994997     1.76197005
O      3.84696578     6.63995397     4.93789924
O      5.72464697     7.74803346     8.12174537
Ce     1.91568997     1.10833996     0.98097002
Ce    -0.00730503     2.21534898     4.14973790
Ce     5.65373593     9.89360785     7.31663644
Ce     5.74185005     1.10833996     0.98097002
Ce     3.84779451     2.21367243     4.14323259
Ce    -1.81149006     9.89661157     7.32292681
Ce     9.56800004     1.10833996     0.98097002
Ce     7.66703252     2.21576659     4.16382310
Ce     7.67142954     0.01419052     7.35580328
Ce     0.00261004     4.42189001     0.98097002
Ce    -1.90409048     5.52438908     4.16784679
Ce    -1.87765325     3.34603837     7.39956105
Ce     3.82877001     4.42189001     0.98097002
Ce     1.91573343     5.52040576     4.20314709
Ce     7.65492998     4.42189001     0.98097002
Ce     5.73681509     5.52267818     4.15465990
Ce     5.78193850     3.31564542     7.35193779
Ce    -1.91046995     7.73543995     0.98097002
Ce    -3.82409288     8.84656038     4.15686517
Ce     7.64610433     6.63483130     7.33996593
Ce     1.91569002     7.73543995     0.98097002
Ce     0.01440115     8.83941028     4.13095294
Ce     0.04547883     6.64825310     7.33740703
Ce     5.74184001     7.73543995     0.98097002
Ce     3.82200091     8.83823805     4.12159298
Ce     3.77293729     6.65699932     7.31248800
Cu     1.93534371     2.45341482     6.74317172
C      3.36921009     4.52742521     9.78381766
C      2.01149120     3.87800449     9.75060765
C      1.59246166     3.00075380    10.66970625
H      3.22075221     5.54601892    10.21024317
H      3.99003083     3.98519957    10.53392894
H      0.80030762     4.30689102     8.91156518
H      1.93485037     1.71440445     9.08326969
H      0.55485163     2.65135852    10.70577141
H      2.25656389     2.61569687    11.46075434
