85
CIF: 1-NH3-NH2+H_fs.cif | data_image0
Ce    11.60287883     0.00631936     8.79222357
Ce     1.92541710     1.11276143     5.59607730
Ce     0.00000000     2.23543938     2.47426506
Ce     3.80107119     0.07963126     8.75861404
Ce     5.80970357     1.11000783     5.62131012
Ce     3.87189458     2.23543938     2.47426506
Ce     2.00088482    10.03216681     8.73206106
Ce     9.68750167     1.11274749     5.59110512
Ce     7.74390532     2.23543938     2.47426506
Ce    -1.88117571     3.30988589     8.73204161
Ce     0.00747299     4.50769303     5.65767265
Ce    -1.93600537     5.58869904     2.47426506
Ce     1.90293200     3.32956293     8.74204396
Ce     3.87219716     4.46967946     5.61885252
Ce     1.93588921     5.58869904     2.47426506
Ce     5.81756312     3.34546911     8.76482234
Ce     7.75042376     4.47168662     5.62094643
Ce     5.80789995     5.58869904     2.47426506
Ce     7.63687964     6.72470568     8.75783474
Ce    -1.88865864     7.79574089     5.61923479
Ce    -3.87195266     8.94185811     2.47426506
Ce     1.90721854     7.79834921     5.65747141
Ce    -0.00005808     8.94185811     2.47426506
Ce     3.87475654     6.74480704     8.74174295
Ce     5.80611374     7.83449069     5.59589622
Ce     3.87195266     8.94185811     2.47426506
Ni    -0.94440774     7.24668799     9.56725862
O     -5.80209202    10.05549239     6.41854772
O     -0.02581077     2.19177428     9.62863894
O      1.93594729     1.11771969     3.26466483
O     -0.00275126     2.23171692     4.81481711
O      0.00000000     0.00000000     1.68386529
O      1.90294938     1.13708353     7.96523632
O     -1.95729418    10.03526700     6.46078320
O      3.86285253     2.23546232     9.55276343
O      5.80795803     1.11771969     3.26466483
O      3.88464226     2.22070698     4.82045090
O      3.87189458     0.00000000     1.68386529
O      5.80591787     1.07174749     8.01843274
O      7.74199874     0.02178280     6.42627663
O      7.77252664     2.21727796     9.53291752
O      9.67985261     1.11771969     3.26466483
O      7.73760122     2.23861437     4.81144987
O      7.74390532     0.00000000     1.68386529
O      9.69466568     1.10798429     7.95662981
O      9.65984512     3.34313433     6.42645137
O     -1.98473726     5.75645878     9.65038762
O      0.00000000     4.47087876     3.26466483
O     -1.98020780     5.57120220     4.81328480
O     -1.93594729     3.35315907     1.68386529
O      0.00829482     4.31502413     7.98625095
O      1.95708776     3.34206338     6.40778706
O      2.25419520     5.40482722     9.90713972
O      3.87201074     4.47087876     3.26466483
O      1.96958395     5.56861874     4.81691519
O      1.93594729     3.35315907     1.68386529
O      3.85380824     4.47998160     7.97148852
O      5.82449770     3.34133777     6.46791925
O      5.80148670     5.59419357     9.55245146
O      7.74390532     4.47087876     3.26466483
O      5.82625746     5.58360183     4.82052104
O      5.80795803     3.35315907     1.68386529
O      7.77919850     4.49229497     8.01640643
O     -3.86278006     6.73497029     6.45978073
O     -3.93331091     8.97607512     9.57100950
O     -1.93600537     7.82413842     3.26466483
O     -3.86472816     8.93713982     4.80492063
O     -3.87195266     6.70641873     1.68386529
O     -1.93704538     7.82166873     8.12813315
O     -0.01521605     6.71463275     6.21552343
O     -0.17305128     8.89063652     9.65167014
O      1.93600537     7.82413842     3.26466483
O     -0.00762656     8.98807698     4.81337075
O     -0.00005808     6.70641873     1.68386529
O      2.07398382     7.89414576     7.98573622
O      3.89118008     6.69224645     6.40762922
O      3.89651908     8.98352432     9.62850771
O      5.80789995     7.82413842     3.26466483
O      3.87324751     8.94541318     4.81477528
O      3.87195266     6.70641873     1.68386529
O      5.77356924     7.84135666     7.96461013
N     -0.04792992     6.72555487    11.02613227
H      0.47445582     7.41316464    11.57571648
H      1.42513055     5.88383628    10.16156318
H     -0.38451465     5.92597777    11.57035545
