87
CIF: 2-NH2+H+NO-NH2NO+H_is.cif | data_image0
Ce    11.57756716     0.00074166     8.78585877
Ce     1.92380447     1.10435658     5.59111129
Ce     0.00000000     2.23543938     2.47426506
Ce     3.82369631     0.06299727     8.76380440
Ce     5.80385992     1.11675461     5.61800918
Ce     3.87189458     2.23543938     2.47426506
Ce     1.92765250    10.01335217     8.73416152
Ce     9.67696083     1.10730552     5.58787152
Ce     7.74390532     2.23543938     2.47426506
Ce     9.71708089     3.26138475     8.71152527
Ce     0.00529832     4.50279758     5.65646349
Ce    -1.93600537     5.58869904     2.47426506
Ce     1.87851205     3.27004253     8.72318433
Ce     3.86609712     4.48365679     5.62668237
Ce     1.93588921     5.58869904     2.47426506
Ce     5.81203086     3.36667122     8.76401746
Ce     7.75232949     4.48579143     5.62389785
Ce     5.80789995     5.58869904     2.47426506
Ce     7.63275489     6.77172942     8.74739893
Ce    -1.88042941     7.79668690     5.63363086
Ce    -3.87195266     8.94185811     2.47426506
Ce     1.90468853     7.79438101     5.65534321
Ce    -0.00005808     8.94185811     2.47426506
Ce     3.88279468     6.78845377     8.74395661
Ce     5.80256829     7.84019521     5.58305182
Ce     3.87195266     8.94185811     2.47426506
Ni    -0.90042806     7.38897442     9.70175102
O      5.80398297    10.05657601     6.41284740
O     -0.04115982     2.16155014     9.61878481
O      1.93594729     1.11771969     3.26466483
O     -0.00383856     2.22900257     4.81191110
O      0.00000000     0.00000000     1.68386529
O      1.89435089     1.12704978     7.96119535
O     -1.95704869    10.01509494     6.46552728
O      3.84674832     2.25287883     9.52648109
O      5.80795803     1.11771969     3.26466483
O      3.88842070     2.22294021     4.82867817
O      3.87189458     0.00000000     1.68386529
O      5.79409302     1.13859258     7.96921974
O      7.72375736     0.00195589     6.42841703
O      7.74650413     2.24286449     9.51869143
O      9.67985261     1.11771969     3.26466483
O      7.72556478     2.24317163     4.82101890
O      7.74390532     0.00000000     1.68386529
O      9.66906529     1.10409536     7.94369940
O      9.65932319     3.33391136     6.41539025
O     -1.96571670     5.74915464     9.95463689
O      0.00000000     4.47087876     3.26466483
O     -1.98317354     5.57061223     4.81792350
O     -1.93594729     3.35315907     1.68386529
O      0.00660821     4.30180040     7.99993091
O      1.95292583     3.32831905     6.40523947
O      2.20244421     5.27510137    10.22853745
O      3.87201074     4.47087876     3.26466483
O      1.96928277     5.56161950     4.81753639
O      1.93594729     3.35315907     1.68386529
O      3.77277818     4.53142728     8.00398865
O      5.81762713     3.39872733     6.48524249
O      5.82302496     5.60206282     9.51732695
O      7.74390532     4.47087876     3.26466483
O      5.83246583     5.58982746     4.81537173
O      5.80795803     3.35315907     1.68386529
O      7.84817953     4.54006763     8.03176803
O     -3.86483952     6.75960581     6.46214706
O     -3.95643896     8.96001524     9.55754251
O     -1.93600537     7.82413842     3.26466483
O     -3.86640938     8.94168510     4.80062455
O     -3.87195266     6.70641873     1.68386529
O     -1.90347698     7.75918828     8.18485616
O     -0.01117181     6.70473477     6.20440371
O     -0.13033255     9.08012639     9.61812501
O      1.93600537     7.82413842     3.26466483
O     -0.01086897     8.98928843     4.81128176
O     -0.00005808     6.70641873     1.68386529
O      2.07103889     7.84775420     7.98748742
O      3.90135088     6.70160000     6.38669157
O      3.87587519     8.99897866     9.60578388
O      5.80789995     7.82413842     3.26466483
O      3.86810852     8.94944430     4.80797021
O      3.87195266     6.70641873     1.68386529
O      5.75661100     7.84765890     7.95952916
O      2.77240753     5.74318266    12.27920641
N     -0.00792803     7.08332573    11.19527015
N      2.97364882     5.92750494    11.09082355
H      0.23359719     6.15338201    11.55081736
H      0.59866584     7.81436356    11.57268204
H     -2.00202199     5.66887151    10.92748983
