87
CIF: 3-NH2NO+H-NHNO+2H_ts.cif | data_image0
Ce    11.58617658     0.01228399     8.79528089
Ce     1.91865384     1.12192429     5.61131010
Ce     0.00000000     2.23543938     2.47426506
Ce     3.76260666     0.12102006     8.75763505
Ce     5.80777956     1.11311985     5.62164039
Ce     3.87189458     2.23543938     2.47426506
Ce     2.00194987    10.02920439     8.71252510
Ce     9.68131766     1.10856571     5.57445381
Ce     7.74390532     2.23543938     2.47426506
Ce    -1.87843876     3.26155001     8.70065983
Ce     0.00628979     4.50380392     5.65255717
Ce    -1.93600537     5.58869904     2.47426506
Ce     1.89492210     3.43637358     8.80149602
Ce     3.86695823     4.48046222     5.62657844
Ce     1.93588921     5.58869904     2.47426506
Ce     5.82254432     3.33667118     8.77345164
Ce     7.75318997     4.47960797     5.62682414
Ce     5.80789995     5.58869904     2.47426506
Ce     7.56581723     6.74994911     8.77461530
Ce    -1.88850386     7.80141607     5.59904831
Ce    -3.87195266     8.94185811     2.47426506
Ce     1.91321469     7.79097041     5.65814770
Ce    -0.00005808     8.94185811     2.47426506
Ce     3.78937353     6.69456086     8.83664894
Ce     5.78939586     7.83293254     5.61089126
Ce     3.87195266     8.94185811     2.47426506
Ni    -0.69265927     7.25447453     9.31106954
O      5.81112127    10.04650706     6.43102329
O     -0.05641749     2.19111888     9.62350644
O      1.93594729     1.11771969     3.26466483
O     -0.00166952     2.22551534     4.81374815
O      0.00000000     0.00000000     1.68386529
O      1.89500009     1.16032173     7.98033677
O     -1.97407896    10.02153693     6.48007781
O      3.87910762     2.22739650     9.57040748
O      5.80795803     1.11771969     3.26466483
O      3.88807591     2.22038967     4.83490743
O      3.87189458     0.00000000     1.68386529
O      5.78675260     1.05919811     8.01408591
O      7.73758129     0.02172675     6.41480617
O      7.75898580     2.22032937     9.51457238
O      9.67985261     1.11771969     3.26466483
O      7.72707601     2.23982571     4.80535353
O      7.74390532     0.00000000     1.68386529
O      9.68750074     1.11188652     7.92794775
O      9.64300707     3.32734196     6.39715148
O     -1.80463078     5.79808107     9.92203467
O      0.00000000     4.47087876     3.26466483
O     -1.99119667     5.57900223     4.81588533
O      9.67985261     3.35315907     1.68386529
O     -0.04905955     4.34133205     7.96697522
O      1.94396825     3.36193761     6.41684584
O      2.19144682     5.33655691     9.90048147
O      3.87201074     4.47087876     3.26466483
O      1.96495691     5.56837108     4.81031893
O      1.93594729     3.35315907     1.68386529
O      3.85942747     4.47721895     7.96673590
O      5.85664822     3.35377641     6.48807374
O      5.83147032     5.54615001     9.54711951
O      7.74390532     4.47087876     3.26466483
O      5.83474687     5.58691684     4.82758840
O      5.80795803     3.35315907     1.68386529
O      7.86231130     4.55294748     8.05864346
O     -3.87314852     6.76894594     6.49141848
O     -3.92692276     8.97006942     9.55037347
O     -1.93600537     7.82413842     3.26466483
O     -3.86844499     8.94061675     4.80348080
O      7.74384724     6.70641873     1.68386529
O     -1.92253311     7.75375046     8.13123029
O     -0.01964997     6.71705417     6.21246494
O     -0.14605629     8.85437381     9.65975718
O      1.93600537     7.82413842     3.26466483
O     -0.01635118     8.99380540     4.81115977
O     -0.00005808     6.70641873     1.68386529
O      2.04006160     7.87853097     7.98026600
O      3.87939619     6.69059545     6.40710364
O      3.85434703     9.05035333     9.58864555
O      5.80789995     7.82413842     3.26466483
O      3.87371810     8.94530932     4.81154102
O      3.87195266     6.70641873     1.68386529
O      5.73612365     7.82288336     8.00920479
O      4.81687575     7.37949000    12.32235372
H     -1.71955130     5.72927780    10.89221142
H      2.85868228     6.34079610    13.12249150
H      2.37317608     5.78836648    11.28392487
N      2.92587556     6.32218483    12.09098022
N      3.99185674     6.85824983    11.55770709
