     8
 Tv_1:  11.598200   0.000000   0.000000 Tv_2:  -5.799100  10.044336   0.000000 Tv_3:   0.000000   0.000000  22.891600
O      -0.18811051      4.34008373     10.69350635
O       2.14767483      7.96520212     10.54678034
O       4.48171427      4.34008344     10.69341658
O       2.14601688      3.33513429      8.85409561
O       0.17447235      6.77450632      8.90682680
O       4.11993514      6.77487951      8.90665638
O       2.14653924      5.65121519      7.30441472
Au      2.14723050      6.64633487      9.04327124
