     8
 Tv_1:  11.598200   0.000000   0.000000 Tv_2:  -5.799100  10.044336   0.000000 Tv_3:   0.000000   0.000000  22.891600
O       0.36012128      4.64962085     10.28415105
O       2.19679652      8.21503656     10.71154027
O       4.60873551      4.23422648     10.77753765
O       2.28246389      3.59403505      8.86240515
O       0.34070129      6.81967260      8.82047271
O       3.38336668      6.63024363      9.38459909
O       2.12347749      5.65526061      7.18410637
Ga      1.81126717      5.51058434      9.20901648
