83
CIF: CO+H2O.cif | data_image0
O      0.00261135     0.00382715     0.19995339
O      1.92171088     1.08243051     3.34084872
O      0.05541529     2.41240324     6.74525030
O      0.00261135     2.21285656     1.76196664
O     -0.02163194     0.07156859     4.95548952
O      1.88911055     0.81250284     9.15558789
O      3.82876252     0.00382715     0.19995339
O      5.73648129     1.10216940     3.31488057
O      3.77697198     2.33648636     6.68388250
O      3.82876252     2.21285656     1.76196664
O      3.85044160     0.03693798     4.95841179
O      5.86964129     1.15853439     8.23228626
O      7.65492518     0.00382715     0.19995339
O      9.56527589     1.10606673     3.30636285
O      7.64822497     2.17321561     6.44209000
O      7.65492518     2.21285656     1.76196664
O      1.91397899     9.93629937     4.92676107
O      9.42578291     1.15635015     8.21970448
O     -1.91046424     3.31737126     0.19995339
O     -0.02075087     4.43652247     3.34270622
O     -1.80546079     5.37162265     6.63182030
O     -1.91046998     5.52641062     1.76196664
O      9.56091749     3.26393135     4.94053095
O      1.91568694     3.31737126     0.19995339
O      3.85253623     4.43804220     3.34794412
O      1.99441911     5.44945628     6.66367125
O      1.91568120     5.52641062     1.76196664
O      1.91256560     3.31405792     4.83838053
O      3.16912749     4.31102880     9.27747663
O      5.74184959     3.31737126     0.19995339
O      7.65187106     4.43162676     3.34583683
O      5.53500339     5.38019998     6.66591896
O      5.74184385     5.52641062     1.76196664
O      5.74831013     3.27929435     4.95434240
O      7.62812229     4.33676298     8.14834582
O     -3.82354556     6.63092532     0.19995339
O     -1.94015901     7.71378957     3.38199161
O     -3.84399679     8.85676307     6.53965875
O     -3.82354556     8.83995473     1.76196664
O      7.63313892     6.55089863     5.08913631
O     -2.05803891     7.62162168     8.27159811
O      0.00260561     6.63092532     0.19995339
O      1.91970034     7.72770624     3.32986711
O      0.04868687     8.84401099     6.53536895
O      0.00260561     8.83995473     1.76196664
O      0.02291771     6.62388347     4.95870437
O      2.03892357     7.82557187     8.26302121
O      3.82876826     6.63092532     0.19995339
O      5.76586850     7.72308750     3.37073006
O      3.79963370     8.85112927     6.49164567
O      3.82876826     8.83995473     1.76196664
O      3.82489483     6.65394960     4.97073658
O      5.71095784     7.62236225     8.20708513
Ce     1.91568694     1.10834185     0.98097142
Ce     0.02306451     2.22363698     4.16127866
Ce    11.41625781     0.02080344     7.36458420
Ce     5.74184959     1.10834185     0.98097142
Ce     3.81200177     2.20779907     4.15958299
Ce    -1.85690074     9.90090143     7.37376872
Ce     9.56800076     1.10834185     0.98097142
Ce     7.64976869     2.18368704     4.08069880
Ce     1.91804015     9.93624176     7.36826676
Ce     0.00261135     4.42188597     0.98097142
Ce    -1.90148030     5.51155180     4.18454811
Ce     9.48397505     3.20195290     7.25217386
Ce     3.82877400     4.42188597     0.98097142
Ce     1.91511748     5.52094039     4.16419671
Ce     7.65492518     4.42188597     0.98097142
Ce     5.72933179     5.51173023     4.17338399
Ce     5.82629197     3.19377500     7.27651610
Ce    -1.91046998     7.73544003     0.98097142
Ce    -3.82675359     8.84810266     4.20558252
Ce     7.65042797     6.61409420     7.41758450
Ce     1.91569268     7.73544003     0.98097142
Ce     0.00370090     8.83538611     4.14414035
Ce     0.03747480     6.71466944     7.36417266
Ce     5.74184385     7.73544003     0.98097142
Ce     3.82824480     8.85626520     4.12111220
Ce     3.80938588     6.77081467     7.31077994
Cu     2.05451099     3.47250366     6.89838623
C      2.41703613     3.55262168     8.75488587
H      1.91663854     0.51856312    10.08396214
H      1.94444568     1.82843037     9.14891135
