82
CIF: 13-CO2+O.cif | data_image0
O      0.00261135     0.00382715     0.19995339
O      1.93144367     1.06770280     3.33989622
O      0.08655288     2.28185232     6.63451219
O      0.00261135     2.21285656     1.76196664
O     11.46489168     0.01201743     4.95178581
O      3.82876252     0.00382715     0.19995339
O      5.74435335     1.10374160     3.32047210
O      3.77491827     2.22648406     6.82514587
O      3.82876252     2.21285656     1.76196664
O      3.87742673     0.03616653     4.99938246
O      5.81420557     1.07495998     8.19620790
O      7.65492518     0.00382715     0.19995339
O      9.56632351     1.11975444     3.32623149
O      7.65924836     2.22540292     6.50172552
O      7.65492518     2.21285656     1.76196664
O      7.65043893     0.01870449     4.95419860
O      9.44334057     1.17197415     8.22067350
O     -1.91046424     3.31737126     0.19995339
O     -0.02707029     4.43839337     3.34285471
O     -1.96854151     5.56403308     6.47817711
O     -1.91046998     5.52641062     1.76196664
O     -1.88258142     3.30168567     4.99272373
O      1.91568694     3.31737126     0.19995339
O      3.87283402     4.43742573     3.33582564
O      1.98484760     5.59854002     6.58038072
O      1.91568120     5.52641062     1.76196664
O      1.95386385     3.31982782     4.78692928
O      3.59739603     4.45204700     9.24463322
O      5.74184959     3.31737126     0.19995339
O      7.64370600     4.43594099     3.37128779
O      5.52819190     5.36558212     6.65070033
O      5.74184385     5.52641062     1.76196664
O      5.72314846     3.26151454     4.98818684
O      7.61951901     4.43127608     8.15916054
O     -3.82354556     6.63092532     0.19995339
O     -1.94084066     7.73880675     3.37799735
O     -3.75608042     8.96359423     6.65746322
O     -3.82354556     8.83995473     1.76196664
O      7.54008969     6.66591990     5.07481104
O     -1.90059896     7.74804674     8.18914216
O      0.00260561     6.63092532     0.19995339
O      1.91475062     7.73965080     3.33968505
O      0.04217805     8.81543201     6.52473850
O      0.00260561     8.83995473     1.76196664
O      0.00807871     6.61584881     4.97682884
O      1.94544243     7.78290288     8.24169475
O      3.82876826     6.63092532     0.19995339
O      5.75522745     7.73821969     3.33302315
O      3.77550332     8.84914989     6.50674653
O      3.82876826     8.83995473     1.76196664
O      3.85240672     6.66986589     4.94782079
O      5.71886795     7.61422296     8.15815609
O     -0.39548765     4.68996451     8.41226203
O      2.08660738     2.85193636    10.07773043
Ce     1.91568694     1.10834185     0.98097142
Ce     0.01106965     2.23500329     4.16527433
Ce    11.37037660     0.00626798     7.36641227
Ce     5.74184959     1.10834185     0.98097142
Ce     3.82448069     2.21943054     4.11767817
Ce    -1.75501840     9.84441793     7.29281426
Ce     9.56800076     1.10834185     0.98097142
Ce     7.67263172     2.20653176     4.13649879
Ce     7.68235923     0.01909741     7.37917729
Ce     0.00261135     4.42188597     0.98097142
Ce    -1.91295436     5.52657060     4.17122753
Ce    -1.84736983     3.38334144     7.41153017
Ce     3.82877400     4.42188597     0.98097142
Ce     1.91223052     5.51785395     4.19672659
Ce     7.65492518     4.42188597     0.98097142
Ce     5.71781912     5.52716626     4.16606441
Ce     5.86957393     3.22509522     7.28666945
Ce    -1.91046998     7.73544003     0.98097142
Ce    -3.84129189     8.85685831     4.18384809
Ce     7.62661240     6.64033081     7.39126024
Ce     1.91569268     7.73544003     0.98097142
Ce     0.02285966     8.82681041     4.13787640
Ce     0.01610682     6.55235656     7.39912084
Ce     5.74184385     7.73544003     0.98097142
Ce     3.82820092     8.85994688     4.11610685
Ce     3.74327453     6.74139150     7.28529758
Cu     1.93858198     2.47751540     6.73487327
C      2.81863263     3.65374358     9.64383286
