90
CIF: H2O.cif | data_image0
O      0.00261135     0.00382715     0.19995339
O      1.91562622     1.09725302     3.33714693
O      0.04317772     2.19234277     6.53795436
O      0.00261135     2.21285656     1.76196664
O      5.73571733     9.93166158     4.97048490
O      1.93494475     1.01680429     8.14420303
O      3.82876252     0.00382715     0.19995339
O      5.74444834     1.11341753     3.33006983
O      3.84494381     2.29833138     6.58823472
O      3.82876252     2.21285656     1.76196664
O      3.82156462     0.04137957     4.98734121
O      5.75784944     1.14703390     8.19596547
O      7.65492518     0.00382715     0.19995339
O      9.57261604     1.10708408     3.33438818
O      7.65593663     2.21009401     6.53556987
O      7.65492518     2.21285656     1.76196664
O      7.66923962     0.01790459     4.95559349
O      9.57954716     0.97421267     8.21421045
O     -1.91046424     3.31737126     0.19995339
O      0.01114098     4.43736012     3.36103116
O     -1.78681548     5.57738876     6.62279159
O     -1.91046998     5.52641062     1.76196664
O     -1.90892078     3.33075519     4.95544223
O      0.38802810     4.51338028     8.52990341
O      1.91568694     3.31737126     0.19995339
O      3.82776309     4.42438249     3.35076863
O      1.87449969     5.57135255     6.67397519
O      1.91568120     5.52641062     1.76196664
O      1.92551774     3.29890565     4.95663400
O      4.23271368     4.62619092     8.65352663
O      5.74184959     3.31737126     0.19995339
O      7.65791214     4.43307960     3.33808737
O      5.65549329     5.51653188     6.52743734
O      5.74184385     5.52641062     1.76196664
O      5.76128155     3.30886131     4.96397396
O      7.57891921     4.50993861     8.17626079
O     -3.82354556     6.63092532     0.19995339
O     -1.91571487     7.74028586     3.35661462
O     -3.81884324     8.79674252     6.51604190
O     -3.82354556     8.83995473     1.76196664
O      7.66845388     6.58078882     5.01489667
O     -1.87250824     7.82147572     8.19417413
O      0.00260561     6.63092532     0.19995339
O      1.91432716     7.73522942     3.33869853
O      0.00743318     8.92831733     6.49928527
O      0.00260561     8.83995473     1.76196664
O      0.02212877     6.68418548     4.97567440
O      1.88913358     7.84213865     8.19080240
O      3.82876826     6.63092532     0.19995339
O      5.74901535     7.71912216     3.35539099
O      3.81722175     8.81475129     6.50659895
O      3.82876826     8.83995473     1.76196664
O      3.79080064     6.62261807     4.98513499
O      5.72444355     7.72842852     8.16005757
Ce     1.91568694     1.10834185     0.98097142
Ce    -0.00609686     2.21228207     4.14950142
Ce     5.72709528     9.90390467     7.34511296
Ce     5.74184959     1.10834185     0.98097142
Ce     3.83808084     2.22335047     4.14064736
Ce     3.83591027     0.04074404     7.36361012
Ce     9.56800076     1.10834185     0.98097142
Ce     7.67285336     2.22357161     4.14622545
Ce     7.68432803     0.05123333     7.35657985
Ce     0.00261135     4.42188597     0.98097142
Ce    -1.89822983     5.52239522     4.17869507
Ce     9.57161628     3.28127100     7.39940184
Ce     3.82877400     4.42188597     0.98097142
Ce     1.91243516     5.51409756     4.21450432
Ce     7.65492518     4.42188597     0.98097142
Ce     5.73598360     5.51782458     4.15899611
Ce     5.79617729     3.31392444     7.33497866
Ce    -1.91046998     7.73544003     0.98097142
Ce    -3.82305056     8.83990567     4.16148595
Ce     7.64299746     6.62334746     7.35347534
Ce     1.91569268     7.73544003     0.98097142
Ce     0.01007458     8.86997403     4.12092510
Ce    -0.00065541     6.84776827     7.29293316
Ce     5.74184385     7.73544003     0.98097142
Ce     3.82182069     8.83637166     4.14117852
Ce     3.78629187     6.67611339     7.34732950
Cu     1.93402265     2.37697020     6.71491531
C      2.56479299     6.06922540    11.11366607
C      2.58592308     4.99753736    10.35318807
C      3.58844765     4.07102658     9.77986536
H      1.66526778     6.66589849    11.28346189
H      3.48443729     6.43064053    11.60300131
H      0.91750689     4.52708198     9.37544953
H      1.11278500     4.63850782     7.80530860
H      3.12544358     3.09113343     9.53277928
H      4.32911176     3.86886405    10.59074124
