89
CIF: CH2+CH2CO→CH2+CH2CO-O.cif | data_VESTA_phase_1
O     -5.39103326     9.50218044     0.19422805
O      2.26033933     0.64439220     3.33045796
O      0.30615936     1.82163264     6.58520917
O      0.34802706     1.76824145     1.75478145
O     -5.36699736     9.51927834     4.98332386
O      2.27681093     0.19312680     8.35807904
O     -1.57209631     9.50376100     0.19000818
O      6.08828114     0.65646014     3.31549453
O      4.10779827     1.82764673     6.62118071
O      4.16971885     1.76827127     1.76084894
O     -1.56530679     9.54375220     4.97602462
O      6.11019927     0.69615312     8.15899244
O      2.25909965     9.50080863     0.18606203
O      9.91406501     0.65405450     3.33301269
O      8.01721423     1.73722665     6.50051525
O      7.99801650     1.76681994     1.74271491
O      2.24857390     9.48707066     4.96021722
O      9.88513927     0.65407438     8.16588109
O     -1.56540436     2.87130482     0.18553740
O      0.32814636     3.99265897     3.33397071
O     -1.51648888     5.03284778     6.50913747
O     -1.56557654     5.08118913     1.73931620
O     -1.58438974     2.85370988     4.94630306
O      2.25907670     2.87117559     0.19135398
O      4.19702612     3.99575051     3.32651181
O      2.25159274     4.99998402     6.64577000
O      2.25958175     5.08102014     1.75124589
O      2.27706919     2.88848225     4.82773612
O      4.40294978     4.11082339     8.71619770
O      6.07925333     2.87271639     0.18788684
O      7.98782362     3.96654491     3.31857389
O      5.97540766     5.01830462     6.55040095
O      6.08370123     5.08147741     1.74745941
O      6.08876324     2.83352044     4.97057301
O      7.97653455     3.94788632     8.06376024
O     -3.48384039     6.18971985     0.18460219
O     -1.57187248     7.28611305     3.35027994
O     -3.43431655     8.31187799     6.46324354
O     -3.47957614     8.39746692     1.75660626
O     -3.50766968     6.11856473     4.97912680
O     -1.60658335     7.20843687     8.26590340
O      0.34647173     6.18652891     0.18348449
O      2.26107969     7.30013930     3.31866513
O      0.30988412     8.42286526     6.54499496
O      0.34694808     8.39542909     1.74143754
O      0.38060294     6.20387533     4.95957854
O      2.30622449     7.34532946     8.15313024
O      4.17198011     6.18605175     0.18909578
O      6.08170972     7.28278294     3.34651627
O      4.18536974     8.42580769     6.50706175
O      4.17390275     8.39505134     1.75195300
O      4.13734384     6.20284150     4.98188682
O      6.08330523     7.26417405     8.10630109
O     -0.10735808     4.32477583     8.80593266
O     -1.54998878     3.97135618    10.51361125
Ce     2.25862330     0.66527749     0.98049241
Ce     0.35654982     1.77564723     4.19133417
Ce    -5.32509522     9.55056154     7.36994525
Ce     6.08161789     0.66478045     0.96812933
Ce     4.16485772     1.75917558     4.13259814
Ce    -1.63459081     9.51955668     7.38178369
Ce     9.91354847     0.66379633     0.97070687
Ce     8.00349172     1.75602440     4.11172690
Ce     2.26457488     9.50627598     7.33874102
Ce     0.34757940     3.97633644     0.96637295
Ce    -1.56550767     5.06309716     4.14911266
Ce    -1.56435982     2.78486100     7.33230857
Ce     4.16942041     3.97636626     0.97385467
Ce     2.25220684     5.08816746     4.12935911
Ce     7.99601924     3.97720128     0.95939306
Ce     6.07112658     5.06450873     4.14058168
Ce     6.15932136     2.80208813     7.31508694
Ce    -1.56881346     7.29288263     0.96260928
Ce    -3.47729193     8.39321232     4.14578239
Ce    -3.50876014     6.13413178     7.30302040
Ce     2.26029341     7.29058634     0.96564303
Ce     0.33999213     8.40475341     4.14404882
Ce     0.35176330     6.25834010     7.30767366
Ce     6.08529674     7.29235577     0.97230358
Ce     4.17665758     8.40640356     4.13695487
Ce     4.18325196     6.30927596     7.31839441
Cu     2.75946316     3.17218818     6.76531777
C     -0.84058521     6.19094255    10.08603581
C     -0.84894727     4.73548341     9.83619672
C      3.25373160     3.45900553     8.72402157
H     -1.67300923     6.61060665    10.64588705
H      0.11832002     6.71363146    10.18081180
H      3.25159661     2.38847788     9.00157494
H      2.34824141     4.01244085     9.03056659
