84
CIF: Pd-Ti-CeO2-Ov-CO2.cif | data_image0
Ce     1.93038582     1.11050507     0.88387043
Ce     0.00064509     2.23909721     4.07309030
Ce    -5.73164273    10.01631363     7.18101150
Ce     5.81181033     1.12175166     0.90127712
Ce     3.81823679     2.22413427     3.99626789
Ce    -1.88900806    10.03502639     7.28277729
Ce     9.66901012     1.12377363     0.90450652
Ce     7.78031901     2.21469311     4.01569813
Ce     7.70274718     0.00029899     7.26633779
Ce    -0.00709724     4.47602159     0.89067279
Ce    -1.94664202     5.58093394     4.06222667
Ce    -1.95566734     3.38988540     7.26669725
Ce     3.86254305     4.47635356     0.87798423
Ce     1.93880646     5.58714456     4.09543967
Ce     1.85549350     3.31907216     7.29202804
Ce     7.74213807     4.46545905     0.90125422
Ce     5.79202772     5.64229665     3.99581725
Ce    -1.94645625     7.83004003     0.90010904
Ce    -3.86091265     8.93640588     4.06909671
Ce    -3.82609915     6.67999315     7.28125606
Ce     1.92815559     7.82745473     0.89060408
Ce     0.00168025     8.95563572     4.06235056
Ce     0.00584604     6.70336174     7.23517534
Ce     5.81127600     7.83258510     0.88371011
Ce     3.86919518     8.93973748     4.07314975
Ce     3.86148981     6.79577653     7.29134843
Ti     5.77567779     3.37434986     6.47680898
Pd     6.50356363     2.95586373     8.77223346
O     11.61334069     0.00154917     0.10141687
O      1.92421189     1.10290665     3.22009282
O     -0.04239233     2.16938415     6.46299412
O     -0.00785227     2.23805103     1.69392277
O     -5.77906446    10.04331705     4.86579595
O      2.02357389     0.98686549     7.98696737
O     -1.93899312    10.05733740     0.10496691
O      5.80352492     1.08451822     3.22828016
O      4.15162435     2.48076738     6.43560236
O      3.86763657     2.23577757     1.68132582
O      3.85716606     0.08788330     4.90130516
O      5.81607779     0.95419483     8.28233199
O      7.73821774     0.00761509     0.10924988
O      9.69843914     1.10700419     3.24511669
O      7.46016232     2.40051340     6.32073775
O      7.74357843     2.23531483     1.71563532
O      7.76308098     0.02145965     4.88651021
O      9.46698056     1.24090094     8.00086682
O      9.67032270     3.35425987     0.10911246
O     -0.00474866     4.47379296     3.26150858
O     -1.98307906     5.59506480     6.38652043
O     -1.94403436     5.59119430     1.70564938
O      9.67167894     3.32590037     4.88662143
O     -0.12768201     4.52657827     8.03971513
O      1.92738314     3.35244915     0.09928684
O      3.83024791     4.49526991     3.22180456
O      1.96345544     5.57308314     6.46132839
O      1.92862022     5.59252216     1.67404250
O      1.93265196     3.30236177     4.85124739
O      4.05159542     4.38773255     8.75198296
O      5.81155478     3.35101064     0.10766953
O      7.77045515     4.49162672     3.22832664
O      5.74419820     5.22849966     6.43285580
O      5.80528807     5.59217007     1.68114259
O      5.79980147     3.35837695     4.58562960
O      7.89541163     4.54848920     8.28251783
O     -3.87155109     6.71022987     0.10512724
O     -1.94617702     7.83105757     3.27995493
O     -3.81974939     8.91308096     6.38079612
O     -3.87509971     8.94378428     1.69355631
O      7.66286605     6.67787980     4.89883861
O     -1.91751354     7.81458350     8.01612489
O     -0.01209783     6.71325780     0.10434852
O      1.93087118     7.82680418     3.26147558
O     -0.02876190     8.98056942     6.38715616
O     -0.00628994     8.94736548     1.70514550
O      0.00698098     6.70253956     4.88721858
O      1.82429153     7.90833383     8.03910078
O      3.86815347     6.71410280     0.09951587
O      5.81489932     7.84340228     3.21922368
O      3.90784460     9.01447256     6.46204798
O      3.86556896     8.94715423     1.69389986
O      3.91494846     6.73502438     4.85086693
O      5.96529938     7.81700536     7.98481247
O      4.99375166     3.92637882    10.80784033
C      4.89067723     3.93189695     9.59781910
