85
CIF: Rh-Y-CeO2-O-CO.cif | data_image0
Ce     1.93596140     1.11772783     0.89035214
Ce     0.01939285     2.22735888     4.04915818
Ce    -5.76195627    10.00139499     7.20970866
Ce     5.80789581     1.11772783     0.89035214
Ce     3.87529563     2.23521585     4.07104760
Ce    -2.08279479     9.98075759     7.15533269
Ce     9.67981860     1.11772783     0.89035214
Ce     7.74274187     2.23975843     4.03230149
Ce     1.96547472    10.05241334     7.18991348
Ce     0.00000000     4.47091133     0.89035214
Ce    -1.94181155     5.60638865     4.02055556
Ce    -1.90347692     3.39771295     7.10582544
Ce     3.87193441     4.47091133     0.89035214
Ce     1.94001290     5.58678520     4.06123260
Ce     1.96328168     3.36376431     7.29593263
Ce     7.74385721     4.47091133     0.89035214
Ce     5.81233770     5.58577364     4.03350394
Ce    -1.93596721     7.82410489     0.89035214
Ce    -3.88753596     8.92893415     3.99028459
Ce     7.71610614     6.70477902     7.19658996
Ce     1.93596721     7.82410489     0.89035214
Ce    -0.00376282     8.95512823     4.04391136
Ce     0.00031177     6.71484182     7.22017405
Ce     5.80789000     7.82410489     0.89035214
Ce     3.87332877     8.94644229     4.03777919
Ce     3.87088019     6.67679671     7.21706868
Y      5.77410145     3.43193263     7.09264378
O      0.00000000     0.00000000     0.09999685
O      1.93486880     1.11774452     3.22241028
O     -0.11504949     2.12672092     6.46466708
O      0.00000000     2.23545567     1.68070743
O     -5.78836517    10.03867067     4.83920419
O      1.89851866     0.92562141     8.05479637
O      3.87192279     0.00000000     0.09999685
O      5.79666796     1.10477379     3.24894379
O      4.02603593     2.08043375     6.52565264
O      3.87192279     2.23545567     1.68070743
O     -1.98517439    10.02227029     4.83368638
O      6.40443353     1.52524107     8.45696751
O      7.74385721     0.00000000     0.09999685
O      9.68938488     1.10818728     3.24270071
O      7.79737239     2.25017163     6.25323114
O      7.74385721     2.23545567     1.68070743
O      1.93367033    10.00572602     4.83683970
O      9.41562108     1.24160343     8.38650684
O     -1.93596140     3.35318350     0.09999685
O      0.03164261     4.49703239     3.24522224
O     -2.05111865     5.58012379     6.39355993
O     -1.93596721     5.58864923     1.68070743
O     -1.87541213     3.39036785     4.78496624
O     -0.10329023     4.58379118     7.98588160
O      1.93596140     3.35318350     0.09999685
O      3.84869070     4.48575785     3.24148928
O      1.91411984     5.64768354     6.37129714
O      1.93595559     5.58864923     1.68070743
O      1.95554390     3.30325092     4.88184817
O      5.80789581     3.35318350     0.09999685
O      7.74644997     4.47558208     3.23029589
O      5.92170428     5.59425828     6.39028186
O      5.80789000     5.58864923     1.68070743
O      5.76136536     3.37640619     4.80862886
O      7.72804795     4.29705907     8.29716247
O     -3.87192860     6.70637706     0.09999685
O     -1.92483267     7.82785030     3.20795869
O     -3.91212181     8.88984566     6.37162890
O     -3.87192860     8.94183273     1.68070743
O     -3.86704654     6.72889764     4.80236012
O     -1.98891694     7.80577554     7.98596695
O     -0.00000581     6.70637706     0.09999685
O      1.93078082     7.80675290     3.24153668
O     -0.04130631     9.11728051     6.51968501
O     -0.00000581     8.94183273     1.68070743
O     -0.04510287     6.77002738     4.90551487
O      3.87192860     6.70637706     0.09999685
O      5.79265273     7.82443057     3.21302372
O      3.90091889     9.04452446     6.46660008
O      3.87192860     8.94183273     1.68070743
O      3.90158395     6.73488332     4.88560349
O      5.82725120     7.81391441     8.01436500
O      1.91820708     7.83187295     7.98291007
O      3.95103064     4.60384280     7.96352567
O      8.32214854     4.07720040    11.92566934
O      7.61901892     2.92390207    13.85364385
Rh     7.94002774     2.45500077     9.15878507
C      7.97084384     3.50160274    12.89198053
