86
CIF: 2-NH2+H+NO-NH2NO+H_is.cif | data_image0
Ce    11.57005427     0.00495546     8.75697573
Ce     1.93633339     1.10158224     5.63743158
Ce     0.00000000     2.23543938     2.47426506
Ce     3.96140012     0.00391359     8.86120974
Ce     5.80091682     1.11124401     5.61947205
Ce     3.87189458     2.23543938     2.47426506
Ce     7.68431056     0.04798036     8.81004370
Ce     9.67048140     1.11614492     5.61293202
Ce     7.74390532     2.23543938     2.47426506
Ce     9.60667382     3.28341778     8.79171084
Ce     0.00152419     4.45735597     5.60219314
Ce    -1.93600537     5.58869904     2.47426506
Ce     1.92637305     3.21054449     8.81009066
Ce     3.85222064     4.48532779     5.66405303
Ce     1.93588921     5.58869904     2.47426506
Ce     5.78113316     3.37922957     8.77679462
Ce     7.74594342     4.48666423     5.62758535
Ce     5.80789995     5.58869904     2.47426506
Ce     7.70827385     6.70649649     8.82746220
Ce    -1.92979963     7.81605124     5.61298910
Ce    -3.87195266     8.94185811     2.47426506
Ce     1.94266104     7.82633466     5.59852008
Ce    -0.00005808     8.94185811     2.47426506
Ce     3.93435792     6.79094556     8.80662343
Ce     5.81073343     7.82981580     5.61787326
Ce     3.87195266     8.94185811     2.47426506
Ti     0.04728756     6.68045654     8.31076904
O     11.60355619     0.00620800     6.42078614
O     -0.15999913     2.20695512     9.56538204
O      1.93594729     1.11771969     3.26466483
O     -0.00427563     2.22131961     4.80082405
O      0.00000000     0.00000000     1.68386529
O      1.92302273     1.05218906     8.00121265
O     -1.93745345     9.96059263     6.49245051
O      3.97277630     2.17181798     9.62254752
O      5.80795803     1.11771969     3.26466483
O      3.86283222     2.21539894     4.84854092
O      3.87189458     0.00000000     1.68386529
O      5.81345815     1.18247137     7.88168910
O      1.93176623     9.99144117     6.43980878
O      7.72676630     2.25087770     9.55862325
O      9.67985261     1.11771969     3.26466483
O      7.74109729     2.24019944     4.84225840
O      7.74390532     0.00000000     1.68386529
O      9.63612942     1.13036545     7.91826157
O     -1.87740961     3.37086842     6.45067640
O     -2.38437802     5.30768667    10.05888057
O      0.00000000     4.47087876     3.26466483
O     -1.95815098     5.57893005     4.80616045
O      9.67985261     3.35315907     1.68386529
O     -0.02763980     4.80154999     8.08421951
O      1.87612452     3.33593670     6.42552242
O      3.87201074     4.47087876     3.26466483
O      1.95483582     5.56981255     4.80953024
O      1.93594729     3.35315907     1.68386529
O      3.80497064     4.50336022     8.04880628
O      5.77879933     3.41046772     6.43288784
O      5.90336580     5.56402462     9.59950555
O      7.74390532     4.47087876     3.26466483
O      5.81983805     5.60875561     4.83038605
O      5.80795803     3.35315907     1.68386529
O      7.77404368     4.47584000     7.94294711
O     -3.82696633     6.75732819     6.47163104
O     -3.78783780     8.84815017     9.54857144
O     -1.93600537     7.82413842     3.26466483
O     -3.87052332     8.94391685     4.80948400
O      7.74384724     6.70641873     1.68386529
O     -1.61629813     7.55995791     8.14650872
O      0.00965939     6.69449862     6.26765042
O      0.03518048     9.39583386     9.77001117
O      1.93600537     7.82413842     3.26466483
O     -0.00882479     8.95936478     4.79848199
O     -0.00005808     6.70641873     1.68386529
O      1.66722611     7.65163787     8.02894421
O      3.85951079     6.75330658     6.40505947
O      3.83986262     9.07814733     9.56218536
O      5.80789995     7.82413842     3.26466483
O      3.87973901     8.95346529     4.79697482
O      3.87195266     6.70641873     1.68386529
O      5.82568435     7.86227477     7.97902336
O      0.68337279     5.56886493    14.15636858
N      0.50497944     6.35255994    10.26050385
N      0.97889042     6.70136459    14.14424838
H      0.63524126     7.19979671    10.82882379
H      0.36156739     5.56580653    10.89497686
H     -1.58891646     5.78713947    10.39147320
