86
CIF: 2-NH2+H+NO-NH2NO+H_ts.cif | data_image0
Ce    11.56161969     0.00795053     8.76396138
Ce     1.93081257     1.10309784     5.64043822
Ce     0.00000000     2.23543938     2.47426506
Ce     3.95933574     0.00436289     8.86185397
Ce     5.79905491     1.11775042     5.62392774
Ce     3.87189458     2.23543938     2.47426506
Ce     7.67639470     0.04588992     8.81216900
Ce     9.66834767     1.11958135     5.61795054
Ce     7.74390532     2.23543938     2.47426506
Ce     9.59922765     3.28359481     8.80288395
Ce    -0.00032892     4.45133803     5.59785936
Ce    -1.93600537     5.58869904     2.47426506
Ce     1.92644459     3.21078602     8.81105103
Ce     3.85006762     4.48627665     5.67013133
Ce     1.93588921     5.58869904     2.47426506
Ce     5.77475407     3.38195975     8.78310403
Ce     7.73987511     4.48740580     5.63388056
Ce     5.80789995     5.58869904     2.47426506
Ce     7.69538044     6.70991128     8.83361477
Ce    -1.93388639     7.82139936     5.61456509
Ce    -3.87195266     8.94185811     2.47426506
Ce     1.94857274     7.83668996     5.59755488
Ce    -0.00005808     8.94185811     2.47426506
Ce     3.92328515     6.79450773     8.80799890
Ce     5.80495395     7.83064597     5.62154008
Ce     3.87195266     8.94185811     2.47426506
Ti     0.04142872     6.68290131     8.27068422
O     11.59672384     0.00783561     6.42626646
O     -0.16422424     2.21548932     9.56395883
O      1.93594729     1.11771969     3.26466483
O     -0.00989057     2.22637722     4.80205553
O      0.00000000     0.00000000     1.68386529
O      1.91487754     1.05255598     8.00404959
O     -1.93899714     9.98261395     6.49386010
O      3.96498058     2.17345931     9.62176777
O      5.80795803     1.11771969     3.26466483
O      3.86090604     2.21957291     4.84959436
O      3.87189458     0.00000000     1.68386529
O      5.81233952     1.18571346     7.88545224
O      1.92991421    10.00620812     6.43456430
O      7.72227569     2.25584337     9.56502176
O      9.67985261     1.11771969     3.26466483
O      7.74159443     2.24779680     4.84195586
O      7.74390532     0.00000000     1.68386529
O      9.63003773     1.13476228     7.92345720
O     -1.87807880     3.37856692     6.46046921
O     -2.39399562     5.30874553    10.06649797
O      0.00000000     4.47087876     3.26466483
O     -1.95579162     5.57002298     4.80845207
O      9.67985261     3.35315907     1.68386529
O     -0.03474647     4.80238233     8.08075201
O      1.86944049     3.34045639     6.42910176
O      3.87201074     4.47087876     3.26466483
O      1.94765662     5.57191991     4.80948132
O      1.93594729     3.35315907     1.68386529
O      3.79766029     4.50517419     8.04905208
O      5.77695160     3.41194206     6.43494182
O      5.88968563     5.56670105     9.60186044
O      7.74390532     4.47087876     3.26466483
O      5.81909783     5.60682748     4.83133433
O      5.80795803     3.35315907     1.68386529
O      7.76935889     4.47803654     7.94957399
O     -3.84466702     6.74803134     6.48100725
O     -3.80599720     8.85028332     9.55322904
O     -1.93600537     7.82413842     3.26466483
O     -3.88549302     8.95125874     4.82386279
O      7.74384724     6.70641873     1.68386529
O     -1.62559880     7.56679414     8.14394083
O      0.00928821     6.69917393     6.25675495
O      0.02576945     9.38260407     9.74869270
O      1.93600537     7.82413842     3.26466483
O      0.00195688     8.96862192     4.79413863
O     -0.00005808     6.70641873     1.68386529
O      1.67037374     7.67588022     8.00751888
O      3.85367500     6.75171849     6.40521424
O      3.83878312     9.08059246     9.56808353
O      5.80789995     7.82413842     3.26466483
O      3.88056199     8.95773603     4.79277939
O      3.87195266     6.70641873     1.68386529
O      5.81465105     7.86295483     7.98270714
O      1.00075878     5.44576151    13.39607120
N      0.54835177     6.36531984    10.22920782
N      1.30706872     6.57222225    13.31116370
H      0.67962225     7.19128496    10.83015703
H      0.40281253     5.55770178    10.84475750
H     -1.60839122     5.77789662    10.42803736
