87
CIF: 4-NHNO+2H-N2+H2O+H_ts.cif | data_image0
Ce    11.54818208     0.08009051     8.80455701
Ce     1.95099911     1.15205951     5.59504941
Ce     0.01230872     2.24748674     2.51603689
Ce     3.95901720     0.07619742     8.77781512
Ce     5.81946853     1.18392210     5.74689428
Ce     3.87768669     2.22756884     2.51253848
Ce     2.08842178    10.01359238     8.81523413
Ce     9.76731503     1.09785360     5.67435614
Ce     7.77046887     2.22318398     2.52894841
Ce    -1.83253141     3.18302374     8.79122793
Ce     0.09213529     4.48284009     5.68068458
Ce    -1.91028272     5.56814955     2.51910768
Ce     1.87292412     3.00670896     8.81341793
Ce     3.88338190     4.49027866     5.64504470
Ce     1.93739321     5.59109046     2.53489364
Ce     5.59925609     3.06605614     8.96280828
Ce     7.70895896     4.52100547     5.63259136
Ce     5.82146590     5.56697287     2.51303604
Ce     7.56803145     6.72777040     8.53820704
Ce    -1.86597307     7.83452184     5.55034167
Ce    -3.88075131     8.92790817     2.48138583
Ce     2.04512776     7.84639502     5.77623972
Ce     0.03277109     8.92808845     2.51484602
Ce     3.30318219     5.95808015     9.55266713
Ce     5.82106489     7.83041836     5.67874788
Ce     3.87876833     8.91256395     2.51984283
Ti     0.00268559     7.11120341     8.68847430
O      0.03405822     0.07927494     6.46360965
O      0.02776490     2.22090177     9.70167071
O      1.93987755     1.12077690     3.28649550
O      0.03820535     2.27992536     4.77289329
O      5.82860095    10.01672555     1.73496946
O      2.00368169     0.95756790     8.05428316
O      3.88771234     0.10579471     6.38471539
O      3.74407758     2.05858898     9.72208688
O      5.83951901     1.10788027     3.32032168
O      3.89411976     2.28149287     4.76790862
O      3.88928659     0.00462083     1.74127875
O      5.78716945     0.90417857     8.15798309
O      7.80351300     0.10422060     6.44674625
O      7.91599079     2.12404015     9.72511659
O      9.69672374     1.10395066     3.30864726
O      7.78269027     2.20647679     4.80106922
O      1.94988121    10.03431174     1.74023547
O      9.81232237     1.14059337     7.97073106
O     -1.88374324     3.28478373     6.48007775
O     -1.83264964     6.19263108     9.51468053
O      0.00591617     4.47795158     3.33237517
O     -1.84372962     5.56746271     4.94610727
O     -1.89898577     3.34187102     1.73439803
O     -0.01519274     4.40066915     8.08729320
O      1.92465643     3.30941728     6.44220077
O      1.56266456     5.34359937     9.84200283
O      3.84995094     4.46947951     3.31963991
O      1.93098355     5.57516954     4.83400282
O      1.92476185     3.35499917     1.73404643
O      3.74626435     4.35020008     7.95215826
O      5.83214041     3.32685085     6.56769649
O      5.86997023     5.14107241     9.95334895
O      7.79974453     4.45259098     3.30512696
O      5.83003015     5.55384551     4.83894411
O      5.81737292     3.36000093     1.76005328
O      7.84237123     4.52755571     8.08224581
O     -3.91195340     6.80416293     6.34255110
O     -3.79809482     8.69638188     9.46415608
O     -1.91970027     7.79808159     3.27149111
O     -3.82708845     8.98971977     4.81173271
O      7.74180997     6.68882945     1.73042516
O     -1.77583527     8.00253139     7.78736967
O      0.28442058     6.69049550     6.63511437
O      0.24538507     8.52098707     9.74885449
O      1.96183896     7.80812156     3.34048160
O      0.09002218     8.98194539     4.87055405
O      0.03730695     6.70128608     1.73646522
O      2.13581902     8.01392886     8.12135387
O      3.88999364     6.70016306     6.33116271
O      3.95869739     9.30689826    10.08035948
O      5.80393953     7.78900868     3.31899593
O      3.83985362     9.01467270     4.80180819
O      3.86967146     6.69905060     1.73833215
O      5.57485097     7.82632195     8.24616291
O      3.77129435     7.03455637    11.43461903
N      4.33370654     7.41357036    13.53509267
N      4.08773282     8.02626758    12.39572291
H      4.17574071     6.43430243    13.08867222
H      3.96960751     9.11857095    10.93684674
H      1.92504582     5.58454948    11.08678515
