87
CIF: 5-NHNO+2H-N2O+H_ts.cif | data_image0
Ce     0.08406334     0.03455256     8.79559757
Ce     1.94686371     1.11595300     5.59322903
Ce     0.00753126     2.25462432     2.50278332
Ce     3.82966513     0.04777471     8.77621602
Ce     5.80647659     1.11873065     5.62741104
Ce     3.87002658     2.23303938     2.49695427
Ce     7.70688358     0.02826361     8.74669366
Ce     9.70123424     1.11808546     5.65691054
Ce     7.76706516     2.22978765     2.51549047
Ce    -1.85144293     3.34439604     8.85348638
Ce     0.01759571     4.45952406     5.73353549
Ce    -1.91548074     5.57034510     2.50564663
Ce     1.95190767     3.27532048     8.78853145
Ce     3.88105182     4.47291621     5.66325393
Ce     1.92760517     5.59805509     2.51790589
Ce     5.82719146     3.33831733     8.82421425
Ce     7.76108812     4.46789356     5.67648278
Ce     5.81354379     5.57243278     2.49023779
Ce     7.65745383     6.71910391     8.80143055
Ce    -1.96253461     7.84174030     5.55448058
Ce    -3.88870494     8.93490798     2.46423265
Ce     1.95625206     7.82146642     5.73463883
Ce     0.02712332     8.93716603     2.50082546
Ce     3.87323906     6.65016423     8.91432838
Ce     5.78740965     7.81165572     5.65220150
Ce     3.87208937     8.92125224     2.50322151
Ti    -0.56278177     7.07428890     8.55140307
O     -5.77329848    10.05283624     6.43201379
O      0.15272202     2.10772308     9.65400308
O      1.93225196     1.12846393     3.27586552
O      0.00405408     2.24188869     4.84724641
O      5.82417700    10.02574981     1.71859807
O      1.97104633     1.09059235     7.94531030
O      3.87351907     0.01686483     6.39131851
O      3.89567928     2.16824000     9.60349661
O      5.83564962     1.11655266     3.30762606
O      3.90353326     2.23925628     4.80700031
O      3.88375687     0.01560277     1.72848252
O      5.77758098     1.06272436     7.99680558
O      7.72521977     0.02372299     6.44163295
O      7.62438517     2.13313210     9.59933250
O      9.69235487     1.11153342     3.29568734
O      7.75710871     2.23891353     4.84297648
O      1.94553560    10.04253846     1.72582795
O      9.69429280     1.00822745     8.01503881
O      9.68331919     3.34294953     6.45334902
O     -1.69853597     5.94751616     9.44774327
O     -0.00061871     4.48489461     3.32507966
O     -1.91273586     5.61619794     4.87461661
O     -1.90151737     3.34797278     1.71977339
O      0.15577542     4.38732264     7.99617092
O      1.99505393     3.31162357     6.40379131
O      2.20589086     5.24761526    10.04621146
O      3.83680440     4.47568407     3.30236145
O      1.88623585     5.62502619     4.92242829
O      1.91418859     3.35964356     1.72212762
O      3.87583585     4.44287875     8.03382222
O      5.83223056     3.33939751     6.48856502
O      5.89189518     5.56499124     9.71725081
O      7.79779956     4.45551437     3.29403323
O      5.82225382     5.55398965     4.83041222
O      5.81242547     3.36902527     1.74581993
O      7.74497314     4.52755659     8.05927317
O      7.69160548     6.71102293     6.45404341
O     -3.86606071     8.96471828     9.61491919
O     -1.92772572     7.80498060     3.25462587
O     -3.87413223     8.92802523     4.78887199
O      7.72946584     6.69158266     1.71848903
O     -2.08605559     7.91575636     7.88751972
O     -0.08695341     6.79427733     6.68081622
O     -0.18320891     8.67780145     9.43617556
O      1.95460860     7.81767264     3.32333422
O      0.00491642     8.90249887     4.83788989
O      0.03368137     6.70283904     1.72393226
O      2.06397611     7.92322258     8.07285312
O      3.89405110     6.67896436     6.45310636
O      3.91846098     9.12304772     9.93838696
O      5.79562372     7.80028413     3.30052233
O      3.86682090     8.93933294     4.87283660
O      3.86084990     6.70526865     1.71884885
O      5.77629950     7.85922604     8.06895019
O      3.09767480     7.32128939    11.80332100
N      4.77546280     6.43403947    13.05922014
N      3.75856370     7.11527996    12.86858572
H      5.08440963     5.97707013    12.15989213
H      3.78255383     8.92359126    10.88760302
H      1.72383358     5.58285976    10.82180102
