83
CIF: NO.cif | data_image0
Ce     0.12400821     0.03404466     8.76109279
Ce     1.94716095     1.11281010     5.57890220
Ce     0.00000000     2.23543938     2.47426506
Ce    -1.95824498    10.02312715     8.74804312
Ce     5.79777728     1.13155290     5.59564582
Ce     3.87189458     2.23543938     2.47426506
Ce     7.68040652     0.05494069     8.70081156
Ce     9.68286693     1.10948463     5.60792687
Ce     7.74390532     2.23543938     2.47426506
Ce    -1.88410756     3.31223735     8.72350560
Ce     0.01414450     4.45596950     5.62947794
Ce    -1.93600537     5.58869904     2.47426506
Ce     1.90831264     3.30277228     8.72625573
Ce     3.87942524     4.47581396     5.62211267
Ce     1.93588921     5.58869904     2.47426506
Ce     5.82083907     3.35219764     8.80364847
Ce     7.74430253     4.46272129     5.62136862
Ce     5.80789995     5.58869904     2.47426506
Ce    -3.85640360     6.71375008     8.74437443
Ce    -1.93812078     7.83308164     5.63497161
Ce    -3.87195266     8.94185811     2.47426506
Ce     1.96743694     7.83404058     5.67754832
Ce    -0.00005808     8.94185811     2.47426506
Ce     3.86078050     6.62186783     8.85047195
Ce     5.79472701     7.81068780     5.63708961
Ce     3.87195266     8.94185811     2.47426506
Ti    -0.07610768     6.71705461     8.71200588
O      0.02251560     0.00760891     6.41138022
O      0.05918880     2.17322209     9.61248128
O      1.93594729     1.11771969     3.26466483
O      0.00465962     2.24115667     4.80908611
O      0.00000000     0.00000000     1.68386529
O      1.95425448     1.11253580     7.93923244
O      3.88623730     0.04469480     6.38997625
O      3.85028579     2.18233582     9.57833553
O      5.80795803     1.11771969     3.26466483
O      3.89094610     2.24471644     4.78768918
O      3.87189458     0.00000000     1.68386529
O      5.78079414     1.07389200     8.02131940
O      7.70175177     0.11699194     6.36743472
O      7.74436955     2.23554954     9.52765332
O      9.67985261     1.11771969     3.26466483
O      7.72612220     2.25721969     4.77819214
O      7.74390532     0.00000000     1.68386529
O      9.70886990     1.03139453     8.02631693
O      9.62865893     3.28653762     6.39692949
O     -1.61093919     5.76457606     9.33253714
O      0.00000000     4.47087876     3.26466483
O     -1.89192408     5.60972062     4.86287028
O     -1.93594729     3.35315907     1.68386529
O     -0.00973987     4.13853094     7.84173353
O      1.99486852     3.32979434     6.38237071
O      1.45739773     5.84611251     9.28071141
O      3.87201074     4.47087876     3.26466483
O      1.89217129     5.61292103     4.84415124
O      1.93594729     3.35315907     1.68386529
O      3.81869590     4.41522601     8.05658027
O      5.81788015     3.35950884     6.47587616
O      5.96633533     5.48616744     9.58058944
O      7.74390532     4.47087876     3.26466483
O      5.81899406     5.56462226     4.79264230
O      5.80795803     3.35315907     1.68386529
O      7.85246264     4.47868641     7.99421823
O      7.67538812     6.67083377     6.41820732
O     -3.86192449     9.00663976     9.63078826
O     -1.93600537     7.82413842     3.26466483
O     -3.86290102     8.92893084     4.81717019
O     -3.87195266     6.70641873     1.68386529
O     -2.15894350     7.93357721     7.86724344
O      0.05168663     6.72911631     6.74238499
O      0.00310174     8.55173034     9.29197667
O      1.93600537     7.82413842     3.26466483
O      0.00477309     8.89231675     4.84496740
O     -0.00005808     6.70641873     1.68386529
O      2.39120240     8.18006145     7.89403070
O      3.91596840     6.63624465     6.37200672
O      3.89925780     9.20643731    10.16097228
O      5.80789995     7.82413842     3.26466483
O      3.86495044     8.93960987     4.83623948
O      3.87195266     6.70641873     1.68386529
O      5.80697639     7.89076493     8.05671731
O      3.16159272     8.65417298    12.13953970
N      3.72555270     8.26599290    11.14252748
