83
CIF: Rh-Fe-CeO2-Ov-O2.cif | data_image0
Ce     1.93038582     1.11050507     0.88387043
Ce    -0.02001733     2.22948181     4.02512809
Ce    -5.79493796    10.04216966     7.23159974
Ce     5.81181033     1.12175166     0.90127712
Ce     3.82032852     2.21766398     3.98921472
Ce    -1.91114672    10.03293024     7.21422632
Ce     9.66901012     1.12377363     0.90450652
Ce     7.75147211     2.23130851     4.07632179
Ce     1.96306834    10.01366482     7.22757023
Ce    -0.00709724     4.47602159     0.89067279
Ce    -1.94339749     5.58483390     4.09167702
Ce    -1.88118910     3.31873146     7.26403015
Ce     3.86254305     4.47635356     0.87798423
Ce     1.94637498     5.59032245     4.07297800
Ce     1.80356198     3.28647979     7.19971179
Ce     7.74213807     4.46545905     0.90125422
Ce     5.80580216     5.65285376     4.01284459
Ce    -1.94645625     7.83004003     0.90010904
Ce    -3.86811708     8.93545330     4.07759307
Ce    -3.83875874     6.71645437     7.32139885
Ce     1.92815559     7.82745473     0.89060408
Ce     0.00538129     8.95025340     4.05265303
Ce     0.00563620     6.71982051     7.23483360
Ce     5.81127600     7.83258510     0.88371011
Ce     3.86547684     8.94220816     4.04397496
Ce     3.87658612     6.84886904     7.31579873
Fe     5.06101895     3.78918163     6.51623884
Rh     6.54922027     2.88278372     8.04223133
O     11.61334069     0.00154917     0.10141687
O      1.92518930     1.11148803     3.21531189
O     -0.00620864     2.23063697     6.38633726
O     -0.00785227     2.23805103     1.69392277
O     -5.80373235    10.05375274     4.84322799
O      1.97042061     1.15907965     7.98091854
O     -1.93899312    10.05733740     0.10496691
O      5.80492387     1.15597472     3.24561888
O      3.87306724     2.37764541     6.37872106
O      3.86763657     2.23577757     1.68132582
O      3.87607821     0.05485664     4.86082312
O      5.81638544     1.01755430     8.06742907
O      7.73821774     0.00761509     0.10924988
O      9.66724135     1.12652677     3.23786473
O      7.76784830     2.18958779     6.55508161
O      7.74357843     2.23531483     1.71563532
O      7.74209376     0.04040256     4.84914267
O      9.74972110     1.09529244     8.05754821
O      9.67032270     3.35425987     0.10911246
O     -0.01959847     4.47575467     3.24729330
O     -1.86134263     5.55132780     6.42760467
O     -1.94403436     5.59119430     1.70564938
O      9.64171570     3.32076269     4.87624890
O      0.01176930     4.39957934     8.07701744
O      1.92738314     3.35244915     0.09928684
O      3.86626560     4.46711253     3.22777862
O      2.00542669     5.46507891     6.50899064
O      1.92862022     5.59252216     1.67404250
O      1.89500191     3.33090657     4.82729096
O      5.81155478     3.35101064     0.10766953
O      7.71631453     4.45192534     3.26120060
O      5.71957887     5.48233404     6.39375712
O      5.80528807     5.59217007     1.68114259
O      5.75604997     3.37313859     4.89801404
O      7.87296549     4.34164716     8.16695175
O     -3.87155109     6.71022987     0.10512724
O     -1.92512084     7.82360550     3.27295663
O     -3.81143682     8.99245797     6.39599110
O     -3.87509971     8.94378428     1.69355631
O      7.71943209     6.69787072     4.85116158
O     -1.79446033     7.89272323     8.04573975
O     -0.01209783     6.71325780     0.10434852
O      1.91965317     7.83250601     3.23448357
O      0.00963237     8.95540694     6.35506781
O     -0.00628994     8.94736548     1.70514550
O      0.04960448     6.69183101     4.89162542
O      1.81920914     7.88815974     8.05939762
O      3.86815347     6.71410280     0.09951587
O      5.81119709     7.83761323     3.22196434
O      3.84852547     8.99985203     6.38529914
O      3.86556896     8.94715423     1.69389986
O      3.85707053     6.73474450     4.81070943
O      5.82963532     7.99360189     8.07203828
O      4.20413015     4.25155495     8.22304358
O      5.14419411     3.66227143     9.16318248
