82
CIF: 2.1-W-CeO2-2Ov+CO2.cif | data_image0
O      0.55978923     0.45000431     0.59999690
O      2.47277206     1.49221712     3.76007393
O      0.68795019     3.04711490     7.31729913
O      0.55978923     2.65902057     2.16203261
O      0.55492285     0.45211335     5.50750843
O      2.54372925     1.88616600     8.67511578
O      4.38603242     0.45000431     0.59999690
O      6.36257945     1.49678925     3.74033795
O      4.26102177     2.79162258     7.09048275
O      4.38603242     2.65902057     2.16203261
O      4.41508379     0.42949075     5.48487065
O      6.23849245     1.42700375     8.65202149
O      8.21216082     0.45000431     0.59999690
O     10.06149576     1.50484892     3.75370369
O      8.17602082     2.60754657     6.96069189
O      8.21216082     2.65902057     2.16203261
O      8.20376908     0.41714974     5.43491990
O     10.00436019     1.67434645     8.67862192
O     -1.35327498     3.76352871     0.59999690
O      0.56306484     4.93890439     3.74249337
O     -1.30894367     5.88853907     7.10171585
O     -1.35333237     5.97264438     2.16203261
O     -1.42027746     3.76049545     5.46690612
O      0.18093839     5.07077319    10.07857211
O      2.47296821     3.76352871     0.59999690
O      4.37189314     4.95204756     3.73972058
O      2.74038690     4.95962097     8.43905174
O      2.47291082     5.97264438     2.16203261
O      2.47167013     3.93518913     5.71080374
O      6.29909662     3.76352871     0.59999690
O      8.23010340     4.90126221     3.76956026
O      6.27299908     5.97703609     7.06390455
O      6.29903923     5.97264438     2.16203261
O      6.35870428     3.79650476     5.39949808
O      8.26025391     4.87541196     8.73126946
O     -3.26639657     7.07715251     0.59999690
O     -1.32428793     8.15541092     3.82063731
O     -3.20664752     9.32053037     7.04772185
O     -3.26639657     9.28616878     2.16203261
O     -3.24403240     7.06612993     5.48822409
O     -1.39586081     8.23804928     8.72955375
O      0.55984662     7.07715251     0.59999690
O      2.47682511     8.20109294     3.72954324
O      0.54338986     9.28072392     6.96892204
O      0.55984662     9.28616878     2.16203261
O      0.71446908     6.99832052     5.52132704
O      2.44638640     8.26653516     8.72495111
O      4.38597502     7.07715251     0.59999690
O      6.27364129     8.16434655     3.84002843
O      4.35940290     9.32608100     7.03102054
O      4.38597502     9.28616878     2.16203261
O      4.21435150     7.02645516     5.53221757
O      6.41229293     8.15787689     8.78442440
O      1.88786590     4.62070381    11.63351952
Ce     2.47285343     1.55451244     1.38101475
Ce     0.52849707     2.64811094     4.54196658
Ce     0.52826734     0.44561825     7.92800415
Ce     6.29909662     1.55451244     1.38101475
Ce     4.42117989     2.65442295     4.52727328
Ce     4.44236881     0.37427523     7.80368396
Ce    10.12522502     1.55451244     1.38101475
Ce     8.20070746     2.64926018     4.53419915
Ce     8.18757846     0.41705574     7.82397716
Ce     0.55978923     4.86803684     1.38101475
Ce    -1.33853326     5.96096305     4.61943992
Ce    -1.56969729     3.72317552     7.77826717
Ce     4.38603242     4.86803684     1.38101475
Ce     2.47792754     6.03059577     4.43078861
Ce     8.21216082     4.86803684     1.38101475
Ce     6.29131501     5.96592939     4.63519221
Ce     6.38864760     3.72640670     7.80258603
Ce    -1.35333237     8.18166064     1.38101475
Ce    -3.27123825     9.31573146     4.62724762
Ce    -3.28209226     7.09302326     7.84839943
Ce     2.47291082     8.18166064     1.38101475
Ce     0.57011437     9.28269199     4.58157791
Ce     0.51406807     7.19929803     7.91892403
Ce     6.29903923     8.18166064     1.38101475
Ce     4.38756129     9.30077302     4.62856446
Ce     4.44409140     7.23171518     7.93783063
W      2.52660789     3.40188383     7.55160745
C      1.04986555     4.83953266    10.84927115
