84
CIF: CO+Olatt—CO2.cif | data_image0
Ce     1.93038582     1.11050507     0.88387043
Ce     0.01279957     2.23328120     4.03386811
Ce    -5.76404788    10.03500174     7.24117436
Ce     5.81181033     1.12175166     0.90127712
Ce     3.82720187     2.21436307     4.00642768
Ce    -1.98306296    10.00726931     7.29814929
Ce     9.66901012     1.12377363     0.90450652
Ce     7.74974681     2.23223219     4.05567785
Ce     2.08364697     9.95733666     7.21969447
Ce    -0.00709724     4.47602159     0.89067279
Ce    -1.95257210     5.58313502     4.07345518
Ce    -1.77139372     3.29831637     7.20371398
Ce     3.86254305     4.47635356     0.87798423
Ce     1.93364238     5.58365035     4.07990067
Ce     1.85585075     3.30991450     7.36520692
Ce     7.74213807     4.46545905     0.90125422
Ce     5.80601629     5.63106712     3.98935075
Ce    -1.94645625     7.83004003     0.90010904
Ce    -3.86552743     8.93350347     4.06982550
Ce    -3.86560521     6.71927458     7.26991701
Ce     1.92815559     7.82745473     0.89060408
Ce    -0.00371348     8.95837652     4.08911943
Ce    -0.01766828     6.70600973     7.24518571
Ce     5.81127600     7.83258510     0.88371011
Ce     3.87844279     8.94792356     4.01384712
Ce     3.85711601     6.80626530     7.23742242
Ti     5.14936638     3.72423991     6.68843940
Os     6.72430679     2.83732282     8.26459050
O     11.61334069     0.00154917     0.10141687
O      1.93423821     1.11163068     3.22122349
O     -0.01379791     2.21686125     6.37701491
O     -0.00785227     2.23805103     1.69392277
O     -5.80314742    10.05496219     4.82719086
O      1.81137015     1.01911695     8.11249841
O     -1.93899312    10.05733740     0.10496691
O      5.81373228     1.14098157     3.25283496
O      3.91343975     2.36051893     6.42206959
O      3.86763657     2.23577757     1.68132582
O      3.87388951     0.02604908     4.84707735
O      6.01258486     1.15087218     8.44121349
O      7.73821774     0.00761509     0.10924988
O      9.67196920     1.12189599     3.22589945
O      7.84497776     2.18481715     6.62839873
O      7.74357843     2.23531483     1.71563532
O      7.77589488     0.05681160     4.86406577
O      9.78285923     1.02921734     8.06348386
O      9.67032270     3.35425987     0.10911246
O     -0.01536031     4.48641440     3.25168669
O     -1.96320203     5.47179786     6.40401390
O     -1.94403436     5.59119430     1.70564938
O      9.65123400     3.29882477     4.85221435
O     -0.09931597     4.50590517     8.08986225
O      1.92738314     3.35244915     0.09928684
O      3.87171337     4.47601955     3.22578713
O      2.00552095     5.62226001     6.48063409
O      1.92862022     5.59252216     1.67404250
O      1.93239315     3.35674543     4.81425632
O      4.09171225     4.42815195     8.22174120
O      5.81155478     3.35101064     0.10766953
O      7.72480200     4.44636599     3.24337826
O      5.67187675     5.51668255     6.37495917
O      5.80528807     5.59217007     1.68114259
O      5.77377769     3.37858376     4.88575434
O      7.82337179     4.31316916     8.40476055
O     -3.87155109     6.71022987     0.10512724
O     -1.92731716     7.82248868     3.26427044
O     -3.88863742     8.91229144     6.39812398
O     -3.87509971     8.94378428     1.69355631
O      7.71080560     6.68128258     4.82200844
O     -1.80130282     7.72281303     8.04908636
O     -0.01209783     6.71325780     0.10434852
O      1.91535997     7.83315086     3.25364158
O      0.11434269     9.00488202     6.45490140
O     -0.00628994     8.94736548     1.70514550
O     -0.01183812     6.71198367     4.91368012
O      2.01121840     7.86038851     8.08453792
O      3.86815347     6.71410280     0.09951587
O      5.80377935     7.83061700     3.21127923
O      3.87554442     8.92889465     6.35732223
O      3.86556896     8.94715423     1.69389986
O      3.87055169     6.72689141     4.82766750
O      5.67326768     7.82737788     8.04043741
O      4.85681508     3.94589233    10.51026594
C      5.23036907     3.73859919     9.41181717
