83
CIF: O2—Olatt+Osur.cif | data_image0
Ce     1.93038582     1.11050507     0.88387043
Ce    -0.00122101     2.23579032     4.07644794
Ce     5.78332648    10.04544325     7.23757106
Ce     5.81181033     1.12175166     0.90127712
Ce     3.82764883     2.21143589     3.99192159
Ce    -2.08334346     9.94154146     7.18832565
Ce     9.66901012     1.12377363     0.90450652
Ce     7.77868904     2.22129088     3.96150126
Ce     2.01553226     9.97968370     7.40930864
Ce    -0.00709724     4.47602159     0.89067279
Ce    -1.95602286     5.59338880     4.12744233
Ce    -1.74875697     3.36269257     7.36519804
Ce     3.86254305     4.47635356     0.87798423
Ce     1.94946720     5.59323289     4.10792322
Ce     1.90962610     3.32529496     7.28381411
Ce     7.74213807     4.46545905     0.90125422
Ce     5.80700321     5.63532899     4.00747535
Ce    -1.94645625     7.83004003     0.90010904
Ce    -3.89426815     8.92931218     4.02269924
Ce    -3.87763540     6.78925767     7.30785599
Ce     1.92815559     7.82745473     0.89060408
Ce    -0.00330369     8.97462335     4.11126757
Ce     0.00911675     6.70982207     7.28438343
Ce     5.81127600     7.83258510     0.88371011
Ce     3.86025526     8.95227886     4.07714089
Ce     3.85722586     6.78996520     7.30696648
Ti     5.50094176     3.50831758     6.66835091
Os     6.65087586     3.08904321     9.09156871
O     11.61334069     0.00154917     0.10141687
O      1.91927854     1.11145774     3.20769764
O      0.06038034     2.23157987     6.40054294
O     -0.00785227     2.23805103     1.69392277
O     11.60601110     0.00398938     4.83056820
O      1.99560063     0.97980835     8.02930420
O     -1.93899312    10.05733740     0.10496691
O      5.79214107     1.12439151     3.22709592
O      4.10242012     2.27976263     6.50298084
O      3.86763657     2.23577757     1.68132582
O      3.82205701     0.04334889     4.84293873
O      6.64014276     1.31524380     9.39086661
O      7.73821774     0.00761509     0.10924988
O      9.68170997     1.11938073     3.21702600
O      7.11244935     2.61723608     7.18028758
O      7.74357843     2.23531483     1.71563532
O      7.73353687     0.17332244     4.92797522
O      9.80082659     1.08280342     8.06508214
O      9.67032270     3.35425987     0.10911246
O     -0.02694360     4.47290168     3.30876753
O     -1.95730580     5.58879698     6.44815257
O     -1.94403436     5.59119430     1.70564938
O      9.55335522     3.26008086     4.93670039
O      0.05321347     4.59370810     8.13818737
O      1.92738314     3.35244915     0.09928684
O      3.88807397     4.46185189     3.23056089
O      1.97736011     5.55098014     6.38871720
O      1.92862022     5.59252216     1.67404250
O      1.99729104     3.30046916     4.82646269
O      5.81155478     3.35101064     0.10766953
O      7.73837945     4.46646493     3.23090365
O      5.79275009     5.33225020     6.50638625
O      5.80528807     5.59217007     1.68114259
O      5.83460626     3.32804949     4.83557172
O      8.05017391     4.23991829     9.10886901
O     -3.87155109     6.71022987     0.10512724
O     -1.93719533     7.82624410     3.27767856
O     -3.86548619     8.92748736     6.34404923
O     -3.87509971     8.94378428     1.69355631
O      7.67643592     6.68586595     4.83437344
O     -1.89888799     7.90887333     8.09395940
O     -0.01209783     6.71325780     0.10434852
O      1.92470357     7.86226711     3.29147231
O     -0.07429013     9.11389141     6.48251298
O     -0.00628994     8.94736548     1.70514550
O      0.00092248     6.76304010     4.91780874
O      1.80428863     7.76073937     8.12536905
O      3.86815347     6.71410280     0.09951587
O      5.79798118     7.83754416     3.21183855
O      3.85970153     8.95141815     6.37785556
O      3.86556896     8.94715423     1.69389986
O      3.93128611     6.69606496     4.82552966
O      5.81656117     7.96781340     8.08325387
O      4.04973037     4.29924729     8.27397373
O      5.04073081     3.89319353     9.43956106
