83
CIF: Os-Ti-CeO2-Ov-O2.cif | data_image0
Ce     1.93038582     1.11050507     0.88387043
Ce    -0.00249509     2.23458621     4.08005969
Ce     5.77805091    10.04153640     7.23485391
Ce     5.81181033     1.12175166     0.90127712
Ce     3.82159404     2.21067598     3.98853593
Ce    -2.08920477     9.93455081     7.19284984
Ce     9.66901012     1.12377363     0.90450652
Ce     7.78476147     2.21837131     3.95407398
Ce     2.01710094     9.97535982     7.41136011
Ce    -0.00709724     4.47602159     0.89067279
Ce    -1.95667416     5.58960961     4.12921958
Ce    -1.75048620     3.36758581     7.38407374
Ce     3.86254305     4.47635356     0.87798423
Ce     1.94864928     5.59061582     4.11252237
Ce     1.89344468     3.31719574     7.30403815
Ce     7.74213807     4.46545905     0.90125422
Ce     5.80688876     5.63727819     3.99988207
Ce    -1.94645625     7.83004003     0.90010904
Ce    -3.89439010     8.92735460     4.02368931
Ce    -3.87841606     6.78258821     7.31213367
Ce     1.92815559     7.82745473     0.89060408
Ce    -0.00378278     8.97429415     4.11282473
Ce     0.01084558     6.70916806     7.28843869
Ce     5.81127600     7.83258510     0.88371011
Ce     3.86011840     8.94932257     4.07223715
Ce     3.85664686     6.80083974     7.30457777
Ti     5.51347502     3.50588463     6.65030929
Os     6.65125453     3.08796617     9.09192741
O     11.61334069     0.00154917     0.10141687
O      1.92054697     1.10896679     3.20779278
O      0.05030573     2.22016943     6.38735932
O     -0.00785227     2.23805103     1.69392277
O      5.79886054    10.05496603     4.82549637
O      1.99036736     0.96286560     8.03894307
O     -1.93899312    10.05733740     0.10496691
O      5.78926154     1.12150405     3.22471506
O      4.10635799     2.30092767     6.52938662
O      3.86763657     2.23577757     1.68132582
O      3.82120824     0.05093729     4.85140188
O      6.61996239     1.32415828     9.42220274
O      7.73821774     0.00761509     0.10924988
O      9.68303999     1.11656627     3.21556283
O      7.12565413     2.65114701     7.20751648
O      7.74357843     2.23531483     1.71563532
O      7.72887814     0.17462102     4.93192529
O      9.80205108     1.06758323     8.08115074
O      9.67032270     3.35425987     0.10911246
O     -0.02877472     4.47331685     3.31130873
O     -1.95421229     5.59205046     6.44498395
O     -1.94403436     5.59119430     1.70564938
O      9.54388606     3.25889608     4.93399793
O      0.05221032     4.61359379     8.15837344
O      1.92738314     3.35244915     0.09928684
O      3.89085137     4.45880139     3.23122171
O      1.98726313     5.55150008     6.39578048
O      1.92862022     5.59252216     1.67404250
O      1.99788085     3.29979875     4.82251605
O      5.81155478     3.35101064     0.10766953
O      7.73713470     4.46835201     3.22674105
O      5.76860123     5.33027292     6.50717507
O      5.80528807     5.59217007     1.68114259
O      5.84798273     3.31693058     4.83264944
O      8.04671123     4.25151441     9.11151462
O     -3.87155109     6.71022987     0.10512724
O     -1.93733714     7.82695565     3.28185606
O     -3.86870374     8.92038208     6.34169791
O     -3.87509971     8.94378428     1.69355631
O      7.67186120     6.67830485     4.83798892
O     -1.91054725     7.90608366     8.10001550
O     -0.01209783     6.71325780     0.10434852
O      1.92129990     7.86329403     3.29032741
O     -0.07916441     9.11140163     6.49177605
O     -0.00628994     8.94736548     1.70514550
O      0.00537698     6.76274979     4.92085130
O      1.80688019     7.76673942     8.13127169
O      3.86815347     6.71410280     0.09951587
O      5.80130446     7.83525055     3.20684335
O      3.85642920     8.95095272     6.37248442
O      3.86556896     8.94715423     1.69389986
O      3.93173667     6.69940884     4.81492260
O      5.81127950     7.96213663     8.08438809
O      4.10384764     4.31283061     8.36906726
O      5.02530561     3.93059014     9.43198027
