83
CIF: Y-Cu-CeO2-O.cif | data_image0
Ce     1.93038582     1.11050507     0.88387043
Ce    -0.01613395     2.23527705     4.04475481
Ce     5.80978349    10.05439991     7.21452417
Ce     5.81181033     1.12175166     0.90127712
Ce     3.84253090     2.20391722     3.99463184
Ce    -1.89514108    10.04621831     7.23332349
Ce     9.66901012     1.12377363     0.90450652
Ce     7.72485706     2.24404474     4.11493720
Ce     7.73664729     0.03398777     7.22182907
Ce    -0.00709724     4.47602159     0.89067279
Ce    -1.93947745     5.58575592     4.05562508
Ce     9.64373197     3.33690950     7.22146365
Ce     3.86254305     4.47635356     0.87798423
Ce     1.94033442     5.58337274     4.04693164
Ce     1.87682818     3.30459558     7.20362604
Ce     7.74213807     4.46545905     0.90125422
Ce     5.81749044     5.62503928     3.99597729
Ce    -1.94645625     7.83004003     0.90010904
Ce    -3.87136522     8.93852510     4.07487669
Ce    -3.84552050     6.66981960     7.23499671
Ce     1.92815559     7.82745473     0.89060408
Ce    -0.00102171     8.94202536     4.05426599
Ce     0.01472840     6.69379880     7.21866488
Ce     5.81127600     7.83258510     0.88371011
Ce     3.86248517     8.95226717     4.04474247
Ce     3.88141982     6.77477834     7.20392268
Cu     4.88921558     3.87607249     6.35554069
Y      6.07807357     3.19093163     8.72122775
O     11.61334069     0.00154917     0.10141687
O      1.92234113     1.10813716     3.22767551
O     -0.01045443     2.21537273     6.41086770
O     -0.00785227     2.23805103     1.69392277
O     -5.79991927    10.05235303     4.86988811
O      1.95064289     1.13179570     7.98605654
O     -1.93899312    10.05733740     0.10496691
O      5.79335517     1.10357917     3.24650711
O      3.86431318     2.24637607     6.36470688
O      3.86763657     2.23577757     1.68132582
O     -1.95054773    10.05280297     4.87034577
O      5.85457077     0.98734333     8.20806985
O      7.73821774     0.00761509     0.10924988
O      9.67647199     1.11804067     3.25834842
O      7.78553152     2.20891977     6.45117843
O      7.74357843     2.23531483     1.71563532
O      1.92712494    10.05503398     4.85581302
O      9.69872325     1.10191582     8.03992351
O      9.67032270     3.35425987     0.10911246
O     -0.00085301     4.47812900     3.23378947
O     -1.95624557     5.57904399     6.40994710
O     -1.94403436     5.59119430     1.70564938
O     -1.93943526     3.35952345     4.85702479
O      0.02315475     4.46974716     7.97447505
O      1.92738314     3.35244915     0.09928684
O      3.83451962     4.49096802     3.21218994
O      2.02414840     5.53400523     6.45804993
O      1.92862022     5.59252216     1.67404250
O      1.90516168     3.34371849     4.85477008
O      5.81155478     3.35101064     0.10766953
O      7.74613945     4.48770051     3.24691725
O      5.79017983     5.57880189     6.36642295
O      5.80528807     5.59217007     1.68114259
O      5.75515548     3.37995139     4.72476292
O      7.87476624     4.49130593     8.20889973
O     -3.87155109     6.71022987     0.10512724
O     -1.93299728     7.81988471     3.25639412
O     -3.86154273     8.93317874     6.44497303
O     -3.87509971     8.94378428     1.69355631
O      7.73728653     6.71669648     4.87239850
O     -1.90850638     7.80644115     7.98996919
O     -0.01209783     6.71325780     0.10434852
O      1.92800978     7.81785277     3.23505736
O     -0.00487561     8.95926281     6.40880636
O     -0.00628994     8.94736548     1.70514550
O      0.02580101     6.68715665     4.89738605
O      1.94537383     7.79907455     7.97324723
O      3.86815347     6.71410280     0.09951587
O      5.80743940     7.83737509     3.22746052
O      3.88182056     8.95467586     6.41022624
O      3.86556896     8.94715423     1.69389986
O      3.86378360     6.73267224     4.85596700
O      5.80003580     7.79493508     7.98446449
O      4.11747147     4.32066826     8.07070810
O      5.85628535     3.30817594    10.79117926
