85
CIF: Nb-Mo-CeO2-O-CO.cif | data_image0
Ce     1.93596140     1.11772783     0.89035214
Ce     0.01718990     2.24435271     4.06298818
Ce     0.00379763     0.01708837     7.21763034
Ce     5.80789581     1.11772783     0.89035214
Ce     3.82605565     2.20851787     3.96130429
Ce    -2.04601988     9.95412051     7.31952019
Ce     9.67981860     1.11772783     0.89035214
Ce     7.78753049     2.20130347     3.93845229
Ce     1.96989194     9.96351737     7.35749022
Ce     0.00000000     4.47091133     0.89035214
Ce    -1.96332483     5.58458991     4.10467177
Ce    -1.76483533     3.37703813     7.30210391
Ce     3.87193441     4.47091133     0.89035214
Ce     1.94841250     5.57519697     4.13524223
Ce     1.80850237     3.34993447     7.46908528
Ce     7.74385721     4.47091133     0.89035214
Ce     5.81850295     5.65152061     3.96291407
Ce    -1.93596721     7.82410489     0.89035214
Ce    -3.86684150     8.94337691     4.04951804
Ce    -3.84496498     6.83401037     7.35603628
Ce     1.93596721     7.82410489     0.89035214
Ce    -0.00535730     8.96710773     4.11045022
Ce    -0.00811374     6.73127509     7.27422068
Ce     5.80789000     7.82410489     0.89035214
Ce     3.86375999     8.95448514     4.06619227
Ce     3.81519136     6.86769051     7.31784569
Mo     5.47415573     3.58035580     6.75472562
O      0.00000000     0.00000000     0.09999685
O      1.92829669     1.11357890     3.20011822
O      0.01004985     2.31790698     6.36520597
O      0.00000000     2.23545567     1.68070743
O      0.01139574     0.02302819     4.82644407
O      1.79929441     1.03047180     8.05126564
O      3.87192279     0.00000000     0.09999685
O      5.79622512     1.12901588     3.20059396
O      4.09836083     2.40530479     6.66141064
O      3.87192279     2.23545567     1.68070743
O      3.84997295     0.10980334     4.85314487
O      6.77681939     1.06000182     9.27357434
O      7.74385721     0.00000000     0.09999685
O      9.70011218     1.11781201     3.20033465
O      7.15365311     2.61410455     7.04070115
O      7.74385721     2.23545567     1.68070743
O      7.74132862     0.15236422     4.86645359
O      9.74211759     1.26189912     7.94452866
O     -1.93596140     3.35318350     0.09999685
O     -0.02492409     4.45686189     3.30281543
O     -2.00453681     5.50274055     6.44773842
O     -1.93596721     5.58864923     1.68070743
O      9.54561860     3.26274863     4.92423676
O     -0.09245376     4.54619808     8.14223046
O      1.93596140     3.35318350     0.09999685
O      3.91747324     4.46117631     3.23576073
O      1.93777920     5.55899313     6.42481741
O      1.93595559     5.58864923     1.68070743
O      2.03381118     3.29355431     4.83032021
O      5.80789581     3.35318350     0.09999685
O      7.73441416     4.46893340     3.20882105
O      5.79052284     5.35866200     6.52626264
O      5.80789000     5.58864923     1.68070743
O      5.89870849     3.28499044     4.87111208
O      8.32540893     3.93270219     9.11127864
O     -3.87192860     6.70637706     0.09999685
O     -1.94318822     7.83017968     3.28091386
O     -3.86288954     8.92050693     6.35206205
O     -3.87192860     8.94183273     1.68070743
O      7.67245484     6.66749749     4.84400709
O     -1.85455955     7.76898796     8.13065060
O     -0.00000581     6.70637706     0.09999685
O      1.93086564     7.84402168     3.30134504
O     -0.01598922     8.99990711     6.41661556
O     -0.00000581     8.94183273     1.68070743
O     -0.03205505     6.70706732     4.89640838
O      3.87192860     6.70637706     0.09999685
O      5.80847181     7.83647892     3.21416670
O      3.86909301     8.98556082     6.36317801
O      3.87192860     8.94183273     1.68070743
O      3.94483900     6.68574394     4.84191679
O      5.80410185     7.98238612     8.08024581
O      1.80997974     7.75942515     8.13771728
O      4.22771404     4.43779871     8.30599078
O      5.25277068     3.54903664    10.09893454
O      2.97583869     3.57734156     9.94994456
Nb     6.83908810     2.85329818     9.02718732
C      4.10611609     3.83369264     9.51475165
