89
CIF: CH2+CH2CO.cif | data_image0
O      0.00261135     0.00382715     0.19995339
O      1.92705691     1.13522216     3.36767610
O     -0.33346204     1.95403712     6.35841907
O      0.00261135     2.21285656     1.76196664
O      5.75391494     9.83597812     4.90669942
O      3.82876252     0.00382715     0.19995339
O      5.72640625     1.11096954     3.34635704
O      3.80623466     2.54845658     6.68798879
O      3.82876252     2.21285656     1.76196664
O      3.84160596     0.07729310     5.03355389
O      5.90760913     1.17174250     8.18521278
O      7.65492518     0.00382715     0.19995339
O      9.56120086     1.09869865     3.32967084
O      7.72606736     2.20187665     6.48870670
O      7.65492518     2.21285656     1.76196664
O      7.64740815     0.00069385     4.95858939
O      9.52648101     1.01521515     8.24409070
O     -1.91046424     3.31737126     0.19995339
O      0.01918057     4.42945230     3.32673415
O     -1.90913190     5.52336825     6.51323859
O     -1.91046998     5.52641062     1.76196664
O     -1.94037903     3.37394747     4.89825195
O      0.17435602     4.28453701     7.77410665
O      1.91568694     3.31737126     0.19995339
O      3.81124444     4.39756333     3.37918884
O      2.14915659     5.43205992     6.58253184
O      1.91568120     5.52641062     1.76196664
O      1.80422638     3.32954197     5.11468589
O      4.81786456     4.96336588     9.26376046
O      5.74184959     3.31737126     0.19995339
O      7.63713778     4.45162261     3.33058953
O      5.67344298     5.47828983     6.60795456
O      5.74184385     5.52641062     1.76196664
O      5.78168601     3.29514274     4.97435718
O      7.70796037     4.41125258     8.16806801
O     -3.82354556     6.63092532     0.19995339
O     -1.89708160     7.74590578     3.38678921
O     -3.85935780     8.87585132     6.63149344
O     -3.82354556     8.83995473     1.76196664
O      7.63091902     6.64045650     5.02265002
O     -1.88951081     7.57182576     8.23197413
O      0.00260561     6.63092532     0.19995339
O      1.90189454     7.72865559     3.33529169
O      0.03819451     8.79719519     6.55980924
O      0.00260561     8.83995473     1.76196664
O      0.06836780     6.59679590     5.02236661
O      1.94637690     7.69371576     8.16843631
O      3.82876826     6.63092532     0.19995339
O      5.76234753     7.70104226     3.31771634
O      3.80477917     8.82742109     6.49046290
O      3.82876826     8.83995473     1.76196664
O      3.84592552     6.65571621     4.94728885
O      5.68963698     7.75825398     8.19780743
O      1.72432192     1.57196332     8.05016010
O      2.47264296     3.28385540     9.21862524
Ce     1.91568694     1.10834185     0.98097142
Ce    -0.02105869     2.19887619     4.14494799
Ce     5.62824498     9.90784196     7.28528256
Ce     5.74184959     1.10834185     0.98097142
Ce     3.81480846     2.22072783     4.21791127
Ce    -1.84298356     9.93246074     7.49720167
Ce     9.56800076     1.10834185     0.98097142
Ce     7.65566879     2.20937766     4.11969831
Ce     1.92505188     9.93391997     7.35790443
Ce     0.00261135     4.42188597     0.98097142
Ce    -1.90236627     5.52927254     4.15181010
Ce    -1.85801133     3.27548971     7.27872905
Ce     3.82877400     4.42188597     0.98097142
Ce     1.92106349     5.51302008     4.14809643
Ce     7.65492518     4.42188597     0.98097142
Ce     5.74233955     5.52623616     4.15812778
Ce     5.88886737     3.26694445     7.32019936
Ce    -1.91046998     7.73544003     0.98097142
Ce    -3.80956745     8.85429480     4.19108476
Ce    -3.77906492     6.63506438     7.35708263
Ce     1.91569268     7.73544003     0.98097142
Ce     0.00708659     8.86096901     4.18420509
Ce     0.02482566     6.58509214     7.33633282
Ce     5.74184385     7.73544003     0.98097142
Ce     3.82551356     8.82312304     4.10229400
Ce     3.84713038     6.71648274     7.32341388
Ir     2.02174753     3.50082856     7.19119971
H      4.97161914     6.10453964    10.93909991
H      5.95967699     4.47915998    10.87335662
H      2.28886656     0.03927641    10.11231465
H      3.19029852     1.36103240    11.07647901
C      5.25563206     5.18558041    10.39060807
C      2.29033666     1.97905787     9.23668588
C      2.69688039     1.05175479    10.15951873
