90
CIF: CH2CHCH2.cif | data_image0
O      0.00261135     0.00382715     0.19995339
O      1.91070553     1.01570223     3.32099561
O      0.30154099     2.34492253     6.52593395
O      0.00261135     2.21285656     1.76196664
O     11.43817861     0.03174437     5.00129746
O      1.76261476     1.47041543     8.49649691
O      3.82876252     0.00382715     0.19995339
O      5.76072645     1.10789401     3.33010057
O      3.48941433     2.49513050     6.65911063
O      3.82876252     2.21285656     1.76196664
O      3.85128631     0.06986733     4.99321708
O      5.82102543     1.22210109     8.15998862
O      7.65492518     0.00382715     0.19995339
O      9.55302542     1.09946133     3.32762206
O      7.70981130     2.21082698     6.52436415
O      7.65492518     2.21285656     1.76196664
O      7.65128695     0.01039676     4.97855900
O      9.65252309     1.14050367     8.12533206
O     -1.91046424     3.31737126     0.19995339
O     -0.07305242     4.47470819     3.31952544
O     -1.83888796     5.47520615     6.56786448
O     -1.91046998     5.52641062     1.76196664
O     -1.86642083     3.27938669     5.00759323
O      0.15396242     4.27578167     8.26683726
O      1.91568694     3.31737126     0.19995339
O      3.92253341     4.45803532     3.32889177
O      1.91028803     5.15225825     6.54914828
O      1.91568120     5.52641062     1.76196664
O      1.91953621     3.31464264     4.52058996
O      3.49474258     4.29842820     8.55612350
O      5.74184959     3.31737126     0.19995339
O      7.65429169     4.42584092     3.38333424
O      5.73629947     5.43838174     6.62142293
O      5.74184385     5.52641062     1.76196664
O      5.72608161     3.25042467     5.03527156
O      7.70436094     4.39256503     8.18768152
O     -3.82354556     6.63092532     0.19995339
O     -1.91101579     7.73204198     3.38094416
O     -3.85937474     8.93218657     6.57443113
O     -3.82354556     8.83995473     1.76196664
O     -3.81809579     6.63707455     5.05978708
O     -1.91017475     7.63131318     8.18490148
O      0.00260561     6.63092532     0.19995339
O      1.90929958     7.75126480     3.33556640
O      0.02706407     8.84770328     6.53405222
O      0.00260561     8.83995473     1.76196664
O      0.05544387     6.62953683     5.02759313
O      1.79237566     7.72834041     8.17817076
O      3.82876826     6.63092532     0.19995339
O      5.75546452     7.73009069     3.37359343
O      3.79930262     8.88156583     6.54739170
O      3.82876826     8.83995473     1.76196664
O      3.80294328     6.63224964     4.98659305
O      5.83154005     7.80735572     8.20788151
Ce     1.91568694     1.10834185     0.98097142
Ce     0.03331153     2.22739690     4.12207342
Ce     5.69831579     9.91074905     7.30983673
Ce     5.74184959     1.10834185     0.98097142
Ce     3.79744352     2.22851366     4.14208337
Ce     3.86134442     0.04315483     7.37679841
Ce     9.56800076     1.10834185     0.98097142
Ce     7.66660106     2.20240813     4.14046979
Ce     1.90629114     9.93986792     7.31638694
Ce     0.00261135     4.42188597     0.98097142
Ce    -1.89745218     5.52389348     4.17229217
Ce    -1.82432957     3.30339277     7.33977041
Ce     3.82877400     4.42188597     0.98097142
Ce     1.92488247     5.49535803     4.13547853
Ce     7.65492518     4.42188597     0.98097142
Ce     5.73627310     5.52771885     4.18653937
Ce     5.85127447     3.29577242     7.32600789
Ce    -1.91046998     7.73544003     0.98097142
Ce    -3.81920407     8.85180657     4.18017037
Ce    -3.80246932     6.64173849     7.39486291
Ce     1.91569268     7.73544003     0.98097142
Ce     0.00300494     8.85085084     4.16045757
Ce     0.01574716     6.61537649     7.35557064
Ce     5.74184385     7.73544003     0.98097142
Ce     3.81758669     8.83080304     4.14566690
Ce     3.79765623     6.64214237     7.39125185
Ir     1.82644866     3.36306365     7.50632354
H      1.39948184     3.90215776    10.47142918
H      1.89675223     1.65819059     9.44879339
H      3.32418700     5.49427655    10.26949435
H      4.48759360     4.14628921    10.37395588
H      1.93753239     2.01768460    11.99670463
H      3.75367158     2.27629581    11.67096429
C      3.48855897     4.42941283     9.98593280
C      2.43621137     3.60891676    10.67050053
C      2.71936777     2.57914689    11.48083866
