84
CIF: Sc-Ti-CeO2-CO.cif | data_image0
Ce     1.93038582     1.11050507     0.88387043
Ce    -0.02612510     2.21842283     4.07335370
Ce    -5.55976430     9.94128994     7.18819304
Ce     5.81181033     1.12175166     0.90127712
Ce     3.80986458     2.16370822     3.98346645
Ce    -1.82761038    10.00901257     7.40123449
Ce     9.66901012     1.12377363     0.90450652
Ce     7.70939257     2.25580110     4.09818202
Ce     1.92105902     9.81515473     7.34734414
Ce    -0.00709724     4.47602159     0.89067279
Ce    -1.93572647     5.56883789     4.05775123
Ce    -1.74257940     3.45646960     7.30905342
Ce     3.86254305     4.47635356     0.87798423
Ce     1.94090626     5.58881138     4.03846095
Ce     1.98886356     3.30200774     7.20420066
Ce     7.74213807     4.46545905     0.90125422
Ce     5.83417673     5.67754954     3.97441301
Ce    -1.94645625     7.83004003     0.90010904
Ce    -3.81577249     8.90776933     4.06747280
Ce    -3.76205264     6.60447449     7.33965944
Ce     1.92815559     7.82745473     0.89060408
Ce     0.00429890     8.94684150     4.07725424
Ce     0.04855236     6.65421169     7.22936140
Ce     5.81127600     7.83258510     0.88371011
Ce     3.87802429     8.97883932     4.07819313
Ce     3.96120269     6.67357225     7.21159420
Ti     5.37426931     3.60291726     6.56342419
Sc     7.25511248     2.52907375     8.82833903
O     11.61334069     0.00154917     0.10141687
O      1.91249400     1.09436104     3.23080736
O      0.03460004     2.07405229     6.50011000
O     -0.00785227     2.23805103     1.69392277
O     -5.73753708     9.98907203     4.90231282
O      1.95600378     1.15027648     8.09198769
O     -1.93899312    10.05733740     0.10496691
O      5.74748679     1.07221187     3.24930465
O      3.99917202     2.26459800     6.37865843
O      3.86763657     2.23577757     1.68132582
O     -1.93446368    10.03130738     4.86642056
O      6.14499089     0.79311918     8.59324781
O      7.73821774     0.00761509     0.10924988
O      9.73595739     1.06862670     3.26650018
O      6.90791973     2.65286256     6.81571198
O      7.74357843     2.23531483     1.71563532
O      1.97590236    10.05808302     5.02395914
O      8.87776772     1.50756102     8.43182085
O      9.67032270     3.35425987     0.10911246
O      0.01049847     4.45751945     3.25077220
O     -1.91201304     5.62021376     6.42134614
O     -1.94403436     5.59119430     1.70564938
O     -1.90128009     3.33633812     4.91954792
O      0.22799055     4.49757219     8.06075713
O      1.92738314     3.35244915     0.09928684
O      3.80089425     4.52353660     3.19703578
O      2.03342585     5.56455348     6.38012475
O      1.92862022     5.59252216     1.67404250
O      1.91811074     3.30022605     4.89152101
O      4.03942759     4.39367036     7.84679012
O      5.81155478     3.35101064     0.10766953
O      7.73719605     4.55231552     3.24096742
O      5.87997121     5.46582768     6.36765728
O      5.80528807     5.59217007     1.68114259
O      5.60026516     3.47387227     4.70754432
O      7.95582497     4.48091640     8.52187397
O     -3.87155109     6.71022987     0.10512724
O     -1.91527697     7.80888609     3.25482177
O     -3.79798393     8.86408640     6.49784131
O     -3.87509971     8.94378428     1.69355631
O     -3.86271084     6.71713073     4.88957042
O     -1.86856441     7.63117239     8.14183632
O     -0.01209783     6.71325780     0.10434852
O      1.95270465     7.84605349     3.26996172
O      0.06027279     8.85753527     6.47187323
O     -0.00628994     8.94736548     1.70514550
O      0.02607696     6.68252361     4.87229021
O      2.03009925     7.69231562     8.08426987
O      3.86815347     6.71410280     0.09951587
O      5.81532129     7.85243874     3.21936375
O      3.97909702     9.02431723     6.61095396
O      3.86556896     8.94715423     1.69389986
O      3.93171470     6.78114412     4.91395466
O      5.90265115     7.68676491     8.04151873
O      5.87112585     3.38168981    12.11753030
C      6.31269017     3.09229679    11.10789872
