86
CIF: 4-NHNO+2H-N2+OH+2H_fs.cif | data_image0
Ce    11.60774355     0.01195603     8.75944221
Ce     1.93245542     1.13064473     5.63960008
Ce     0.00000000     2.23543938     2.47426506
Ce     3.81608693     0.09596494     8.85200315
Ce     5.80735214     1.10052338     5.64276698
Ce     3.87189458     2.23543938     2.47426506
Ce     7.78030763     0.06440384     8.83140635
Ce     9.68142371     1.11439103     5.60987778
Ce     7.74390532     2.23543938     2.47426506
Ce     9.62717118     3.26291107     8.82020432
Ce     0.00921608     4.43264114     5.56810151
Ce    -1.93600537     5.58869904     2.47426506
Ce     1.95793371     3.33748526     8.89948424
Ce     3.86119495     4.47914798     5.66144560
Ce     1.93588921     5.58869904     2.47426506
Ce     5.80001995     3.36258163     8.79059884
Ce     7.75923001     4.48229551     5.65108471
Ce     5.80789995     5.58869904     2.47426506
Ce     7.71065263     6.68272312     8.93143060
Ce    -1.98401256     7.84363933     5.57648669
Ce    -3.87195266     8.94185811     2.47426506
Ce     1.97995295     7.83649110     5.57078827
Ce    -0.00005808     8.94185811     2.47426506
Ce     3.92583800     6.67462043     8.91612134
Ce     5.80939050     7.81652191     5.67103566
Ce     3.87195266     8.94185811     2.47426506
Ru    -0.01137025     6.72254181     8.23001277
O     11.60719164     0.00950128     6.42152474
O     -0.15144896     2.22260992     9.56800495
O      1.93594729     1.11771969     3.26466483
O     -0.00617736     2.21711437     4.78827191
O      0.00000000     0.00000000     1.68386529
O      1.91565739     1.10585445     7.96900738
O     -1.95765489     9.99368447     6.48466567
O      3.94912367     2.17255638     9.63329662
O      5.80795803     1.11771969     3.26466483
O      3.86844427     2.22084557     4.85373175
O      3.87189458     0.00000000     1.68386529
O      5.82344990     1.06553698     7.96910965
O      1.95068548     9.97439764     6.47035073
O      7.76805794     2.18962814     9.60619359
O      9.67985261     1.11771969     3.26466483
O      7.75857209     2.22309275     4.84729409
O      7.74390532     0.00000000     1.68386529
O      9.65039803     1.11887755     7.92583584
O     -1.84203297     3.36758175     6.45867381
O     -2.26314697     5.22050287    10.16589672
O      0.00000000     4.47087876     3.26466483
O     -1.94596540     5.58238605     4.79999073
O     -1.93594729     3.35315907     1.68386529
O     -0.03280721     4.85524359     8.13885414
O      1.84877366     3.37641741     6.42141243
O      3.87201074     4.47087876     3.26466483
O      1.94394229     5.59192187     4.79749806
O      1.93594729     3.35315907     1.68386529
O      3.87865699     4.44705559     7.93620882
O      5.82810564     3.33899056     6.43630982
O      5.82746979     5.41866044     9.66398393
O      7.74390532     4.47087876     3.26466483
O      5.81432680     5.59720828     4.85827387
O      5.80795803     3.35315907     1.68386529
O      7.81389302     4.41385664     7.96973524
O     -3.81992659     6.74731282     6.45654217
O     -3.78908995     9.07641840     9.62946089
O     -1.93600537     7.82413842     3.26466483
O     -3.88223790     8.95239797     4.81043496
O     -3.87195266     6.70641873     1.68386529
O     -1.60716196     7.67923821     8.15807716
O     -0.00632418     6.71601475     6.28079418
O      0.00334370     9.44569243    10.08654511
O      1.93600537     7.82413842     3.26466483
O     -0.00591923     8.95896309     4.80102655
O     -0.00005808     6.70641873     1.68386529
O      1.60104588     7.65626580     8.15032789
O      3.82502813     6.76867891     6.44113068
O      3.77985508     9.08259835     9.59466170
O      5.80789995     7.82413842     3.26466483
O      3.88295469     8.95383099     4.79844254
O      3.87195266     6.70641873     1.68386529
O      5.82117463     7.89457848     8.03042456
O      2.32257177     5.35540492    10.26759878
N      0.27774289     7.33125630    12.58875695
N      0.88313937     6.49761789    13.01977163
H     -1.72102887     5.40229748    10.95137642
H      2.29518450     5.35660020    11.23828003
H     -0.00935485     8.90822181    10.89745882
