84
CIF: 6-OH+2H-H2O+H_is.cif | data_image0
Ce    11.60486396     0.01233398     8.75785797
Ce     1.92999911     1.13066540     5.63960530
Ce     0.00000000     2.23543938     2.47426506
Ce     3.81279004     0.09600880     8.85036457
Ce     5.80454340     1.10147363     5.64156031
Ce     3.87189458     2.23543938     2.47426506
Ce     7.77892099     0.06501945     8.82513044
Ce     9.67955424     1.11533350     5.60741326
Ce     7.74390532     2.23543938     2.47426506
Ce     9.62336574     3.26262651     8.81579687
Ce     0.00639863     4.43323444     5.56865574
Ce    -1.93600537     5.58869904     2.47426506
Ce     1.95059465     3.33851409     8.90203211
Ce     3.85739465     4.47995437     5.66509786
Ce     1.93588921     5.58869904     2.47426506
Ce     5.79533773     3.36371155     8.79071542
Ce     7.75627990     4.48227702     5.64916542
Ce     5.80789995     5.58869904     2.47426506
Ce     7.70806042     6.68038844     8.92916529
Ce    -1.98517306     7.84305905     5.57584387
Ce    -3.87195266     8.94185811     2.47426506
Ce     1.97776376     7.83776733     5.57106067
Ce    -0.00005808     8.94185811     2.47426506
Ce     3.92208502     6.67993278     8.91488601
Ce     5.80818644     7.81680333     5.67061207
Ce     3.87195266     8.94185811     2.47426506
Ru    -0.00511655     6.71722339     8.22943379
O     11.60538101     0.01009653     6.42034910
O     -0.15491836     2.22278309     9.56907197
O      1.93594729     1.11771969     3.26466483
O     -0.00602451     2.21735409     4.78789146
O      0.00000000     0.00000000     1.68386529
O      1.91116102     1.10642537     7.96902455
O     -1.96126190     9.99243548     6.48463758
O      3.94515535     2.17111667     9.63125110
O      5.80795803     1.11771969     3.26466483
O      3.86618015     2.22188612     4.85468110
O      3.87189458     0.00000000     1.68386529
O      5.81916888     1.06070581     7.96923601
O      1.94927414     9.98084321     6.46484242
O      7.76396949     2.19024447     9.60180857
O      9.67985261     1.11771969     3.26466483
O      7.75436522     2.22485280     4.84522085
O      7.74390532     0.00000000     1.68386529
O      9.64973134     1.11867770     7.92369866
O     -1.84710617     3.36454618     6.45322381
O     -2.28037461     5.21058701    10.17524361
O      0.00000000     4.47087876     3.26466483
O     -1.94706290     5.58235922     4.79956680
O     -1.93594729     3.35315907     1.68386529
O     -0.05139618     4.84918123     8.12894845
O      1.84706911     3.37790884     6.42490961
O      3.87201074     4.47087876     3.26466483
O      1.94376710     5.59185938     4.79903568
O      1.93594729     3.35315907     1.68386529
O      3.87161727     4.44930288     7.94794325
O      5.82118466     3.33926573     6.43960195
O      5.82538440     5.41990597     9.66061421
O      7.74390532     4.47087876     3.26466483
O      5.81167391     5.59633622     4.85935708
O      5.80795803     3.35315907     1.68386529
O      7.81150817     4.41453601     7.96383488
O     -3.82112731     6.74844537     6.45585897
O     -3.78766488     9.07391228     9.62640643
O     -1.93600537     7.82413842     3.26466483
O     -3.88380597     8.95236480     4.80987408
O     -3.87195266     6.70641873     1.68386529
O     -1.60081125     7.67119729     8.15638334
O     -0.00873839     6.71763219     6.27817115
O      0.00593311     9.44211496    10.09416841
O      1.93600537     7.82413842     3.26466483
O     -0.00737559     8.96000697     4.80046217
O     -0.00005808     6.70641873     1.68386529
O      1.59786549     7.67137573     8.13899894
O      3.82390881     6.76735881     6.44285907
O      3.77878383     9.08357036     9.59259168
O      5.80789995     7.82413842     3.26466483
O      3.88248657     8.95334926     4.79772440
O      3.87195266     6.70641873     1.68386529
O      5.81947385     7.89635592     8.02865070
O      2.25525295     5.39906982    10.21693946
H     -1.86468171     5.32194335    11.04642073
H      1.89527116     5.61259114    11.09247327
H      0.01208782     8.91631857    10.91205246
