84
CIF: Pt-Fe-CeO2-CO.cif | data_image0
Ce     1.93038582     1.11050507     0.88387043
Ce    -0.01526359     2.23019200     4.03709899
Ce    -5.76347037    10.03499874     7.22531966
Ce     5.81181033     1.12175166     0.90127712
Ce     3.84370729     2.22310340     4.00334927
Ce    -1.90758560    10.04069349     7.25174526
Ce     9.66901012     1.12377363     0.90450652
Ce     7.72254979     2.24759771     4.13329032
Ce     2.00581442     9.97899359     7.25184013
Ce    -0.00709724     4.47602159     0.89067279
Ce    -1.94940392     5.58406300     4.06423523
Ce    -1.83106487     3.33192509     7.25194000
Ce     3.86254305     4.47635356     0.87798423
Ce     1.92814553     5.59330179     4.03383216
Ce     1.88710900     3.34463507     7.18402212
Ce     7.74213807     4.46545905     0.90125422
Ce     5.80509385     5.62062498     4.00245454
Ce    -1.94645625     7.83004003     0.90010904
Ce    -3.87094951     8.94202161     4.07226156
Ce    -3.84090035     6.69295798     7.25175049
Ce     1.92815559     7.82745473     0.89060408
Ce    -0.00178719     8.95502227     4.06524186
Ce    -0.00793772     6.71071563     7.20183053
Ce     5.81127600     7.83258510     0.88371011
Ce     3.86901463     8.95742299     4.03752704
Ce     3.85535404     6.75395006     7.18495528
Fe     4.94410682     3.85289475     6.57416570
Pt     6.78966832     2.78585621     8.32142405
O     11.61334069     0.00154917     0.10141687
O      1.93179217     1.10500658     3.23269169
O      0.04439176     2.21665457     6.41928708
O     -0.00785227     2.23805103     1.69392277
O     -5.77944489    10.04394971     4.88880991
O      2.00586034     1.12337674     7.98333473
O     -1.93899312    10.05733740     0.10496691
O      5.73074369     1.09151500     3.25845820
O      3.92856223     2.32821257     6.44356809
O      3.86763657     2.23577757     1.68132582
O      3.84918665     0.03217141     4.92729337
O      5.91754786     0.92592150     8.18570505
O      7.73821774     0.00761509     0.10924988
O      9.73183288     1.08607029     3.25499681
O      7.76583810     2.21975662     6.65360292
O      7.74357843     2.23531483     1.71563532
O      1.94279809     9.99209599     4.93723610
O      9.82141173     1.03848143     8.02884253
O      9.67032270     3.35425987     0.10911246
O     -0.00528324     4.47583814     3.23895163
O     -1.92696567     5.60842433     6.44652875
O     -1.94403436     5.59119430     1.70564938
O     -1.87877565     3.38039386     4.93491675
O      0.04074507     4.45835686     8.02562214
O      1.92738314     3.35244915     0.09928684
O      3.85148523     4.48252025     3.20529652
O      1.90313762     5.60730616     6.38709324
O      1.92862022     5.59252216     1.67404250
O      1.92682170     3.34176745     4.85190564
O      3.84601884     4.48642462     7.90524690
O      5.81155478     3.35101064     0.10766953
O      7.72673068     4.55362878     3.25625293
O      5.75632422     5.49513794     6.44489883
O      5.80528807     5.59217007     1.68114259
O      5.68365633     3.42739117     4.92450375
O      7.96621287     4.46998867     8.18340610
O     -3.87155109     6.71022987     0.10512724
O     -1.95512035     7.83556057     3.27369737
O     -3.83219367     8.92003623     6.45765248
O     -3.87509971     8.94378428     1.69355631
O      7.70532648     6.71119946     4.92781063
O     -1.93290390     7.82192691     8.04121554
O     -0.01209783     6.71325780     0.10434852
O      1.92858501     7.82543008     3.23835546
O     -0.01397689     8.92453783     6.44776939
O     -0.00628994     8.94736548     1.70514550
O     -0.01392425     6.71432417     4.86106709
O      1.96723935     7.79444734     8.02504196
O      3.86815347     6.71410280     0.09951587
O      5.81756702     7.83531054     3.23287034
O      3.91290139     8.91323427     6.42189263
O      3.86556896     8.94715423     1.69389986
O      3.87675266     6.72063884     4.85266619
O      5.83959785     7.76160034     7.98447833
O      5.43292005     3.58916144    10.87114378
C      5.95757425     3.27545468     9.88563123
