81
CIF: Pt-Fe-CeO2-Ov.cif | data_image0
Ce     1.93038582     1.11050507     0.88387043
Ce    -0.01120999     2.23696058     4.04286824
Ce    -5.76528386    10.03491585     7.19146206
Ce     5.81181033     1.12175166     0.90127712
Ce     3.83039959     2.23198386     4.00248461
Ce    -1.91062952    10.04463269     7.26522539
Ce     9.66901012     1.12377363     0.90450652
Ce     7.74978219     2.23195897     4.02810257
Ce     1.92855251    10.03430563     7.26263682
Ce    -0.00709724     4.47602159     0.89067279
Ce    -1.95226107     5.58197948     4.06629636
Ce    -1.91790372     3.37216793     7.26274118
Ce     3.86254305     4.47635356     0.87798423
Ce     1.93592396     5.58853209     4.08036923
Ce     1.82273963     3.28222836     7.20820419
Ce     7.74213807     4.46545905     0.90125422
Ce     5.79004874     5.62624632     4.00253623
Ce    -1.94645625     7.83004003     0.90010904
Ce    -3.87160163     8.94161342     4.06588021
Ce    -3.84638260     6.69180250     7.26530427
Ce     1.92815559     7.82745473     0.89060408
Ce    -0.00245653     8.95916025     4.06614001
Ce    -0.00158216     6.70725698     7.23319093
Ce     5.81127600     7.83258510     0.88371011
Ce     3.86498455     8.95069860     4.04289076
Ce     3.87673291     6.83981540     7.20822818
Fe     5.67726161     3.42847429     6.49595317
Pt     6.87529824     2.73682079     8.48901620
O     11.61334069     0.00154917     0.10141687
O      1.92313921     1.10153695     3.21399593
O     -0.02838045     2.19531035     6.40962310
O     -0.00785227     2.23805103     1.69392277
O     -5.79008480    10.04921818     4.85384295
O      1.98939425     0.97920037     8.00109137
O     -1.93899312    10.05733740     0.10496691
O      5.79735592     1.08346593     3.22662932
O      4.06780759     2.44712724     6.51765535
O      3.86763657     2.23577757     1.68132582
O      3.85386125     0.09168321     4.90488338
O      5.91965415     0.91832206     8.35008223
O      7.73821774     0.00761509     0.10924988
O      9.68429545     1.11505619     3.23554202
O      7.50925507     2.37076340     6.38744041
O      7.74357843     2.23531483     1.71563532
O      7.74912938     0.02634491     4.87871689
O      9.65135802     1.13402415     7.96905088
O      9.67032270     3.35425987     0.10911246
O     -0.01278102     4.48047702     3.25299439
O     -1.99167223     5.60088215     6.39980945
O     -1.94403436     5.59119430     1.70564938
O      9.65950765     3.33532225     4.87882621
O     -0.11512766     4.52829091     8.04183366
O      1.92738314     3.35244915     0.09928684
O      3.82223567     4.49961445     3.21256778
O      1.99105175     5.55678809     6.47101753
O      1.92862022     5.59252216     1.67404250
O      1.92699631     3.31018275     4.81378604
O      5.81155478     3.35101064     0.10766953
O      7.76808106     4.49697211     3.22656538
O      5.72243043     5.31298355     6.51760283
O      5.80528807     5.59217007     1.68114259
O      5.77925866     3.36967379     4.57134370
O      7.97229033     4.47360398     8.35017303
O     -3.87155109     6.71022987     0.10512724
O     -1.94736297     7.83065916     3.28660994
O     -3.81587070     8.90943933     6.37750053
O     -3.87509971     8.94378428     1.69355631
O      7.65530469     6.67610169     4.90494015
O     -1.93240874     7.82198992     8.02529128
O     -0.01209783     6.71325780     0.10434852
O      1.92119833     7.83019488     3.25283884
O     -0.03849791     8.98387566     6.39973497
O     -0.00628994     8.94736548     1.70514550
O      0.01182546     6.69948475     4.89966839
O      1.82878834     7.89507225     8.04177769
O      3.86815347     6.71410280     0.09951587
O      5.81544839     7.84328497     3.21384819
O      3.89251904     8.98635935     6.40957664
O      3.86556896     8.94715423     1.69389986
O      3.90460819     6.73558886     4.81383304
O      5.95461065     7.84691498     8.00116864
