90
CIF: CH2CHCH+H2O.cif | data_VESTA_phase_1
O     -0.00101584     0.09961518     0.10145935
O      1.90906960     1.21105851     3.24026680
O     -0.11183468     2.27919046     6.45557934
O     -0.00101584     2.30864459     1.66347260
O     -0.00606063     0.10664321     4.85180079
O      1.70140695     1.09339113     8.22477678
O      3.82513533     0.09961518     0.10145935
O      5.73122053     1.20075006     3.25974663
O      3.91448370     2.31085141     6.63767242
O      3.82513533     2.30864459     1.66347260
O      3.78719900     0.09834277     4.85718397
O      7.14895444     1.50605701     9.22611762
O      7.65129798     0.09961518     0.10145935
O      9.56272067     1.21343432     3.22981977
O      7.63150911     2.21148475     6.46718968
O      7.65129798     2.30864459     1.66347260
O      7.67506988     0.06364993     4.82529544
O      9.47254585     1.24550283     8.26553844
O     -1.91409143     3.41315929     0.10145935
O      0.00241048     4.53448362     3.27071829
O     -1.90269905     5.63448528     6.36479512
O     -1.91409717     5.62219864     1.66347260
O     -1.95273942     3.41433229     4.87198773
O     -0.12692313     4.61181188     8.13312578
O      1.91205974     3.41315929     0.10145935
O      3.81314607     4.52199818     3.26629313
O      1.97196585     5.63688097     6.49729902
O      1.91205400     5.62219864     1.66347260
O      1.91305837     3.38037505     4.88934622
O      3.85705694     4.61648398     8.67933657
O      5.73822240     3.41315929     0.10145935
O      7.65286479     4.52140174     3.22959167
O      5.68356768     5.63144344     6.48523248
O      5.73821666     5.62219864     1.66347260
O      5.75550896     3.42759310     4.84536834
O      7.78643969     4.61056930     8.11328098
O     -3.82717276     6.72671335     0.10145935
O     -1.90982718     7.82685417     3.24752041
O     -3.91406474     8.89112916     6.42430668
O     -3.82717276     8.93574276     1.66347260
O     -3.85273530     6.70931722     4.87009449
O     -1.92623565     7.68904705     8.11047534
O     -0.00102158     6.72671335     0.10145935
O      1.90535058     7.81995536     3.23330972
O      0.02580933     9.08583652     6.53792382
O     -0.00102158     8.93574276     1.66347260
O      0.02500584     6.78427961     4.92451940
O      1.91313872     7.89185603     8.08189428
O      3.82514107     6.72671335     0.10145935
O      5.73937598     7.82755001     3.22423129
O      3.85623623     8.97480948     6.42891433
O      3.82514107     8.93574276     1.66347260
O      3.83022603     6.76663497     4.86722042
O      5.72396040     7.84727225     8.13905640
Ce     1.91205974     1.20412988     0.88247738
Ce    -0.00448234     2.30423094     4.06275360
Ce    -0.01371677     0.10201087     7.32817994
Ce     5.73822240     1.20412988     0.88247738
Ce     3.82272485     2.31023509     4.11209186
Ce     3.64244408     0.02374819     7.27259172
Ce     9.56437357     1.20412988     0.88247738
Ce     7.64487004     2.31478790     4.04831480
Ce     7.73802352     0.00081513     7.14120551
Ce    -0.00101584     4.51767400     0.88247738
Ce    -1.92071451     5.62662223     4.04576007
Ce    -1.91214583     3.47022852     7.24985004
Ce     3.82514681     4.51767400     0.88247738
Ce     1.91854508     5.62248692     4.09101532
Ce     1.81406235     3.35090105     7.31451669
Ce     7.65129798     4.51767400     0.88247738
Ce     5.73453781     5.61692016     4.05326460
Ce     5.84376114     3.47963237     7.27352693
Ce    -1.91409717     7.83122805     0.88247738
Ce    -3.84360992     8.94188607     4.04325096
Ce    -3.82138761     6.71957597     7.25541571
Ce     1.91206548     7.83122805     0.88247738
Ce    -0.01376268     8.94798963     4.05670892
Ce    -0.02104003     6.72824421     7.26542934
Ce     5.73821666     7.83122805     0.88247738
Ce     3.84383949     8.94015640     3.99954680
Ce     3.83399670     6.82865463     7.23192130
C      2.46381808     6.25198803    11.64672607
C      2.55583519     5.57541798    10.46224289
C      3.78197056     5.27530005     9.82267033
H      1.49603426     6.46567208    12.09863989
H      3.35559150     6.60921496    12.16638591
H      1.63624945     5.24477234     9.96012403
H      8.21936148     1.50471502     9.04655647
H      7.00760862     1.19678375    10.13756384
H      4.72971872     5.58663102    10.29340248
