84
CIF: Re-Fe-CeO2-Ov-CO2.cif | data_image0
Ce     1.93038582     1.11050507     0.88387043
Ce    -0.01108325     2.23192591     4.02117740
Ce     0.01816222     0.01186491     7.22376175
Ce     5.81181033     1.12175166     0.90127712
Ce     3.84951135     2.21127994     4.01967139
Ce    -1.96849799    10.04298197     7.29756680
Ce     9.66901012     1.12377363     0.90450652
Ce     7.75164994     2.22699942     4.05470798
Ce     2.04436864     9.94387310     7.30052464
Ce    -0.00709724     4.47602159     0.89067279
Ce    -1.94488907     5.57313715     4.08026970
Ce    -1.80532374     3.31396129     7.28878459
Ce     3.86254305     4.47635356     0.87798423
Ce     1.94822172     5.57724048     4.04718102
Ce     1.85167083     3.29754599     7.17618107
Ce     7.74213807     4.46545905     0.90125422
Ce     5.81393107     5.62267369     4.01073255
Ce    -1.94645625     7.83004003     0.90010904
Ce    -3.86156880     8.95406805     4.04543100
Ce    -3.83971602     6.80211883     7.20594361
Ce     1.92815559     7.82745473     0.89060408
Ce     0.00342689     8.95098677     4.10450050
Ce     0.01218481     6.69200793     7.23764755
Ce     5.81127600     7.83258510     0.88371011
Ce     3.87461871     8.95009503     4.03032985
Ce     3.89573537     6.79165853     7.18358465
Fe     5.08699314     3.78916904     6.60459030
Re     6.48181352     2.98593018     7.94204868
O     11.61334069     0.00154917     0.10141687
O      1.93309704     1.11012236     3.21243130
O      0.04479979     2.22777974     6.34052272
O     -0.00785227     2.23805103     1.69392277
O     -5.79895533    10.05671188     4.82696668
O      1.84259911     1.19672791     8.03176977
O     -1.93899312    10.05733740     0.10496691
O      5.81542014     1.14434370     3.25535812
O      3.89498930     2.34401085     6.42256428
O      3.86763657     2.23577757     1.68132582
O      3.87014380     0.02175541     4.84091019
O      5.99096483     1.31111619     8.50631868
O      7.73821774     0.00761509     0.10924988
O      9.67210315     1.11673721     3.22607853
O      7.64915552     2.28886039     6.54778288
O      7.74357843     2.23531483     1.71563532
O      7.76568848     0.03603058     4.85344155
O      9.85883021     1.01740982     8.06360271
O      9.67032270     3.35425987     0.10911246
O     -0.00966496     4.48403470     3.23929930
O     -2.02191800     5.58375984     6.45016006
O     -1.94403436     5.59119430     1.70564938
O      9.64854502     3.32264173     4.83670034
O      0.12784186     4.52890739     8.01475992
O      1.92738314     3.35244915     0.09928684
O      3.87799225     4.47140768     3.22193412
O      2.08626160     5.50660157     6.39498013
O      1.92862022     5.59252216     1.67404250
O      1.92777406     3.33158555     4.80854820
O      3.99963622     4.41275504     8.17068888
O      5.81155478     3.35101064     0.10766953
O      7.71878851     4.46380067     3.25146959
O      5.79888799     5.53407672     6.43702019
O      5.80528807     5.59217007     1.68114259
O      5.76105324     3.38906194     4.92558522
O      7.67145494     4.27059708     8.47980896
O     -3.87155109     6.71022987     0.10512724
O     -1.92363204     7.81223772     3.27143503
O     -3.86909765     8.92486612     6.41438987
O     -3.87509971     8.94378428     1.69355631
O      7.72061304     6.72071887     4.86449394
O     -1.96309525     7.70194589     8.07725983
O     -0.01209783     6.71325780     0.10434852
O      1.92132139     7.81978162     3.25539978
O      0.01334072     8.91793361     6.47015870
O     -0.00628994     8.94736548     1.70514550
O      0.01333777     6.66798399     4.91826720
O      1.99899731     7.65742860     8.04400086
O      3.86815347     6.71410280     0.09951587
O      5.81599569     7.83053486     3.21358730
O      3.93293195     8.88819064     6.37318038
O      3.86556896     8.94715423     1.69389986
O      3.90066013     6.71423945     4.82648325
O      5.84529613     7.79908341     8.00335538
O      4.64045340     4.01417653    10.32757669
C      4.89151193     3.88845442     9.15343636
