79
CIF: 3-O2.cif | data_VESTA_phase_1
O     -0.00101584     0.09961518     0.10145935
O      1.90945413     1.18637589     3.22402600
O     -0.01530653     2.31059295     6.46486305
O     -0.00101584     2.30864459     1.66347260
O      0.00579662     0.08298448     4.83403171
O      3.82513533     0.09961518     0.10145935
O      5.75920503     1.19498449     3.21905340
O      3.82132448     2.29409149     7.78705085
O      3.82513533     2.30864459     1.66347260
O      3.85137510     0.20315691     4.92534057
O      7.65129798     0.09961518     0.10145935
O      9.56907400     1.22199322     3.23648032
O      7.56643769     2.18502276     6.54992194
O      7.65129798     2.30864459     1.66347260
O      7.68860299     0.09760717     4.85622595
O      9.43318045     1.14441644     8.18346768
O     -1.91409143     3.41315929     0.10145935
O     -0.06373418     4.47399481     3.32372898
O     -1.79204091     5.55644129     6.48520967
O     -1.91409717     5.62219864     1.66347260
O      9.49125001     3.35863487     4.95620264
O      1.91205974     3.41315929     0.10145935
O      3.90301671     4.49391586     3.22297674
O      2.04846408     5.58935476     6.70972954
O      1.91205400     5.62219864     1.66347260
O      2.06460280     3.26499402     4.99826448
O      5.73822240     3.41315929     0.10145935
O      7.63735165     4.51041733     3.29113333
O      5.57269719     5.55420465     6.59764068
O      5.73821666     5.62219864     1.66347260
O      5.66502422     3.33244128     4.94598371
O      7.77951244     4.41377440     8.23650118
O     -3.82717276     6.72671335     0.10145935
O     -1.91542293     7.84064184     3.30048548
O     -3.82317251     9.03527841     6.57042822
O     -3.82717276     8.93574276     1.66347260
O     -3.85259182     6.71539096     4.95118442
O     -1.72807717     7.76450646     8.22591729
O     -0.00102158     6.72671335     0.10145935
O      1.90650990     7.89176656     3.22915828
O      0.08415437     9.08394779     6.56312899
O     -0.00102158     8.93574276     1.66347260
O      0.00426999     6.82798861     5.00353361
O      1.97120827     7.90857619     8.13727721
O      3.82514107     6.72671335     0.10145935
O      5.77559628     7.81515403     3.23346939
O      3.83346870     8.95465980     6.37697571
O      3.82514107     8.93574276     1.66347260
O      3.90299950     6.78663554     4.89511718
O      5.57164691     7.79141578     8.22137808
O     -0.05866643     4.68526329     8.43967079
O     -0.12405925     3.35224304     9.03948534
Ce     1.91205974     1.20412988     0.88247738
Ce     0.00119376     2.29927056     4.09464213
Ce    11.37345426     0.05545884     7.29093104
Ce     5.73822240     1.20412988     0.88247738
Ce     3.82926758     2.30874399     3.93786827
Ce    -1.89946787     9.91276873     7.28326685
Ce     9.56437357     1.20412988     0.88247738
Ce     7.65181451     2.30319711     4.07190045
Ce     7.80812825     0.03686984     7.19829920
Ce    -0.00101584     4.51767400     0.88247738
Ce    -1.91292637     5.60663160     4.14363824
Ce    -1.93054007     3.37653797     7.40222155
Ce     3.82514681     4.51767400     0.88247738
Ce     1.93400657     5.60566735     4.10997052
Ce     1.78170455     3.41611166     7.36520075
Ce     7.65129798     4.51767400     0.88247738
Ce     5.73793543     5.61258604     4.08205095
Ce     5.84853044     3.44785213     7.30751399
Ce    -1.91409717     7.83122805     0.88247738
Ce    -3.82492298     8.93600121     4.09500709
Ce    -3.79621534     6.69681190     7.40160568
Ce     1.91206548     7.83122805     0.88247738
Ce     0.02095968     8.94494779     4.05242062
Ce     0.01578289     6.79949873     7.31177948
Ce     5.73821666     7.83122805     0.88247738
Ce     3.84551534     8.93675670     3.97180971
Ce     3.85980029     6.89193676     7.22158832
