89
CIF: CH2COCH2→CH2+CH2CO.cif | data_image0
O      0.00269170     0.00211736     0.19997620
O      1.92356067     1.10622447     3.32785903
O      0.30697423     2.37234798     6.66115477
O      0.00269170     2.21114677     1.76198945
O      0.00563130     0.07877743     4.99860430
O      1.94648074     0.56268115     8.39088476
O      3.82884287     0.00211736     0.19997620
O      5.74993060     1.09114489     3.33288427
O      3.53386441     2.42629383     6.71916856
O      3.82884287     2.21114677     1.76198945
O      3.84166734     0.09599269     5.02133560
O      5.73859055     0.98055212     8.16417707
O      7.65500553     0.00211736     0.19997620
O      9.56235778     1.10279206     3.33349599
O      7.70427844     2.18750465     6.52661517
O      7.65500553     2.21114677     1.76198945
O      1.90998829     9.93014463     4.97839209
O      9.64013835     1.13729849     8.13541695
O     -1.91038389     3.31566147     0.19997620
O      0.00495271     4.42048286     3.31975946
O     -1.94588465     5.56980144     6.41706256
O     -1.91038963     5.52470082     1.76198945
O     -1.84158114     3.27432986     4.99721792
O      1.91576729     3.31566147     0.19997620
O      3.83209423     4.42600604     3.33336676
O      2.03351996     5.16990838     6.73424870
O      1.91576155     5.52470082     1.76198945
O      1.91711985     3.32641300     4.88111101
O      4.51696047     4.94716178     9.00930865
O      5.74192994     3.31566147     0.19997620
O      7.66095927     4.39281878     3.36024846
O      5.68155141     5.54735773     6.51768527
O      5.74192420     5.52470082     1.76198945
O      5.70675396     3.26400063     4.96931786
O      7.75262524     4.48879092     8.18032252
O     -3.82346521     6.62921553     0.19997620
O     -1.88954938     7.74236196     3.38196462
O     -3.80871875     8.76701386     6.43404416
O     -3.82346521     8.83824494     1.76198945
O      7.61950321     6.60203758     4.91903290
O     -1.92812827     7.69305699     8.18409827
O      0.00268596     6.62921553     0.19997620
O      1.91140397     7.74625949     3.32559671
O     -0.02336499     8.78851500     6.51402028
O      0.00268596     8.83824494     1.76198945
O      0.10429160     6.57195788     5.01542513
O      1.92690672     7.72455123     8.11057426
O      3.82884861     6.62921553     0.19997620
O      5.72159043     7.74975249     3.36194496
O      3.85768739     8.86436093     6.52214944
O      3.82884861     8.83824494     1.76198945
O      3.75597827     6.64005354     4.98341252
O      5.77067582     7.76986877     8.17657508
O     -0.42101183     4.67767724     8.34374267
O      2.04944220     3.38445675     9.04649546
Ce     1.91576729     1.10663206     0.98099423
Ce    -0.01189258     2.19882425     4.12515634
Ce     0.08253306     0.00192641     7.42661389
Ce     5.74192994     1.10663206     0.98099423
Ce     3.86039491     2.19830112     4.12459556
Ce    -1.94836600     9.86957909     7.43060104
Ce     9.56808111     1.10663206     0.98099423
Ce     7.65858432     2.20880699     4.17705813
Ce     7.65420945     0.00263021     7.33792895
Ce     0.00269170     4.42017618     0.98099423
Ce    -1.90691114     5.51298316     4.15125918
Ce    -1.89275302     3.37036441     7.40274673
Ce     3.82885435     4.42017618     0.98099423
Ce     1.92291445     5.55193322     4.11365655
Ce     7.65500553     4.42017618     0.98099423
Ce     5.73294160     5.51525110     4.17768643
Ce     5.81470639     3.27647353     7.41714526
Ce    -1.91038963     7.73373024     0.98099423
Ce    -3.82623418     8.84263243     4.16075659
Ce     7.64359138     6.60882424     7.32869112
Ce     1.91577303     7.73373024     0.98099423
Ce     0.00268732     8.83391971     4.18540916
Ce    -0.05698848     6.60153215     7.40366547
Ce     5.74192420     7.73373024     0.98099423
Ce     3.83315997     8.85157022     4.15979231
Ce     3.86696249     6.75446266     7.35194239
Ti     1.92191079     3.31090341     6.79458584
C      1.31916344     4.94854365    10.84423014
C      1.88465952     4.16926815     9.94450722
C      4.22603802     4.76632720    10.24820967
H      0.23003109     5.02923275    10.77985308
H      1.87149116     5.50453546    11.59242178
H      4.41045332     3.78669805    10.71745366
H      4.03689189     5.63304504    10.89662192
