90
CIF: H2O.cif | data_image0
O      0.00269170     0.00211736     0.19997620
O      1.90913808     1.13035233     3.33648690
O      0.04542835     2.34040616     6.55018566
O      0.00269170     2.21114677     1.76198945
O      0.00496954     0.05977743     4.97838049
O      1.87151879     1.26057424     8.05376169
O      3.82884287     0.00211736     0.19997620
O      5.74202602     1.09427249     3.33560398
O      3.69331080     2.33932873     6.56267736
O      3.82884287     2.21114677     1.76198945
O      3.81542218     0.06456551     4.96994846
O      5.68327013     0.98697150     8.20044999
O      7.65500553     0.00211736     0.19997620
O      9.55815030     1.09111694     3.33824421
O      7.67305124     2.17789206     6.51761391
O      7.65500553     2.21114677     1.76198945
O      1.91343496     9.91995866     4.96353351
O      9.58226130     1.15219894     8.18284804
O     -1.91038389     3.31566147     0.19997620
O     -0.00440370     4.41400004     3.32262512
O     -1.87270293     5.47062988     6.55079144
O     -1.91038963     5.52470082     1.76198945
O      9.55649135     3.29448408     4.95529192
O     -0.35541898     4.48621479     9.00269589
O      1.91576729     3.31566147     0.19997620
O      3.82325271     4.42518419     3.32693624
O      1.69804589     4.51252615     7.66924934
O      1.91576155     5.52470082     1.76198945
O      1.89431339     3.33998952     5.01367277
O      4.48369263     4.67065013     8.96280348
O      5.74192994     3.31566147     0.19997620
O      7.65539722     4.43869317     3.36617608
O      5.78973051     5.58928844     6.54938525
O      5.74192420     5.52470082     1.76198945
O      5.72500172     3.30820045     4.94282126
O      7.80137227     4.44733976     8.23162315
O     -3.82346521     6.62921553     0.19997620
O     -1.87762338     7.72559352     3.38095877
O     -3.82697680     8.88715772     6.49943657
O     -3.82346521     8.83824494     1.76198945
O     -3.78664590     6.64766368     4.99014651
O     -2.01552860     7.83475685     8.22117669
O      0.00268596     6.62921553     0.19997620
O      1.92114255     7.73654720     3.31344707
O     -0.05913969     8.88289558     6.47639537
O      0.00268596     8.83824494     1.76198945
O      0.14860185     6.55763133     5.04854600
O      1.89253244     7.88433270     8.18244820
O      3.82884861     6.62921553     0.19997620
O      5.70470853     7.71800823     3.40959941
O      3.88089245     8.89946152     6.53242656
O      3.82884861     8.83824494     1.76198945
O      3.64803874     6.53833679     5.10039180
O      5.87256657     7.88278680     8.26393771
Ce     1.91576729     1.10663206     0.98099423
Ce    -0.03051038     2.21025640     4.12064397
Ce    -0.01305354     0.02900774     7.35556170
Ce     5.74192994     1.10663206     0.98099423
Ce     3.84925000     2.22641614     4.14000406
Ce     3.82772668     0.03680258     7.34694419
Ce     9.56808111     1.10663206     0.98099423
Ce     7.63635277     2.21425534     4.14429395
Ce     1.89442946     9.93099817     7.34459759
Ce     0.00269170     4.42017618     0.98099423
Ce    -1.89846712     5.52095465     4.19555346
Ce     9.44679166     3.28576915     7.33177021
Ce     3.82885435     4.42017618     0.98099423
Ce     1.91784321     5.53236901     4.06328642
Ce     7.65500553     4.42017618     0.98099423
Ce     5.73148440     5.51969557     4.23126130
Ce     5.77281906     3.32216908     7.46867185
Ce    -1.91038963     7.73373024     0.98099423
Ce    -3.82314004     8.85311117     4.17257898
Ce    -3.81324821     6.66003363     7.37449085
Ce     1.91577303     7.73373024     0.98099423
Ce     0.01020228     8.82985398     4.16699307
Ce    -0.05738466     6.75792295     7.48129254
Ce     5.74192420     7.73373024     0.98099423
Ce     3.81466431     8.82064122     4.20035242
Ce     3.92074398     6.70775453     7.61859806
Ti     1.87625564     2.86576847     6.93610462
C      3.23173085     6.93314137    11.15953830
C      3.06462270     5.82647597    10.46637195
C      3.77428439     4.56264177    10.17346820
H      2.55357947     7.78654304    11.06336270
H      4.07950531     7.04992779    11.85454303
H     -0.31542558     4.39399778     9.96937114
H      0.65039959     4.40025888     8.57004209
H      3.05726465     3.71522364    10.14887299
H      4.47045233     4.36278749    11.02571900
