81
CIF: Cr-W-CeO2-Ov.cif | data_image0
Ce     1.93596140     1.11772783     0.89035214
Ce    -0.00522853     2.23828375     4.03944441
Ce    11.59340344     0.01394430     7.26147498
Ce     5.80789581     1.11772783     0.89035214
Ce     3.81838575     2.21930584     3.95821707
Ce    -2.02970337     9.99615451     7.35379376
Ce     9.67981860     1.11772783     0.89035214
Ce     7.79039256     2.20743999     3.96682442
Ce     1.97967104    10.00446999     7.28047037
Ce     0.00000000     4.47091133     0.89035214
Ce    -1.95787922     5.58595367     4.11400580
Ce    -1.86551057     3.33910733     7.27940808
Ce     3.87193441     4.47091133     0.89035214
Ce     1.93715930     5.58802377     4.11289480
Ce     1.74600250     3.32274031     7.27980854
Ce     7.74385721     4.47091133     0.89035214
Ce     5.79468905     5.64177541     3.96527354
Ce    -1.93596721     7.82410489     0.89035214
Ce    -3.89099698     8.95330640     4.07617967
Ce    -3.86513206     6.82793520     7.34604431
Ce     1.93596721     7.82410489     0.89035214
Ce    -0.00832197     8.96184780     4.11333854
Ce    -0.02618891     6.72074798     7.27991636
Ce     5.80789000     7.82410489     0.89035214
Ce     3.86696574     8.94536870     4.03822669
Ce     3.80511011     6.88801194     7.27997663
W      5.94559375     3.28574842     6.87323447
Cr     6.80954246     2.74545855     9.62791235
O      0.00000000     0.00000000     0.09999685
O      1.92846695     1.11294277     3.19896938
O     -0.02877026     2.23651277     6.34722475
O      0.00000000     2.23545567     1.68070743
O     11.61439713     0.00219733     4.81276251
O      1.80721331     1.07515344     8.10064695
O      3.87192279     0.00000000     0.09999685
O      5.79644708     1.16110904     3.22233551
O      4.21941401     2.64109169     6.89049360
O      3.87192279     2.23545567     1.68070743
O      3.84219047     0.17516448     4.89961189
O      6.00609637     1.68265651     8.42064767
O      7.74385721     0.00000000     0.09999685
O      9.68524407     1.11518424     3.20333345
O      7.52505576     2.36420895     6.39173677
O      7.74385721     2.23545567     1.68070743
O      7.74452680     0.06200580     4.80001524
O      9.74131527     1.08224232     8.10857034
O     -1.93596140     3.35318350     0.09999685
O      0.01058268     4.47465061     3.27799506
O     -2.00435303     5.59229718     6.40674478
O     -1.93596721     5.58864923     1.68070743
O      9.62722379     3.32092124     4.80075384
O     -0.03628331     4.59188923     8.15162455
O      1.93596140     3.35318350     0.09999685
O      3.89640679     4.45701940     3.22594624
O      1.97015704     5.56683314     6.42417711
O      1.93595559     5.58864923     1.68070743
O      2.01337345     3.27922004     4.85364586
O      5.80789581     3.35318350     0.09999685
O      7.69739959     4.45781318     3.22664512
O      5.66165174     5.11036194     6.82810141
O      5.80789000     5.58864923     1.68070743
O      5.79318274     3.34968574     4.94793758
O      7.28332566     4.00248753     8.42189791
O     -3.87192860     6.70637706     0.09999685
O     -1.96580153     7.84389608     3.31161460
O     -3.86884728     8.94258385     6.37945147
O     -3.87192860     8.94183273     1.68070743
O      7.58428093     6.65270651     4.89146301
O     -1.87474410     7.79034236     8.18281543
O     -0.00000581     6.70637706     0.09999685
O      1.93610569     7.81329145     3.27742471
O     -0.03732026     8.99360006     6.40543290
O     -0.00000581     8.94183273     1.68070743
O     -0.00599630     6.70817370     4.88242642
O      3.87192860     6.70637706     0.09999685
O      5.80836117     7.83227804     3.20044448
O      3.85854318     8.96671102     6.34286376
O      3.87192860     8.94183273     1.68070743
O      3.97093527     6.67686851     4.85172901
O      5.78019140     7.95678888     8.10160891
O      1.81490939     7.78973677     8.15205342
