82
CIF: Cr-W-CeO2.cif | data_image0
Ce     1.93596140     1.11772783     0.89035214
Ce    -0.01140365     2.23209148     4.03623616
Ce    11.60114686     0.01019276     7.19211575
Ce     5.80789581     1.11772783     0.89035214
Ce     3.84109933     2.19725650     3.97895705
Ce    -1.95153948    10.01915916     7.30860728
Ce     9.67981860     1.11772783     0.89035214
Ce     7.74887076     2.23249555     4.02583255
Ce     2.00787561    10.00656292     7.27291159
Ce     0.00000000     4.47091133     0.89035214
Ce    -1.94086581     5.58527398     4.09663775
Ce    -1.84970099     3.31649136     7.26941959
Ce     3.87193441     4.47091133     0.89035214
Ce     1.95376098     5.57884174     4.05683691
Ce     1.91521490     3.33148770     7.21232934
Ce     7.74385721     4.47091133     0.89035214
Ce     5.82567321     5.63741552     3.97589342
Ce    -1.93596721     7.82410489     0.89035214
Ce    -3.85879776     8.93651712     4.06692010
Ce    -3.84212711     6.75133745     7.30547559
Ce     1.93596721     7.82410489     0.89035214
Ce     0.00076831     8.94882421     4.09732498
Ce     0.01128483     6.70042074     7.25836468
Ce     5.80789000     7.82410489     0.89035214
Ce     3.86854830     8.95422027     4.03764835
Ce     3.87997274     6.73980987     7.21343187
W      5.67024952     3.44006527     6.81384710
Cr     6.41026475     2.98741993     9.52420955
O      0.00000000     0.00000000     0.09999685
O      1.92341159     1.11453860     3.21673968
O      0.04140108     2.24509691     6.35123319
O      0.00000000     2.23545567     1.68070743
O     11.61400311     0.00076217     4.83929021
O      1.89812223     1.27143107     8.01760221
O      3.87192279     0.00000000     0.09999685
O      5.80542782     1.13275753     3.23689846
O      4.18513794     2.28872389     6.35550740
O      3.87192279     2.23545567     1.68070743
O      3.84823699     0.01381278     4.83122233
O      5.73488306     1.77220923     8.39059247
O      7.74385721     0.00000000     0.09999685
O      9.68271914     1.11563152     3.21319158
O      7.34580718     2.46447731     6.44974795
O      7.74385721     2.23545567     1.68070743
O      7.77001629     0.07593962     4.84612001
O      9.80586000     1.04656536     8.04027610
O     -1.93596140     3.35318350     0.09999685
O      0.00800021     4.46801956     3.26789448
O     -1.94024336     5.55572343     6.43786163
O     -1.93596721     5.58864923     1.68070743
O      9.62766915     3.29309959     4.84592295
O      0.15418602     4.47502098     8.06416940
O      1.93596140     3.35318350     0.09999685
O      3.86512698     4.47516394     3.20647770
O      2.04027574     5.52969720     6.42205180
O      1.93595559     5.58864923     1.68070743
O      1.99370710     3.31066328     4.86940100
O      5.80789581     3.35318350     0.09999685
O      7.73013487     4.46683179     3.23618677
O      5.91848752     5.29903215     6.35173098
O      5.80789000     5.58864923     1.68070743
O      5.72758573     3.40326109     4.81763424
O      7.10302909     4.19035200     8.38182456
O     -3.87192860     6.70637706     0.09999685
O     -1.91524570     7.81359075     3.26249817
O     -3.90100347     8.96205991     6.46432932
O     -3.87192860     8.94183273     1.68070743
O      7.72072275     6.72375080     4.82930835
O     -1.78627753     7.73919090     8.14846219
O     -0.00000581     6.70637706     0.09999685
O      1.94206688     7.81938042     3.26877473
O      0.02781783     8.95969656     6.43888137
O     -0.00000581     8.94183273     1.68070743
O      0.02507763     6.69093835     4.89733840
O      3.87192860     6.70637706     0.09999685
O      5.80460156     7.83923664     3.21481931
O      3.88437277     8.90313671     6.35278925
O      3.87192860     8.94183273     1.68070743
O      3.93781184     6.68017756     4.86993533
O      5.65867322     7.78410603     8.01742783
O      4.24508730     4.25706531     7.90438306
O      2.01053780     7.68967229     8.06689353
