81
CIF: Cu-Cu-CeO2-Ov.cif | data_image0
Ce     1.93038582     1.11050507     0.88387043
Ce    -0.00826687     2.22786056     4.00653570
Ce    -5.77756959    10.04127604     7.22182931
Ce     5.81181033     1.12175166     0.90127712
Ce     3.88621246     2.24024905     4.02862335
Ce     3.93101905     0.01427557     7.24609629
Ce     9.66901012     1.12377363     0.90450652
Ce     7.73531197     2.23985677     4.06748072
Ce     7.76723812     0.02824781     7.20252706
Ce    -0.00709724     4.47602159     0.89067279
Ce    -1.93658381     5.57915502     4.06257654
Ce     9.66574406     3.31744376     7.20253918
Ce     3.86254305     4.47635356     0.87798423
Ce     1.94573375     5.58275909     4.04011953
Ce     1.79688566     3.24990685     7.12867814
Ce     7.74213807     4.46545905     0.90125422
Ce     5.81104306     5.57363829     4.02935026
Ce    -1.94645625     7.83004003     0.90010904
Ce    -3.87193176     8.94169460     4.08302622
Ce     7.76070849     6.64807322     7.24665311
Ce     1.92815559     7.82745473     0.89060408
Ce     0.00778804     8.94649904     4.06223299
Ce     0.00532765     6.70305032     7.23457157
Ce     5.81127600     7.83258510     0.88371011
Ce     3.87424683     8.95195644     4.00652540
Ce     3.89234394     6.87700617     7.12894977
Cu     4.99997338     3.81866967     6.59433097
Cu     6.72937069     2.82035627     8.16729188
O     11.61334069     0.00154917     0.10141687
O      1.94414511     1.10524956     3.22798495
O     -0.01134696     2.19551229     6.36933162
O     -0.00785227     2.23805103     1.69392277
O     -5.78099711    10.04338919     4.84958884
O      1.92691107     1.09308625     8.00549882
O     -1.93899312    10.05733740     0.10496691
O      5.78867143     1.08505144     3.23546862
O      3.82277827     2.36165313     6.51563655
O      3.86763657     2.23577757     1.68132582
O      3.87557337     0.06267670     4.92234928
O      5.94135950     1.06223498     8.11375644
O      7.73821774     0.00761509     0.10924988
O      9.68851644     1.11226491     3.23825383
O      7.93992274     2.12128235     6.30268016
O      7.74357843     2.23531483     1.71563532
O      1.92388608    10.00078407     4.81759390
O      9.76021479     1.07071469     8.04785212
O      9.67032270     3.35425987     0.10911246
O      0.01280619     4.49300639     3.21914591
O     -1.94850735     5.59454352     6.42708318
O     -1.94403436     5.59119430     1.70564938
O     -1.89204006     3.39267995     4.81803871
O      0.01359277     4.44940026     7.97604337
O      1.92738314     3.35244915     0.09928684
O      3.83606022     4.49137488     3.22192031
O      2.11388328     5.48465226     6.53977478
O      1.92862022     5.59252216     1.67404250
O      1.89889827     3.34000613     4.82658990
O      5.81155478     3.35101064     0.10766953
O      7.76245622     4.50401544     3.23532951
O      5.67456843     5.56768396     6.51579515
O      5.80528807     5.59217007     1.68114259
O      5.80031226     3.35704712     4.68103052
O      7.85860818     4.38105273     8.11389359
O     -3.87155109     6.71022987     0.10512724
O     -1.93949834     7.82576873     3.29670607
O     -3.82082058     8.91260759     6.43641512
O     -3.87509971     8.94378428     1.69355631
O      7.69178259     6.67175611     4.92237473
O     -1.89415738     7.79966536     8.02893257
O     -0.01209783     6.71325780     0.10434852
O      1.92307813     7.80112446     3.21874300
O     -0.01226079     8.94928503     6.42720737
O     -0.00628994     8.94736548     1.70514550
O      0.06289296     6.66955007     4.92822439
O      1.96078824     7.82217792     7.97635956
O      3.86815347     6.71410280     0.09951587
O      5.82357300     7.82286700     3.22757120
O      3.90035843     8.97038200     6.36934435
O      3.86556896     8.94715423     1.69389986
O      3.86450779     6.74463477     4.82717742
O      5.82505353     7.84395961     8.00543492
