83
CIF: Mo-Fe-CeO2-O.cif | data_image0
Ce     1.93038582     1.11050507     0.88387043
Ce    -0.02091824     2.23406406     4.04466107
Ce    -5.78186553    10.05026634     7.18926024
Ce     5.81181033     1.12175166     0.90127712
Ce     3.84909543     2.22436909     4.01540279
Ce    -2.00063468    10.03444110     7.29131467
Ce     9.66901012     1.12377363     0.90450652
Ce     7.73343994     2.24139534     4.01977585
Ce     2.10934949     9.83320876     7.28212574
Ce    -0.00709724     4.47602159     0.89067279
Ce    -1.96595879     5.58826856     4.11059889
Ce    -1.75804604     3.34192878     7.36426044
Ce     3.86254305     4.47635356     0.87798423
Ce     1.92988463     5.59064894     4.05588199
Ce     1.89226671     3.34220310     7.19372150
Ce     7.74213807     4.46545905     0.90125422
Ce     5.81489525     5.60582141     4.00954795
Ce    -1.94645625     7.83004003     0.90010904
Ce    -3.86177527     8.94155406     4.04305353
Ce    -3.84775704     6.80242588     7.27739606
Ce     1.92815559     7.82745473     0.89060408
Ce    -0.00790503     8.97054862     4.09883720
Ce    -0.01071650     6.70579137     7.24630080
Ce     5.81127600     7.83258510     0.88371011
Ce     3.88029235     8.95064830     4.01257584
Ce     3.89761416     6.71657157     7.17872533
Fe     4.99915116     3.81358392     6.55067408
Mo     6.98600401     2.42029409     8.92747715
O     11.61334069     0.00154917     0.10141687
O      1.92795905     1.11790372     3.22280430
O      0.05060383     2.24487417     6.34521486
O     -0.00785227     2.23805103     1.69392277
O      5.80391723    10.05639098     4.82520849
O      1.83665902     1.19483358     8.02088021
O     -1.93899312    10.05733740     0.10496691
O      5.81055096     1.13179434     3.23910997
O      3.98425336     2.29967628     6.44227711
O      3.86763657     2.23577757     1.68132582
O      3.87872603     0.01601861     4.84063281
O      7.16805695     0.69140029     9.37778157
O      7.73821774     0.00761509     0.10924988
O      9.67461014     1.11795004     3.21030295
O      7.20780996     2.22206726     7.10955452
O      7.74357843     2.23531483     1.71563532
O      7.78632550     0.12779800     4.91305107
O      9.75384345     0.95571108     7.90676249
O      9.67032270     3.35425987     0.10911246
O     -0.03276574     4.47466227     3.28390936
O     -1.95308772     5.53937684     6.45873597
O     -1.94403436     5.59119430     1.70564938
O      9.54157823     3.26104492     4.90559884
O      0.16767227     4.51138937     8.07401379
O      1.92738314     3.35244915     0.09928684
O      3.86850518     4.46851840     3.20797681
O      1.90502395     5.61972413     6.32610734
O      1.92862022     5.59252216     1.67404250
O      1.95485111     3.33545823     4.82983913
O      5.81155478     3.35101064     0.10766953
O      7.72518213     4.46574930     3.23403833
O      5.85768430     5.41660391     6.47309077
O      5.80528807     5.59217007     1.68114259
O      5.79764717     3.35854969     4.88594125
O      8.29081212     3.58689702     9.32920652
O     -3.87155109     6.71022987     0.10512724
O     -1.93641571     7.82927228     3.25521245
O     -3.87049892     8.95933038     6.40928829
O     -3.87509971     8.94378428     1.69355631
O      7.71370047     6.71145089     4.82886595
O     -1.79488627     7.76931489     8.08664699
O     -0.01209783     6.71325780     0.10434852
O      1.92825218     7.84871100     3.27245201
O      0.11292714     9.04352498     6.50905875
O     -0.00628994     8.94736548     1.70514550
O     -0.04972469     6.76254872     4.89038357
O      2.03625052     7.72362428     8.04130226
O      3.86815347     6.71410280     0.09951587
O      5.80501583     7.83322502     3.20901324
O      3.88172156     8.86178806     6.31856910
O      3.86556896     8.94715423     1.69389986
O      3.92359567     6.68191036     4.82834807
O      5.69742678     7.86043406     7.99907459
O      3.85134346     4.49417509     7.79312100
O      5.41780360     2.94093255     9.40806274
