87
CIF: 4-NHNO+2H-N2+OH+2H_is.cif | data_image0
Ce     0.00098734     0.00915422     8.74730457
Ce     1.92084675     1.10846488     5.61822845
Ce     0.00000000     2.23543938     2.47426506
Ce    -1.92293760    10.00495429     8.76494026
Ce     5.80122087     1.10665415     5.62372529
Ce     3.87189458     2.23543938     2.47426506
Ce     1.95621686    10.03543482     8.72577528
Ce     9.68705441     1.12878523     5.60311214
Ce     7.74390532     2.23543938     2.47426506
Ce     9.65737604     3.33334170     8.75325948
Ce    -0.01562325     4.50960813     5.64433844
Ce    -1.93600537     5.58869904     2.47426506
Ce     1.90667548     3.33605779     8.76494026
Ce     3.85725867     4.48757766     5.63998678
Ce     1.93588921     5.58869904     2.47426506
Ce     5.78832733     3.33203396     8.77593394
Ce     7.74181448     4.47470140     5.61754135
Ce     5.80789995     5.58869904     2.47426506
Ce     7.69407354     6.69102758     8.77936947
Ce    -1.91817512     7.79647458     5.61914459
Ce    -3.87195266     8.94185811     2.47426506
Ce     1.95348715     7.82242829     5.60906705
Ce    -0.00005808     8.94185811     2.47426506
Ce     3.91220141     6.77271135     8.80227297
Ce     5.81440480     7.82172412     5.60815091
Ce     3.87195266     8.94185811     2.47426506
Rh     0.03391814     6.85499870     8.61034164
O     -5.80215013    10.05907482     6.42397357
O      0.01405512     2.28875514     9.50426523
O      1.93594729     1.11771969     3.26466483
O      0.01126733     2.22920244     4.80973492
O      0.00000000     0.00000000     1.68386529
O      1.93530842     1.11701552     7.96904365
O     -1.95191902     9.98131429     6.47871293
O      3.84988264     2.22004823     9.54113986
O      5.80795803     1.11771969     3.26466483
O      3.85377393     2.22698933     4.85348060
O      3.87189458     0.00000000     1.68386529
O      5.78408756     1.07919151     7.98164058
O      7.74413764     0.01690009     6.41183471
O      7.72305496     2.21783512     9.50128778
O      9.67985261     1.11771969     3.26466483
O      7.72526196     2.24700789     4.82508026
O      7.74390532     0.00000000     1.68386529
O      9.69797326     1.14226506     7.93629165
O     -1.90865016     3.34833047     6.41137664
O     -2.45029491     5.29445639    10.10067236
O      0.00000000     4.47087876     3.26466483
O     -1.96034047     5.58276389     4.81431562
O     -1.93594729     3.35315907     1.68386529
O     -0.15925262     4.72860514     8.06088669
O      1.86114154     3.36865082     6.48558398
O      1.69898497     5.75578863     9.61809562
O      3.87201074     4.47087876     3.26466483
O      1.96283787     5.56656797     4.81225430
O      1.93594729     3.35315907     1.68386529
O      3.75109026     4.50689205     8.03523477
O      5.77827966     3.36392282     6.47367416
O      5.83990148     5.52341238     9.43395149
O      7.74390532     4.47087876     3.26466483
O      5.81591485     5.57079300     4.81477369
O      5.80795803     3.35315907     1.68386529
O      7.81452939     4.48355383     7.93743682
O     -3.88147762     6.73418317     6.43496725
O     -3.80504565     8.91711155     9.48823278
O     -1.93600537     7.82413842     3.26466483
O     -3.87067492     8.94930220     4.80790264
O     -3.87195266     6.70641873     1.68386529
O     -1.81764037     7.55816319     8.04302196
O      0.03025916     6.72995815     6.27853635
O      0.03113034     8.75907558     9.40738343
O      1.93600537     7.82413842     3.26466483
O     -0.00545943     8.97777081     4.80469615
O     -0.00005808     6.70641873     1.68386529
O      2.01702557     7.81860566     7.91453332
O      3.92004207     6.69716392     6.39694744
O      3.88101298     9.05190989     9.48548436
O      5.80789995     7.82413842     3.26466483
O      3.88455580     8.95262186     4.80836071
O      3.87195266     6.70641873     1.68386529
O      5.81289475     7.85270762     7.98690838
O      2.78552690     7.07641000    11.89813901
H     -1.87031802     5.63024510    10.80724532
H      4.75719277     6.48832709    13.00689742
H      1.78749737     5.96985645    10.60546549
N      4.96697412     6.53580829    11.98723362
N      3.90226990     6.85731240    11.34822598
