83
CIF: CO+Olat — CO2.cif | data_image0
O      0.55978923     0.45000431     0.54999702
O      2.47855431     1.58331862     3.70632874
O      0.50433802     2.61380354     6.87535325
O      0.55978923     2.65902057     2.11203274
O      0.57548875     0.43328482     5.30095940
O      2.48983856     1.08524664     8.69854606
O      4.38603242     0.45000431     0.54999702
O      6.30132608     1.54763531     3.68683794
O      4.25025484     2.73104486     6.93697322
O      4.38603242     2.65902057     2.11203274
O      4.39083023     0.48874746     5.35470300
O      6.29906998     1.59900235     8.47769695
O      8.21216082     0.45000431     0.54999702
O     10.12405237     1.54718930     3.70542400
O      8.23859443     2.64305499     6.86531775
O      8.21216082     2.65902057     2.11203274
O      8.19655759     0.43253083     5.33833553
O     10.08480388     1.53096813     8.54813400
O     -1.35327498     3.76352871     0.54999702
O      0.59010091     4.85209371     3.71028083
O     -1.36535290     5.96761930     6.85175726
O     -1.35333237     5.97264438     2.11203274
O     -1.35892843     3.76513129     5.30463975
O      0.24826500     4.98969294     8.77454681
O      2.47296821     3.76352871     0.54999702
O      4.37923690     4.86251170     3.68873875
O      2.46099965     5.82864038     6.93576891
O      2.47291082     5.97264438     2.11203274
O      2.53978971     3.80347596     5.41437018
O      4.28853965     4.81467048     8.39671953
O      6.29909662     3.76352871     0.54999702
O      8.19359351     4.85108067     3.69184059
O      6.27505487     5.94924634     6.88735063
O      6.29903923     5.97264438     2.11203274
O      6.27745807     3.72426956     5.35625341
O      8.18041985     4.83246700     8.50774557
O     -3.26639657     7.07715251     0.54999702
O     -1.34468983     8.18293834     3.71237770
O     -3.27489066     9.20753511     6.81123025
O     -3.26639657     9.28616878     2.11203274
O     -3.28669664     7.03667516     5.29797747
O     -1.41441005     8.14374592     8.53062315
O      0.55984662     7.07715251     0.54999702
O      2.46936701     8.18573708     3.68532592
O      0.52603340     9.26939546     6.93192240
O      0.55984662     9.28616878     2.11203274
O      0.59575241     7.06992584     5.34538048
O      2.52741309     8.17518126     8.45823987
O      4.38597502     7.07715251     0.54999702
O      6.28285072     8.16376459     3.69343583
O      4.41018955     9.30618805     6.86815583
O      4.38597502     9.28616878     2.11203274
O      4.34701626     7.07237511     5.35148728
O      6.27820673     8.13402607     8.51699862
O      0.48012327     5.56457414    11.23299627
Ce     2.47285343     1.55451244     1.33101488
Ce     0.54949983     2.64290138     4.57472844
Ce     0.60690126     0.48368236     7.73933611
Ce     6.29909662     1.55451244     1.33101488
Ce     4.40031499     2.62936945     4.47359279
Ce     4.30043504     0.39661588     7.77754810
Ce    10.12522502     1.55451244     1.33101488
Ce     8.21850780     2.65060458     4.49983006
Ce     8.21920482     0.44698812     7.70502025
Ce     0.55978923     4.86803684     1.33101488
Ce    -1.35062047     5.96162415     4.51656553
Ce    -1.31321514     3.71425813     7.71542905
Ce     4.38603242     4.86803684     1.33101488
Ce     2.45509014     6.00014011     4.47123861
Ce     8.21216082     4.86803684     1.33101488
Ce     6.29221234     5.95963555     4.50739296
Ce     6.38116782     3.71952715     7.70494603
Ce    -1.35333237     8.18166064     1.33101488
Ce    -3.26755200     9.27777730     4.50774494
Ce    -3.28246758     7.04367189     7.68936461
Ce     2.47291082     8.18166064     1.33101488
Ce     0.55141545     9.28168346     4.54309254
Ce     0.49569499     7.08030207     7.78658761
Ce     6.29903923     8.18166064     1.33101488
Ce     4.38927325     9.28987508     4.50535756
Ce     4.41008738     7.16700825     7.69813688
Fe     3.14957770     4.16227486     7.16729197
C      0.50564436     6.08109585    10.18696213
