83
CIF: Fe-CeO2-Ov+CO2.cif | data_image0
O      0.55978923     0.45000431     0.54999716
O      2.47180197     1.58617692     3.70226435
O      0.41094796     2.66866761     6.93077179
O      0.55978923     2.65902057     2.11203287
O      0.57814762     0.47578933     5.31558365
O      2.43869039     1.09063949     8.72997415
O      4.38603242     0.45000431     0.54999716
O      6.29103506     1.54856649     3.67795057
O      4.28190302     2.71971286     6.92814649
O      4.38603242     2.65902057     2.11203287
O      4.37570006     0.48673757     5.34100811
O      6.27989822     1.60919035     8.52422260
O      8.21216082     0.45000431     0.54999716
O     10.12924455     1.55293995     3.69489450
O      8.19324562     2.62067042     6.84297635
O      8.21216082     2.65902057     2.11203287
O      8.20693246     0.43466209     5.31594965
O     10.02827739     1.55601442     8.59643261
O     -1.35327498     3.76352871     0.54999716
O      0.57896693     4.85515098     3.71929787
O     -1.28162575     5.83756839     6.99158068
O     -1.35333237     5.97264438     2.11203287
O     -1.40337282     3.75339284     5.28352925
O      0.18142252     4.95669789     9.78253455
O      2.47296821     3.76352871     0.54999716
O      4.38381437     4.87636850     3.69091229
O      2.45568003     5.85383057     6.96870042
O      2.47291082     5.97264438     2.11203287
O      2.51213115     3.79626612     5.40346193
O      4.34559543     4.85664576     8.41633204
O      6.29909662     3.76352871     0.54999716
O      8.19510202     4.86593764     3.68430248
O      6.31775311     5.97410649     6.87839485
O      6.29903923     5.97264438     2.11203287
O      6.28937377     3.73475988     5.33360648
O      8.16572663     4.79220470     8.53843395
O     -3.26639657     7.07715251     0.54999716
O     -1.35281046     8.18353055     3.70192498
O     -3.29549868     9.23085899     6.80948725
O     -3.26639657     9.28616878     2.11203287
O     -3.21447303     7.02285899     5.34542081
O     -1.48339691     8.20200821     8.56874937
O      0.55984662     7.07715251     0.54999716
O      2.47700999     8.18454737     3.68513396
O      0.53397110     9.34565862     6.90750784
O      0.55984662     9.28616878     2.11203287
O      0.57310866     7.09226181     5.31471595
O      2.59803608     8.24766310     8.55254358
O      4.38597502     7.07715251     0.54999716
O      6.30619660     8.16552474     3.71519842
O      4.41860909     9.33045098     6.87174054
O      4.38597502     9.28616878     2.11203287
O      4.35636757     7.09237592     5.35473954
O      6.29520863     8.14162113     8.53401030
O      0.46648481     4.73944866    12.10683931
Ce     2.47285343     1.55451244     1.33101501
Ce     0.55541788     2.65690496     4.57578198
Ce     0.60031309     0.48515307     7.74068150
Ce     6.29909662     1.55451244     1.33101501
Ce     4.38671856     2.64848376     4.48525608
Ce     4.27506772     0.43895232     7.77523147
Ce    10.12522502     1.55451244     1.33101501
Ce     8.19809646     2.64239925     4.46225804
Ce     8.20174889     0.44192607     7.71996757
Ce     0.55978923     4.86803684     1.33101501
Ce    -1.33993769     5.96294974     4.52697104
Ce    -1.46470808     3.63067813     7.62639354
Ce     4.38603242     4.86803684     1.33101501
Ce     2.46650599     5.99790359     4.48980331
Ce     8.21216082     4.86803684     1.33101501
Ce     6.30225236     5.96256561     4.51627728
Ce     6.31784934     3.72970275     7.70410388
Ce    -1.35333237     8.18166064     1.33101501
Ce    -3.25988621     9.28860565     4.50936511
Ce    -3.26034846     7.05796904     7.71076602
Ce     2.47291082     8.18166064     1.33101501
Ce     0.55060382     9.29201255     4.51976254
Ce     0.55385193     7.20079916     7.73309641
Ce     6.29903923     8.18166064     1.33101501
Ce     4.39339542     9.30004266     4.50817302
Ce     4.43174917     7.16520061     7.70007807
Fe     3.25464847     4.22866113     7.09594869
C      0.32674362     4.84216308    10.95264247
