84
CIF: CO+Olatt—CO2.cif | data_image0
Ce     1.93596140     1.11772783     0.89035214
Ce     0.01074226     2.23035191     4.04443534
Ce     5.82785218    10.02189233     7.19604212
Ce     5.80789581     1.11772783     0.89035214
Ce     3.81656748     2.20116643     3.95272695
Ce    -2.03878631     9.93637055     7.18406001
Ce     9.67981860     1.11772783     0.89035214
Ce     7.77055859     2.22892132     4.01370989
Ce     1.99934310    10.05137769     7.28801434
Ce     0.00000000     4.47091133     0.89035214
Ce    -1.93998452     5.58631076     4.08183505
Ce    -1.72457819     3.37080253     7.25057480
Ce     3.87193441     4.47091133     0.89035214
Ce     1.96023938     5.58536597     4.09407390
Ce     1.95963509     3.32169152     7.28042591
Ce     7.74385721     4.47091133     0.89035214
Ce     5.81818721     5.61648867     4.00560825
Ce    -1.93596721     7.82410489     0.89035214
Ce    -3.87540264     8.90497757     4.02370579
Ce    -3.82022681     6.72110088     7.34877307
Ce     1.93596721     7.82410489     0.89035214
Ce     0.00299548     8.96517501     4.07133940
Ce     0.04793190     6.72281136     7.24516682
Ce     5.80789000     7.82410489     0.89035214
Ce     3.87640314     8.94288881     4.06594598
Ce     3.86843663     6.75864232     7.31607743
Mo     5.60652561     3.30731621     6.77095607
O      0.00000000     0.00000000     0.09999685
O      1.91619729     1.09941389     3.19758900
O      0.04479808     2.21117541     6.37467475
O      0.00000000     2.23545567     1.68070743
O     -5.79213517    10.04142780     4.83125165
O      2.00777463     0.96428849     7.99853149
O      3.87192279     0.00000000     0.09999685
O      5.80762355     1.11979915     3.22039439
O      4.11325682     2.19636341     6.34339476
O      3.87192279     2.23545567     1.68070743
O      3.82995974     0.00717118     4.81275680
O      5.78123569     1.89065389     8.32534059
O      7.74385721     0.00000000     0.09999685
O      9.68768079     1.11812231     3.22249021
O      7.41232223     2.58422841     6.52123463
O      7.74385721     2.23545567     1.68070743
O      7.75391810     0.10067179     4.86399107
O      9.74168924     1.26489561     8.01018386
O     -1.93596140     3.35318350     0.09999685
O     -0.00736349     4.47845156     3.27886821
O     -1.90640780     5.53102603     6.41919818
O     -1.93596721     5.58864923     1.68070743
O      9.65313944     3.28596280     4.88731086
O      0.00125547     4.50171976     8.07756342
O      1.93596140     3.35318350     0.09999685
O      3.88067111     4.47633846     3.21097714
O      1.94770339     5.58055876     6.39243300
O      1.93595559     5.58864923     1.68070743
O      1.99332670     3.30908604     4.81230915
O      5.80789581     3.35318350     0.09999685
O      7.74369492     4.44685177     3.23838156
O      5.93695443     5.17325134     6.49929581
O      5.80789000     5.58864923     1.68070743
O      5.74294630     3.33304877     4.79597404
O      8.27792807     4.44589173     8.81538931
O     -3.87192860     6.70637706     0.09999685
O     -1.92900502     7.80957504     3.24783636
O     -3.83638348     8.91194063     6.34917773
O     -3.87192860     8.94183273     1.68070743
O      7.70055025     6.66549087     4.83566018
O     -1.84639037     7.88190502     8.06859954
O     -0.00000581     6.70637706     0.09999685
O      1.94920853     7.83486360     3.27975881
O     -0.05545813     9.08845927     6.44127330
O     -0.00000581     8.94183273     1.68070743
O      0.00145702     6.75828225     4.89201563
O      3.87192860     6.70637706     0.09999685
O      5.80547605     7.82253704     3.21025195
O      3.88143168     8.98150332     6.39512245
O      3.87192860     8.94183273     1.68070743
O      3.97261724     6.67938007     4.87053532
O      5.83919046     7.94890520     8.03201597
O      4.21881366     4.14755983     8.01791707
O      1.82543248     7.78983243     8.08714892
O      4.76161138     5.20258873    10.30341085
Ru     6.79658418     3.37603421     9.03081856
C      5.30720684     4.40322752     9.62356408
