85
CIF: Ru-Mo-CeO2-O-CO.cif | data_image0
Ce     1.93596140     1.11772783     0.89035214
Ce     0.00435639     2.22709230     4.04873943
Ce     5.81426539    10.03809922     7.19867356
Ce     5.80789581     1.11772783     0.89035214
Ce     3.82577769     2.19528799     3.97927964
Ce    -2.07316413     9.89953710     7.19720206
Ce     9.67981860     1.11772783     0.89035214
Ce     7.73907104     2.23776325     4.06646980
Ce     2.03467160    10.02373154     7.27777476
Ce     0.00000000     4.47091133     0.89035214
Ce    -1.93886541     5.58909661     4.07835359
Ce    -1.70364669     3.37043515     7.24834997
Ce     3.87193441     4.47091133     0.89035214
Ce     1.96347088     5.57684998     4.06614520
Ce     2.00040932     3.31435699     7.28443568
Ce     7.74385721     4.47091133     0.89035214
Ce     5.84417095     5.61837533     3.99741695
Ce    -1.93596721     7.82410489     0.89035214
Ce    -3.87865652     8.90619292     4.02716981
Ce    -3.82729886     6.69544872     7.32693780
Ce     1.93596721     7.82410489     0.89035214
Ce     0.00866314     8.96162083     4.07804530
Ce     0.04673851     6.71877403     7.24755804
Ce     5.80789000     7.82410489     0.89035214
Ce     3.86872830     8.96182940     4.04119934
Ce     3.88149447     6.73921305     7.21513600
Mo     5.58841206     3.40796474     6.83856840
O      0.00000000     0.00000000     0.09999685
O      1.91899821     1.09934654     3.21714058
O      0.06817405     2.20062540     6.40557304
O      0.00000000     2.23545567     1.68070743
O     -5.78811686    10.03968932     4.86961456
O      1.97794057     0.95140302     8.04374941
O      3.87192279     0.00000000     0.09999685
O      5.72667503     1.07768970     3.24417451
O      4.17791900     2.13473889     6.47100113
O      3.87192279     2.23545567     1.68070743
O     -2.00629988    10.03562127     4.87487183
O      5.75150950     2.25458322     8.61508263
O      7.74385721     0.00000000     0.09999685
O      9.74622221     1.08602301     3.23333506
O      7.30634917     2.57168705     6.63567943
O      7.74385721     2.23545567     1.68070743
O      1.94701278    10.03322721     4.90369538
O      9.77790896     1.22146493     7.98646316
O     -1.93596140     3.35318350     0.09999685
O      0.01182047     4.48160352     3.28096912
O     -1.89503386     5.54723357     6.45532656
O     -1.93596721     5.58864923     1.68070743
O     -1.89356953     3.33180395     4.95134467
O      0.02027287     4.50954111     8.07642011
O      1.93596140     3.35318350     0.09999685
O      3.86622421     4.49049335     3.20627434
O      1.99129241     5.62147513     6.41946939
O      1.93595559     5.58864923     1.68070743
O      2.01624105     3.31537915     4.85397322
O      5.80789581     3.35318350     0.09999685
O      7.74657633     4.53222358     3.24216935
O      6.00398833     5.27278038     6.45442104
O      5.80789000     5.58864923     1.68070743
O      5.63523398     3.40751880     4.85732280
O      8.27322382     4.46851614     8.81552731
O     -3.87192860     6.70637706     0.09999685
O     -1.91759584     7.81627280     3.25178858
O     -3.89463125     8.89536610     6.41949638
O     -3.87192860     8.94183273     1.68070743
O      7.73697487     6.70944533     4.84314342
O     -1.84267536     7.85665426     8.10589604
O     -0.00000581     6.70637706     0.09999685
O      1.95098506     7.80811260     3.26736440
O     -0.05302395     9.07257822     6.52599486
O     -0.00000581     8.94183273     1.68070743
O      0.01232993     6.75442012     4.92283574
O      3.87192860     6.70637706     0.09999685
O      5.80224911     7.82897843     3.21974022
O      3.90578554     8.93324371     6.41136673
O      3.87192860     8.94183273     1.68070743
O      3.96895755     6.68183623     4.90852554
O      5.68238482     7.78805790     8.02704742
O      1.97756157     7.73645712     8.07133687
O      4.16503677     4.35566047     7.83428853
O      4.96657922     5.11406853    11.46009548
O      5.69573646     4.54811584    13.62609447
Ru     6.71403217     3.67170029     9.22093098
C      5.32837196     4.83364187    12.54677323
