81
CIF: Ru-Mo-CeO2-Ov.cif | data_image0
Ce     1.93596140     1.11772783     0.89035214
Ce     0.00367946     2.23668056     4.03917676
Ce    -5.79610672    10.04878067     7.22911779
Ce     5.80789581     1.11772783     0.89035214
Ce     3.84293935     2.22552407     3.96934307
Ce    -2.06942884     9.92583592     7.22872728
Ce     9.67981860     1.11772783     0.89035214
Ce     7.77726391     2.22714495     4.01265175
Ce     2.00876995    10.04906857     7.30529323
Ce     0.00000000     4.47091133     0.89035214
Ce    -1.95085525     5.58505606     4.10489518
Ce    -1.76893461     3.38808166     7.28631377
Ce     3.87193441     4.47091133     0.89035214
Ce     1.95886137     5.59431257     4.09793871
Ce     1.84852034     3.30882781     7.24836859
Ce     7.74385721     4.47091133     0.89035214
Ce     5.81767689     5.61854028     3.98422699
Ce    -1.93596721     7.82410489     0.89035214
Ce    -3.88792814     8.92727368     4.04709794
Ce    -3.84985010     6.74018658     7.39421442
Ce     1.93596721     7.82410489     0.89035214
Ce     0.01190709     8.97530569     4.09052799
Ce     0.02667710     6.73677044     7.27270682
Ce     5.80789000     7.82410489     0.89035214
Ce     3.86916854     8.95372593     4.05187081
Ce     3.85933934     6.86266353     7.28293229
Mo     5.83200387     3.19924940     6.83932916
O      0.00000000     0.00000000     0.09999685
O      1.92981614     1.10448326     3.21273263
O      0.03807830     2.23574221     6.41085513
O      0.00000000     2.23545567     1.68070743
O     -5.78017236    10.05158296     4.86866402
O      1.98536174     0.99377074     8.03864302
O      3.87192279     0.00000000     0.09999685
O      5.72832828     1.08317845     3.22976479
O      4.16002784     2.37910433     6.65356627
O      3.87192279     2.23545567     1.68070743
O      3.81407763     0.09087383     4.91286514
O      5.93437992     1.96642700     8.49792106
O      7.74385721     0.00000000     0.09999685
O      9.76014811     1.08243572     3.22495236
O      7.48632959     2.44058651     6.48410067
O      7.74385721     2.23545567     1.68070743
O      1.93719586    10.01642568     4.88463489
O      9.77665700     1.25421992     8.02254290
O     -1.93596140     3.35318350     0.09999685
O      0.01218521     4.49511294     3.28657528
O     -1.91933645     5.57426540     6.46406562
O     -1.93596721     5.58864923     1.68070743
O     -1.88623668     3.36094938     4.93502998
O     -0.03419361     4.50646103     8.11929059
O      1.93596140     3.35318350     0.09999685
O      3.86693873     4.48194200     3.22000152
O      1.98898892     5.55552712     6.47076379
O      1.93595559     5.58864923     1.68070743
O      2.00555754     3.29788172     4.85017041
O      5.80789581     3.35318350     0.09999685
O      7.75366587     4.55281005     3.22623077
O      5.69473668     5.07704069     6.80480499
O      5.80789000     5.58864923     1.68070743
O      5.73185815     3.39918869     4.84916799
O      8.18279730     4.53666562     8.76157316
O     -3.87192860     6.70637706     0.09999685
O     -1.95104049     7.82480787     3.30638523
O     -3.84102933     8.92247196     6.39270136
O     -3.87192860     8.94183273     1.68070743
O      7.62101012     6.65237131     4.93671441
O     -1.87438504     7.88789756     8.12923091
O     -0.00000581     6.70637706     0.09999685
O      1.94209989     7.80666308     3.26560005
O     -0.08685674     9.10654255     6.50805844
O     -0.00000581     8.94183273     1.68070743
O      0.02705613     6.76206364     4.94059427
O      3.87192860     6.70637706     0.09999685
O      5.81720551     7.83586439     3.21621424
O      3.89615222     8.99467287     6.43001806
O      3.87192860     8.94183273     1.68070743
O      3.96751608     6.69923109     4.87660131
O      5.82712651     7.97022180     8.09034302
O      1.81894116     7.80224698     8.11938992
Ru     6.74874228     3.48915987     9.15849781
