84
CIF: CO+Olatt—CO2.cif | data_image0
Ce     1.93038582     1.11050507     0.88387043
Ce    -0.00052921     2.22519566     4.01044094
Ce    -5.77253894    10.03913943     7.21151990
Ce     5.81181033     1.12175166     0.90127712
Ce     3.84184659     2.21573679     4.01305031
Ce    -1.92629406    10.03034111     7.29398527
Ce     9.66901012     1.12377363     0.90450652
Ce     7.74327391     2.23449983     4.06922752
Ce     2.05165954     9.97822110     7.19988723
Ce    -0.00709724     4.47602159     0.89067279
Ce    -1.94778191     5.58155974     4.07467130
Ce    -1.80899266     3.29301115     7.19963055
Ce     3.86254305     4.47635356     0.87798423
Ce     1.93679840     5.58734595     4.05326982
Ce     1.86409762     3.30258686     7.20113702
Ce     7.74213807     4.46545905     0.90125422
Ce     5.80682226     5.62406869     4.01269871
Ce    -1.94645625     7.83004003     0.90010904
Ce    -3.85600784     8.93244167     4.07799380
Ce    -3.84320585     6.71351700     7.29110147
Ce     1.92815559     7.82745473     0.89060408
Ce    -0.00136350     8.95248293     4.07599657
Ce     0.00665657     6.70124440     7.22927052
Ce     5.81127600     7.83258510     0.88371011
Ce     3.87933112     8.94659113     4.01031187
Ce     3.87810084     6.79342859     7.20150900
Fe     5.05051084     3.78831916     6.59143726
Os     6.57046062     2.91199701     8.04277262
O     11.61334069     0.00154917     0.10141687
O      1.93437184     1.11326030     3.22055509
O      0.00711137     2.22339390     6.35159993
O     -0.00785227     2.23805103     1.69392277
O     -5.79706523    10.05425723     4.83155054
O      1.84531955     1.21013577     8.03067366
O     -1.93899312    10.05733740     0.10496691
O      5.81403740     1.14621904     3.25313188
O      3.89011120     2.33984863     6.40310768
O      3.86763657     2.23577757     1.68132582
O      3.87823760     0.01422233     4.84339679
O      6.03093834     1.12622447     8.29349352
O      7.73821774     0.00761509     0.10924988
O      9.67435085     1.11920962     3.22203069
O      7.80633564     2.19993050     6.52538019
O      7.74357843     2.23531483     1.71563532
O      7.77397950     0.03386832     4.84630664
O      9.78110675     1.05865814     8.01131483
O      9.67032270     3.35425987     0.10911246
O     -0.00643896     4.47897706     3.23905089
O     -1.90974282     5.47692600     6.42299384
O     -1.94403436     5.59119430     1.70564938
O      9.66558117     3.30756402     4.84393257
O      0.03631642     4.40114475     8.03113988
O      1.92738314     3.35244915     0.09928684
O      3.86297395     4.47567130     3.21922273
O      1.98876490     5.55745062     6.45069106
O      1.92862022     5.59252216     1.67404250
O      1.91670377     3.34635355     4.83547456
O      4.00314368     4.38958205     8.07691841
O      5.81155478     3.35101064     0.10766953
O      7.71944079     4.44942628     3.25321604
O      5.72281149     5.51959075     6.40462115
O      5.80528807     5.59217007     1.68114259
O      5.75735752     3.38095949     4.90924657
O      7.84531068     4.27166919     8.29620942
O     -3.87155109     6.71022987     0.10512724
O     -1.92650467     7.81778190     3.26121767
O     -3.88090650     8.94623050     6.44094521
O     -3.87509971     8.94378428     1.69355631
O      7.73192018     6.69332996     4.84107754
O     -1.75538846     7.71949188     8.06533703
O     -0.01209783     6.71325780     0.10434852
O      1.92396021     7.82460812     3.23945219
O      0.11085176     8.97092640     6.42390295
O     -0.00628994     8.94736548     1.70514550
O      0.00327055     6.70208066     4.89205351
O      2.01489507     7.82629321     8.03123667
O      3.86815347     6.71410280     0.09951587
O      5.80902823     7.82856229     3.22041736
O      3.88638378     8.94131119     6.35071143
O      3.86556896     8.94715423     1.69389986
O      3.86615778     6.72610644     4.83526831
O      5.68022326     7.85733262     8.03331252
O      4.79876751     3.95176527    10.36907698
C      5.15941311     3.73013357     9.26695727
