85
CIF: Os-Fe-CeO2-O-CO.cif | data_image0
Ce     1.94147889     1.10692387     0.83607075
Ce     0.00279071     2.20853507     3.96524544
Ce    -5.77368578    10.04263075     7.18278805
Ce     5.79759261     1.09432930     0.83538365
Ce     3.85965759     2.20828559     3.98443421
Ce    -1.95937933    10.00468919     7.26093833
Ce     9.68997660     1.09957033     0.80973168
Ce     7.74709035     2.22110182     3.96549761
Ce     2.04575237     9.93339051     7.24955465
Ce    -0.00131258     4.48342543     0.89818515
Ce    -1.95354918     5.56909838     4.06720060
Ce    -1.73472140     3.30148704     7.18538562
Ce     3.86058579     4.47901934     0.87379288
Ce     1.93179681     5.58300728     4.05081556
Ce     1.90093630     3.31220082     7.16225816
Ce     7.75499674     4.48384793     0.84010177
Ce     5.82077534     5.61132419     3.99702057
Ce    -1.92471151     7.80978008     0.90136874
Ce    -3.85909464     8.92932161     4.03252869
Ce    -3.85375431     6.73453863     7.27861655
Ce     1.92084927     7.81634897     0.91334729
Ce     0.00081072     8.95642896     4.07939171
Ce     0.00341969     6.70173525     7.20997761
Ce     5.80923743     7.81740523     0.85721072
Ce     3.87835299     8.95394225     4.00327280
Ce     3.87296502     6.76494585     7.17887896
Fe     5.06908136     3.78240464     6.65292363
Os     6.61226971     2.92325989     7.94307419
O      5.80590370    10.04493396     0.04981520
O      1.93262905     1.09992617     3.16847905
O      0.04382427     2.24271003     6.29365480
O      0.00824720     2.23288042     1.62709024
O      0.01358502     0.00101639     4.79798134
O      1.84512709     1.19818459     8.00321796
O     -1.92636096    10.05557697     0.05968662
O      5.81381151     1.14838932     3.19953774
O      3.95361395     2.31265578     6.42483002
O      3.86356524     2.22162377     1.65271930
O      3.86682421     0.02685305     4.81029058
O      6.01457446     1.27830464     8.48584522
O      1.92644227    10.03841536     0.06770286
O      9.69040738     1.11494783     3.14825356
O      7.70695779     2.31397736     6.51786204
O      7.75413136     2.22003436     1.61964659
O      7.77862597     0.07325760     4.80922286
O      9.85257967     1.17198587     7.99344617
O     -1.93187845     3.36633135     0.07058870
O     -0.01963778     4.44723293     3.24430240
O     -1.92315116     5.46017754     6.42295926
O     -1.92738314     5.59613354     1.69596118
O      9.64532750     3.26998155     4.83581522
O      0.05974268     4.39275955     8.03170267
O      1.94417375     3.37915729     0.08911767
O      3.89461482     4.45774216     3.20666181
O      1.91576444     5.55962289     6.35293797
O      1.91200385     5.60389952     1.73196554
O      1.96795330     3.31701223     4.80458704
O      5.80284875     3.35651321     0.09033155
O      7.72463823     4.43622761     3.20567099
O      5.77366856     5.49447308     6.41911673
O      5.81768210     5.59927212     1.66698821
O      5.77035950     3.37452462     4.93616752
O      7.83864114     4.22587772     8.42373959
O      7.75228445     6.68845092     0.06600800
O     -1.93626291     7.81693537     3.24635139
O     -3.87946838     8.93716428     6.39730526
O     -3.85525415     8.92377582     1.64394725
O      7.73241065     6.68134555     4.81826508
O     -1.78151834     7.71485294     8.07894143
O      0.00469278     6.69666958     0.09360676
O      1.92913319     7.83880524     3.25936878
O      0.04881874     8.94244077     6.40099003
O     -0.01033224     8.92394683     1.68973142
O     -0.03210428     6.69969803     4.85149866
O      1.99996847     7.67581384     8.04922539
O      3.85510315     6.68578514     0.09578260
O      5.81445366     7.82980228     3.19434371
O      3.92572230     8.91479697     6.32747193
O      3.86380336     8.92619011     1.65624645
O      3.89133705     6.69364043     4.81878196
O      5.69935342     7.86662525     8.03430750
O      3.88002259     4.46311280     7.86362355
O      5.50999740     3.65484395    10.14820308
O      5.74895139     3.55047991    12.48538267
C      5.63988543     3.59603317    11.31905468
