83
CIF: Os-Fe-CeO2-O.cif | data_image0
Ce     1.94147889     1.10692387     0.83607075
Ce     0.00220011     2.20748680     3.96262136
Ce    -5.77918703    10.04418001     7.17438526
Ce     5.79759261     1.09432930     0.83538365
Ce     3.85853310     2.20976082     3.98011592
Ce    -1.95883187     9.99598750     7.26114132
Ce     9.68997660     1.09957033     0.80973168
Ce     7.74761864     2.22109062     3.98643771
Ce     2.03945265     9.99090492     7.21890642
Ce    -0.00131258     4.48342543     0.89818515
Ce    -1.95654709     5.57122341     4.06636373
Ce    -1.79103326     3.28576767     7.16532846
Ce     3.86058579     4.47901934     0.87379288
Ce     1.93019603     5.58404044     4.05361478
Ce     1.86486421     3.31291625     7.16718033
Ce     7.75499674     4.48384793     0.84010177
Ce     5.81841657     5.61093475     3.99399450
Ce    -1.92471151     7.80978008     0.90136874
Ce    -3.86219041     8.92973048     4.03418401
Ce    -3.84971733     6.73389208     7.28284729
Ce     1.92084927     7.81634897     0.91334729
Ce    -0.00285502     8.95630892     4.07713244
Ce     0.00168089     6.70145210     7.20300250
Ce     5.80923743     7.81740523     0.85721072
Ce     3.87995577     8.95219802     3.99773087
Ce     3.85689224     6.79257474     7.18698991
Fe     5.05745962     3.78916292     6.65989980
Os     6.48152917     2.99819127     8.13456733
O      5.80590370    10.04493396     0.04981520
O      1.93362151     1.10307652     3.16677558
O      0.02767926     2.23910400     6.27973790
O      0.00824720     2.23288042     1.62709024
O     -5.79494609    10.05703545     4.78871971
O      1.84551467     1.20436741     7.97685448
O     -1.92636096    10.05557697     0.05968662
O      5.81336620     1.15451555     3.20219878
O      3.96631782     2.33808754     6.42226417
O      3.86356524     2.22162377     1.65271930
O      3.86318235     0.03732364     4.81185037
O      5.97709172     1.23593260     8.27916064
O      1.92644227    10.03841536     0.06770286
O      9.68857270     1.11449882     3.14949497
O      7.68345225     2.31394776     6.63538258
O      7.75413136     2.22003436     1.61964659
O      7.77625487     0.08508594     4.80382748
O      9.86211940     1.15348863     7.98553741
O     -1.93187845     3.36633135     0.07058870
O     -0.02026531     4.44447157     3.24431171
O     -1.91861525     5.47081033     6.39905843
O     -1.92738314     5.59613354     1.69596118
O      9.62801426     3.26871150     4.82700767
O      0.04052407     4.38683733     8.00879778
O      1.94417375     3.37915729     0.08911767
O      3.89574589     4.45573101     3.20951912
O      1.91374349     5.56259749     6.35903140
O      1.91200385     5.60389952     1.73196554
O      1.96640674     3.31654310     4.81024541
O      5.80284875     3.35651321     0.09033155
O      7.71746942     4.43302132     3.20827394
O      5.75731608     5.47380658     6.41787031
O      5.81768210     5.59927212     1.66698821
O      5.77543647     3.37429910     4.95353988
O      7.86140073     4.24974627     8.27593177
O      7.75228445     6.68845092     0.06600800
O     -1.93983819     7.81943580     3.24870941
O     -3.88260659     8.93423031     6.39006891
O     -3.85525415     8.92377582     1.64394725
O      7.72003997     6.67892157     4.81821845
O     -1.78866003     7.71777913     8.06585126
O      0.00469278     6.69666958     0.09360676
O      1.93091187     7.84174309     3.25876544
O      0.04738855     8.93599522     6.38156947
O     -0.01033224     8.92394683     1.68973142
O     -0.02581522     6.69792341     4.83960942
O      1.99003893     7.70255785     8.02853385
O      3.85510315     6.68578514     0.09578260
O      5.81195572     7.82689532     3.19086251
O      3.91380911     8.92385927     6.31567680
O      3.86380336     8.92619011     1.65624645
O      3.89079963     6.69464279     4.82299930
O      5.69049770     7.86498193     8.00953066
O      3.88138920     4.46334435     7.84513804
O      5.64462657     3.57946752     9.55655325
