84
CIF: Os-Fe-CeO2-Ov-CO2.cif | data_image0
Ce     1.93038582     1.11050507     0.88387043
Ce     0.00115296     2.22632739     4.00867878
Ce    -5.77366126    10.04041905     7.21477812
Ce     5.81181033     1.12175166     0.90127712
Ce     3.84051230     2.21393101     4.01610465
Ce    -1.92197941    10.02996365     7.30343431
Ce     9.66901012     1.12377363     0.90450652
Ce     7.75287427     2.23049631     4.07130526
Ce     2.04706844     9.99357959     7.19876285
Ce    -0.00709724     4.47602159     0.89067279
Ce    -1.94391948     5.58176944     4.08027713
Ce    -1.82255171     3.29060123     7.19875761
Ce     3.86254305     4.47635356     0.87798423
Ce     1.94480519     5.58377735     4.05808682
Ce     1.84119287     3.28563728     7.20126785
Ce     7.74213807     4.46545905     0.90125422
Ce     5.81107503     5.62722071     4.01610680
Ce    -1.94645625     7.83004003     0.90010904
Ce    -3.85450860     8.93211263     4.08561801
Ce    -3.83862535     6.70978312     7.30348927
Ce     1.92815559     7.82745473     0.89060408
Ce     0.00220075     8.95253440     4.08018813
Ce     0.01168994     6.70030543     7.24233627
Ce     5.81127600     7.83258510     0.88371011
Ce     3.88061797     8.94577667     4.00875106
Ce     3.88355806     6.82317661     7.20134578
Fe     5.08731744     3.76982417     6.57450739
Os     6.55635651     2.92180437     8.05897033
O     11.61334069     0.00154917     0.10141687
O      1.93451971     1.11329715     3.22162351
O      0.00312087     2.22056756     6.35263390
O     -0.00785227     2.23805103     1.69392277
O     -5.79381403    10.05171836     4.83555290
O      1.84083518     1.20594916     8.03294706
O     -1.93899312    10.05733740     0.10496691
O      5.81299217     1.14469444     3.25650897
O      3.88998302     2.35538487     6.42026728
O      3.86763657     2.23577757     1.68132582
O      3.87686305     0.01769025     4.85085448
O      6.04190973     1.13512031     8.32176958
O      7.73821774     0.00761509     0.10924988
O      9.67879389     1.11843753     3.22589422
O      7.82453197     2.18933709     6.49768294
O      7.74357843     2.23531483     1.71563532
O      7.77303475     0.02140394     4.83901287
O      9.78016796     1.06023136     8.01601423
O      9.67032270     3.35425987     0.10911246
O     -0.00049167     4.48304356     3.23955893
O     -1.91406250     5.47984355     6.42934351
O     -1.94403436     5.59119430     1.70564938
O      9.67616722     3.31774985     4.83906421
O      0.03379885     4.40161590     8.02474815
O      1.92738314     3.35244915     0.09928684
O      3.86335921     4.47618625     3.22433567
O      2.04150496     5.52835277     6.49088097
O      1.92862022     5.59252216     1.67404250
O      1.91184280     3.34339498     4.84007889
O      4.10574328     4.33714029     8.21134659
O      5.81155478     3.35101064     0.10766953
O      7.72310450     4.45331194     3.25640830
O      5.71388540     5.51397499     6.42035631
O      5.80528807     5.59217007     1.68114259
O      5.76795664     3.37673488     4.90861482
O      7.84806304     4.26047681     8.32191273
O     -3.87155109     6.71022987     0.10512724
O     -1.92168635     7.81605704     3.26879936
O     -3.87693784     8.94550976     6.44835889
O     -3.87509971     8.94378428     1.69355631
O      7.73122891     6.69396496     4.85088537
O     -1.74924580     7.71726968     8.06941607
O     -0.01209783     6.71325780     0.10434852
O      1.92539261     7.81858310     3.23945924
O      0.10590095     8.97786369     6.42897446
O     -0.00628994     8.94736548     1.70514550
O      0.02268598     6.69349042     4.91224357
O      2.01317437     7.83041153     8.02489132
O      3.86815347     6.71410280     0.09951587
O      5.81115807     7.82796322     3.22134794
O      3.88664192     8.94744609     6.35269976
O      3.86556896     8.94715423     1.69389986
O      3.86877779     6.73277246     4.84020390
O      5.68476543     7.86349747     8.03244774
O      4.81480305     3.94222337    10.34965099
C      5.03339974     3.80663709     9.16609872
