83
CIF: Ru-Rh-CeO2-O.cif | data_image0
Ce     1.93038582     1.11050507     0.88387043
Ce    -0.01269213     2.23214879     4.01107832
Ce     0.02286549     0.00146525     7.21887926
Ce     5.81181033     1.12175166     0.90127712
Ce     3.83441517     2.20678702     4.00363641
Ce    -1.96368861    10.05289822     7.29175441
Ce     9.66901012     1.12377363     0.90450652
Ce     7.73359299     2.23879680     4.09498936
Ce     2.02483935    10.00368917     7.18461582
Ce    -0.00709724     4.47602159     0.89067279
Ce    -1.95548810     5.59063354     4.06439362
Ce    -1.88492422     3.27759926     7.18526565
Ce     3.86254305     4.47635356     0.87798423
Ce     1.93819987     5.58988167     4.07297279
Ce     1.80911252     3.32402163     7.21081052
Ce     7.74213807     4.46545905     0.90125422
Ce     5.80992643     5.63625782     4.01773037
Ce    -1.94645625     7.83004003     0.90010904
Ce    -3.86372845     8.95676952     4.04241799
Ce    -3.85598164     6.80646719     7.21002597
Ce     1.92815559     7.82745473     0.89060408
Ce    -0.01643152     8.95648903     4.07424328
Ce    -0.01728917     6.71848740     7.22049815
Ce     5.81127600     7.83258510     0.88371011
Ce     3.87855967     8.93568186     4.03894012
Ce     3.86782107     6.78061321     7.30947322
Rh     5.02168904     3.80794891     6.66709910
Ru     6.41359294     2.99922898     8.30952841
O     11.61334069     0.00154917     0.10141687
O      1.92188847     1.12702601     3.20702660
O     -0.03260636     2.23053703     6.33857951
O     -0.00785227     2.23805103     1.69392277
O     -5.79382761    10.05748381     4.82466835
O      1.78632677     1.19774873     8.03626938
O     -1.93899312    10.05733740     0.10496691
O      5.81131221     1.14757634     3.25167113
O      3.83863341     2.24518883     6.42981500
O      3.86763657     2.23577757     1.68132582
O      3.85763591     0.02044939     4.80384378
O      6.10403720     1.17671082     8.33774992
O      7.73821774     0.00761509     0.10924988
O      9.66866983     1.12027745     3.23871286
O      7.74574401     2.22983503     6.53651345
O      7.74357843     2.23531483     1.71563532
O      7.75716473     0.02524788     4.84656473
O      9.74031699     1.09897269     8.02724582
O      9.67032270     3.35425987     0.10911246
O     -0.00862661     4.48369654     3.24642207
O     -2.03156403     5.52528031     6.44528150
O     -1.94403436     5.59119430     1.70564938
O      9.64982310     3.33383871     4.84263021
O     -0.04193382     4.42308927     8.01260765
O      1.92738314     3.35244915     0.09928684
O      3.86523818     4.47008279     3.22605389
O      1.87389515     5.56518504     6.42295330
O      1.92862022     5.59252216     1.67404250
O      1.92798531     3.34029239     4.84350058
O      5.81155478     3.35101064     0.10766953
O      7.71885981     4.47071385     3.25535794
O      5.92580679     5.57740563     6.48287473
O      5.80528807     5.59217007     1.68114259
O      5.76415818     3.38429289     4.87689291
O      7.81863038     4.19791576     8.34448144
O     -3.87155109     6.71022987     0.10512724
O     -1.93672037     7.81782520     3.24189967
O     -3.85832752     8.94092774     6.39263554
O     -3.87509971     8.94378428     1.69355631
O     -3.88108307     6.73732459     4.84769320
O     -1.93011153     7.70794310     8.04241925
O     -0.01209783     6.71325780     0.10434852
O      1.92489125     7.81648609     3.25889513
O      0.02839651     8.99584370     6.41795230
O     -0.00628994     8.94736548     1.70514550
O     -0.04506804     6.71410399     4.89494737
O      1.84584631     7.88834123     8.04492975
O      3.86815347     6.71410280     0.09951587
O      5.80756908     7.82830099     3.21666213
O      3.89526937     8.98166163     6.38323961
O      3.86556896     8.94715423     1.69389986
O      3.89623984     6.69110723     4.85023342
O      5.93162911     7.91604099     8.05476684
O      3.81670280     4.42411330     8.04216307
O      5.41578244     3.55629769     9.59246505
