85
CIF: Ru-Rh-CeO2-O-CO.cif | data_image0
Ce     1.93038582     1.11050507     0.88387043
Ce    -0.00827541     2.23464271     4.01988596
Ce     0.03158105     0.00571338     7.23018245
Ce     5.81181033     1.12175166     0.90127712
Ce     3.84167191     2.22123411     4.01411103
Ce    -1.97402667    10.05444394     7.28985611
Ce     9.66901012     1.12377363     0.90450652
Ce     7.73509631     2.23607608     4.04318580
Ce     2.03568963     9.92045822     7.22217958
Ce    -0.00709724     4.47602159     0.89067279
Ce    -1.95842212     5.58961579     4.06489611
Ce    -1.80669323     3.30897597     7.22060102
Ce     3.86254305     4.47635356     0.87798423
Ce     1.93622096     5.59270392     4.07278391
Ce     1.85935870     3.34660105     7.21383618
Ce     7.74213807     4.46545905     0.90125422
Ce     5.79764312     5.62389277     4.03297318
Ce    -1.94645625     7.83004003     0.90010904
Ce    -3.86387334     8.95714427     4.03864631
Ce    -3.87058989     6.81891136     7.20642363
Ce     1.92815559     7.82745473     0.89060408
Ce    -0.01653612     8.95740867     4.07451617
Ce    -0.02753493     6.71774946     7.22134692
Ce     5.81127600     7.83258510     0.88371011
Ce     3.87784995     8.93276230     4.04720616
Ce     3.86891966     6.72704478     7.31446100
Rh     5.00688247     3.80878515     6.66436050
Ru     6.66542139     2.84593659     8.02414494
O     11.61334069     0.00154917     0.10141687
O      1.92608700     1.12380612     3.21571582
O     -0.00661917     2.24684037     6.36030382
O     -0.00785227     2.23805103     1.69392277
O      0.00589411     0.00597875     4.83983846
O      1.79866976     1.17872222     8.05771164
O     -1.93899312    10.05733740     0.10496691
O      5.81701517     1.13740985     3.24321614
O      3.82266055     2.24191568     6.41209900
O      3.86763657     2.23577757     1.68132582
O      3.86939658     0.01062792     4.81258420
O      6.12983564     1.13831348     8.45540297
O      7.73821774     0.00761509     0.10924988
O      9.66989891     1.11960600     3.23173395
O      7.71961174     2.22517419     6.53930877
O      7.74357843     2.23531483     1.71563532
O      7.76827854     0.03440516     4.87725492
O      9.74443136     1.10577235     8.01986908
O      9.67032270     3.35425987     0.10911246
O     -0.01892598     4.48284785     3.25092074
O     -2.02682503     5.51571086     6.46385717
O     -1.94403436     5.59119430     1.70564938
O      9.64312260     3.31680920     4.87525972
O     -0.03178682     4.43980551     8.05104887
O      1.92738314     3.35244915     0.09928684
O      3.86777199     4.46910870     3.22298205
O      1.83420690     5.59194640     6.39611290
O      1.92862022     5.59252216     1.67404250
O      1.92266493     3.34812035     4.83080359
O      5.81155478     3.35101064     0.10766953
O      7.72950697     4.46844241     3.24758118
O      5.90753184     5.59588092     6.46956517
O      5.80528807     5.59217007     1.68114259
O      5.80550189     3.36341345     4.87401862
O      7.86764799     4.17764792     8.43406363
O     -3.87155109     6.71022987     0.10512724
O     -1.93989255     7.82022107     3.23699726
O     -3.86460720     8.94288340     6.38779705
O     -3.87509971     8.94378428     1.69355631
O     -3.87161477     6.73247949     4.85092289
O     -1.94442125     7.71283544     8.04337315
O     -0.01209783     6.71325780     0.10434852
O      1.91730677     7.82631249     3.26043377
O      0.04637458     8.99009729     6.44417802
O     -0.00628994     8.94736548     1.70514550
O     -0.07007277     6.72765373     4.89204913
O      1.84618381     7.86886616     8.09472674
O      3.86815347     6.71410280     0.09951587
O      5.80915201     7.83109898     3.22714407
O      3.89648196     8.95738803     6.40868518
O      3.86556896     8.94715423     1.69389986
O      3.88296265     6.69759433     4.83252175
O      5.96090170     7.91086252     8.08848027
O      3.72365424     4.40225852     8.07296344
O      5.59445075     3.49650821    10.14473990
O      5.39887660     3.54988690    12.48604704
C      5.50634323     3.51609537    11.31903468
