84
CIF: Pt-Fe-CeO2-Ov-CO2.cif | data_image0
Ce     1.93038582     1.11050507     0.88387043
Ce     0.00408487     2.23959282     4.05997057
Ce    -5.76928653    10.04325547     7.24032421
Ce     5.81181033     1.12175166     0.90127712
Ce     3.82936534     2.20117564     4.00045376
Ce    -1.91291675     9.99824644     7.26913800
Ce     9.66901012     1.12377363     0.90450652
Ce     7.75135026     2.23312794     4.11628103
Ce     1.99900867    10.02510913     7.26148667
Ce    -0.00709724     4.47602159     0.89067279
Ce    -1.93344053     5.57780479     4.06533754
Ce    -1.85733325     3.33992393     7.24817162
Ce     3.86254305     4.47635356     0.87798423
Ce     1.94751410     5.57587784     4.06391772
Ce     1.86884808     3.29630662     7.31000364
Ce     7.74213807     4.46545905     0.90125422
Ce     5.81428270     5.63629189     3.98513552
Ce    -1.94645625     7.83004003     0.90010904
Ce    -3.86750236     8.93526812     4.07920209
Ce    -3.82978485     6.68421273     7.24118225
Ce     1.92815559     7.82745473     0.89060408
Ce     0.00911578     8.94455030     4.07737580
Ce     0.00321448     6.69570071     7.24124395
Ce     5.81127600     7.83258510     0.88371011
Ce     3.86843484     8.96000196     4.03130537
Ce     3.86277247     6.84239939     7.19399740
Fe     5.06558701     3.76813814     6.53329301
Pt     6.61895584     2.89056723     8.15223283
O     11.61334069     0.00154917     0.10141687
O      1.93809083     1.09930837     3.23026263
O     -0.01165129     2.19352919     6.44554486
O     -0.00785227     2.23805103     1.69392277
O     -5.77070460    10.04390949     4.88350739
O      2.01182281     0.97424169     8.01475539
O     -1.93899312    10.05733740     0.10496691
O      5.75086431     1.10118329     3.26341359
O      3.97479334     2.33505041     6.42211660
O      3.86763657     2.23577757     1.68132582
O      3.85320002     0.02421256     4.92273181
O      5.85776503     0.99296673     8.14753627
O      7.73821774     0.00761509     0.10924988
O      9.71771575     1.09897316     3.26190098
O      7.89171995     2.16391570     6.56497562
O      7.74357843     2.23531483     1.71563532
O      1.93298026     9.99741072     4.90548956
O      9.79870956     1.02134892     8.09789925
O      9.67032270     3.35425987     0.10911246
O      0.00913337     4.48607153     3.23558553
O     -1.94111380     5.61575338     6.41391488
O     -1.94403436     5.59119430     1.70564938
O     -1.87258290     3.38919264     4.89877911
O     -0.07628011     4.54300445     8.05134266
O      1.92738314     3.35244915     0.09928684
O      3.86744187     4.47915066     3.22426815
O      2.07385055     5.59500118     6.50954227
O      1.92862022     5.59252216     1.67404250
O      1.93041452     3.34070192     4.84213192
O      4.23610878     4.27983396     8.27226086
O      5.81155478     3.35101064     0.10766953
O      7.72782024     4.52080562     3.25415508
O      5.69093789     5.48003303     6.40879955
O      5.80528807     5.59217007     1.68114259
O      5.73665358     3.40288963     4.88862540
O      7.85455934     4.51944904     8.12327349
O     -3.87155109     6.71022987     0.10512724
O     -1.93401172     7.82341085     3.28693503
O     -3.83328057     8.87615995     6.43107515
O     -3.87509971     8.94378428     1.69355631
O      7.69185937     6.69075560     4.90210548
O     -1.92417207     7.79503722     8.05160247
O     -0.01209783     6.71325780     0.10434852
O      1.92812971     7.81514551     3.23683578
O     -0.00158408     8.91333814     6.45550126
O     -0.00628994     8.94736548     1.70514550
O      0.04661149     6.67726316     4.90945701
O      1.98732105     7.84290755     8.04619069
O      3.86815347     6.71410280     0.09951587
O      5.81496761     7.83665116     3.22368395
O      3.90126932     8.94454211     6.41029965
O      3.86556896     8.94715423     1.69389986
O      3.88407022     6.74346269     4.84849525
O      5.81235788     7.76203516     7.96827105
O      4.97374374     3.87104769    10.39249941
C      5.15398810     3.75267273     9.20196106
