83
CIF: Ni-Fe-CeO2-Ov-O2.cif | data_image0
Ce     1.93038582     1.11050507     0.88387043
Ce    -0.01015184     2.24275987     4.05074428
Ce    -5.77217510    10.04459336     7.20557422
Ce     5.81181033     1.12175166     0.90127712
Ce     3.81844270     2.22661097     3.99741699
Ce    -1.91595896    10.03324794     7.21941046
Ce     9.66901012     1.12377363     0.90450652
Ce     7.74537112     2.23495177     4.08208229
Ce     1.96851139    10.03242646     7.25497898
Ce    -0.00709724     4.47602159     0.89067279
Ce    -1.94821973     5.58504765     4.06576184
Ce    -1.91678690     3.34013158     7.26277846
Ce     3.86254305     4.47635356     0.87798423
Ce     1.93391611     5.58893313     4.08548765
Ce     1.82297317     3.30385678     7.27558103
Ce     7.74213807     4.46545905     0.90125422
Ce     5.79100696     5.64525144     3.98278087
Ce    -1.94645625     7.83004003     0.90010904
Ce    -3.87231756     8.94540539     4.05142907
Ce    -3.84577111     6.70503015     7.21696429
Ce     1.92815559     7.82745473     0.89060408
Ce    -0.00205730     8.95214204     4.06412615
Ce    -0.00441112     6.70550325     7.23574405
Ce     5.81127600     7.83258510     0.88371011
Ce     3.86137375     8.94930694     4.04424856
Ce     3.86009961     6.83536234     7.26619302
Fe     5.10194210     3.78956726     6.52115955
Ni     6.63223598     2.83956920     7.95151003
O     11.61334069     0.00154917     0.10141687
O      1.92518367     1.10905025     3.21314058
O     -0.03626181     2.20531326     6.40772177
O     -0.00785227     2.23805103     1.69392277
O     -5.79449844    10.05481501     4.84508545
O      1.99786195     0.97054064     7.98245871
O     -1.93899312    10.05733740     0.10496691
O      5.80664497     1.14575966     3.25125506
O      3.96120747     2.36565061     6.39676057
O      3.86763657     2.23577757     1.68132582
O      3.86183673     0.05843524     4.87141890
O      5.93653826     1.07148417     8.05767441
O      7.73821774     0.00761509     0.10924988
O      9.66474859     1.12851540     3.24953918
O      7.74937220     2.22516275     6.54532552
O      7.74357843     2.23531483     1.71563532
O      7.74127860     0.03275150     4.87005496
O      9.74299515     1.07927984     8.05901157
O      9.67032270     3.35425987     0.10911246
O     -0.02273180     4.47948748     3.24715051
O     -1.97529318     5.60732402     6.40298294
O     -1.94403436     5.59119430     1.70564938
O      9.64312651     3.34168989     4.87591424
O     -0.13028824     4.53513557     8.06856479
O      1.92738314     3.35244915     0.09928684
O      3.86146795     4.47577504     3.21713816
O      1.97558594     5.56923464     6.47577927
O      1.92862022     5.59252216     1.67404250
O      1.91290121     3.33451427     4.81076752
O      5.81155478     3.35101064     0.10766953
O      7.71981644     4.45875789     3.24641048
O      5.74448973     5.48797609     6.34958230
O      5.80528807     5.59217007     1.68114259
O      5.75393748     3.39085704     4.85741568
O      7.78206434     4.36343125     8.05993680
O     -3.87155109     6.71022987     0.10512724
O     -1.93907397     7.82965345     3.26758196
O     -3.81420723     8.90593794     6.35418027
O     -3.87509971     8.94378428     1.69355631
O      7.69697429     6.69154157     4.86075536
O     -1.94301993     7.83053415     8.01677600
O     -0.01209783     6.71325780     0.10434852
O      1.91271371     7.83801752     3.24520310
O     -0.03111272     8.94693030     6.39147436
O     -0.00628994     8.94736548     1.70514550
O      0.00784766     6.69389053     4.88354605
O      1.83148364     7.89314316     8.06843381
O      3.86815347     6.71410280     0.09951587
O      5.81013438     7.84255674     3.21009227
O      3.88805408     8.98245247     6.40175211
O      3.86556896     8.94715423     1.69389986
O      3.86809043     6.73925293     4.80265360
O      5.96022731     7.84073766     7.98370046
O      4.42213406     4.26341992     8.21705504
O      5.27756617     3.49156646     9.07217799
