85
CIF: 1-NH3-NH2+H_fs.cif | data_image0
Ce     5.80948701    10.05031332     8.81251221
Ce     1.91392608     1.11678110     5.56469746
Ce     0.00000000     2.23543938     2.47426506
Ce     3.72860082     0.02262394     8.69956517
Ce     5.80459218     1.11200034     5.62809088
Ce     3.87189458     2.23543938     2.47426506
Ce     2.04698480    10.03392704     8.72802858
Ce     9.68681169     1.10087476     5.56964876
Ce     7.74390532     2.23543938     2.47426506
Ce     9.71522002     3.22445364     8.70017450
Ce    -0.00889569     4.51982656     5.64301937
Ce    -1.93600537     5.58869904     2.47426506
Ce     1.84688651     3.28146804     8.69759571
Ce     3.85591307     4.47762400     5.62551874
Ce     1.93588921     5.58869904     2.47426506
Ce     5.79611715     3.34697339     8.84353014
Ce     7.75134077     4.48255098     5.64246973
Ce     5.80789995     5.58869904     2.47426506
Ce    -3.88770248     6.79196586     8.79862473
Ce    -1.90001196     7.81136215     5.67390289
Ce    -3.87195266     8.94185811     2.47426506
Ce     1.90419431     7.80526599     5.64146199
Ce    -0.00005808     8.94185811     2.47426506
Ce     3.92123880     6.78577975     8.71911083
Ce     5.82504150     7.82486321     5.59582269
Ce     3.87195266     8.94185811     2.47426506
Mn     0.17420670     6.70420077    10.27461247
O      5.80586361    10.05302662     6.40682812
O     -0.01828880     2.17659208     9.63987867
O      1.93594729     1.11771969     3.26466483
O     -0.00843410     2.23501050     4.79866095
O      0.00000000     0.00000000     1.68386529
O      1.88253927     1.13674209     7.93803235
O      3.85020749     0.08576563     6.39491594
O      3.83143882     2.25885772     9.51811652
O      5.80795803     1.11771969     3.26466483
O      3.89732107     2.26492146     4.80741282
O      3.87189458     0.00000000     1.68386529
O      5.80745664     0.89949488     8.14427850
O      7.74563871     0.05441272     6.41699009
O      7.76979988     2.17943635     9.56932579
O      9.67985261     1.11771969     3.26466483
O      7.70808661     2.25555445     4.81719402
O      7.74390532     0.00000000     1.68386529
O      9.70159677     1.08308225     7.95962268
O      9.65287288     3.30600821     6.40672619
O     -1.46705419     5.80650681    10.17448529
O      0.00000000     4.47087876     3.26466483
O     -1.97371409     5.55853829     4.82771613
O     -1.93594729     3.35315907     1.68386529
O     -0.03130942     4.29701686     7.98361461
O      1.93957219     3.33144904     6.40163257
O      1.58431842     5.88242070     9.95551845
O      3.87201074     4.47087876     3.26466483
O      1.97763396     5.56797807     4.81765495
O      1.93594729     3.35315907     1.68386529
O      3.63934103     4.57624817     8.07584188
O      5.78428083     3.34302087     6.59115563
O      5.68912877     5.48688824     9.57590955
O      7.74390532     4.47087876     3.26466483
O      5.81077435     5.54438339     4.81894089
O      5.80795803     3.35315907     1.68386529
O      7.89902385     4.47178863     8.11318394
O      7.72178096     6.68805125     6.40548291
O     -3.93378689     9.12089827     9.68398537
O     -1.93600537     7.82413842     3.26466483
O     -3.86908724     8.94332685     4.81000118
O     -3.87195266     6.70641873     1.68386529
O     -2.01638362     8.00844958     7.97265541
O      0.00813433     6.70445435     6.22420669
O      0.21717382     8.33120385    10.01407447
O      1.93600537     7.82413842     3.26466483
O      0.00102487     8.99571433     4.82874967
O     -0.00005808     6.70641873     1.68386529
O      2.14673276     7.93130864     7.93754283
O      3.92847314     6.68324375     6.40584959
O      3.91703737     8.97844373     9.66887079
O      5.80789995     7.82413842     3.26466483
O      3.86813866     8.93736205     4.80914502
O      3.87195266     6.70641873     1.68386529
O      5.77855561     7.85701886     7.99011294
N      0.12898028     6.64150119    12.13444254
H      0.16653245     7.59775880    12.50472319
H      0.95671719     6.14496265    12.48219318
H     -1.64429455     5.68023647    11.13300132
