87
CIF: 2-NH2+H+NO-NH2NO+H_fs.cif | data_image0
Ce     5.81304876    10.04700134     8.81291164
Ce     1.91618467     1.11740060     5.56603992
Ce     0.00000000     2.23543938     2.47426506
Ce     3.73352001     0.02495622     8.69656370
Ce     5.80684785     1.11232259     5.62699247
Ce     3.87189458     2.23543938     2.47426506
Ce     2.04446961    10.03056901     8.72340131
Ce     9.68823329     1.09809312     5.56798952
Ce     7.74390532     2.23543938     2.47426506
Ce     9.72002746     3.21447209     8.69521351
Ce    -0.00627408     4.51669271     5.64274740
Ce    -1.93600537     5.58869904     2.47426506
Ce     1.85000856     3.28423757     8.70483688
Ce     3.85875283     4.47732326     5.62636179
Ce     1.93588921     5.58869904     2.47426506
Ce     5.79917013     3.34851955     8.84227115
Ce     7.75392827     4.48187860     5.64227285
Ce     5.80789995     5.58869904     2.47426506
Ce    -3.88026683     6.79370442     8.79847873
Ce    -1.89718521     7.80994310     5.67453436
Ce    -3.87195266     8.94185811     2.47426506
Ce     1.90471937     7.80351320     5.64100083
Ce    -0.00005808     8.94185811     2.47426506
Ce     3.92117182     6.78132544     8.71998739
Ce     5.82759721     7.82465077     5.59732088
Ce     3.87195266     8.94185811     2.47426506
Mn     0.22774333     6.74610800    10.25427081
O      5.81009252    10.05137347     6.40816969
O     -0.01696889     2.16803529     9.63873770
O      1.93594729     1.11771969     3.26466483
O     -0.00582325     2.23398447     4.79896674
O      0.00000000     0.00000000     1.68386529
O      1.88701640     1.13821841     7.94060587
O      3.85111079     0.08406906     6.39367332
O      3.83855806     2.25642783     9.52175313
O      5.80795803     1.11771969     3.26466483
O      3.89935768     2.26494717     4.80841588
O      3.87189458     0.00000000     1.68386529
O      5.80969204     0.90557114     8.13589654
O      7.74685237     0.05426951     6.41202618
O      7.77095644     2.17238692     9.57644987
O      9.67985261     1.11771969     3.26466483
O      7.70902468     2.25535436     4.81507711
O      7.74390532     0.00000000     1.68386529
O      9.70386123     1.07747207     7.95765246
O      9.65200873     3.30099526     6.40287198
O     -1.42174337     5.84099379    10.19715175
O      0.00000000     4.47087876     3.26466483
O     -1.97242023     5.55797943     4.82788527
O     -1.93594729     3.35315907     1.68386529
O     -0.03268965     4.28060184     7.97803557
O      1.94390319     3.33215340     6.40356892
O      1.59880244     5.86887200     9.89872629
O      3.87201074     4.47087876     3.26466483
O      1.97880428     5.56755064     4.81758120
O      1.93594729     3.35315907     1.68386529
O      3.65193125     4.56929055     8.07372580
O      5.79231982     3.34525926     6.58864390
O      5.69586797     5.48668067     9.57661283
O      7.74390532     4.47087876     3.26466483
O      5.81302720     5.54643390     4.82056480
O      5.80795803     3.35315907     1.68386529
O      7.90876369     4.47121096     8.12055988
O      7.72692768     6.68881799     6.40801951
O     -3.92749970     9.11941072     9.68492219
O     -1.93600537     7.82413842     3.26466483
O     -3.86785215     8.94269637     4.81086285
O     -3.87195266     6.70641873     1.68386529
O     -2.00304585     8.00793644     7.97841704
O      0.00939580     6.70110133     6.22626637
O      0.25671921     8.40868026    10.07373195
O      1.93600537     7.82413842     3.26466483
O      0.00165933     8.99347312     4.82866055
O     -0.00005808     6.70641873     1.68386529
O      2.14162650     7.93233359     7.93393991
O      3.92956886     6.68315664     6.40871974
O      3.91604498     8.97044495     9.67103903
O      5.80789995     7.82413842     3.26466483
O      3.87046054     8.93580743     4.80943111
O      3.87195266     6.70641873     1.68386529
O      5.78213936     7.85503598     7.99263685
O      0.46147997     5.70997777    12.73525896
N      0.09486927     7.90822592    12.76220519
N      0.28184671     6.74796028    12.07108681
H      0.25411851     8.71631468    12.14958117
H      0.51964750     7.87787298    13.69213346
H     -1.65512813     5.59182357    11.11533022
