87
CIF: 3-NH2NO+H-NHNO+2H_ts.cif | data_image0
Ce     0.25410343     0.06434340     9.07136283
Ce     1.93674198     1.09748920     5.46337306
Ce     0.00000000     2.23543938     2.47426506
Ce     3.42230921     0.26219902     9.07837708
Ce     5.77543560     1.12427646     5.69734522
Ce     3.87189458     2.23543938     2.47426506
Ce     7.87638994     0.19045638     8.85655043
Ce     9.68675828     1.11501136     5.63814553
Ce     7.74390532     2.23543938     2.47426506
Ce     9.46672192     3.28844093     8.85744462
Ce    -0.01128279     4.27305562     5.39494517
Ce    -1.93600537     5.58869904     2.47426506
Ce     1.97727485     2.74844458     9.16435071
Ce     3.87038260     4.43711472     5.69098543
Ce     1.93588921     5.58869904     2.47426506
Ce     5.82279650     3.29450533     8.87493497
Ce     7.72179545     4.46858270     5.70143634
Ce     5.80789995     5.58869904     2.47426506
Ce    -3.80446265     6.73118229     8.88967293
Ce    -2.17202306     7.95243466     5.67107810
Ce    -3.87195266     8.94185811     2.47426506
Ce     2.11457114     7.91114667     5.33737720
Ce    -0.00005808     8.94185811     2.47426506
Ce     4.25927029     6.62397800     8.78063103
Ce     5.82290490     7.81534039     5.61354693
Ce     3.87195266     8.94185811     2.47426506
Mn     0.91675333     6.79743297     8.59096535
O      5.75591824    10.03446547     6.17919338
O     -0.22989025     2.82782925     9.58702823
O      1.93594729     1.11771969     3.26466483
O     -0.03875230     2.18855999     4.73576471
O      0.00000000     0.00000000     1.68386529
O      1.86140912     1.29799206     7.58406161
O      3.89559315     0.09478235     6.16045018
O      4.00678713     2.61731162     9.81114421
O      5.80795803     1.11771969     3.26466483
O      3.86754096     2.29738480     4.78735141
O      3.87189458     0.00000000     1.68386529
O      6.02575936     0.92297780     8.04062007
O      1.97400758     9.83500167     6.46310250
O      7.79508122     2.14925356     9.77224079
O      9.67985261     1.11771969     3.26466483
O      7.76712357     2.22013422     4.85332527
O      7.74390532     0.00000000     1.68386529
O      9.42150337     1.24868109     7.84970681
O     -1.76321361     3.42261009     6.47975911
O     -2.05805245     5.37186095     9.95916930
O      0.00000000     4.47087876     3.26466483
O     -1.80790834     5.60191822     4.87324967
O      9.67985261     3.35315907     1.68386529
O     -0.24890515     5.38959140     7.86863569
O      1.78295753     3.50950425     6.34867574
O      1.66531144     5.89450179     9.73437613
O      3.87201074     4.47087876     3.26466483
O      1.82258280     5.69212840     4.84962564
O      1.93594729     3.35315907     1.68386529
O      3.73378420     4.69373642     7.93723320
O      5.76555080     3.30592250     6.42276180
O      5.72465998     5.53705900     9.75165031
O      7.74390532     4.47087876     3.26466483
O      5.77380106     5.55365588     4.81817331
O      5.80795803     3.35315907     1.68386529
O      7.87583480     4.38673606     7.95309492
O      7.65997595     6.65652167     6.31523330
O     -3.85988113     8.75073702     9.99799197
O     -1.93600537     7.82413842     3.26466483
O     -3.93938952     8.95008424     4.76541475
O      7.74384724     6.70641873     1.68386529
O     -1.91756888     7.61244200     7.66500880
O      0.10808834     6.53298129     7.10842118
O     -0.16704814     7.65796628     9.30245752
O      1.93600537     7.82413842     3.26466483
O      0.06768641     8.76339738     4.89050116
O     -0.00005808     6.70641873     1.68386529
O      1.95649869     7.72946226     7.79354880
O      3.75385932     6.80077533     6.42851644
O      3.33690674     8.67454229     9.56379413
O      5.80789995     7.82413842     3.26466483
O      3.90466746     8.96377565     4.73588958
O      3.87195266     6.70641873     1.68386529
O      5.82057163     7.60922049     7.80720184
O      0.08697875     5.60107129    12.17690842
N      0.22301416     7.12548116    13.94393569
N      0.19369034     6.43704423    13.01193168
H      0.43155482     9.77809834    14.31131561
H      0.50370729     9.03257060    14.34778657
H     -1.50817678     5.62980294    10.70989591
