87
CIF: 6-OH+2H-H2O+H_is.cif | data_image0
Ce     5.78368101    10.04499141     8.78028561
Ce     1.92078867     1.10937024     5.60837995
Ce     0.00000000     2.23543938     2.47426506
Ce     3.79604341     0.04848717     8.78165982
Ce     5.79930426     1.10494403     5.62509950
Ce     3.87189458     2.23543938     2.47426506
Ce     7.78740649     0.06146402     8.76952096
Ce     9.67479974     1.11681433     5.60082179
Ce     7.74390532     2.23543938     2.47426506
Ce    -1.91062485     3.31191480     8.75440465
Ce    -0.01446167     4.47258889     5.66724194
Ce    -1.93600537     5.58869904     2.47426506
Ce     1.87258310     3.31141182     8.76242088
Ce     3.85516783     4.47993238     5.64090292
Ce     1.93588921     5.58869904     2.47426506
Ce     5.79361252     3.34621796     8.75119816
Ce     7.74030442     4.47329306     5.62509950
Ce     5.80789995     5.58869904     2.47426506
Ce     7.66938997     6.70179133     8.79952455
Ce    -1.96063087     7.81065859     5.59784434
Ce    -3.87195266     8.94185811     2.47426506
Ce     1.95197709     7.80693654     5.60219600
Ce    -0.00005808     8.94185811     2.47426506
Ce     3.88229072     6.68589719     8.88953530
Ce     5.78809501     7.81679493     5.63380283
Ce     3.87195266     8.94185811     2.47426506
Mn     0.00185853     7.38835751     8.43650408
O      5.79430947    10.03362409     6.42672199
O     -0.02288313     2.17246642     9.59885668
O      1.93594729     1.11771969     3.26466483
O     -0.00499479     2.22256312     4.81500272
O      0.00000000     0.00000000     1.68386529
O      1.89744091     1.10896786     7.95255313
O     -1.96202476    10.00807276     6.46657408
O      3.84204198     2.19057366     9.54640767
O      5.80795803     1.11771969     3.26466483
O      3.87079108     2.21562201     4.83355456
O      3.87189458     0.00000000     1.68386529
O      5.78792078     1.13029416     7.96194357
O      1.93978051    10.02205558     6.45535136
O      7.73850397     2.21300652     9.52785583
O      9.67985261     1.11771969     3.26466483
O      7.72688818     2.21501844     4.81775114
O      7.74390532     0.00000000     1.68386529
O      9.68856446     1.14890438     7.93148191
O      9.65644678     3.34621796     6.38366341
O     -2.35382569     5.34203820    10.02257143
O      0.00000000     4.47087876     3.26466483
O     -1.94982817     5.59936220     4.82027053
O     -1.93594729     3.35315907     1.68386529
O     -0.05616239     4.36595736     7.98828259
O      1.91991749     3.34531260     6.41275085
O      2.08544264     5.31558151     9.83613694
O      3.87201074     4.47087876     3.26466483
O      1.93199792     5.59161632     4.82187377
O      1.93594729     3.35315907     1.68386529
O      3.83565329     4.46182514     7.96194357
O      5.81039735     3.36060316     6.43153172
O      5.82323281     5.52069630     9.50586848
O      7.74390532     4.47087876     3.26466483
O      5.80098855     5.59463419     4.82737061
O      5.80795803     3.35315907     1.68386529
O      7.79031044     4.49150089     7.95690480
O     -3.88269728     6.74072189     6.45168680
O     -3.87503085     8.94014798     9.52510742
O     -1.93600537     7.82413842     3.26466483
O     -3.87688938     8.93954441     4.80423808
O     -3.87195266     6.70641873     1.68386529
O     -1.86491667     7.68129242     8.09409676
O     -0.00522711     6.73589330     6.41733155
O     -0.02160539     8.92365028     9.49533287
O      1.93600537     7.82413842     3.26466483
O     -0.00859569     8.95242067     4.80858974
O     -0.00005808     6.70641873     1.68386529
O      1.83361209     7.72585635     8.08218694
O      3.85040535     6.73066232     6.44916742
O      3.83542097     9.02887346     9.47036805
O      5.80789995     7.82413842     3.26466483
O      3.86417008     8.93924262     4.80446711
O      3.87195266     6.70641873     1.68386529
O      5.78530722     7.80452225     8.01462162
O      2.74539431     6.52685527    12.03235352
H     -1.75183686     5.69603474    10.70211826
H      4.81294861     6.79293110    13.13538606
H      2.05222145     5.61394858    10.80884857
N      4.96494135     6.88698815    12.10862217
N      3.85789754     6.75269279    11.47648558
