83
CIF: O2.cif | data_image0
Ce    -5.80085116    10.05926173     8.80360371
Ce     1.93308127     1.11327670     5.59349132
Ce     0.00000000     2.23543938     2.47426506
Ce    -2.00077901    10.02322580     8.73715597
Ce     5.80510152     1.11133483     5.63029718
Ce     3.87189458     2.23543938     2.47426506
Ce     2.01701084    10.03893259     8.73383030
Ce     9.68438581     1.11402879     5.59359513
Ce     7.74390532     2.23543938     2.47426506
Ce    -1.88685733     3.30107636     8.73162646
Ce    -0.00235183     4.50681101     5.63519082
Ce    -1.93600537     5.58869904     2.47426506
Ce     1.86760157     3.28570378     8.73142636
Ce     3.86373154     4.47549667     5.63153351
Ce     1.93588921     5.58869904     2.47426506
Ce     5.80389706     3.34902322     8.83312436
Ce     7.74427393     4.47111500     5.62934958
Ce     5.80789995     5.58869904     2.47426506
Ce    -3.86996387     6.76858809     8.73441098
Ce    -1.90194516     7.80332267     5.63064725
Ce    -3.87195266     8.94185811     2.47426506
Ce     1.90462722     7.80380335     5.64199092
Ce    -0.00005808     8.94185811     2.47426506
Ce     3.91222602     6.79891129     8.73841681
Ce     5.80981201     7.82829475     5.59387586
Ce     3.87195266     8.94185811     2.47426506
Mn    -0.11306914     6.73281185     9.50151145
O     -5.80676519    10.05863981     6.42457539
O      0.00121626     2.17744244     9.63688302
O      1.93594729     1.11771969     3.26466483
O      0.00114786     2.23714151     4.81509346
O      0.00000000     0.00000000     1.68386529
O      1.91931633     1.10590274     7.98056155
O      3.87410495     0.05818957     6.41800580
O      3.86811351     2.23189098     9.53090833
O      5.80795803     1.11771969     3.26466483
O      3.90010274     2.25233708     4.80953572
O      3.87189458     0.00000000     1.68386529
O      5.81281670     0.96053239     8.09963048
O      7.74387855     0.05402702     6.41922482
O      7.74786604     2.22901180     9.53932339
O      9.67985261     1.11771969     3.26466483
O      7.70897602     2.25060675     4.81253366
O      7.74390532     0.00000000     1.68386529
O      9.69681791     1.10858134     7.97876228
O      9.62453993     3.32018331     6.41055562
O     -1.61144124     5.83798183     9.66350889
O      0.00000000     4.47087876     3.26466483
O     -1.97255074     5.56567755     4.82005519
O     -1.93594729     3.35315907     1.68386529
O     -0.01024583     4.21221057     7.90271293
O      1.98968471     3.32140596     6.41898522
O      1.34182847     5.86799307     9.71498199
O      3.87201074     4.47087876     3.26466483
O      1.97317783     5.56637352     4.82149973
O      1.93594729     3.35315907     1.68386529
O      3.70194306     4.57330643     8.12636137
O      5.78926116     3.35526268     6.57072924
O      5.82593513     5.58751325     9.52024730
O      7.74390532     4.47087876     3.26466483
O      5.80615175     5.55311139     4.81068590
O      5.80795803     3.35315907     1.68386529
O      7.87021110     4.53039364     8.08270845
O      7.69272730     6.67272915     6.41595915
O     -3.90589795     8.96209815     9.62748473
O     -1.93600537     7.82413842     3.26466483
O     -3.86934822     8.94001216     4.81445236
O     -3.87195266     6.70641873     1.68386529
O     -2.13456651     7.93667715     7.89438823
O      0.00483795     6.70487730     6.26275425
O     -0.07185099     8.46404889     9.68793011
O      1.93600537     7.82413842     3.26466483
O      0.00176087     8.98405497     4.82017600
O     -0.00005808     6.70641873     1.68386529
O      2.15695040     7.94573740     7.92549376
O      3.92625740     6.67835303     6.41605419
O      3.93025011     8.98341255     9.63825916
O      5.80789995     7.82413842     3.26466483
O      3.87004248     8.94022236     4.81577451
O      3.87195266     6.70641873     1.68386529
O      5.80951299     7.84573399     7.98239349
O      4.25960690     6.96071592    12.63305012
O      3.60986040     6.39571483    11.74367290
