85
CIF: 1-NH3-NH2+H_ts.cif | data_image0
Ce     0.02697983     0.03141808     8.79602410
Ce     1.94034635     1.12130946     5.59841013
Ce     0.00000000     2.23543938     2.47426506
Ce    -1.96142692    10.04363136     8.74878267
Ce     5.80221853     1.11514402     5.62960372
Ce     3.87189458     2.23543938     2.47426506
Ce     2.01890702    10.04150443     8.73316865
Ce     9.68303960     1.12102662     5.59611144
Ce     7.74390532     2.23543938     2.47426506
Ce    -1.91542335     3.32488686     8.72030731
Ce    -0.00270516     4.46091928     5.62827534
Ce    -1.93600537     5.58869904     2.47426506
Ce     1.86930861     3.30992938     8.73427828
Ce     3.86797781     4.48604961     5.63806922
Ce     1.93588921     5.58869904     2.47426506
Ce     5.80622342     3.34800857     8.80393532
Ce     7.73621481     4.46763535     5.61966793
Ce     5.80789995     5.58869904     2.47426506
Ce    -3.83931097     6.72741791     8.73221785
Ce    -1.93195362     7.82585684     5.62016384
Ce    -3.87195266     8.94185811     2.47426506
Ce     1.96261560     7.82378567     5.67158810
Ce    -0.00005808     8.94185811     2.47426506
Ce     4.00059740     6.80450569     8.79895712
Ce     5.81537832     7.83019861     5.60071707
Ce     3.87195266     8.94185811     2.47426506
Ti    -0.26990647     6.82772694     8.68472949
O      0.00852061     0.00877060     6.40366582
O      0.01496864     2.19654240     9.63644925
O      1.93594729     1.11771969     3.26466483
O      0.00727477     2.24741300     4.81052212
O      0.00000000     0.00000000     1.68386529
O      1.93221013     1.13337127     7.96028326
O      3.87487816     0.04202691     6.41309719
O      3.87067892     2.22627402     9.54682764
O      5.80795803     1.11771969     3.26466483
O      3.89413105     2.24250212     4.79877508
O      3.87189458     0.00000000     1.68386529
O      5.82217556     1.04079774     8.04388201
O      7.73820037     0.04720709     6.40517116
O      7.75836655     2.22868134     9.55133225
O      9.67985261     1.11771969     3.26466483
O      7.70347805     2.24294440     4.80311132
O      7.74390532     0.00000000     1.68386529
O      9.69728168     1.14207902     7.94016241
O      9.61562362     3.33568506     6.35963019
O     -1.74116185     5.77631074     9.33022621
O      0.00000000     4.47087876     3.26466483
O     -1.89748760     5.61505161     4.83517890
O      9.67985261     3.35315907     1.68386529
O     -0.02575149     4.13132237     7.83114744
O      2.00438689     3.34019879     6.39778887
O      1.13745103     5.77586986     9.48522981
O      3.87201074     4.47087876     3.26466483
O      1.89772350     5.61518300     4.85138627
O      1.93594729     3.35315907     1.68386529
O      3.74370352     4.56650698     8.11714300
O      5.76474708     3.35777387     6.50910425
O      5.91368687     5.57313227     9.52120095
O      7.74390532     4.47087876     3.26466483
O      5.81798801     5.56037490     4.79701485
O      5.80795803     3.35315907     1.68386529
O      7.79763614     4.46235763     7.98916390
O      7.71943817     6.68146364     6.40109112
O     -3.83950733     8.97864356     9.59284105
O     -1.93600537     7.82413842     3.26466483
O     -3.85594958     8.93916284     4.81026852
O      7.74384724     6.70641873     1.68386529
O     -2.05768497     7.90136859     7.88163928
O      0.00033642     6.70692238     6.72558965
O     -0.05909389     8.54954746     9.38187945
O      1.93600537     7.82413842     3.26466483
O      0.00478673     8.90010996     4.84954868
O     -0.00005808     6.70641873     1.68386529
O      2.22411576     7.95568291     7.91995803
O      3.94326229     6.67949740     6.36675823
O      3.96622386     9.08776871     9.62123755
O      5.80789995     7.82413842     3.26466483
O      3.86563269     8.94413564     4.81638755
O      3.87195266     6.70641873     1.68386529
O      5.85530440     7.86488789     7.97547242
N      3.08016746     6.45167933    10.99038784
H      2.97920534     7.28847857    11.57235772
H      3.42683699     5.70806959    11.60595222
H      1.84789476     6.10715866    10.27008207
