86
CIF: 2-NH2+H+NO-NH2NO+H_fs.cif | data_image0
Ce    11.58207093     0.00802368     8.83116816
Ce     1.94018930     1.10826766     5.67390480
Ce     0.00000000     2.23543938     2.47426506
Ce    -1.84275294    10.05570086     8.87222381
Ce     5.80868692     1.10596299     5.63466083
Ce     3.87189458     2.23543938     2.47426506
Ce     7.70689286     0.03321970     8.84643803
Ce     9.68278938     1.11244656     5.63906194
Ce     7.74390532     2.23543938     2.47426506
Ce     9.62951094     3.27525918     8.82164364
Ce     0.01865142     4.40836128     5.56850920
Ce    -1.93600537     5.58869904     2.47426506
Ce     1.96625514     3.21212058     8.89462972
Ce     3.86149007     4.47907700     5.68158117
Ce     1.93588921     5.58869904     2.47426506
Ce     5.80379349     3.36520672     8.80751816
Ce     7.75130624     4.48291469     5.63371397
Ce     5.80789995     5.58869904     2.47426506
Ce     7.71171184     6.70792168     8.82108947
Ce    -1.97434919     7.84215537     5.57466324
Ce    -3.87195266     8.94185811     2.47426506
Ce     1.99350039     7.83959977     5.57393271
Ce    -0.00005808     8.94185811     2.47426506
Ce     3.96338449     6.76791406     8.86251013
Ce     5.80909986     7.83053721     5.64172757
Ce     3.87195266     8.94185811     2.47426506
Ti     0.02019438     6.72041703     8.06533674
O     11.61200698     0.00599973     6.39858501
O     -0.17479829     2.32994641     9.57638223
O      1.93594729     1.11771969     3.26466483
O     -0.00094022     2.22410750     4.79774490
O      0.00000000     0.00000000     1.68386529
O      2.00846912     1.07963469     8.01405523
O     -1.92300599     9.96207496     6.48115694
O      4.02325407     2.15054681     9.65832655
O      5.80795803     1.11771969     3.26466483
O      3.86955286     2.22240842     4.86308767
O      3.87189458     0.00000000     1.68386529
O      5.83294745     1.13777010     7.91797742
O      1.93771028     9.95709331     6.45176216
O      7.72224785     2.27187446     9.60988030
O      9.67985261     1.11771969     3.26466483
O      7.75261458     2.23629993     4.85993229
O      7.74390532     0.00000000     1.68386529
O      9.58584964     1.15713748     7.92435957
O     -1.82920799     3.38955580     6.46479522
O     -2.26426339     5.34961875    10.18341081
O      0.00000000     4.47087876     3.26466483
O     -1.95096128     5.57165185     4.80039788
O      9.67985261     3.35315907     1.68386529
O      0.04105901     4.89887727     8.19064523
O      1.86352468     3.35266837     6.44212460
O      3.87201074     4.47087876     3.26466483
O      1.95670012     5.57054458     4.80780942
O      1.93594729     3.35315907     1.68386529
O      3.82658926     4.49306175     8.06668682
O      5.79754578     3.39159258     6.45623707
O      5.95160303     5.53783961     9.64689028
O      7.74390532     4.47087876     3.26466483
O      5.81757649     5.59579689     4.83979811
O      5.80795803     3.35315907     1.68386529
O      7.82244344     4.49668251     7.94911884
O     -3.83170513     6.75500200     6.44948135
O     -3.67587434     8.79320829     9.57816848
O     -1.93600537     7.82413842     3.26466483
O     -3.87127888     8.94945761     4.80823108
O      7.74384724     6.70641873     1.68386529
O     -1.64075751     7.55018349     8.08729356
O      0.00595231     6.69679593     6.22399688
O      0.03737750     9.23410670     9.80444322
O      1.93600537     7.82413842     3.26466483
O      0.00323793     8.95636928     4.79435050
O     -0.00005808     6.70641873     1.68386529
O      1.66615814     7.57009833     8.06601511
O      3.85402769     6.75378970     6.40998216
O      3.68987294     9.02513049     9.59391758
O      5.80789995     7.82413842     3.26466483
O      3.87927900     8.95353190     4.79648931
O      3.87195266     6.70641873     1.68386529
O      5.84415788     7.79246946     7.99324502
O      1.65425321     4.98899841    11.38241087
N      0.44238533     6.68078509    10.76228753
N      1.63082482     6.19235400    11.02559845
H      0.35812197     7.73302099    10.53355989
H     -0.39082045     6.06311438    10.86806035
H     -2.58454881     5.18894900    11.08736465
