87
CIF: 4-NHNO+2H-N2+H2O+H_is.cif | data_image0
Ce     0.08501535     0.00113404     8.80808084
Ce     1.95624685     1.10423171     5.61986542
Ce     0.01230711     2.24747708     2.51607187
Ce     3.84325504     0.01717551     8.81436907
Ce     5.81698687     1.10360760     5.65415274
Ce     3.87768038     2.22755921     2.51254831
Ce     7.78598765     0.00828936     8.76042376
Ce     9.71137966     1.09606288     5.63661616
Ce     7.77045422     2.22319090     2.52892600
Ce    -1.84455997     3.30240132     8.75514247
Ce     0.02709901     4.45394971     5.71224606
Ce    -1.91026203     5.56813836     2.51908838
Ce     1.95337054     3.27636446     8.80330259
Ce     3.88575173     4.47223640     5.69420568
Ce     1.93739079     5.59108130     2.53486736
Ce     5.85347820     3.32001221     8.82693409
Ce     7.76456912     4.45610148     5.66540246
Ce     5.82145609     5.56697388     2.51306167
Ce     7.68429544     6.68458392     8.80593190
Ce    -1.94520456     7.83313725     5.58487330
Ce    -3.88076279     8.92792131     2.48139410
Ce     1.98541232     7.81335315     5.75513451
Ce     0.03277690     8.92809324     2.51486273
Ce     3.88323036     6.63717812     9.07561820
Ce     5.79230105     7.78876310     5.67888253
Ce     3.87877650     8.91255563     2.51984275
Ti    -0.56044071     6.98956526     8.59597326
O     -5.76383064    10.03783525     6.44357250
O      0.03200807     2.17138004     9.60803525
O      1.93986991     1.12079264     3.28652444
O      0.01986695     2.23298183     4.84893935
O      5.82861091    10.01672616     1.73498121
O      1.96727527     1.08964146     7.98180261
O      3.88898015     0.00647350     6.44365684
O      3.88384034     2.14899943     9.62635902
O      5.83950542     1.10788786     3.32032222
O      3.90352958     2.22307159     4.83757411
O      3.88927392     0.00461820     1.74124902
O      5.81922652     1.03828792     8.07491912
O      7.73988462     0.04311021     6.43770589
O      7.80299224     2.20054743     9.55338440
O      9.69671179     1.10395570     3.30865034
O      7.75864223     2.23661490     4.84297932
O      1.94987920    10.03430512     1.74024649
O      9.72280553     1.06471028     7.98170362
O      9.69511629     3.31325415     6.44780749
O     -1.74762893     5.84242850     9.44731543
O      0.00591302     4.47796403     3.33234156
O     -1.89506298     5.60890225     4.88953452
O     -1.89897646     3.34186248     1.73436444
O      0.03129056     4.32001213     7.98144254
O      1.97692666     3.31654423     6.43925146
O      1.89070483     5.30556232     9.92047170
O      3.84995503     4.46948314     3.31964258
O      1.88161193     5.60778915     4.92820721
O      1.92474814     3.35501092     1.73405542
O      3.86794071     4.40094832     8.06534934
O      5.84372494     3.32139295     6.51317679
O      6.01002810     5.44832724     9.63146994
O      7.79973142     4.45259925     3.30509613
O      5.84408832     5.52792673     4.84026908
O      5.81737536     3.36000146     1.76002101
O      7.86049353     4.45459708     8.01793965
O      7.70211058     6.68572394     6.46347684
O     -3.84351626     8.96748513     9.62508443
O     -1.91970631     7.79808059     3.27147320
O     -3.84911856     8.92286382     4.81549516
O      7.74180816     6.68883545     1.73045147
O     -2.07097278     7.86819637     7.91562836
O     -0.04548746     6.76789589     6.73371281
O     -0.16007295     8.57984146     9.45005545
O      1.96183434     7.80811270     3.34048407
O      0.00611008     8.89228356     4.86549233
O      0.03731505     6.70128517     1.73643398
O      2.17201320     7.99491272     8.03813145
O      3.91439536     6.65539811     6.39151396
O      3.94885590     9.24039516     9.94668671
O      5.80395834     7.78899996     3.31901585
O      3.87939585     8.93785205     4.87814087
O      3.86966501     6.69904074     1.73831477
O      5.80609938     7.84940707     8.08951767
O      3.63308666     6.74868653    11.52999841
N      3.99384039     7.89915818    13.42160181
N      3.88301253     7.89342925    12.17532123
H      3.86526932     6.91672059    13.76737048
H      3.95024040     8.94994322    10.93799137
H      1.92978869     5.54469400    10.86784691
