85
CIF: NH3.cif | data_image0
Ce     0.00380481     0.00979821     8.80390299
Ce     1.93758208     1.11718114     5.60459969
Ce     0.00000000     2.23543938     2.47426506
Ce    -1.97204936    10.03393167     8.73870959
Ce     5.80612349     1.11915973     5.62680302
Ce     3.87189458     2.23543938     2.47426506
Ce     1.99007710    10.04077317     8.73602477
Ce     9.67990681     1.11726676     5.60215071
Ce     7.74390532     2.23543938     2.47426506
Ce    -1.90278635     3.32730756     8.72724085
Ce    -0.00149385     4.46345468     5.62773454
Ce    -1.93600537     5.58869904     2.47426506
Ce     1.88147627     3.32763775     8.73212528
Ce     3.87509463     4.47588504     5.62843364
Ce     1.93588921     5.58869904     2.47426506
Ce     5.81032592     3.34994047     8.80829606
Ce     7.73871637     4.46779088     5.62315373
Ce     5.80789995     5.58869904     2.47426506
Ce    -3.85544206     6.74264961     8.73399428
Ce    -1.93848653     7.82837714     5.63200252
Ce    -3.87195266     8.94185811     2.47426506
Ce     1.95056329     7.82215820     5.64728934
Ce    -0.00005808     8.94185811     2.47426506
Ce     3.90004220     6.75626164     8.77849784
Ce     5.80432480     7.82259005     5.60988766
Ce     3.87195266     8.94185811     2.47426506
Ti    -0.05918542     6.72223200     8.70919189
O     -5.80351883    10.05634373     6.41790557
O      0.00775285     2.19492152     9.64101962
O      1.93594729     1.11771969     3.26466483
O      0.00511357     2.24402439     4.81632413
O      0.00000000     0.00000000     1.68386529
O      1.92884320     1.11822878     7.96860060
O      3.88308211     0.06003657     6.40102535
O      3.86606468     2.23431915     9.56177301
O      5.80795803     1.11771969     3.26466483
O      3.89499968     2.24690921     4.79632877
O      3.87189458     0.00000000     1.68386529
O      5.80926222     1.04353213     8.05311767
O      7.72901176     0.05860494     6.40053229
O      7.75376021     2.22926560     9.56177808
O      9.67985261     1.11771969     3.26466483
O      7.71240385     2.24531612     4.79727152
O      7.74390532     0.00000000     1.68386529
O      9.69305461     1.12509057     7.95522399
O      9.61181054     3.33201880     6.37440659
O     -1.61215049     5.78709227     9.32357744
O      0.00000000     4.47087876     3.26466483
O     -1.90076294     5.61401389     4.84116695
O     -1.93594729     3.35315907     1.68386529
O     -0.01817433     4.13499234     7.83327090
O      2.00755329     3.33748577     6.40179692
O      1.43914427     5.79897107     9.33322603
O      3.87201074     4.47087876     3.26466483
O      1.89764910     5.60767235     4.84040735
O      1.93594729     3.35315907     1.68386529
O      3.79295735     4.53716657     8.08781460
O      5.79164986     3.35473995     6.50526458
O      5.87012216     5.57400744     9.56053016
O      7.74390532     4.47087876     3.26466483
O      5.81515635     5.55907252     4.79528474
O      5.80795803     3.35315907     1.68386529
O      7.81024710     4.49024510     8.02607242
O      7.69701673     6.66995273     6.40363751
O     -3.88985643     8.96348729     9.62329037
O     -1.93600537     7.82413842     3.26466483
O     -3.86191629     8.93669809     4.81681171
O     -3.87195266     6.70641873     1.68386529
O     -2.15813077     7.95833875     7.85999672
O      0.01043057     6.70499212     6.71529929
O      0.00143892     8.51774697     9.33972174
O      1.93600537     7.82413842     3.26466483
O      0.00150353     8.89970328     4.84535224
O     -0.00005808     6.70641873     1.68386529
O      2.24312258     7.97745332     7.87530639
O      3.92553115     6.65910700     6.37030303
O      3.92225926     9.04324640     9.66258289
O      5.80789995     7.82413842     3.26466483
O      3.86335817     8.94055232     4.81896436
O      3.87195266     6.70641873     1.68386529
O      5.79884901     7.83353634     7.98867465
N      3.45937952     6.61787899    11.37455707
H      3.58689850     7.57629134    11.71252230
H      4.03468967     5.98407117    11.93252001
H      2.47086820     6.35742080    11.45588283
