83
CIF: Cr-Fe-CeO2-Ov-O2.cif | data_image0
Ce     1.93038582     1.11050507     0.88387043
Ce    -0.03165738     2.22879958     4.03113169
Ce     5.81183156    10.04490183     7.21074155
Ce     5.81181033     1.12175166     0.90127712
Ce     3.83519748     2.21008514     3.98507660
Ce    -1.97174181    10.04054412     7.27475740
Ce     9.66901012     1.12377363     0.90450652
Ce     7.72050448     2.25623155     4.03752603
Ce     2.04926201     9.92051459     7.25040966
Ce    -0.00709724     4.47602159     0.89067279
Ce    -1.95235182     5.58729441     4.11206540
Ce    -1.84734263     3.31940840     7.31524136
Ce     3.86254305     4.47635356     0.87798423
Ce     1.95072475     5.58529751     4.08546443
Ce     1.80991436     3.29624662     7.19603066
Ce     7.74213807     4.46545905     0.90125422
Ce     5.81232206     5.63586177     3.99517432
Ce    -1.94645625     7.83004003     0.90010904
Ce    -3.86287712     8.94563555     4.04966835
Ce    -3.83171994     6.83249860     7.27506550
Ce     1.92815559     7.82745473     0.89060408
Ce     0.00053221     8.96316149     4.08961775
Ce     0.00671984     6.70306449     7.27187322
Ce     5.81127600     7.83258510     0.88371011
Ce     3.87580292     8.94371808     4.02867202
Ce     3.91607212     6.78614947     7.29385109
Fe     5.06047645     3.78798338     6.49539999
Cr     6.58206056     2.76696926     8.22850294
O     11.61334069     0.00154917     0.10141687
O      1.91879628     1.11666640     3.21092503
O     -0.00064336     2.23246757     6.36594616
O     -0.00785227     2.23805103     1.69392277
O      5.80501276    10.05524812     4.82517793
O      1.84616702     1.22779514     8.03062837
O     -1.93899312    10.05733740     0.10496691
O      5.81098870     1.12839334     3.23434195
O      3.99674893     2.32899983     6.41889896
O      3.86763657     2.23577757     1.68132582
O      3.87335047     0.03216653     4.82476294
O      6.38595754     1.19174683     8.77745483
O      7.73821774     0.00761509     0.10924988
O      9.66907758     1.11985263     3.21520681
O      7.37914823     2.35954481     6.71765299
O      7.74357843     2.23531483     1.71563532
O      7.77922838     0.11424330     4.89690621
O      9.67122614     0.96864637     7.98560773
O      9.67032270     3.35425987     0.10911246
O     -0.01924799     4.47763224     3.28263395
O     -1.95313363     5.54834551     6.45054494
O     -1.94403436     5.59119430     1.70564938
O      9.57629866     3.28110058     4.87667998
O      0.10467389     4.47696454     8.09313771
O      1.92738314     3.35244915     0.09928684
O      3.84334550     4.47347812     3.20640350
O      2.00361547     5.48693861     6.45922141
O      1.92862022     5.59252216     1.67404250
O      1.93744434     3.31052148     4.84317681
O      5.81155478     3.35101064     0.10766953
O      7.73058632     4.47534185     3.23781958
O      5.87732344     5.38493994     6.47411680
O      5.80528807     5.59217007     1.68114259
O      5.74492139     3.38777185     4.78889029
O      7.77895215     3.71362041     8.88202610
O     -3.87155109     6.71022987     0.10512724
O     -1.91787807     7.81882944     3.27224936
O     -3.85264135     8.98936260     6.39734069
O     -3.87509971     8.94378428     1.69355631
O      7.70904508     6.72535228     4.82864609
O     -1.77327694     7.77752074     8.09089951
O     -0.01209783     6.71325780     0.10434852
O      1.92581408     7.83909900     3.27200198
O      0.08319729     9.05887398     6.44892419
O     -0.00628994     8.94736548     1.70514550
O      0.01960543     6.72496582     4.92869969
O      1.89387510     7.84906342     8.08025234
O      3.86815347     6.71410280     0.09951587
O      5.80588274     7.84023350     3.20752158
O      3.86615503     8.92438316     6.34554278
O      3.86556896     8.94715423     1.69389986
O      3.91606449     6.68509454     4.82347997
O      5.82390037     7.99399742     8.08184224
O      4.18914139     4.22812868     8.11922342
O      5.09836220     3.52539138     9.00921395
