85
CIF: Cr-Fe-CeO2-O-CO.cif | data_image0
Ce     1.93038582     1.11050507     0.88387043
Ce    -0.00333837     2.22724966     4.01540831
Ce    -5.76643740    10.03791199     7.22525046
Ce     5.81181033     1.12175166     0.90127712
Ce     3.84150854     2.21613315     3.99505953
Ce    -1.93658514    10.05820871     7.30087114
Ce     9.66901012     1.12377363     0.90450652
Ce     7.74274214     2.23905685     4.03498321
Ce     2.04726804     9.91768151     7.21591827
Ce    -0.00709724     4.47602159     0.89067279
Ce    -1.95555510     5.59039032     4.08661992
Ce    -1.75223469     3.32157571     7.22912028
Ce     3.86254305     4.47635356     0.87798423
Ce     1.93467270     5.59780406     4.07607731
Ce     1.87305973     3.32672822     7.20440906
Ce     7.74213807     4.46545905     0.90125422
Ce     5.80162708     5.62644612     4.02010856
Ce    -1.94645625     7.83004003     0.90010904
Ce    -3.85908112     8.93737491     4.07445774
Ce    -3.85279597     6.76045809     7.31855441
Ce     1.92815559     7.82745473     0.89060408
Ce    -0.01039008     8.96140227     4.07543561
Ce    -0.00990240     6.72925827     7.24643131
Ce     5.81127600     7.83258510     0.88371011
Ce     3.88138237     8.93519367     4.03617600
Ce     3.87775413     6.76315539     7.31786730
Fe     4.93289975     3.83953249     6.54441965
Cr     6.81637305     2.78488407     7.95480329
O     11.61334069     0.00154917     0.10141687
O      1.92554489     1.11687922     3.21365977
O      0.01330612     2.24350152     6.35400396
O     -0.00785227     2.23805103     1.69392277
O     -5.79908183    10.05799872     4.83671797
O      1.85829845     1.22978503     8.03268084
O     -1.93899312    10.05733740     0.10496691
O      5.82023972     1.15328724     3.24159035
O      3.95540372     2.31283999     6.40004652
O      3.86763657     2.23577757     1.68132582
O      3.87946280     0.02723763     4.82278325
O      6.17998820     1.24514155     8.50954331
O      7.73821774     0.00761509     0.10924988
O      9.67224882     1.12273824     3.22326690
O      7.72117137     2.26480188     6.49257285
O      7.74357843     2.23531483     1.71563532
O      7.77106793     0.05643283     4.85663913
O      9.72139346     1.11899096     7.99528079
O      9.67032270     3.35425987     0.10911246
O     -0.01022587     4.48316864     3.26096001
O     -1.93561821     5.46660744     6.46948252
O     -1.94403436     5.59119430     1.70564938
O      9.65000640     3.30431949     4.86082166
O      0.03109166     4.39146108     8.09078624
O      1.92738314     3.35244915     0.09928684
O      3.85873622     4.47415716     3.20991012
O      1.85376652     5.56948254     6.41493836
O      1.92862022     5.59252216     1.67404250
O      1.94171524     3.33071766     4.84288711
O      5.81155478     3.35101064     0.10766953
O      7.71964186     4.45054849     3.25280786
O      5.81999536     5.41009379     6.47597842
O      5.80528807     5.59217007     1.68114259
O      5.73228450     3.38837542     4.89832386
O      7.86937459     4.06034042     8.54094372
O     -3.87155109     6.71022987     0.10512724
O     -1.94008326     7.82003571     3.25287018
O     -3.84594621     8.96828285     6.41667968
O     -3.87509971     8.94378428     1.69355631
O      7.72395929     6.69475996     4.85409645
O     -1.77627130     7.75283826     8.08388516
O     -0.01209783     6.71325780     0.10434852
O      1.92207702     7.82727781     3.26038176
O      0.08607938     9.02883660     6.43265084
O     -0.00628994     8.94736548     1.70514550
O     -0.04951611     6.74195816     4.89267817
O      1.87887507     7.88559281     8.10037242
O      3.86815347     6.71410280     0.09951587
O      5.81074248     7.83061831     3.22274393
O      3.87713957     8.96820383     6.37128238
O      3.86556896     8.94715423     1.69389986
O      3.89545358     6.69923093     4.83450501
O      5.81997735     7.98636525     8.09653705
O      3.90211225     4.34864481     7.90937802
O      5.41103416     3.69448020    10.49183063
O      5.42290913     3.63381036    12.84344650
C      5.42090519     3.66114034    11.66819249
