     166
 i =     2650, time =     2650.000, E =     -6045.7846087707
  O         0.0000000000        0.0000000000        0.0000000000
  O         3.8260000000        0.0000000000        0.0000000000
  O         7.6520000000        0.0000000000        0.0000000000
  O        11.4780000000        0.0000000000        0.0000000000
  O        -1.9130000000        3.3140000000        0.0000000000
  O         1.9130000000        3.3140000000        0.0000000000
  O         5.7390000000        3.3140000000        0.0000000000
  O         9.5650000000        3.3140000000        0.0000000000
  O        -3.8260000000        6.6270000000        0.0000000000
  O         0.0000000000        6.6270000000        0.0000000000
  O         3.8260000000        6.6270000000        0.0000000000
  O         7.6520000000        6.6270000000        0.0000000000
  O        -5.7390000000        9.9410000000        0.0000000000
  O        -1.9130000000        9.9410000000        0.0000000000
  O         1.9130000000        9.9410000000        0.0000000000
  O         5.7390000000        9.9410000000        0.0000000000
  O         1.9130000000        1.1050000000        1.5620000000
  O         5.7390000000        1.1050000000        1.5620000000
  O         9.5650000000        1.1050000000        1.5620000000
  O        13.3920000000        1.1050000000        1.5620000000
  O         0.0000000000        4.4180000000        1.5620000000
  O         3.8260000000        4.4180000000        1.5620000000
  O         7.6520000000        4.4180000000        1.5620000000
  O        11.4780000000        4.4180000000        1.5620000000
  O        -1.9130000000        7.7320000000        1.5620000000
  O         1.9130000000        7.7320000000        1.5620000000
  O         5.7390000000        7.7320000000        1.5620000000
  O         9.5650000000        7.7320000000        1.5620000000
  O        -3.8260000000       11.0450000000        1.5620000000
  O         0.0000000000       11.0450000000        1.5620000000
  O         3.8260000000       11.0450000000        1.5620000000
  O         7.6520000000       11.0450000000        1.5620000000
  O         0.0000000000        2.2090000000        3.1240000000
  O         3.8260000000        2.2090000000        3.1240000000
  O         7.6520000000        2.2090000000        3.1240000000
  O        11.4780000000        2.2090000000        3.1240000000
  O        -1.9130000000        5.5230000000        3.1240000000
  O         1.9130000000        5.5230000000        3.1240000000
  O         5.7390000000        5.5230000000        3.1240000000
  O         9.5650000000        5.5230000000        3.1240000000
  O        -3.8260000000        8.8360000000        3.1240000000
  O         0.0000000000        8.8360000000        3.1240000000
  O         3.8260000000        8.8360000000        3.1240000000
  O         7.6520000000        8.8360000000        3.1240000000
  O        -5.7390000000       12.1500000000        3.1240000000
  O        -1.9130000000       12.1500000000        3.1240000000
  O         1.9130000000       12.1500000000        3.1240000000
  O         5.7390000000       12.1500000000        3.1240000000
  O        -0.0318999700       -0.0800590222        4.8389616724
  O         3.9245418759       -0.1957979203        4.9140864522
  O         7.7457821709        0.0332112887        4.7760631881
  O        11.2652007183       -0.0282513499        4.8208493334
  O        -1.9748359748        3.3805802245        4.8875146640
  O         1.9167945231        3.3189923842        4.6547469608
  O         5.7118838586        3.4586208368        4.7379197382
  O         9.5013886173        3.2767893563        4.8427545256
  O        -3.7942036955        6.4563195881        4.6767074362
  O        -0.1417395529        6.4636204880        4.9106818127
  O         3.6322072810        6.8663571084        4.7007022730
  O         7.7099856909        6.7778129161        4.7657411047
  O        -5.6191766139       10.0376975698        4.6630249866
  O        -1.8006961746       10.0656495274        4.8046683685
  O         1.7625658103        9.9533473415        4.7100650735
  O         5.8496941676        9.8439956270        4.7185961873
  O         1.9722710623        0.8797520647        6.1681666241
  O         5.7603835503        1.1067828917        6.0982824219
  O         9.4969364625        1.1973963966        6.4128227416
  O        13.0650382153        1.1297804122        6.4356200908
  O        -0.0433520386        4.2402331039        6.4131157553
  O         3.7685656800        4.6199409620        6.2284964709
  O         7.6754795185        4.3547392884        6.2389742856
  O        11.3737635622        4.4391555993        6.3715179331
  O        -1.9080214724        8.0057720805        6.6012998606
  O         1.6761010454        7.9528889714        6.3884187120
  O         5.6570875136        7.9651948333        6.2256002302
  O         9.6829073880        7.8580545112        6.2598470134
  O        -3.9131250589       11.0972403997        6.5060591894
  O         0.0602875638       11.0139473225        6.4579189284
  O         3.7391031010       11.0348803986        6.3966473771
  O         7.5716948603       10.9807635503        6.3823124507
  O         0.0059475378        2.1085657649        7.6056723871
  O         3.8672754869        2.0166466260        7.7472187243
  O         7.6889885253        2.2224924152        8.3368636498
  O        11.1193512753        2.5830550052        8.3562780080
  O        -2.0342090732        5.3791524484        7.8546622683
  O         1.8139124966        5.6812148793        7.8773030400
  O         5.6171068638        5.8170211387        7.6207447202
  O         9.3791236810        5.5879439766        7.9282330260
  O        -4.0879724947        8.7615229897        8.3352463226
  O         0.0627535359        9.3414131809        8.4353070241
  O         3.7030425958        8.7053486889        7.9961688856
  O         7.9754348077        8.7786305508        8.0561879944
  O        -5.9240684202       12.0461735485        8.3073849490
  O        -1.8777577617       12.0888800531        7.9387730296
  O         1.8350991649       12.2700689107        8.1695154575
  O         5.7285830207       11.9850986786        7.9955022598
 Ce         0.0000000000        2.2090000000        0.7810000000
 Ce         3.8260000000        2.2090000000        0.7810000000
 Ce         7.6520000000        2.2090000000        0.7810000000
 Ce        11.4780000000        2.2090000000        0.7810000000
 Ce        -1.9130000000        5.5230000000        0.7810000000
 Ce         1.9130000000        5.5230000000        0.7810000000
 Ce         5.7390000000        5.5230000000        0.7810000000
 Ce         9.5650000000        5.5230000000        0.7810000000
 Ce        -3.8260000000        8.8360000000        0.7810000000
 Ce         0.0000000000        8.8360000000        0.7810000000
 Ce         3.8260000000        8.8360000000        0.7810000000
 Ce         7.6520000000        8.8360000000        0.7810000000
 Ce        -5.7390000000       12.1500000000        0.7810000000
 Ce        -1.9130000000       12.1500000000        0.7810000000
 Ce         1.9130000000       12.1500000000        0.7810000000
 Ce         5.7390000000       12.1500000000        0.7810000000
 Ce         1.8791231613        1.0848728960        3.9318385078
 Ce         5.8372667126        1.1772059877        3.9295315745
 Ce         9.6277281582        1.1684371873        4.0308632318
 Ce        13.2949291262        1.0404941516        3.9295701388
 Ce         0.0593992398        4.3210897588        4.1118401850
 Ce         3.7360970938        4.4894975217        3.9010047109
 Ce         7.6131195807        4.4498527425        3.8377873602
 Ce        11.5208294046        4.3701561161        3.8728930736
 Ce        -1.9596218277        7.7920623440        3.8766377216
 Ce         1.7605641868        7.7042250255        3.9563055773
 Ce         5.7267710200        7.7706367313        4.0726778201
 Ce         9.5897339991        7.7486326057        4.0456230374
 Ce        -3.6753623369       11.0557763355        3.9517148542
 Ce        -0.0512704357       11.0918122966        3.7374447454
 Ce         3.9525614236       10.9820253606        3.9376211920
 Ce         7.7280729542       11.0450435910        3.9330103190
 Ce        -0.1479889391       -0.2138989943        7.3936744594
 Ce         3.7716348337       -0.1108977631        7.0638604822
 Ce         7.6081181919       -0.1169357659        7.2829657084
 Ce        11.2204943867        0.2989718900        7.4399174331
 Ce        -2.0431616242        3.3420235385        7.2456174480
 Ce         1.8952896829        3.3192092222        7.2191094812
 Ce         5.7332227631        3.4465837964        6.9901402713
 Ce         9.5355964908        3.5419095382        7.1441490096
 Ce        -3.8763830924        6.7405507553        7.0698515867
 Ce        -0.2399031483        6.5202031887        7.1994695429
 Ce         3.6430377633        6.8272019814        6.9899243275
 Ce         7.6585617652        6.8289380321        7.0627074090
 Ce        -5.7220086692       10.0075953116        7.1190849086
 Ce        -1.7959824236       10.0458876364        7.4699875798
 Ce         1.8606056311       10.0254118243        7.0343508005
 Ce         5.6427447809       10.0946532811        7.1929217609
 Pt        12.6939155510        1.6276276754        9.7886201730
 Pt         0.7243995707        5.2388988353        9.4492232266
 Pt        -0.1611744538        7.7221686012       10.0849854732
 Pt         6.7431519544       13.3134797443       10.6387901783
 Pt        -0.2385602380        2.5891599468        9.7471432152
 Pt        -2.6100470036        7.8100266388        9.4220768872
 Pt         2.1634601559        2.9260316963       10.4708397129
 Pt         3.0688681906        5.5820688314       11.0408917154
 Pt         5.1717519402        4.7754419701        9.5877035151
 Pt         1.7151941847       -0.0309930205        9.9532882263
 Pt         3.9708154967        1.2666997107        9.7726368616
 Pt        -1.2054531774        5.7139536801       10.9935155691
 Pt         6.3476706641        2.3631239429        9.7419263678
 Pt         0.2117241949        3.8063202278       11.9099577402
 Pt         6.1037357168        1.6270851641       12.2318861610
 Pt         1.0276222392        6.4553477004       12.1905402687
 Pt         4.5502140442        3.6724275875       11.6585886574
 Pt         0.6729785648        4.4651531518       14.3563133073
 Pt         0.8677632005        1.0587825715       12.1897855253
 Pt         3.1733317215        5.2731933068       13.4858822493
 Pt         3.6844125707        1.0134010680       12.2819013360
 Pt         2.3174989782        2.7099857099       13.3185674061
     166
 i =     2651, time =     2651.000, E =     -6045.7841500413
  O         0.0000000000        0.0000000000        0.0000000000
  O         3.8260000000        0.0000000000        0.0000000000
  O         7.6520000000        0.0000000000        0.0000000000
  O        11.4780000000        0.0000000000        0.0000000000
  O        -1.9130000000        3.3140000000        0.0000000000
  O         1.9130000000        3.3140000000        0.0000000000
  O         5.7390000000        3.3140000000        0.0000000000
  O         9.5650000000        3.3140000000        0.0000000000
  O        -3.8260000000        6.6270000000        0.0000000000
  O         0.0000000000        6.6270000000        0.0000000000
  O         3.8260000000        6.6270000000        0.0000000000
  O         7.6520000000        6.6270000000        0.0000000000
  O        -5.7390000000        9.9410000000        0.0000000000
  O        -1.9130000000        9.9410000000        0.0000000000
  O         1.9130000000        9.9410000000        0.0000000000
  O         5.7390000000        9.9410000000        0.0000000000
  O         1.9130000000        1.1050000000        1.5620000000
  O         5.7390000000        1.1050000000        1.5620000000
  O         9.5650000000        1.1050000000        1.5620000000
  O        13.3920000000        1.1050000000        1.5620000000
  O         0.0000000000        4.4180000000        1.5620000000
  O         3.8260000000        4.4180000000        1.5620000000
  O         7.6520000000        4.4180000000        1.5620000000
  O        11.4780000000        4.4180000000        1.5620000000
  O        -1.9130000000        7.7320000000        1.5620000000
  O         1.9130000000        7.7320000000        1.5620000000
  O         5.7390000000        7.7320000000        1.5620000000
  O         9.5650000000        7.7320000000        1.5620000000
  O        -3.8260000000       11.0450000000        1.5620000000
  O         0.0000000000       11.0450000000        1.5620000000
  O         3.8260000000       11.0450000000        1.5620000000
  O         7.6520000000       11.0450000000        1.5620000000
  O         0.0000000000        2.2090000000        3.1240000000
  O         3.8260000000        2.2090000000        3.1240000000
  O         7.6520000000        2.2090000000        3.1240000000
  O        11.4780000000        2.2090000000        3.1240000000
  O        -1.9130000000        5.5230000000        3.1240000000
  O         1.9130000000        5.5230000000        3.1240000000
  O         5.7390000000        5.5230000000        3.1240000000
  O         9.5650000000        5.5230000000        3.1240000000
  O        -3.8260000000        8.8360000000        3.1240000000
  O         0.0000000000        8.8360000000        3.1240000000
  O         3.8260000000        8.8360000000        3.1240000000
  O         7.6520000000        8.8360000000        3.1240000000
  O        -5.7390000000       12.1500000000        3.1240000000
  O        -1.9130000000       12.1500000000        3.1240000000
  O         1.9130000000       12.1500000000        3.1240000000
  O         5.7390000000       12.1500000000        3.1240000000
  O        -0.0425003455       -0.0795929995        4.8465318947
  O         3.9248183183       -0.1895414209        4.9116301866
  O         7.7518509948        0.0354884160        4.7671998625
  O        11.2552414355       -0.0284703184        4.8264858018
  O        -1.9817226817        3.3759678025        4.8999955231
  O         1.9166874685        3.3119106459        4.6573641246
  O         5.7124199297        3.4585738052        4.7284661606
  O         9.4951755026        3.2822835119        4.8383481115
  O        -3.7820967862        6.4559518573        4.6740373432
  O        -0.1560022144        6.4463750958        4.9155396299
  O         3.6369430603        6.8543377019        4.6978250316
  O         7.7167191855        6.7832618875        4.7596744284
  O        -5.6142980018       10.0405948640        4.6707801898
  O        -1.8047158608       10.0724028216        4.8017423675
  O         1.7539377986        9.9435706637        4.7143990487
  O         5.8466828323        9.8440080971        4.7209497672
  O         1.9734662674        0.8863438100        6.1621175025
  O         5.7556628328        1.0997454232        6.0898358164
  O         9.4853452534        1.1983858856        6.4273514969
  O        13.0587253251        1.1175074056        6.4238830584
  O        -0.0481004649        4.2381163830        6.4193900288
  O         3.7733469702        4.6257177472        6.2258368298
  O         7.6701022630        4.3445766319        6.2337133208
  O        11.3795864128        4.4392546341        6.3761772894
  O        -1.9034234531        8.0030441067        6.6085022001
  O         1.6791356074        7.9475469828        6.3813984566
  O         5.6511705535        7.9567518060        6.2323811736
  O         9.6918354795        7.8666787512        6.2556953155
  O        -3.9135444598       11.0975902648        6.5145554667
  O         0.0694416196       10.9985005013        6.4584246892
  O         3.7416029082       11.0415247949        6.3934980097
  O         7.5678742760       10.9747979482        6.3888227498
  O         0.0105939169        2.1073263747        7.6050418541
  O         3.8651710753        2.0114967229        7.7615971781
  O         7.6835319851        2.2196833197        8.3324207133
  O        11.1171077295        2.5862841177        8.3523412607
  O        -2.0413108316        5.3770115714        7.8494520852
  O         1.8155890692        5.6748129615        7.8729506109
  O         5.6297092807        5.8144650324        7.6244741289
  O         9.3787165893        5.5954839037        7.9197237201
  O        -4.0900377194        8.7600881937        8.3475705861
  O         0.0745283368        9.3355784907        8.4306747310
  O         3.7093813230        8.6961815364        8.0041131375
  O         7.9720784539        8.7854465018        8.0495140220
  O        -5.9345141883       12.0607521465        8.3049664896
  O        -1.8781962481       12.0998152195        7.9503708096
  O         1.8371361620       12.2663063603        8.1669279395
  O         5.7403056933       11.9849884046        7.9883457357
 Ce         0.0000000000        2.2090000000        0.7810000000
 Ce         3.8260000000        2.2090000000        0.7810000000
 Ce         7.6520000000        2.2090000000        0.7810000000
 Ce        11.4780000000        2.2090000000        0.7810000000
 Ce        -1.9130000000        5.5230000000        0.7810000000
 Ce         1.9130000000        5.5230000000        0.7810000000
 Ce         5.7390000000        5.5230000000        0.7810000000
 Ce         9.5650000000        5.5230000000        0.7810000000
 Ce        -3.8260000000        8.8360000000        0.7810000000
 Ce         0.0000000000        8.8360000000        0.7810000000
 Ce         3.8260000000        8.8360000000        0.7810000000
 Ce         7.6520000000        8.8360000000        0.7810000000
 Ce        -5.7390000000       12.1500000000        0.7810000000
 Ce        -1.9130000000       12.1500000000        0.7810000000
 Ce         1.9130000000       12.1500000000        0.7810000000
 Ce         5.7390000000       12.1500000000        0.7810000000
 Ce         1.8825965154        1.0875567499        3.9350435866
 Ce         5.8370242937        1.1763180637        3.9296503582
 Ce         9.6290710401        1.1675248889        4.0289279308
 Ce        13.2947021577        1.0414028604        3.9283554164
 Ce         0.0593069679        4.3191673019        4.1149683244
 Ce         3.7382057317        4.4887472370        3.8980434734
 Ce         7.6167403624        4.4524489747        3.8396090906
 Ce        11.5189130812        4.3691519018        3.8763468661
 Ce        -1.9572645352        7.7929810080        3.8765020793
 Ce         1.7606248626        7.7086801033        3.9572917017
 Ce         5.7267358963        7.7729331800        4.0734467904
 Ce         9.5906771506        7.7483866372        4.0443598401
 Ce        -3.6766013375       11.0582598745        3.9523561665
 Ce        -0.0476233995       11.0890677950        3.7376264149
 Ce         3.9525527731       10.9828784334        3.9383778648
 Ce         7.7284442463       11.0464676832        3.9315886389
 Ce        -0.1471686444       -0.2135358875        7.3930925217
 Ce         3.7707625897       -0.1122212961        7.0622812364
 Ce         7.6061987658       -0.1172538558        7.2830900589
 Ce        11.2236901221        0.2968202295        7.4385241363
 Ce        -2.0443516384        3.3429469344        7.2471473700
 Ce         1.8984125658        3.3197308850        7.2177224491
 Ce         5.7323229946        3.4476077329        6.9897529600
 Ce         9.5305196040        3.5383560792        7.1391890350
 Ce        -3.8770633476        6.7441652954        7.0694231131
 Ce        -0.2449844005        6.5219576981        7.1992293280
 Ce         3.6424243100        6.8244819398        6.9896965142
 Ce         7.6541946197        6.8280487344        7.0611930814
 Ce        -5.7244100077       10.0074812147        7.1152117202
 Ce        -1.7949722384       10.0491306168        7.4655624106
 Ce         1.8628272718       10.0275264277        7.0335832247
 Ce         5.6384740488       10.0937180334        7.1940791570
 Pt        12.6960434688        1.6276755093        9.7873782668
 Pt         0.7207711424        5.2371479256        9.4492589431
 Pt        -0.1634966879        7.7198025465       10.0845209517
 Pt         6.7412445384       13.3136114038       10.6389048500
 Pt        -0.2373546248        2.5869317582        9.7459504997
 Pt        -2.6092529552        7.8111192084        9.4212423013
 Pt         2.1643458847        2.9263330396       10.4659451854
 Pt         3.0679058003        5.5826809207       11.0398200332
 Pt         5.1695368557        4.7759608406        9.5866560315
 Pt         1.7142692845       -0.0310451654        9.9521600507
 Pt         3.9716654775        1.2674377760        9.7734388838
 Pt        -1.2062170784        5.7119841536       10.9882966273
 Pt         6.3472477448        2.3641993951        9.7409592543
 Pt         0.2079801241        3.8031170294       11.9143627364
 Pt         6.1040135662        1.6286936792       12.2314284649
 Pt         1.0307627958        6.4557130655       12.1877999625
 Pt         4.5463981585        3.6753528251       11.6575270665
 Pt         0.6716083379        4.4624654863       14.3562287914
 Pt         0.8686493231        1.0625907715       12.1879816672
 Pt         3.1719630954        5.2721817540       13.4886913207
 Pt         3.6822630285        1.0104065630       12.2809842585
 Pt         2.3152406868        2.7088236020       13.3199687486
     166
 i =     2652, time =     2652.000, E =     -6045.7835152558
  O         0.0000000000        0.0000000000        0.0000000000
  O         3.8260000000        0.0000000000        0.0000000000
  O         7.6520000000        0.0000000000        0.0000000000
  O        11.4780000000        0.0000000000        0.0000000000
  O        -1.9130000000        3.3140000000        0.0000000000
  O         1.9130000000        3.3140000000        0.0000000000
  O         5.7390000000        3.3140000000        0.0000000000
  O         9.5650000000        3.3140000000        0.0000000000
  O        -3.8260000000        6.6270000000        0.0000000000
  O         0.0000000000        6.6270000000        0.0000000000
  O         3.8260000000        6.6270000000        0.0000000000
  O         7.6520000000        6.6270000000        0.0000000000
  O        -5.7390000000        9.9410000000        0.0000000000
  O        -1.9130000000        9.9410000000        0.0000000000
  O         1.9130000000        9.9410000000        0.0000000000
  O         5.7390000000        9.9410000000        0.0000000000
  O         1.9130000000        1.1050000000        1.5620000000
  O         5.7390000000        1.1050000000        1.5620000000
  O         9.5650000000        1.1050000000        1.5620000000
  O        13.3920000000        1.1050000000        1.5620000000
  O         0.0000000000        4.4180000000        1.5620000000
  O         3.8260000000        4.4180000000        1.5620000000
  O         7.6520000000        4.4180000000        1.5620000000
  O        11.4780000000        4.4180000000        1.5620000000
  O        -1.9130000000        7.7320000000        1.5620000000
  O         1.9130000000        7.7320000000        1.5620000000
  O         5.7390000000        7.7320000000        1.5620000000
  O         9.5650000000        7.7320000000        1.5620000000
  O        -3.8260000000       11.0450000000        1.5620000000
  O         0.0000000000       11.0450000000        1.5620000000
  O         3.8260000000       11.0450000000        1.5620000000
  O         7.6520000000       11.0450000000        1.5620000000
  O         0.0000000000        2.2090000000        3.1240000000
  O         3.8260000000        2.2090000000        3.1240000000
  O         7.6520000000        2.2090000000        3.1240000000
  O        11.4780000000        2.2090000000        3.1240000000
  O        -1.9130000000        5.5230000000        3.1240000000
  O         1.9130000000        5.5230000000        3.1240000000
  O         5.7390000000        5.5230000000        3.1240000000
  O         9.5650000000        5.5230000000        3.1240000000
  O        -3.8260000000        8.8360000000        3.1240000000
  O         0.0000000000        8.8360000000        3.1240000000
  O         3.8260000000        8.8360000000        3.1240000000
  O         7.6520000000        8.8360000000        3.1240000000
  O        -5.7390000000       12.1500000000        3.1240000000
  O        -1.9130000000       12.1500000000        3.1240000000
  O         1.9130000000       12.1500000000        3.1240000000
  O         5.7390000000       12.1500000000        3.1240000000
  O        -0.0535827673       -0.0789227803        4.8538069154
  O         3.9250380723       -0.1830378257        4.9078668951
  O         7.7576492256        0.0374504316        4.7582958732
  O        11.2463037918       -0.0287081676        4.8319145772
  O        -1.9884747634        3.3708985545        4.9118787740
  O         1.9166539660        3.3047304852        4.6607652620
  O         5.7128874536        3.4582526925        4.7189553579
  O         9.4894190684        3.2880541078        4.8332276054
  O        -3.7699607375        6.4568642491        4.6719415610
  O        -0.1701529966        6.4297771548        4.9199927885
  O         3.6420523957        6.8417075066        4.6952010114
  O         7.7231861153        6.7881949621        4.7540396141
  O        -5.6098385669       10.0432024338        4.6791076395
  O        -1.8092645614       10.0786718420        4.7986483530
  O         1.7459714752        9.9338032777        4.7185818776
  O         5.8431706712        9.8453808537        4.7234564143
  O         1.9744458405        0.8933313061        6.1565728744
  O         5.7512637209        1.0930136553        6.0824845926
  O         9.4739425949        1.1993367435        6.4425315448
  O        13.0522926280        1.1050981205        6.4123172320
  O        -0.0524027555        4.2366484865        6.4254890401
  O         3.7778143005        4.6306996558        6.2232821575
  O         7.6641651428        4.3349873935        6.2286120696
  O        11.3854080789        4.4395262006        6.3806658140
  O        -1.8991066605        7.9996904032        6.6147051128
  O         1.6819857041        7.9414486635        6.3740277106
  O         5.6455737598        7.9479920751        6.2398348083
  O         9.7006573965        7.8751956917        6.2514325575
  O        -3.9137379948       11.0967545045        6.5230063532
  O         0.0778593859       10.9837895917        6.4587439571
  O         3.7446807076       11.0482007248        6.3900615228
  O         7.5644599700       10.9688939087        6.3953251163
  O         0.0151474438        2.1055178050        7.6048996345
  O         3.8629209526        2.0069839000        7.7763252486
  O         7.6780683970        2.2167107714        8.3270390634
  O        11.1157118015        2.5885685805        8.3487611664
  O        -2.0485132780        5.3755220208        7.8441703182
  O         1.8178543774        5.6680741276        7.8677295865
  O         5.6428037577        5.8114488987        7.6290669681
  O         9.3784382507        5.6036841848        7.9110154303
  O        -4.0917737823        8.7586309835        8.3596330506
  O         0.0862560561        9.3290598097        8.4266518855
  O         3.7159574806        8.6876870465        8.0118834378
  O         7.9681016095        8.7921310057        8.0424694570
  O        -5.9447246461       12.0749899317        8.3019396139
  O        -1.8786407840       12.1112336683        7.9622443698
  O         1.8392392392       12.2628956327        8.1639379806
  O         5.7515996911       11.9853088820        7.9818518405
 Ce         0.0000000000        2.2090000000        0.7810000000
 Ce         3.8260000000        2.2090000000        0.7810000000
 Ce         7.6520000000        2.2090000000        0.7810000000
 Ce        11.4780000000        2.2090000000        0.7810000000
 Ce        -1.9130000000        5.5230000000        0.7810000000
 Ce         1.9130000000        5.5230000000        0.7810000000
 Ce         5.7390000000        5.5230000000        0.7810000000
 Ce         9.5650000000        5.5230000000        0.7810000000
 Ce        -3.8260000000        8.8360000000        0.7810000000
 Ce         0.0000000000        8.8360000000        0.7810000000
 Ce         3.8260000000        8.8360000000        0.7810000000
 Ce         7.6520000000        8.8360000000        0.7810000000
 Ce        -5.7390000000       12.1500000000        0.7810000000
 Ce        -1.9130000000       12.1500000000        0.7810000000
 Ce         1.9130000000       12.1500000000        0.7810000000
 Ce         5.7390000000       12.1500000000        0.7810000000
 Ce         1.8860885591        1.0901946574        3.9382685132
 Ce         5.8367369873        1.1753886690        3.9297998797
 Ce         9.6302966918        1.1665238337        4.0269765911
 Ce        13.2945362246        1.0423369734        3.9272232575
 Ce         0.0590862813        4.3172762088        4.1179986385
 Ce         3.7403885228        4.4879598663        3.8950795669
 Ce         7.6204069805        4.4550235113        3.8414882214
 Ce        11.5169808715        4.3681907437        3.8798560392
 Ce        -1.9548821865        7.7938265608        3.8763904220
 Ce         1.7607323984        7.7132200330        3.9582766901
 Ce         5.7266941026        7.7752256322        4.0740236916
 Ce         9.5916161004        7.7481526891        4.0429029529
 Ce        -3.6779342413       11.0607591324        3.9530073582
 Ce        -0.0438394267       11.0863557516        3.7380042784
 Ce         3.9523738729       10.9837533732        3.9391235241
 Ce         7.7288124859       11.0478969725        3.9301472516
 Ce        -0.1462942152       -0.2130005974        7.3924223757
 Ce         3.7699103731       -0.1134183712        7.0607142012
 Ce         7.6043304280       -0.1174584016        7.2831220143
 Ce        11.2269136621        0.2945937847        7.4370651085
 Ce        -2.0455284349        3.3438153834        7.2486277405
 Ce         1.9015419086        3.3202193635        7.2163255441
 Ce         5.7313977284        3.4486087993        6.9893377082
 Ce         9.5253924480        3.5347575695        7.1342460836
 Ce        -3.8777226238        6.7476724423        7.0690692202
 Ce        -0.2500264158        6.5237573526        7.1989431238
 Ce         3.6418473819        6.8217477302        6.9895561046
 Ce         7.6498271251        6.8271052097        7.0597547329
 Ce        -5.7268514757       10.0072992595        7.1114202941
 Ce        -1.7939739193       10.0522981501        7.4610996125
 Ce         1.8650979756       10.0296017571        7.0328991577
 Ce         5.6341556787       10.0926117593        7.1951846346
 Pt        12.6980903059        1.6277472701        9.7860831851
 Pt         0.7171464972        5.2353313874        9.4493797122
 Pt        -0.1657506199        7.7175684821       10.0839903139
 Pt         6.7393467153       13.3137237821       10.6390296261
 Pt        -0.2361318385        2.5847151932        9.7447003229
 Pt        -2.6084817465        7.8122221034        9.4204571635
 Pt         2.1652815846        2.9266710270       10.4610180525
 Pt         3.0669384698        5.5833084497       11.0386248608
 Pt         5.1673481248        4.7765602520        9.5855253943
 Pt         1.7133176111       -0.0310545127        9.9510559377
 Pt         3.9725442755        1.2681978542        9.7742034732
 Pt        -1.2070886608        5.7099753669       10.9831158762
 Pt         6.3468091440        2.3652898472        9.7400628013
 Pt         0.2042101423        3.7998854042       11.9188285557
 Pt         6.1042915612        1.6303062134       12.2309672080
 Pt         1.0338825536        6.4560673520       12.1851056675
 Pt         4.5425812672        3.6781875879       11.6565337424
 Pt         0.6702865716        4.4598005976       14.3561270712
 Pt         0.8695211851        1.0663701101       12.1861433653
 Pt         3.1705669123        5.2711587309       13.4915474837
 Pt         3.6801304897        1.0073107347       12.2800509292
 Pt         2.3129682370        2.7077979140       13.3214578783
     166
 i =     2653, time =     2653.000, E =     -6045.7821313355
  O         0.0000000000        0.0000000000        0.0000000000
  O         3.8260000000        0.0000000000        0.0000000000
  O         7.6520000000        0.0000000000        0.0000000000
  O        11.4780000000        0.0000000000        0.0000000000
  O        -1.9130000000        3.3140000000        0.0000000000
  O         1.9130000000        3.3140000000        0.0000000000
  O         5.7390000000        3.3140000000        0.0000000000
  O         9.5650000000        3.3140000000        0.0000000000
  O        -3.8260000000        6.6270000000        0.0000000000
  O         0.0000000000        6.6270000000        0.0000000000
  O         3.8260000000        6.6270000000        0.0000000000
  O         7.6520000000        6.6270000000        0.0000000000
  O        -5.7390000000        9.9410000000        0.0000000000
  O        -1.9130000000        9.9410000000        0.0000000000
  O         1.9130000000        9.9410000000        0.0000000000
  O         5.7390000000        9.9410000000        0.0000000000
  O         1.9130000000        1.1050000000        1.5620000000
  O         5.7390000000        1.1050000000        1.5620000000
  O         9.5650000000        1.1050000000        1.5620000000
  O        13.3920000000        1.1050000000        1.5620000000
  O         0.0000000000        4.4180000000        1.5620000000
  O         3.8260000000        4.4180000000        1.5620000000
  O         7.6520000000        4.4180000000        1.5620000000
  O        11.4780000000        4.4180000000        1.5620000000
  O        -1.9130000000        7.7320000000        1.5620000000
  O         1.9130000000        7.7320000000        1.5620000000
  O         5.7390000000        7.7320000000        1.5620000000
  O         9.5650000000        7.7320000000        1.5620000000
  O        -3.8260000000       11.0450000000        1.5620000000
  O         0.0000000000       11.0450000000        1.5620000000
  O         3.8260000000       11.0450000000        1.5620000000
  O         7.6520000000       11.0450000000        1.5620000000
  O         0.0000000000        2.2090000000        3.1240000000
  O         3.8260000000        2.2090000000        3.1240000000
  O         7.6520000000        2.2090000000        3.1240000000
  O        11.4780000000        2.2090000000        3.1240000000
  O        -1.9130000000        5.5230000000        3.1240000000
  O         1.9130000000        5.5230000000        3.1240000000
  O         5.7390000000        5.5230000000        3.1240000000
  O         9.5650000000        5.5230000000        3.1240000000
  O        -3.8260000000        8.8360000000        3.1240000000
  O         0.0000000000        8.8360000000        3.1240000000
  O         3.8260000000        8.8360000000        3.1240000000
  O         7.6520000000        8.8360000000        3.1240000000
  O        -5.7390000000       12.1500000000        3.1240000000
  O        -1.9130000000       12.1500000000        3.1240000000
  O         1.9130000000       12.1500000000        3.1240000000
  O         5.7390000000       12.1500000000        3.1240000000
  O        -0.0650896612       -0.0780859497        4.8607946609
  O         3.9251778453       -0.1763573140        4.9028229974
  O         7.7631524218        0.0390727200        4.7494036984
  O        11.2383758286       -0.0289862737        4.8370974694
  O        -1.9950868885        3.3653897071        4.9230612270
  O         1.9166989634        3.2975312815        4.6649373894
  O         5.7132791221        3.4576456493        4.7094358982
  O         9.4841655706        3.2940785861        4.8274343591
  O        -3.7578494550        6.4590678069        4.6704409630
  O        -0.1841359238        6.4139464476        4.9240422836
  O         3.6475206523        6.8285149858        4.6927995613
  O         7.7293441626        6.7925923805        4.7489031998
  O        -5.6058254797       10.0455470189        4.6879220402
  O        -1.8143247957       10.0844339801        4.7954280629
  O         1.7386972725        9.9240999615        4.7225949987
  O         5.8391630789        9.8480857088        4.7261245752
  O         1.9752262084        0.9007068796        6.1515844561
  O         5.7472065283        1.0866231427        6.0763289320
  O         9.4627535293        1.2002441014        6.4582707153
  O        13.0457501852        1.0926061441        6.4009064862
  O        -0.0562294470        4.2358268877        6.4314127345
  O         3.7819740684        4.6348402799        6.2208704741
  O         7.6576602911        4.3259860470        6.2237253785
  O        11.3911364822        4.4399541723        6.3849229525
  O        -1.8950939763        7.9957803466        6.6198639910
  O         1.6846538389        7.9346098059        6.3663636988
  O         5.6403083331        7.9389324157        6.2478388092
  O         9.7093251726        7.8835701878        6.2470540659
  O        -3.9136645441       11.0947525295        6.5313537515
  O         0.0854430761       10.9699241846        6.4588559747
  O         3.7483119352       11.0548563695        6.3863565977
  O         7.5614850946       10.9630674667        6.4017427560
  O         0.0196030168        2.1031576203        7.6052471163
  O         3.8605597189        2.0030999990        7.7913313535
  O         7.6725643282        2.2135881056        8.3207095498
  O        11.1151316626        2.5899142410        8.3454947544
  O        -2.0557697975        5.3747351357        7.8388587489
  O         1.8206750830        5.6609621550        7.8617143767
  O         5.6563178431        5.8079437155        7.6345050572
  O         9.3782523591        5.6125037647        7.9020900517
  O        -4.0932418552        8.7571586085        8.3714223334
  O         0.0978604869        9.3218976405        8.4232123521
  O         3.7227602500        8.6798797083        8.0194156160
  O         7.9635119865        8.7986292860        8.0350288697
  O        -5.9546330680       12.0888256642        8.2982881786
  O        -1.8790658831       12.1230396079        7.9743462058
  O         1.8413838014       12.2598362688        8.1605598266
  O         5.7623944436       11.9860344031        7.9760515670
 Ce         0.0000000000        2.2090000000        0.7810000000
 Ce         3.8260000000        2.2090000000        0.7810000000
 Ce         7.6520000000        2.2090000000        0.7810000000
 Ce        11.4780000000        2.2090000000        0.7810000000
 Ce        -1.9130000000        5.5230000000        0.7810000000
 Ce         1.9130000000        5.5230000000        0.7810000000
 Ce         5.7390000000        5.5230000000        0.7810000000
 Ce         9.5650000000        5.5230000000        0.7810000000
 Ce        -3.8260000000        8.8360000000        0.7810000000
 Ce         0.0000000000        8.8360000000        0.7810000000
 Ce         3.8260000000        8.8360000000        0.7810000000
 Ce         7.6520000000        8.8360000000        0.7810000000
 Ce        -5.7390000000       12.1500000000        0.7810000000
 Ce        -1.9130000000       12.1500000000        0.7810000000
 Ce         1.9130000000       12.1500000000        0.7810000000
 Ce         5.7390000000       12.1500000000        0.7810000000
 Ce         1.8895972438        1.0927857730        3.9415094778
 Ce         5.8364065203        1.1744200264        3.9299730512
 Ce         9.6314007339        1.1654359627        4.0250100946
 Ce        13.2944331157        1.0432963407        3.9261784155
 Ce         0.0587365714        4.3154144349        4.1209321703
 Ce         3.7426443141        4.4871372117        3.8921135045
 Ce         7.6241139923        4.4575725647        3.8434184667
 Ce        11.5150370293        4.3672752008        3.8834197012
 Ce        -1.9524798372        7.7945945416        3.8763012864
 Ce         1.7608929933        7.7178337251        3.9592622151
 Ce         5.7266438003        7.7775099456        4.0744104383
 Ce         9.5925559521        7.7479328367        4.0412517156
 Ce        -3.6793599070       11.0632741412        3.9536643764
 Ce        -0.0399248831       11.0836814118        3.7385747355
 Ce         3.9520270574       10.9846519518        3.9398567282
 Ce         7.7291772132       11.0493323968        3.9286901582
 Ce        -0.1453682544       -0.2122904315        7.3916597463
 Ce         3.7690776139       -0.1144832561        7.0591605948
 Ce         7.6025179383       -0.1175479390        7.2830631591
 Ce        11.2301634417        0.2922962953        7.4355400075
 Ce        -2.0466929654        3.3446251568        7.2500599974
 Ce         1.9046711611        3.3206748311        7.2149189417
 Ce         5.7304453397        3.4495878966        6.9888913521
 Ce         9.5202259857        3.5311168189        7.1293242400
 Ce        -3.8783608867        6.7510683554        7.0687925913
 Ce        -0.2550254928        6.5255969282        7.1986152486
 Ce         3.6413076590        6.8189985802        6.9895026564
 Ce         7.6454648190        6.8261126971        7.0583935376
 Ce        -5.7293355482       10.0070487679        7.1077150501
 Ce        -1.7929834531       10.0553883478        7.4566080510
 Ce         1.8674215496       10.0316280306        7.0323051754
 Ce         5.6297964594       10.0913337016        7.1962393701
 Pt        12.7000536830        1.6278436865        9.7847348215
 Pt         0.7135267347        5.2334544653        9.4495807477
 Pt        -0.1679330542        7.7154659464       10.0833891916
 Pt         6.7374632343       13.3138175650       10.6391659481
 Pt        -0.2348937917        2.5825097239        9.7433916509
 Pt        -2.6077255848        7.8133365799        9.4197220488
 Pt         2.1662571103        2.9270456749       10.4560649840
 Pt         3.0659633838        5.5839512905       11.0373078771
 Pt         5.1651883433        4.7772411598        9.5843083582
 Pt         1.7123394807       -0.0310176192        9.9499802160
 Pt         3.9734519227        1.2689849139        9.7749337570
 Pt        -1.2080793902        5.7079173124       10.9779756920
 Pt         6.3463603625        2.3663935975        9.7392393382
 Pt         0.2004210916        3.7966315072       11.9233484639
 Pt         6.1045675208        1.6319260455       12.2304986274
 Pt         1.0369889146        6.4564110493       12.1824547117
 Pt         4.5387644951        3.6809292219       11.6556149892
 Pt         0.6690139659        4.4571588731       14.3560104899
 Pt         0.8703782484        1.0701177420       12.1842698979
 Pt         3.1691428893        5.2701206319       13.4944515835
 Pt         3.6780120689        1.0041111399       12.2791029077
 Pt         2.3106854618        2.7069086503       13.3230336753
     166
 i =     2654, time =     2654.000, E =     -6045.7806189813
  O         0.0000000000        0.0000000000        0.0000000000
  O         3.8260000000        0.0000000000        0.0000000000
  O         7.6520000000        0.0000000000        0.0000000000
  O        11.4780000000        0.0000000000        0.0000000000
  O        -1.9130000000        3.3140000000        0.0000000000
  O         1.9130000000        3.3140000000        0.0000000000
  O         5.7390000000        3.3140000000        0.0000000000
  O         9.5650000000        3.3140000000        0.0000000000
  O        -3.8260000000        6.6270000000        0.0000000000
  O         0.0000000000        6.6270000000        0.0000000000
  O         3.8260000000        6.6270000000        0.0000000000
  O         7.6520000000        6.6270000000        0.0000000000
  O        -5.7390000000        9.9410000000        0.0000000000
  O        -1.9130000000        9.9410000000        0.0000000000
  O         1.9130000000        9.9410000000        0.0000000000
  O         5.7390000000        9.9410000000        0.0000000000
  O         1.9130000000        1.1050000000        1.5620000000
  O         5.7390000000        1.1050000000        1.5620000000
  O         9.5650000000        1.1050000000        1.5620000000
  O        13.3920000000        1.1050000000        1.5620000000
  O         0.0000000000        4.4180000000        1.5620000000
  O         3.8260000000        4.4180000000        1.5620000000
  O         7.6520000000        4.4180000000        1.5620000000
  O        11.4780000000        4.4180000000        1.5620000000
  O        -1.9130000000        7.7320000000        1.5620000000
  O         1.9130000000        7.7320000000        1.5620000000
  O         5.7390000000        7.7320000000        1.5620000000
  O         9.5650000000        7.7320000000        1.5620000000
  O        -3.8260000000       11.0450000000        1.5620000000
  O         0.0000000000       11.0450000000        1.5620000000
  O         3.8260000000       11.0450000000        1.5620000000
  O         7.6520000000       11.0450000000        1.5620000000
  O         0.0000000000        2.2090000000        3.1240000000
  O         3.8260000000        2.2090000000        3.1240000000
  O         7.6520000000        2.2090000000        3.1240000000
  O        11.4780000000        2.2090000000        3.1240000000
  O        -1.9130000000        5.5230000000        3.1240000000
  O         1.9130000000        5.5230000000        3.1240000000
  O         5.7390000000        5.5230000000        3.1240000000
  O         9.5650000000        5.5230000000        3.1240000000
  O        -3.8260000000        8.8360000000        3.1240000000
  O         0.0000000000        8.8360000000        3.1240000000
  O         3.8260000000        8.8360000000        3.1240000000
  O         7.6520000000        8.8360000000        3.1240000000
  O        -5.7390000000       12.1500000000        3.1240000000
  O        -1.9130000000       12.1500000000        3.1240000000
  O         1.9130000000       12.1500000000        3.1240000000
  O         5.7390000000       12.1500000000        3.1240000000
  O        -0.0769789051       -0.0771193140        4.8675073786
  O         3.9252096411       -0.1695687486        4.8965518811
  O         7.7683347344        0.0403285470        4.7406057963
  O        11.2314364509       -0.0293203884        4.8420064073
  O        -2.0015470917        3.3594629810        4.9335023222
  O         1.9168283659        3.2903804254        4.6698549241
  O         5.7135861748        3.4567440612        4.6999160811
  O         9.4794665345        3.3003263204        4.8210278617
  O        -3.7457920929        6.4625602762        4.6695493332
  O        -0.1979000419        6.3989525176        4.9276987704
  O         3.6533202174        6.8148207694        4.6905951172
  O         7.7351590090        6.7964410236        4.7443317896
  O        -5.6022861722       10.0476532734        4.6971509243
  O        -1.8198682972       10.0896698348        4.7921210312
  O         1.7321319475        9.9144997007        4.7264176603
  O         5.8346702161        9.8520808008        4.7289589337
  O         1.9758255302        0.9084586821        6.1472044192
  O         5.7435160007        1.0805918345        6.0714572223
  O         9.4517934373        1.2011077655        6.4744012859
  O        13.0391340360        1.0801020837        6.3896422514
  O        -0.0595593245        4.2356431584        6.4371518310
  O         3.7858298391        4.6381021753        6.2186423036
  O         7.6505995563        4.3175769096        6.2191013172
  O        11.3966801725        4.4405230765        6.3888909447
  O        -1.8914097849        7.9913956830        6.6239606658
  O         1.6871433221        7.9270523247        6.3584598331
  O         5.6353877814        7.9295930634        6.2562858703
  O         9.7178031400        7.8917867136        6.2425667147
  O        -3.9132773471       11.0916130334        6.5395348784
  O         0.0920789056       10.9570132918        6.4587404740
  O         3.7524574730       11.0614368058        6.3824107273
  O         7.5589847252       10.9573284205        6.4080200222
  O         0.0239617642        2.1002771921        7.6060727737
  O         3.8581171928        1.9998330875        7.8064549403
  O         7.6669665802        2.2103407903        8.3134550004
  O        11.1153267743        2.5903406174        8.3424824848
  O        -2.0630343039        5.3746971074        7.8335514017
  O         1.8239950234        5.6534452702        7.8550110893
  O         5.6702043249        5.8039109920        7.6407570926
  O         9.3781228026        5.6219149991        7.8929047259
  O        -4.0944934353        8.7556738335        8.3828677068
  O         0.1093065862        9.3141384651        8.4203091580
  O         3.7297660954        8.6727720587        8.0266529443
  O         7.9583142608        8.8049030075        8.0271752892
  O        -5.9642087685       12.1021855098        8.2940148410
  O        -1.8794504185       12.1351526353        7.9866744589
  O         1.8435405873       12.2571187252        8.1568140571
  O         5.7726034258       11.9871217009        7.9709613459
 Ce         0.0000000000        2.2090000000        0.7810000000
 Ce         3.8260000000        2.2090000000        0.7810000000
 Ce         7.6520000000        2.2090000000        0.7810000000
 Ce        11.4780000000        2.2090000000        0.7810000000
 Ce        -1.9130000000        5.5230000000        0.7810000000
 Ce         1.9130000000        5.5230000000        0.7810000000
 Ce         5.7390000000        5.5230000000        0.7810000000
 Ce         9.5650000000        5.5230000000        0.7810000000
 Ce        -3.8260000000        8.8360000000        0.7810000000
 Ce         0.0000000000        8.8360000000        0.7810000000
 Ce         3.8260000000        8.8360000000        0.7810000000
 Ce         7.6520000000        8.8360000000        0.7810000000
 Ce        -5.7390000000       12.1500000000        0.7810000000
 Ce        -1.9130000000       12.1500000000        0.7810000000
 Ce         1.9130000000       12.1500000000        0.7810000000
 Ce         5.7390000000       12.1500000000        0.7810000000
 Ce         1.8931204348        1.0953293263        3.9447620697
 Ce         5.8360345455        1.1734146340        3.9301630814
 Ce         9.6323794329        1.1642633032        4.0230288843
 Ce        13.2943945140        1.0442804662        3.9252254375
 Ce         0.0582577284        4.3135797636        4.1237695660
 Ce         3.7449721265        4.4862807780        3.8891457066
 Ce         7.6278555513        4.4600924934        3.8453938883
 Ce        11.5130856251        4.3664079184        3.8870369052
 Ce        -1.9500626908        7.7952807876        3.8762330846
 Ce         1.7611128835        7.7225099031        3.9602493617
 Ce         5.7265833451        7.7797824027        4.0746095249
 Ce         9.5935016131        7.7477291193        4.0394058352
 Ce        -3.6808773320       11.0658045852        3.9543228080
 Ce        -0.0358864544       11.0810499551        3.7393337049
 Ce         3.9515152019       10.9855762587        3.9405761955
 Ce         7.7295376134       11.0507751211        3.9272214566
 Ce        -0.1443942543       -0.2114023735        7.3908006631
 Ce         3.7682641194       -0.1154093695        7.0576215850
 Ce         7.6007656178       -0.1175207715        7.2829150738
 Ce        11.2334389768        0.2899317659        7.4339496936
 Ce        -2.0478466442        3.3453717602        7.2514467062
 Ce         1.9077939671        3.3210956407        7.2135016389
 Ce         5.7294657375        3.4505432083        6.9884133598
 Ce         9.5150305550        3.5274362796        7.1244280129
 Ce        -3.8789789322        6.7543486303        7.0685937198
 Ce        -0.2599776340        6.5274714575        7.1982495840
 Ce         3.6408066640        6.8162339233        6.9895354195
 Ce         7.6411128578        6.8250759541        7.0571101859
 Ce        -5.7318660398       10.0067290095        7.1040993601
 Ce        -1.7919947986       10.0584006653        7.4520950110
 Ce         1.8698020533       10.0335958422        7.0318079700
 Ce         5.6254034754       10.0898845452        7.1972448851
 Pt        12.7019293716        1.6279645055        9.7833330115
 Pt         0.7099191223        5.2315199178        9.4498564172
 Pt        -0.1700450697        7.7134894756       10.0827160437
 Pt         6.7355989132       13.3138951484       10.6393161330
 Pt        -0.2336426584        2.5803149677        9.7420256031
 Pt        -2.6069773094        7.8144629706        9.4190411719
 Pt         2.1672627796        2.9274555089       10.4510949958
 Pt         3.0649804453        5.5846091533       11.0358676933
 Pt         5.1630600234        4.7780046360        9.5830035518
 Pt         1.7113378322       -0.0309306151        9.9489350085
 Pt         3.9743916091        1.2697991705        9.7756331200
 Pt        -1.2092005393        5.7058069823       10.9728765765
 Pt         6.3459067664        2.3675074018        9.7384891322
 Pt         0.1966153218        3.7933616842       11.9279121980
 Pt         6.1048394260        1.6335567666       12.2300187256
 Pt         1.0400867165        6.4567497355       12.1798453865
 Pt         4.5349489404        3.6835742384       11.6547768759
 Pt         0.6677933337        4.4545391896       14.3558814728
 Pt         0.8712206775        1.0738303729       12.1823596738
 Pt         3.1676871258        5.2690634043       13.4974044790
 Pt         3.6759028496        1.0008111496       12.2781404016
 Pt         2.3083995903        2.7061531058       13.3246983993
     166
 i =     2655, time =     2655.000, E =     -6045.7792623948
  O         0.0000000000        0.0000000000        0.0000000000
  O         3.8260000000        0.0000000000        0.0000000000
  O         7.6520000000        0.0000000000        0.0000000000
  O        11.4780000000        0.0000000000        0.0000000000
  O        -1.9130000000        3.3140000000        0.0000000000
  O         1.9130000000        3.3140000000        0.0000000000
  O         5.7390000000        3.3140000000        0.0000000000
  O         9.5650000000        3.3140000000        0.0000000000
  O        -3.8260000000        6.6270000000        0.0000000000
  O         0.0000000000        6.6270000000        0.0000000000
  O         3.8260000000        6.6270000000        0.0000000000
  O         7.6520000000        6.6270000000        0.0000000000
  O        -5.7390000000        9.9410000000        0.0000000000
  O        -1.9130000000        9.9410000000        0.0000000000
  O         1.9130000000        9.9410000000        0.0000000000
  O         5.7390000000        9.9410000000        0.0000000000
  O         1.9130000000        1.1050000000        1.5620000000
  O         5.7390000000        1.1050000000        1.5620000000
  O         9.5650000000        1.1050000000        1.5620000000
  O        13.3920000000        1.1050000000        1.5620000000
  O         0.0000000000        4.4180000000        1.5620000000
  O         3.8260000000        4.4180000000        1.5620000000
  O         7.6520000000        4.4180000000        1.5620000000
  O        11.4780000000        4.4180000000        1.5620000000
  O        -1.9130000000        7.7320000000        1.5620000000
  O         1.9130000000        7.7320000000        1.5620000000
  O         5.7390000000        7.7320000000        1.5620000000
  O         9.5650000000        7.7320000000        1.5620000000
  O        -3.8260000000       11.0450000000        1.5620000000
  O         0.0000000000       11.0450000000        1.5620000000
  O         3.8260000000       11.0450000000        1.5620000000
  O         7.6520000000       11.0450000000        1.5620000000
  O         0.0000000000        2.2090000000        3.1240000000
  O         3.8260000000        2.2090000000        3.1240000000
  O         7.6520000000        2.2090000000        3.1240000000
  O        11.4780000000        2.2090000000        3.1240000000
  O        -1.9130000000        5.5230000000        3.1240000000
  O         1.9130000000        5.5230000000        3.1240000000
  O         5.7390000000        5.5230000000        3.1240000000
  O         9.5650000000        5.5230000000        3.1240000000
  O        -3.8260000000        8.8360000000        3.1240000000
  O         0.0000000000        8.8360000000        3.1240000000
  O         3.8260000000        8.8360000000        3.1240000000
  O         7.6520000000        8.8360000000        3.1240000000
  O        -5.7390000000       12.1500000000        3.1240000000
  O        -1.9130000000       12.1500000000        3.1240000000
  O         1.9130000000       12.1500000000        3.1240000000
  O         5.7390000000       12.1500000000        3.1240000000
  O        -0.0892188801       -0.0760471596        4.8739521122
  O         3.9251013223       -0.1627320750        4.8891342327
  O         7.7731734205        0.0411880411        4.7319923835
  O        11.2254577288       -0.0297167230        4.8466251706
  O        -2.0078326796        3.3531435667        4.9432003367
  O         1.9170425099        3.2833318876        4.6754771802
  O         5.7138026002        3.4555408955        4.6903910028
  O         9.4753740035        3.3067591150        4.8140888217
  O        -3.7338187684        6.4673176885        4.6692766203
  O        -0.2114382064        6.3848315869        4.9309788609
  O         3.6594057817        6.8007336063        4.6885614473
  O         7.7406016485        6.7997322415        4.7403850435
  O        -5.5992475439       10.0495437327        4.7067552507
  O        -1.8258545189       10.0943593368        4.7887651451
  O         1.7262995403        9.9050340795        4.7300271611
  O         5.8297092210        9.8573119804        4.7319597187
  O         1.9762639896        0.9165594249        6.1434768773
  O         5.7402124588        1.0749182857        6.0679330922
  O         9.4410761500        1.2019445100        6.4908085046
  O        13.0324805045        1.0676331038        6.3785679915
  O        -0.0623886608        4.2360841561        6.4426832803
  O         3.7893944870        4.6404585922        6.2166276102
  O         7.6430349483        4.3097715545        6.2147756326
  O        11.4019462480        4.4412169770        6.3925220070
  O        -1.8880794407        7.9866333314        6.6269963529
  O         1.6894589956        7.9188151660        6.3503486717
  O         5.6308371805        7.9200168129        6.2650964299
  O         9.7260811030        7.8998426729        6.2379928949
  O        -3.9125257431       11.0873696607        6.5475057260
  O         0.0976338164       10.9451339738        6.4583806493
  O         3.7570677702       11.0678954186        6.3782607030
  O         7.5569935167       10.9516832648        6.4141209279
  O         0.0282113586        2.0968985575        7.6073577122
  O         3.8556106792        1.9971748783        7.8215475435
  O         7.6612261148        2.2069964854        8.3053322801
  O        11.1162713817        2.5898675274        8.3396846376
  O        -2.0702705039        5.3754408489        7.8282732132
  O         1.8277502682        5.6455183449        7.8477325028
  O         5.6844262734        5.7993314885        7.6477806834
  O         9.3780208187        5.6318913543        7.8834083971
  O        -4.0955495466        8.7541796977        8.3938685797
  O         0.1205718485        9.3058176118        8.4178912473
  O         3.7369366579        8.6663920122        8.0335584819
  O         7.9525103519        8.8109279523        8.0189143024
  O        -5.9734119187       12.1149917224        8.2891323255
  O        -1.8797779439       12.1474751191        7.9992179407
  O         1.8456859888       12.2547238864        8.1527252307
  O         5.7821305927       11.9885309591        7.9665929688
 Ce         0.0000000000        2.2090000000        0.7810000000
 Ce         3.8260000000        2.2090000000        0.7810000000
 Ce         7.6520000000        2.2090000000        0.7810000000
 Ce        11.4780000000        2.2090000000        0.7810000000
 Ce        -1.9130000000        5.5230000000        0.7810000000
 Ce         1.9130000000        5.5230000000        0.7810000000
 Ce         5.7390000000        5.5230000000        0.7810000000
 Ce         9.5650000000        5.5230000000        0.7810000000
 Ce        -3.8260000000        8.8360000000        0.7810000000
 Ce         0.0000000000        8.8360000000        0.7810000000
 Ce         3.8260000000        8.8360000000        0.7810000000
 Ce         7.6520000000        8.8360000000        0.7810000000
 Ce        -5.7390000000       12.1500000000        0.7810000000
 Ce        -1.9130000000       12.1500000000        0.7810000000
 Ce         1.9130000000       12.1500000000        0.7810000000
 Ce         5.7390000000       12.1500000000        0.7810000000
 Ce         1.8966562357        1.0978249946        3.9480218596
 Ce         5.8356224472        1.1723754233        3.9303641774
 Ce         9.6332294452        1.1630076981        4.0210328518
 Ce        13.2944220812        1.0452884980        3.9243682743
 Ce         0.0576508036        4.3117697221        4.1265113623
 Ce         3.7473712320        4.4853917656        3.8861778362
 Ce         7.6316248074        4.4625797231        3.8474088369
 Ce        11.5111306560        4.3655915867        3.8907061141
 Ce        -1.9476357963        7.7958814277        3.8761838356
 Ce         1.7613986746        7.7272367681        3.9612387908
 Ce         5.7265109835        7.7820394506        4.0746240611
 Ce         9.5944574495        7.7475435334        4.0373650629
 Ce        -3.6824856383       11.0683502685        3.9549778988
 Ce        -0.0317310574       11.0784666620        3.7402765628
 Ce         3.9508416127       10.9865285715        3.9412805889
 Ce         7.7298925058       11.0522264806        3.9257450897
 Ce        -0.1433762462       -0.2103332301        7.3898405753
 Ce         3.7674699923       -0.1161888373        7.0560982377
 Ce         7.5990767910       -0.1173738064        7.2826798933
 Ce        11.2367397099        0.2875029503        7.4322948267
 Ce        -2.0489892497        3.3460508546        7.2527895887
 Ce         1.9109065776        3.3214801892        7.2120740186
 Ce         5.7284588504        3.4514707138        6.9879047930
 Ce         9.5098139031        3.5237189541        7.1195612258
 Ce        -3.8795780853        6.7575082999        7.0684711890
 Ce        -0.2648759207        6.5293742712        7.1978500347
 Ce         3.6403456659        6.8134514240        6.9896541768
 Ce         7.6367749874        6.8239991683        7.0559051124
 Ce        -5.7344480875       10.0063400277        7.1005757188
 Ce        -1.7910012896       10.0613366012        7.4475656225
 Ce         1.8722441587       10.0354959361        7.0314135007
 Ce         5.6209837495       10.0882653213        7.1982029174
 Pt        12.7037136420        1.6281089782        9.7818764761
 Pt         0.7063336828        5.2295281158        9.4502002109
 Pt        -0.1720883880        7.7116312859       10.0819754782
 Pt         6.7337552541       13.3139569594       10.6394827376
 Pt        -0.2323801134        2.5781325160        9.7406043566
 Pt        -2.6062336480        7.8156007257        9.4184202003
 Pt         2.1682942783        2.9279015959       10.4461142314
 Pt         3.0639931170        5.5852821370       11.0342992225
 Pt         5.1609641715        4.7788520425        9.5816115673
 Pt         1.7103169857       -0.0307889833        9.9479210882
 Pt         3.9753667698        1.2706335402        9.7763043872
 Pt        -1.2104564212        5.7036497381       10.9678190671
 Pt         6.3454511877        2.3686285573        9.7378103905
 Pt         0.1927920848        3.7900780225       11.9325112739
 Pt         6.1051062251        1.6351998609       12.2295255093
 Pt         1.0431719687        6.4570897582       12.1772747228
 Pt         4.5311350061        3.6861197502       11.6540229858
 Pt         0.6666265805        4.4519395622       14.3557410241
 Pt         0.8720469629        1.0775051037       12.1804123438
 Pt         3.1661952088        5.2679851755       13.5004076082
 Pt         3.6737989151        0.9974189976       12.2771637970
 Pt         2.3061193040        2.7055274437       13.3264554124
     166
 i =     2656, time =     2656.000, E =     -6045.7791184138
  O         0.0000000000        0.0000000000        0.0000000000
  O         3.8260000000        0.0000000000        0.0000000000
  O         7.6520000000        0.0000000000        0.0000000000
  O        11.4780000000        0.0000000000        0.0000000000
  O        -1.9130000000        3.3140000000        0.0000000000
  O         1.9130000000        3.3140000000        0.0000000000
  O         5.7390000000        3.3140000000        0.0000000000
  O         9.5650000000        3.3140000000        0.0000000000
  O        -3.8260000000        6.6270000000        0.0000000000
  O         0.0000000000        6.6270000000        0.0000000000
  O         3.8260000000        6.6270000000        0.0000000000
  O         7.6520000000        6.6270000000        0.0000000000
  O        -5.7390000000        9.9410000000        0.0000000000
  O        -1.9130000000        9.9410000000        0.0000000000
  O         1.9130000000        9.9410000000        0.0000000000
  O         5.7390000000        9.9410000000        0.0000000000
  O         1.9130000000        1.1050000000        1.5620000000
  O         5.7390000000        1.1050000000        1.5620000000
  O         9.5650000000        1.1050000000        1.5620000000
  O        13.3920000000        1.1050000000        1.5620000000
  O         0.0000000000        4.4180000000        1.5620000000
  O         3.8260000000        4.4180000000        1.5620000000
  O         7.6520000000        4.4180000000        1.5620000000
  O        11.4780000000        4.4180000000        1.5620000000
  O        -1.9130000000        7.7320000000        1.5620000000
  O         1.9130000000        7.7320000000        1.5620000000
  O         5.7390000000        7.7320000000        1.5620000000
  O         9.5650000000        7.7320000000        1.5620000000
  O        -3.8260000000       11.0450000000        1.5620000000
  O         0.0000000000       11.0450000000        1.5620000000
  O         3.8260000000       11.0450000000        1.5620000000
  O         7.6520000000       11.0450000000        1.5620000000
  O         0.0000000000        2.2090000000        3.1240000000
  O         3.8260000000        2.2090000000        3.1240000000
  O         7.6520000000        2.2090000000        3.1240000000
  O        11.4780000000        2.2090000000        3.1240000000
  O        -1.9130000000        5.5230000000        3.1240000000
  O         1.9130000000        5.5230000000        3.1240000000
  O         5.7390000000        5.5230000000        3.1240000000
  O         9.5650000000        5.5230000000        3.1240000000
  O        -3.8260000000        8.8360000000        3.1240000000
  O         0.0000000000        8.8360000000        3.1240000000
  O         3.8260000000        8.8360000000        3.1240000000
  O         7.6520000000        8.8360000000        3.1240000000
  O        -5.7390000000       12.1500000000        3.1240000000
  O        -1.9130000000       12.1500000000        3.1240000000
  O         1.9130000000       12.1500000000        3.1240000000
  O         5.7390000000       12.1500000000        3.1240000000
  O        -0.1017677321       -0.0748800425        4.8801222858
  O         3.9248199811       -0.1558890248        4.8806686769
  O         7.7776512125        0.0416236693        4.7236342190
  O        11.2204062078       -0.0301725155        4.8509480553
  O        -2.0139122616        3.3464529853        4.9521513265
  O         1.9173379812        3.2764315867        4.6817570661
  O         5.7139261567        3.4540277634        4.6808802192
  O         9.4719316003        3.3133322641        4.8067112248
  O        -3.7219806348        6.4732939735        4.6696247438
  O        -0.2247053532        6.3716683804        4.9338992964
  O         3.6657392065        6.7863766674        4.6866770940
  O         7.7456407647        6.8024575008        4.7371109141
  O        -5.5967362564       10.0512412900        4.7167243237
  O        -1.8322327745       10.0984834331        4.7853905949
  O         1.7212371841        9.8957390229        4.7334004359
  O         5.8243025775        9.8637128232        4.7351217138
  O         1.9765673195        0.9249711850        6.1404362575
  O         5.7373060625        1.0695936161        6.0657983401
  O         9.4306220033        1.2027882578        6.5074817672
  O        13.0258016348        1.0552208267        6.3677793792
  O        -0.0647201672        4.2371281569        6.4479726897
  O         3.7926878127        4.6418855515        6.2148498667
  O         7.6350457893        4.3025938126        6.2107747522
  O        11.4068388430        4.4420133894        6.3957793296
  O        -1.8851216717        7.9815890398        6.6289753012
  O         1.6916128315        7.9099540030        6.3420350253
  O         5.6266888213        7.9102730134        6.2742155906
  O         9.7341550113        7.9077306792        6.2333638255
  O        -3.9113553857       11.0820724600        6.5552498608
  O         0.1019985175       10.9343375260        6.4577631141
  O         3.7620905024       11.0742000452        6.3739493710
  O         7.5555399040       10.9461368743        6.4200203386
  O         0.0323346859        2.0930364002        7.6090892699
  O         3.8530457542        1.9951284579        7.8365331919
  O         7.6553273059        2.2035845663        8.2964172277
  O        11.1179570342        2.5885082835        8.3370921291
  O        -2.0774484170        5.3769770774        7.8230370935
  O         1.8318765816        5.6371943179        7.8399789753
  O         5.6989265004        5.7942108541        7.6555315715
  O         9.3779239326        5.6423825092        7.8735631960
  O        -4.0964142365        8.7526826005        8.4043469458
  O         0.1316088844        9.2969605440        8.4159218819
  O         3.7442299293        8.6607800102        8.0401169705
  O         7.9460974561        8.8166837766        8.0102826253
  O        -5.9821628784       12.1271823791        8.2836392819
  O        -1.8800380444       12.1598974313        8.0119061536
  O         1.8478084567       12.2526255438        8.1483198610
  O         5.7908831909       11.9902327684        7.9629579963
 Ce         0.0000000000        2.2090000000        0.7810000000
 Ce         3.8260000000        2.2090000000        0.7810000000
 Ce         7.6520000000        2.2090000000        0.7810000000
 Ce        11.4780000000        2.2090000000        0.7810000000
 Ce        -1.9130000000        5.5230000000        0.7810000000
 Ce         1.9130000000        5.5230000000        0.7810000000
 Ce         5.7390000000        5.5230000000        0.7810000000
 Ce         9.5650000000        5.5230000000        0.7810000000
 Ce        -3.8260000000        8.8360000000        0.7810000000
 Ce         0.0000000000        8.8360000000        0.7810000000
 Ce         3.8260000000        8.8360000000        0.7810000000
 Ce         7.6520000000        8.8360000000        0.7810000000
 Ce        -5.7390000000       12.1500000000        0.7810000000
 Ce        -1.9130000000       12.1500000000        0.7810000000
 Ce         1.9130000000       12.1500000000        0.7810000000
 Ce         5.7390000000       12.1500000000        0.7810000000
 Ce         1.9002029134        1.1002724185        3.9512844532
 Ce         5.8351713828        1.1713052964        3.9305709661
 Ce         9.6339478785        1.1616707180        4.0190212289
 Ce        13.2945175269        1.0463192611        3.9236101853
 Ce         0.0569174199        4.3099822326        4.1291579965
 Ce         3.7498408199        4.4844713779        3.8832120978
 Ce         7.6354144036        4.4650311338        3.8494574898
 Ce        11.5091762595        4.3648295601        3.8944253863
 Ce        -1.9452041865        7.7963931250        3.8761522918
 Ce         1.7617567156        7.7320021560        3.9622307177
 Ce         5.7264250642        7.7842779037        4.0744577134
 Ce         9.5954278478        7.7473782460        4.0351298877
 Ce        -3.6841839519       11.0709103865        3.9556251194
 Ce        -0.0274663442       11.0759363978        3.7413984904
 Ce         3.9500099959       10.9875111551        3.9419684714
 Ce         7.7302406734       11.0536877572        3.9242650993
 Ce        -0.1423179549       -0.2090804368        7.3887746723
 Ce         3.7666949601       -0.1168154294        7.0545909723
 Ce         7.5974536409       -0.1171032935        7.2823605112
 Ce        11.2400649990        0.2850110908        7.4305753239
 Ce        -2.0501190169        3.3466602371        7.2540885837
 Ce         1.9140056853        3.3218282206        7.2106371988
 Ce         5.7274236061        3.4523667806        6.9873665906
 Ce         9.5045819042        3.5199691353        7.1147268208
 Ce        -3.8801592238        6.7605441069        7.0684241810
 Ce        -0.2697129144        6.5312981077        7.1974207925
 Ce         3.6399256617        6.8106478217        6.9898590347
 Ce         7.6324545511        6.8228868228        7.0547788259
 Ce        -5.7370861902       10.0058822329        7.0971471309
 Ce        -1.7900004859       10.0641972204        7.4430242979
 Ce         1.8747524686       10.0373197825        7.0311262679
 Ce         5.6165449162       10.0864776044        7.1991154679
 Pt        12.7054064341        1.6282761734        9.7803635811
 Pt         0.7027791846        5.2274784353        9.4506047977
 Pt        -0.1740595666        7.7098895745       10.0811729103
 Pt         6.7319316152       13.3140014161       10.6396670722
 Pt        -0.2311065087        2.5759646641        9.7391297697
 Pt        -2.6054951672        7.8167491610        9.4178614861
 Pt         2.1693503160        2.9283873078       10.4411265085
 Pt         3.0630071306        5.5859709018       11.0325979987
 Pt         5.1589010581        4.7797842733        9.5801333359
 Pt         1.7092788865       -0.0305896015        9.9469407085
 Pt         3.9763773461        1.2714804223        9.7769509095
 Pt        -1.2118458259        5.7014489963       10.9628071633
 Pt         6.3449940228        2.3697563039        9.7372006832
 Pt         0.1889517369        3.7867785694       11.9371404004
 Pt         6.1053679388        1.6368555439       12.2290194694
 Pt         1.0462359979        6.4574336595       12.1747396474
 Pt         4.5273231789        3.6885641094       11.6533541716
 Pt         0.6655139690        4.4493577468       14.3555902814
 Pt         0.8728524908        1.0811395005       12.1784289567
 Pt         3.1646642332        5.2668866714       13.5034608541
 Pt         3.6716971496        0.9939421830       12.2761747090
 Pt         2.3038508286        2.7050295955       13.3283049242
     166
 i =     2657, time =     2657.000, E =     -6045.7795360037
  O         0.0000000000        0.0000000000        0.0000000000
  O         3.8260000000        0.0000000000        0.0000000000
  O         7.6520000000        0.0000000000        0.0000000000
  O        11.4780000000        0.0000000000        0.0000000000
  O        -1.9130000000        3.3140000000        0.0000000000
  O         1.9130000000        3.3140000000        0.0000000000
  O         5.7390000000        3.3140000000        0.0000000000
  O         9.5650000000        3.3140000000        0.0000000000
  O        -3.8260000000        6.6270000000        0.0000000000
  O         0.0000000000        6.6270000000        0.0000000000
  O         3.8260000000        6.6270000000        0.0000000000
  O         7.6520000000        6.6270000000        0.0000000000
  O        -5.7390000000        9.9410000000        0.0000000000
  O        -1.9130000000        9.9410000000        0.0000000000
  O         1.9130000000        9.9410000000        0.0000000000
  O         5.7390000000        9.9410000000        0.0000000000
  O         1.9130000000        1.1050000000        1.5620000000
  O         5.7390000000        1.1050000000        1.5620000000
  O         9.5650000000        1.1050000000        1.5620000000
  O        13.3920000000        1.1050000000        1.5620000000
  O         0.0000000000        4.4180000000        1.5620000000
  O         3.8260000000        4.4180000000        1.5620000000
  O         7.6520000000        4.4180000000        1.5620000000
  O        11.4780000000        4.4180000000        1.5620000000
  O        -1.9130000000        7.7320000000        1.5620000000
  O         1.9130000000        7.7320000000        1.5620000000
  O         5.7390000000        7.7320000000        1.5620000000
  O         9.5650000000        7.7320000000        1.5620000000
  O        -3.8260000000       11.0450000000        1.5620000000
  O         0.0000000000       11.0450000000        1.5620000000
  O         3.8260000000       11.0450000000        1.5620000000
  O         7.6520000000       11.0450000000        1.5620000000
  O         0.0000000000        2.2090000000        3.1240000000
  O         3.8260000000        2.2090000000        3.1240000000
  O         7.6520000000        2.2090000000        3.1240000000
  O        11.4780000000        2.2090000000        3.1240000000
  O        -1.9130000000        5.5230000000        3.1240000000
  O         1.9130000000        5.5230000000        3.1240000000
  O         5.7390000000        5.5230000000        3.1240000000
  O         9.5650000000        5.5230000000        3.1240000000
  O        -3.8260000000        8.8360000000        3.1240000000
  O         0.0000000000        8.8360000000        3.1240000000
  O         3.8260000000        8.8360000000        3.1240000000
  O         7.6520000000        8.8360000000        3.1240000000
  O        -5.7390000000       12.1500000000        3.1240000000
  O        -1.9130000000       12.1500000000        3.1240000000
  O         1.9130000000       12.1500000000        3.1240000000
  O         5.7390000000       12.1500000000        3.1240000000
  O        -0.1145551618       -0.0736280298        4.8859963141
  O         3.9243344523       -0.1490643247        4.8712536423
  O         7.7817537333        0.0416145422        4.7155690809
  O        11.2162426239       -0.0306791454        4.8549742217
  O        -2.0197550236        3.3394051620        4.9603211789
  O         1.9177138154        3.2697239331        4.6886479616
  O         5.7139572596        3.4521945273        4.6714572014
  O         9.4691680195        3.3200006999        4.7989814453
  O        -3.7103387770        6.4804403733        4.6705847003
  O        -0.2376433793        6.3595520911        4.9364744362
  O         3.6723109522        6.7718264560        4.6849259557
  O         7.7502373047        6.8046052594        4.7345465087
  O        -5.5947777657       10.0527694507        4.7270508773
  O        -1.8389511195       10.1020275145        4.7820132438
  O         1.7169861472        9.8866614782        4.7365136705
  O         5.8184740940        9.8712018261        4.7384348464
  O         1.9767662642        0.9336523442        6.1381072293
  O         5.7347981055        1.0646149771        6.0650806513
  O         9.4204606853        1.2036731891        6.5243879297
  O        13.0190962646        1.0428941256        6.3573725399
  O        -0.0665576113        4.2387457626        6.4529815397
  O         3.7957408282        4.6423570811        6.2133347725
  O         7.6266917930        4.2960680549        6.2071193456
  O        11.4112626884        4.4428877175        6.3986311871
  O        -1.8825440729        7.9763267519        6.6298885685
  O         1.6936271411        7.9005268832        6.3335027245
  O         5.6229708414        7.9004396412        6.2835913375
  O         9.7420047275        7.9154263868        6.2287104057
  O        -3.9097180497       11.0757899354        6.5627795853
  O         0.1051156076       10.9246756777        6.4568750946
  O         3.7674803170       11.0803283149        6.3695223682
  O         7.5546404461       10.9406963467        6.4256949951
  O         0.0363261209        2.0887191384        7.6112634826
  O         3.8504356383        1.9936766366        7.8513692317
  O         7.6492717285        2.2001342214        8.2867862716
  O        11.1203580518        2.5862793901        8.3346827302
  O        -2.0845325331        5.3793035936        7.8178388505
  O         1.8363218944        5.6285000123        7.8318219248
  O         5.7136388274        5.7885488441        7.6639697207
  O         9.3778098442        5.6533139721        7.8633673217
  O        -4.0971030017        8.7511842821        8.4142808168
  O         0.1423796168        9.2875806949        8.4143839859
  O         3.7516138614        8.6559716153        8.0463320575
  O         7.9390723371        8.8221433424        8.0013420414
  O        -5.9903811114       12.1387172337        8.2775260660
  O        -1.8802171119       12.1723486629        8.0246157776
  O         1.8498995989       12.2507932861        8.1436223871
  O         5.7987828982       11.9922049220        7.9600723546
 Ce         0.0000000000        2.2090000000        0.7810000000
 Ce         3.8260000000        2.2090000000        0.7810000000
 Ce         7.6520000000        2.2090000000        0.7810000000
 Ce        11.4780000000        2.2090000000        0.7810000000
 Ce        -1.9130000000        5.5230000000        0.7810000000
 Ce         1.9130000000        5.5230000000        0.7810000000
 Ce         5.7390000000        5.5230000000        0.7810000000
 Ce         9.5650000000        5.5230000000        0.7810000000
 Ce        -3.8260000000        8.8360000000        0.7810000000
 Ce         0.0000000000        8.8360000000        0.7810000000
 Ce         3.8260000000        8.8360000000        0.7810000000
 Ce         7.6520000000        8.8360000000        0.7810000000
 Ce        -5.7390000000       12.1500000000        0.7810000000
 Ce        -1.9130000000       12.1500000000        0.7810000000
 Ce         1.9130000000       12.1500000000        0.7810000000
 Ce         5.7390000000       12.1500000000        0.7810000000
 Ce         1.9037586385        1.1026710377        3.9545451852
 Ce         5.8346826070        1.1702063223        3.9307779827
 Ce         9.6345325668        1.1602535714        4.0169930451
 Ce        13.2946822628        1.0473714099        3.9229540704
 Ce         0.0560590637        4.3082158528        4.1317097394
 Ce         3.7523792809        4.4835208965        3.8802499095
 Ce         7.6392175920        4.4674441818        3.8515331812
 Ce        11.5072268040        4.3641258469        3.8981929330
 Ce        -1.9427729412        7.7968132391        3.8761386262
 Ce         1.7621926148        7.7367940864        3.9632248195
 Ce         5.7263242050        7.7864952262        4.0741142922
 Ce         9.5964176240        7.7472356274        4.0327018691
 Ce        -3.6859710261       11.0734831076        3.9562604074
 Ce        -0.0231007383       11.0734634125        3.7426950618
 Ce         3.9490241947       10.9885265714        3.9426384402
 Ce         7.7305809174       11.0551601945        3.9227855472
 Ce        -0.1412230236       -0.2076427992        7.3875984173
 Ce         3.7659396177       -0.1172869185        7.0530998048
 Ce         7.5958966964       -0.1167069726        7.2819604343
 Ce        11.2434142290        0.2824576685        7.4287914889
 Ce        -2.0512355095        3.3471996621        7.2553447219
 Ce         1.9170871801        3.3221405381        7.2091921484
 Ce         5.7263575067        3.4532308024        6.9867972755
 Ce         9.4993423618        3.5161906292        7.1099285435
 Ce        -3.8807216007        6.7634550539        7.0684536860
 Ce        -0.2744840924        6.5332378759        7.1969650871
 Ce         3.6395471345        6.8078203781        6.9901492404
 Ce         7.6281562466        6.8217443442        7.0537321336
 Ce        -5.7397825242       10.0053554276        7.0938173803
 Ce        -1.7889952347       10.0669818997        7.4384774156
 Ce         1.8773290992       10.0390603042        7.0309503632
 Ce         5.6120952492       10.0845238515        7.1999846791
 Pt        12.7070068514        1.6284664914        9.7787936850
 Pt         0.6992562581        5.2253731092        9.4510639294
 Pt        -0.1759546240        7.7082679193       10.0803063295
 Pt         6.7301298514       13.3140286759       10.6398696602
 Pt        -0.2298215331        2.5738127007        9.7376044148
 Pt        -2.6047614464        7.8179082816        9.4173649383
 Pt         2.1704288164        2.9289140823       10.4361336083
 Pt         3.0620218903        5.5866760222       11.0307677122
 Pt         5.1568714230        4.7808002707        9.5785699588
 Pt         1.7082247306       -0.0303303706        9.9459973278
 Pt         3.9774213955        1.2723390145        9.7775775749
 Pt        -1.2133717532        5.6991984444       10.9578423893
 Pt         6.3445377083        2.3708903639        9.7366608672
 Pt         0.1850964973        3.7834651843       11.9417957197
 Pt         6.1056216975        1.6385246301       12.2284986479
 Pt         1.0492806349        6.4577804160       12.1722409218
 Pt         4.5235144630        3.6909038736       11.6527716521
 Pt         0.6644551974        4.4467950893       14.3554320066
 Pt         0.8736356017        1.0847304603       12.1764092852
 Pt         3.1630935493        5.2657687099       13.5065596282
 Pt         3.6695994363        0.9903802228       12.2751747990
 Pt         2.3015954685        2.7046595687       13.3302444730
     166
 i =     2658, time =     2658.000, E =     -6045.7794137794
  O         0.0000000000        0.0000000000        0.0000000000
  O         3.8260000000        0.0000000000        0.0000000000
  O         7.6520000000        0.0000000000        0.0000000000
  O        11.4780000000        0.0000000000        0.0000000000
  O        -1.9130000000        3.3140000000        0.0000000000
  O         1.9130000000        3.3140000000        0.0000000000
  O         5.7390000000        3.3140000000        0.0000000000
  O         9.5650000000        3.3140000000        0.0000000000
  O        -3.8260000000        6.6270000000        0.0000000000
  O         0.0000000000        6.6270000000        0.0000000000
  O         3.8260000000        6.6270000000        0.0000000000
  O         7.6520000000        6.6270000000        0.0000000000
  O        -5.7390000000        9.9410000000        0.0000000000
  O        -1.9130000000        9.9410000000        0.0000000000
  O         1.9130000000        9.9410000000        0.0000000000
  O         5.7390000000        9.9410000000        0.0000000000
  O         1.9130000000        1.1050000000        1.5620000000
  O         5.7390000000        1.1050000000        1.5620000000
  O         9.5650000000        1.1050000000        1.5620000000
  O        13.3920000000        1.1050000000        1.5620000000
  O         0.0000000000        4.4180000000        1.5620000000
  O         3.8260000000        4.4180000000        1.5620000000
  O         7.6520000000        4.4180000000        1.5620000000
  O        11.4780000000        4.4180000000        1.5620000000
  O        -1.9130000000        7.7320000000        1.5620000000
  O         1.9130000000        7.7320000000        1.5620000000
  O         5.7390000000        7.7320000000        1.5620000000
  O         9.5650000000        7.7320000000        1.5620000000
  O        -3.8260000000       11.0450000000        1.5620000000
  O         0.0000000000       11.0450000000        1.5620000000
  O         3.8260000000       11.0450000000        1.5620000000
  O         7.6520000000       11.0450000000        1.5620000000
  O         0.0000000000        2.2090000000        3.1240000000
  O         3.8260000000        2.2090000000        3.1240000000
  O         7.6520000000        2.2090000000        3.1240000000
  O        11.4780000000        2.2090000000        3.1240000000
  O        -1.9130000000        5.5230000000        3.1240000000
  O         1.9130000000        5.5230000000        3.1240000000
  O         5.7390000000        5.5230000000        3.1240000000
  O         9.5650000000        5.5230000000        3.1240000000
  O        -3.8260000000        8.8360000000        3.1240000000
  O         0.0000000000        8.8360000000        3.1240000000
  O         3.8260000000        8.8360000000        3.1240000000
  O         7.6520000000        8.8360000000        3.1240000000
  O        -5.7390000000       12.1500000000        3.1240000000
  O        -1.9130000000       12.1500000000        3.1240000000
  O         1.9130000000       12.1500000000        3.1240000000
  O         5.7390000000       12.1500000000        3.1240000000
  O        -0.1274930850       -0.0723136322        4.8915391318
  O         3.9236139729       -0.1422728137        4.8609628686
  O         7.7854715749        0.0411458770        4.7078028426
  O        11.2129234533       -0.0312252360        4.8587044500
  O        -2.0253394781        3.3320067528        4.9676484931
  O         1.9181675678        3.2632561531        4.6961133317
  O         5.7138983270        3.4500322711        4.6622222738
  O         9.4671028390        3.3267224320        4.7909657275
  O        -3.6989383257        6.4887186666        4.6721389772
  O        -0.2502375099        6.3485147879        4.9387185478
  O         3.6791223269        6.7571366929        4.6832959814
  O         7.7543469536        6.8061636639        4.7327167818
  O        -5.5933952604       10.0541530566        4.7376978985
  O        -1.8459629222       10.1049824883        4.7786385118
  O         1.7135807741        9.8778620293        4.7393443074
  O         5.8122408912        9.8796843956        4.7418832488
  O         1.9768958801        0.9425663345        6.1365085041
  O         5.7326799860        1.0599810902        6.0657901700
  O         9.4106352293        1.2046267426        6.5413709709
  O        13.0123740821        1.0307113502        6.3474053544
  O        -0.0679067103        4.2409012316        6.4576736465
  O         3.7985890599        4.6418501905        6.2121067578
  O         7.6180173799        4.2902091986        6.2038212885
  O        11.4151268854        4.4438150583        6.4010519530
  O        -1.8803475793        7.9708948782        6.6297224367
  O         1.6955311830        7.8905834817        6.3247333420
  O         5.6196975313        7.8905806933        6.2931464456
  O         9.7495891875        7.9228807548        6.2240697793
  O        -3.9075723090       11.0686048148        6.5701239668
  O         0.1069665631       10.9161962057        6.4557053008
  O         3.7731965272       11.0862626600        6.3650252384
  O         7.5543017400       10.9353751868        6.4311153921
  O         0.0401813087        2.0839820719        7.6138875563
  O         3.8477910898        1.9927893883        7.8659631077
  O         7.6430843000        2.1966624761        8.2764729669
  O        11.1234438406        2.5831971844        8.3324344708
  O        -2.0914933105        5.3824125452        7.8126616854
  O         1.8410386697        5.6194572025        7.8233106822
  O         5.7285172844        5.7823234762        7.6730783039
  O         9.3776661898        5.6645998821        7.8528605824
  O        -4.0976243267        8.7496859178        8.4236954176
  O         0.1528804931        9.2776613862        8.4132849004
  O         3.7590695425        8.6519938756        8.0522149213
  O         7.9314414054        8.8272689797        7.9921616942
  O        -5.9980112221       12.1495656268        8.2707667736
  O        -1.8803054535       12.1847971650        8.0372431654
  O         1.8519607021       12.2491899396        8.1386522669
  O         5.8057660019       11.9944275396        7.9579552907
 Ce         0.0000000000        2.2090000000        0.7810000000
 Ce         3.8260000000        2.2090000000        0.7810000000
 Ce         7.6520000000        2.2090000000        0.7810000000
 Ce        11.4780000000        2.2090000000        0.7810000000
 Ce        -1.9130000000        5.5230000000        0.7810000000
 Ce         1.9130000000        5.5230000000        0.7810000000
 Ce         5.7390000000        5.5230000000        0.7810000000
 Ce         9.5650000000        5.5230000000        0.7810000000
 Ce        -3.8260000000        8.8360000000        0.7810000000
 Ce         0.0000000000        8.8360000000        0.7810000000
 Ce         3.8260000000        8.8360000000        0.7810000000
 Ce         7.6520000000        8.8360000000        0.7810000000
 Ce        -5.7390000000       12.1500000000        0.7810000000
 Ce        -1.9130000000       12.1500000000        0.7810000000
 Ce         1.9130000000       12.1500000000        0.7810000000
 Ce         5.7390000000       12.1500000000        0.7810000000
 Ce         1.9073216860        1.1050203277        3.9577992201
 Ce         5.8341573773        1.1690801545        3.9309805179
 Ce         9.6349818657        1.1587571853        4.0149472033
 Ce        13.2949173670        1.0484434141        3.9224023551
 Ce         0.0550774408        4.3064695550        4.1341666219
 Ce         3.7549847883        4.4825415369        3.8772926530
 Ce         7.6430276076        4.4698166912        3.8536291874
 Ce        11.5052867360        4.3634847768        3.9020069329
 Ce        -1.9403470936        7.7971398633        3.8761438615
 Ce         1.7627115195        7.7416006161        3.9642202716
 Ce         5.7262071985        7.7886892664        4.0735978655
 Ce         9.5974315597        7.7471181172        4.0300833997
 Ce        -3.6878452798       11.0760658795        3.9568802486
 Ce        -0.0186433079       11.0710515462        3.7441622615
 Ce         3.9478881859       10.9895775694        3.9432891392
 Ce         7.7309119713       11.0566449302        3.9213105370
 Ce        -0.1400950456       -0.2060210192        7.3863074268
 Ce         3.7652050903       -0.1176042964        7.0516240501
 Ce         7.5944052580       -0.1161825269        7.2814842122
 Ce        11.2467861742        0.2798436191        7.4269434971
 Ce        -2.0523388579        3.3476705770        7.2565593678
 Ce         1.9201473488        3.3224188199        7.2077400270
 Ce         5.7252580161        3.4540627452        6.9861947285
 Ce         9.4941027514        3.5123867897        7.1051701524
 Ce        -3.8812636281        6.7662412827        7.0685608814
 Ce        -0.2791864146        6.5351892193        7.1964859757
 Ce         3.6392107783        6.8049663741        6.9905233280
 Ce         7.6238848081        6.8205772799        7.0527658444
 Ce        -5.7425381742       10.0047599424        7.0905904368
 Ce        -1.7879915144       10.0696898948        7.4339310992
 Ce         1.8799742029       10.0407120201        7.0308890263
 Ce         5.6076434660       10.0824070632        7.2008127699
 Pt        12.7085137132        1.6286816281        9.7771676164
 Pt         0.6957617941        5.2232147352        9.4515708677
 Pt        -0.1777693128        7.7067744721       10.0793690070
 Pt         6.7283540368       13.3140389791       10.6400901201
 Pt        -0.2285239697        2.5716783096        9.7360306354
 Pt        -2.6040340293        7.8190777938        9.4169295173
 Pt         2.1715320997        2.9294829033       10.4311333197
 Pt         3.0610314874        5.5873967487       11.0288191948
 Pt         5.1548758672        4.7818970423        9.5769241878
 Pt         1.7071536778       -0.0300112627        9.9450957644
 Pt         3.9784942822        1.2732116461        9.7781894943
 Pt        -1.2150316711        5.6968896236       10.9529273797
 Pt         6.3440817514        2.3720341035        9.7361909734
 Pt         0.1812275261        3.7801399429       11.9464740100
 Pt         6.1058630192        1.6402063523       12.2279631594
 Pt         1.0523066318        6.4581234641       12.1697833013
 Pt         4.5197109748        3.6931355015       11.6522740769
 Pt         0.6634478270        4.4442579702       14.3552686793
 Pt         0.8743948905        1.0882754222       12.1743520758
 Pt         3.1614872661        5.2646328136       13.5096952412
 Pt         3.6675128783        0.9867282159       12.2741673751
 Pt         2.2993514312        2.7044183944       13.3322686778
     166
 i =     2659, time =     2659.000, E =     -6045.7799334102
  O         0.0000000000        0.0000000000        0.0000000000
  O         3.8260000000        0.0000000000        0.0000000000
  O         7.6520000000        0.0000000000        0.0000000000
  O        11.4780000000        0.0000000000        0.0000000000
  O        -1.9130000000        3.3140000000        0.0000000000
  O         1.9130000000        3.3140000000        0.0000000000
  O         5.7390000000        3.3140000000        0.0000000000
  O         9.5650000000        3.3140000000        0.0000000000
  O        -3.8260000000        6.6270000000        0.0000000000
  O         0.0000000000        6.6270000000        0.0000000000
  O         3.8260000000        6.6270000000        0.0000000000
  O         7.6520000000        6.6270000000        0.0000000000
  O        -5.7390000000        9.9410000000        0.0000000000
  O        -1.9130000000        9.9410000000        0.0000000000
  O         1.9130000000        9.9410000000        0.0000000000
  O         5.7390000000        9.9410000000        0.0000000000
  O         1.9130000000        1.1050000000        1.5620000000
  O         5.7390000000        1.1050000000        1.5620000000
  O         9.5650000000        1.1050000000        1.5620000000
  O        13.3920000000        1.1050000000        1.5620000000
  O         0.0000000000        4.4180000000        1.5620000000
  O         3.8260000000        4.4180000000        1.5620000000
  O         7.6520000000        4.4180000000        1.5620000000
  O        11.4780000000        4.4180000000        1.5620000000
  O        -1.9130000000        7.7320000000        1.5620000000
  O         1.9130000000        7.7320000000        1.5620000000
  O         5.7390000000        7.7320000000        1.5620000000
  O         9.5650000000        7.7320000000        1.5620000000
  O        -3.8260000000       11.0450000000        1.5620000000
  O         0.0000000000       11.0450000000        1.5620000000
  O         3.8260000000       11.0450000000        1.5620000000
  O         7.6520000000       11.0450000000        1.5620000000
  O         0.0000000000        2.2090000000        3.1240000000
  O         3.8260000000        2.2090000000        3.1240000000
  O         7.6520000000        2.2090000000        3.1240000000
  O        11.4780000000        2.2090000000        3.1240000000
  O        -1.9130000000        5.5230000000        3.1240000000
  O         1.9130000000        5.5230000000        3.1240000000
  O         5.7390000000        5.5230000000        3.1240000000
  O         9.5650000000        5.5230000000        3.1240000000
  O        -3.8260000000        8.8360000000        3.1240000000
  O         0.0000000000        8.8360000000        3.1240000000
  O         3.8260000000        8.8360000000        3.1240000000
  O         7.6520000000        8.8360000000        3.1240000000
  O        -5.7390000000       12.1500000000        3.1240000000
  O        -1.9130000000       12.1500000000        3.1240000000
  O         1.9130000000       12.1500000000        3.1240000000
  O         5.7390000000       12.1500000000        3.1240000000
  O        -0.1405163152       -0.0709703510        4.8967072087
  O         3.9226270910       -0.1355309304        4.8498338516
  O         7.7888024324        0.0402050881        4.7003243490
  O        11.2104019375       -0.0317982322        4.8621388099
  O        -2.0306568673        3.3242643018        4.9740662461
  O         1.9186901417        3.2570800848        4.7041324870
  O         5.7137536678        3.4475363280        4.6532509825
  O         9.4657551309        3.3334604502        4.7827073690
  O        -3.6878149883        6.4980875885        4.6742668175
  O        -0.2624724068        6.3385747056        4.9406482941
  O         3.6861564422        6.7424025714        4.6817748300
  O         7.7579274930        6.8071259986        4.7316337632
  O        -5.5926077135       10.0554199357        4.7485762461
  O        -1.8532266575       10.1073441135        4.7752749947
  O         1.7110404834        9.8694084329        4.7418757110
  O         5.8056101724        9.8890575771        4.7454451364
  O         1.9769924806        0.9516799660        6.1356523411
  O         5.7309384263        1.0556802954        6.0679147963
  O         9.4011974298        1.2056664957        6.5582569180
  O        13.0056660181        1.0187466451        6.3378955501
  O        -0.0687866836        4.2435589883        6.4620164172
  O         3.8012600834        4.6403581820        6.2111802354
  O         7.6090863404        4.2850298480        6.2008760941
  O        11.4183514645        4.4447713686        6.4030252908
  O        -1.8785318828        7.9653564610        6.6284741435
  O         1.6973518850        7.8801628508        6.3157300712
  O         5.6168674359        7.8807372387        6.3027602032
  O         9.7568714716        7.9300413604        6.2194806780
  O        -3.9048762682       11.0606014901        6.5773100100
  O         0.1075419109       10.9089250045        6.4542520734
  O         3.7791931948       11.0919853147        6.3604999794
  O         7.5545261586       10.9301939159        6.4362416969
  O         0.0438758137        2.0788539349        7.6169631520
  O         3.8451109416        1.9924502995        7.8801425670
  O         7.6367914081        2.1931793030        8.2654815036
  O        11.1272047352        2.5792761735        8.3303558615
  O        -2.0983177917        5.3862943616        7.8074998737
  O         1.8459566358        5.6100698437        7.8144938765
  O         5.7435113339        5.7755263559        7.6828660430
  O         9.3775013007        5.6761643147        7.8420997766
  O        -4.0979579206        8.7481901779        8.4326235375
  O         0.1631144888        9.2671788656        8.4126245544
  O         3.7665830078        8.6488736395        8.0577732419
  O         7.9232282765        8.8320136692        7.9827902558
  O        -6.0050056336       12.1596868129        8.2633333058
  O        -1.8803016752       12.1972032637        8.0497549537
  O         1.8540029432       12.2477717210        8.1334206114
  O         5.8117758714       11.9968749494        7.9566231219
 Ce         0.0000000000        2.2090000000        0.7810000000
 Ce         3.8260000000        2.2090000000        0.7810000000
 Ce         7.6520000000        2.2090000000        0.7810000000
 Ce        11.4780000000        2.2090000000        0.7810000000
 Ce        -1.9130000000        5.5230000000        0.7810000000
 Ce         1.9130000000        5.5230000000        0.7810000000
 Ce         5.7390000000        5.5230000000        0.7810000000
 Ce         9.5650000000        5.5230000000        0.7810000000
 Ce        -3.8260000000        8.8360000000        0.7810000000
 Ce         0.0000000000        8.8360000000        0.7810000000
 Ce         3.8260000000        8.8360000000        0.7810000000
 Ce         7.6520000000        8.8360000000        0.7810000000
 Ce        -5.7390000000       12.1500000000        0.7810000000
 Ce        -1.9130000000       12.1500000000        0.7810000000
 Ce         1.9130000000       12.1500000000        0.7810000000
 Ce         5.7390000000       12.1500000000        0.7810000000
 Ce         1.9108906800        1.1073201937        3.9610419499
 Ce         5.8335967322        1.1679290664        3.9311757612
 Ce         9.6352942088        1.1571823759        4.0128823545
 Ce        13.2952238204        1.0495334150        3.9219567107
 Ce         0.0539752687        4.3047421555        4.1365284751
 Ce         3.7576562157        4.4815339375        3.8743428720
 Ce         7.6468365194        4.4721463920        3.8557398443
 Ce        11.5033602190        4.3629105157        3.9058648499
 Ce        -1.9379315409        7.7973714891        3.8761683764
 Ce         1.7633186575        7.7464093275        3.9652154159
 Ce         5.7260729654        7.7908577689        4.0729128084
 Ce         9.5984735202        7.7470279346        4.0272771388
 Ce        -3.6898053205       11.0786563439        3.9574809596
 Ce        -0.0141032547       11.0687049232        3.7457955572
 Ce         3.9466062457       10.9906669895        3.9439191456
 Ce         7.7312322801       11.0581431382        3.9198440635
 Ce        -0.1389383279       -0.2042160092        7.3848970960
 Ce         3.7644927594       -0.1177669539        7.0501632939
 Ce         7.5929777080       -0.1155251582        7.2809370118
 Ce        11.2501793681        0.2771685645        7.4250310820
 Ce        -2.0534273906        3.3480744759        7.2577322514
 Ce         1.9231854928        3.3226634875        7.2062824948
 Ce         5.7241234285        3.4548582081        6.9855598585
 Ce         9.4888662168        3.5085611945        7.1004542414
 Ce        -3.8817853730        6.7689027845        7.0687448449
 Ce        -0.2838149869        6.5371460439        7.1959860256
 Ce         3.6389183422        6.8020816811        6.9909805088
 Ce         7.6196434949        6.8193901130        7.0518804928
 Ce        -5.7453552610       10.0040967742        7.0874697536
 Ce        -1.7869950476       10.0723230603        7.4293889982
 Ce         1.8826884432       10.0422707931        7.0309442272
 Ce         5.6031984463       10.0801307125        7.2016021999
 Pt        12.7099277087        1.6289227058        9.7754853309
 Pt         0.6922986420        5.2210040387        9.4521172607
 Pt        -0.1794983245        7.7054172500       10.0783592958
 Pt         6.7266047628       13.3140300645       10.6403281612
 Pt        -0.2272122223        2.5695638789        9.7344100309
 Pt        -2.6033188140        7.8202568177        9.4165547642
 Pt         2.1726660961        2.9300973243       10.4261240075
 Pt         3.0600349355        5.5881322842       11.0267572286
 Pt         5.1529141836        4.7830713206        9.5752009162
 Pt         1.7060640276       -0.0296325992        9.9442394602
 Pt         3.9795919545        1.2740945947        9.7787916599
 Pt        -1.2168132402        5.6945223819       10.9480691116
 Pt         6.3436215695        2.3731920360        9.7357867217
 Pt         0.1773437837        3.7767986453       11.9511721706
 Pt         6.1060894891        1.6418978062       12.2274172751
 Pt         1.0552995402        6.4584568683       12.1673707236
 Pt         4.5159162000        3.6952574643       11.6518568991
 Pt         0.6624893473        4.4417511918       14.3551007888
 Pt         0.8751260446        1.0917737422       12.1722567970
 Pt         3.1598498297        5.2634816140       13.5128624701
 Pt         3.6654430662        0.9829875842       12.2731555695
 Pt         2.2971191535        2.7043056728       13.3343729230
     166
 i =     2660, time =     2660.000, E =     -6045.7807247110
  O         0.0000000000        0.0000000000        0.0000000000
  O         3.8260000000        0.0000000000        0.0000000000
  O         7.6520000000        0.0000000000        0.0000000000
  O        11.4780000000        0.0000000000        0.0000000000
  O        -1.9130000000        3.3140000000        0.0000000000
  O         1.9130000000        3.3140000000        0.0000000000
  O         5.7390000000        3.3140000000        0.0000000000
  O         9.5650000000        3.3140000000        0.0000000000
  O        -3.8260000000        6.6270000000        0.0000000000
  O         0.0000000000        6.6270000000        0.0000000000
  O         3.8260000000        6.6270000000        0.0000000000
  O         7.6520000000        6.6270000000        0.0000000000
  O        -5.7390000000        9.9410000000        0.0000000000
  O        -1.9130000000        9.9410000000        0.0000000000
  O         1.9130000000        9.9410000000        0.0000000000
  O         5.7390000000        9.9410000000        0.0000000000
  O         1.9130000000        1.1050000000        1.5620000000
  O         5.7390000000        1.1050000000        1.5620000000
  O         9.5650000000        1.1050000000        1.5620000000
  O        13.3920000000        1.1050000000        1.5620000000
  O         0.0000000000        4.4180000000        1.5620000000
  O         3.8260000000        4.4180000000        1.5620000000
  O         7.6520000000        4.4180000000        1.5620000000
  O        11.4780000000        4.4180000000        1.5620000000
  O        -1.9130000000        7.7320000000        1.5620000000
  O         1.9130000000        7.7320000000        1.5620000000
  O         5.7390000000        7.7320000000        1.5620000000
  O         9.5650000000        7.7320000000        1.5620000000
  O        -3.8260000000       11.0450000000        1.5620000000
  O         0.0000000000       11.0450000000        1.5620000000
  O         3.8260000000       11.0450000000        1.5620000000
  O         7.6520000000       11.0450000000        1.5620000000
  O         0.0000000000        2.2090000000        3.1240000000
  O         3.8260000000        2.2090000000        3.1240000000
  O         7.6520000000        2.2090000000        3.1240000000
  O        11.4780000000        2.2090000000        3.1240000000
  O        -1.9130000000        5.5230000000        3.1240000000
  O         1.9130000000        5.5230000000        3.1240000000
  O         5.7390000000        5.5230000000        3.1240000000
  O         9.5650000000        5.5230000000        3.1240000000
  O        -3.8260000000        8.8360000000        3.1240000000
  O         0.0000000000        8.8360000000        3.1240000000
  O         3.8260000000        8.8360000000        3.1240000000
  O         7.6520000000        8.8360000000        3.1240000000
  O        -5.7390000000       12.1500000000        3.1240000000
  O        -1.9130000000       12.1500000000        3.1240000000
  O         1.9130000000       12.1500000000        3.1240000000
  O         5.7390000000       12.1500000000        3.1240000000
  O        -0.1535879534       -0.0696234270        4.9014589574
  O         3.9213464745       -0.1288505607        4.8378965254
  O         7.7917440803        0.0387895638        4.6931280122
  O        11.2086255343       -0.0323841619        4.8652740805
  O        -2.0357046518        3.3161916435        4.9795157575
  O         1.9192765937        3.2512499023        4.7127072419
  O         5.7135282902        3.4447032061        4.6446000029
  O         9.4651340226        3.3401862994        4.7742322367
  O        -3.6770334552        6.5084705915        4.6769365246
  O        -0.2743029981        6.3297663325        4.9422713731
  O         3.6933773775        6.7277584391        4.6803576191
  O         7.7609380150        6.8074871853        4.7313008743
  O        -5.5924312082       10.0565982407        4.7595489165
  O        -1.8607037499       10.1091180721        4.7719151327
  O         1.7093757019        9.8613616025        4.7440917190
  O         5.7985900419        9.8992118937        4.7490947666
  O         1.9770922382        0.9609680257        6.1355517220
  O         5.7295594071        1.0517110065        6.0714359178
  O         9.3921808977        1.2068016126        6.5749954958
  O        12.9990138012        1.0070517673        6.3288373254
  O        -0.0692174387        4.2466754815        6.4659841784
  O         3.8037831278        4.6378693732        6.2105794722
  O         7.5999445819        4.2805342243        6.1982785769
  O        11.4208663508        4.4457312756        6.4045363993
  O        -1.8770985815        7.9597259536        6.6261273000
  O         1.6991184434        7.8692947877        6.3065331381
  O         5.6144710702        7.8709350964        6.3122822255
  O         9.7638315038        7.9368790171        6.2149696418
  O        -3.9016245463       11.0518946053        6.5843484688
  O         0.1068787824       10.9028929246        6.4525072596
  O         3.7854190113       11.0974735402        6.3559804153
  O         7.5553096561       10.9251812849        6.4410248544
  O         0.0474028735        2.0733826994        7.6204779482
  O         3.8424051029        1.9926451310        7.8937569986
  O         7.6303649703        2.1897152331        8.2538104209
  O        11.1316083304        2.5745571142        8.3284313225
  O        -2.1049919467        5.3909255936        7.8023618888
  O         1.8510268353        5.6003189481        7.8054127327
  O         5.7585206135        5.7681591579        7.6933561349
  O         9.3773212131        5.6879490209        7.8311163787
  O        -4.0981164806        8.7466790589        8.4410905379
  O         0.1731184460        9.2561328700        8.4124089782
  O         3.7741381003        8.6466278257        8.0630056194
  O         7.9144549471        8.8363240091        7.9732400071
  O        -6.0112986180       12.1690393025        8.2552256008
  O        -1.8801968463       12.2095820842        8.0621691798
  O         1.8560282476       12.2465001469        8.1279280222
  O         5.8167625704       11.9995124499        7.9560863638
 Ce         0.0000000000        2.2090000000        0.7810000000
 Ce         3.8260000000        2.2090000000        0.7810000000
 Ce         7.6520000000        2.2090000000        0.7810000000
 Ce        11.4780000000        2.2090000000        0.7810000000
 Ce        -1.9130000000        5.5230000000        0.7810000000
 Ce         1.9130000000        5.5230000000        0.7810000000
 Ce         5.7390000000        5.5230000000        0.7810000000
 Ce         9.5650000000        5.5230000000        0.7810000000
 Ce        -3.8260000000        8.8360000000        0.7810000000
 Ce         0.0000000000        8.8360000000        0.7810000000
 Ce         3.8260000000        8.8360000000        0.7810000000
 Ce         7.6520000000        8.8360000000        0.7810000000
 Ce        -5.7390000000       12.1500000000        0.7810000000
 Ce        -1.9130000000       12.1500000000        0.7810000000
 Ce         1.9130000000       12.1500000000        0.7810000000
 Ce         5.7390000000       12.1500000000        0.7810000000
 Ce         1.9144639534        1.1095706269        3.9642682405
 Ce         5.8330017607        1.1667545219        3.9313602495
 Ce         9.6354690696        1.1555297130        4.0107966211
 Ce        13.2956022644        1.0506395540        3.9216183811
 Ce         0.0527550241        4.3030335491        4.1387953861
 Ce         3.7603914219        4.4804988600        3.8714019838
 Ce         7.6506369879        4.4744317301        3.8578585586
 Ce        11.5014518085        4.3624076050        3.9097642141
 Ce        -1.9355307798        7.7975074705        3.8762141530
 Ce         1.7640181373        7.7512081246        3.9662084332
 Ce         5.7259205248        7.7929990331        4.0720634174
 Ce         9.5995477048        7.7469674427        4.0242866050
 Ce        -3.6918489270       11.0812507192        3.9580594572
 Ce        -0.0094904530       11.0664264352        3.7475913347
 Ce         3.9451825769       10.9917976627        3.9445272699
 Ce         7.7315401884       11.0596558456        3.9183900572
 Ce        -0.1377596546       -0.2022290173        7.3833629941
 Ce         3.7638055083       -0.1177774146        7.0487166578
 Ce         7.5916100719       -0.1147361420        7.2803227184
 Ce        11.2535935129        0.2744323046        7.4230549871
 Ce        -2.0544998336        3.3484136611        7.2588639684
 Ce         1.9261984371        3.3228748977        7.2048189984
 Ce         5.7229518468        3.4556148538        6.9848934300
 Ce         9.4836383566        3.5047177073        7.0957838452
 Ce        -3.8822853696        6.7714411920        7.0690042187
 Ce        -0.2883671009        6.5391062901        7.1954667485
 Ce         3.6386701158        6.7991638022        6.9915200365
 Ce         7.6154368635        6.8181886280        7.0510760152
 Ce        -5.7482341290       10.0033661430        7.0844578698
 Ce        -1.7860122168       10.0748818431        7.4248562759
 Ce         1.8854679886       10.0437329104        7.0311184402
 Ce         5.5987687757       10.0776992193        7.2023556012
 Pt        12.7112487184        1.6291894936        9.7737459072
 Pt         0.6888736859        5.2187425451        9.4526968852
 Pt        -0.1811388497        7.7041963466       10.0772759237
 Pt         6.7248818241       13.3139995832       10.6405854015
 Pt        -0.2258873950        2.5674707390        9.7327439529
 Pt        -2.6026155878        7.8214442116        9.4162423938
 Pt         2.1738264329        2.9307587904       10.4211100602
 Pt         3.0590311166        5.5888838332       11.0245827831
 Pt         5.1509860009        4.7843223765        9.5734025147
 Pt         1.7049578119       -0.0291921446        9.9434286365
 Pt         3.9807141839        1.2749846509        9.7793891801
 Pt        -1.2187198880        5.6920951972       10.9432695327
 Pt         6.3431602593        2.3743621312        9.7354470016
 Pt         0.1734470075        3.7734441031       11.9558844687
 Pt         6.1062998776        1.6435992425       12.2268602731
 Pt         1.0582589310        6.4587800260       12.1650034741
 Pt         4.5121312876        3.6972682558       11.6515211639
 Pt         0.6615794729        4.4392753494       14.3549306324
 Pt         0.8758275278        1.0952240333       12.1701235994
 Pt         3.1581809916        5.2623151615       13.5160576777
 Pt         3.6633895618        0.9791618808       12.2721407862
 Pt         2.2949025772        2.7043187876       13.3365559299
     166
 i =     2661, time =     2661.000, E =     -6045.7815171134
  O         0.0000000000        0.0000000000        0.0000000000
  O         3.8260000000        0.0000000000        0.0000000000
  O         7.6520000000        0.0000000000        0.0000000000
  O        11.4780000000        0.0000000000        0.0000000000
  O        -1.9130000000        3.3140000000        0.0000000000
  O         1.9130000000        3.3140000000        0.0000000000
  O         5.7390000000        3.3140000000        0.0000000000
  O         9.5650000000        3.3140000000        0.0000000000
  O        -3.8260000000        6.6270000000        0.0000000000
  O         0.0000000000        6.6270000000        0.0000000000
  O         3.8260000000        6.6270000000        0.0000000000
  O         7.6520000000        6.6270000000        0.0000000000
  O        -5.7390000000        9.9410000000        0.0000000000
  O        -1.9130000000        9.9410000000        0.0000000000
  O         1.9130000000        9.9410000000        0.0000000000
  O         5.7390000000        9.9410000000        0.0000000000
  O         1.9130000000        1.1050000000        1.5620000000
  O         5.7390000000        1.1050000000        1.5620000000
  O         9.5650000000        1.1050000000        1.5620000000
  O        13.3920000000        1.1050000000        1.5620000000
  O         0.0000000000        4.4180000000        1.5620000000
  O         3.8260000000        4.4180000000        1.5620000000
  O         7.6520000000        4.4180000000        1.5620000000
  O        11.4780000000        4.4180000000        1.5620000000
  O        -1.9130000000        7.7320000000        1.5620000000
  O         1.9130000000        7.7320000000        1.5620000000
  O         5.7390000000        7.7320000000        1.5620000000
  O         9.5650000000        7.7320000000        1.5620000000
  O        -3.8260000000       11.0450000000        1.5620000000
  O         0.0000000000       11.0450000000        1.5620000000
  O         3.8260000000       11.0450000000        1.5620000000
  O         7.6520000000       11.0450000000        1.5620000000
  O         0.0000000000        2.2090000000        3.1240000000
  O         3.8260000000        2.2090000000        3.1240000000
  O         7.6520000000        2.2090000000        3.1240000000
  O        11.4780000000        2.2090000000        3.1240000000
  O        -1.9130000000        5.5230000000        3.1240000000
  O         1.9130000000        5.5230000000        3.1240000000
  O         5.7390000000        5.5230000000        3.1240000000
  O         9.5650000000        5.5230000000        3.1240000000
  O        -3.8260000000        8.8360000000        3.1240000000
  O         0.0000000000        8.8360000000        3.1240000000
  O         3.8260000000        8.8360000000        3.1240000000
  O         7.6520000000        8.8360000000        3.1240000000
  O        -5.7390000000       12.1500000000        3.1240000000
  O        -1.9130000000       12.1500000000        3.1240000000
  O         1.9130000000       12.1500000000        3.1240000000
  O         5.7390000000       12.1500000000        3.1240000000
  O        -0.1666747231       -0.0682865894        4.9057562516
  O         3.9197508679       -0.1222488636        4.8252174024
  O         7.7942934502        0.0369009096        4.6862280254
  O        11.2075350613       -0.0329686495        4.8680994933
  O        -2.0404772529        3.3078186533        4.9839532538
  O         1.9199209121        3.2458208476        4.7218491683
  O         5.7132284558        3.4415296003        4.6362912113
  O         9.4652431383        3.3468766548        4.7655646311
  O        -3.6666822882        6.5197524793        4.6801126012
  O        -0.2857033229        6.3221318928        4.9435925411
  O         3.7007682451        6.7132951347        4.6790482416
  O         7.7633440472        6.8072470574        4.7317141277
  O        -5.5928728173       10.0577125968        4.7704884269
  O        -1.8683491183       10.1103133112        4.7685568431
  O         1.7085906198        9.8537729623        4.7459825262
  O         5.7912054439        9.9100380303        4.7528034466
  O         1.9772327462        0.9703984645        6.1362127828
  O         5.7285321196        1.0480746883        6.0763213757
  O         9.3835964174        1.2080418906        6.5915883211
  O        12.9924439747        0.9956530579        6.3202270659
  O        -0.0692229789        4.2502078730        6.4695582375
  O         3.8061887947        4.6343751898        6.2103309540
  O         7.5906453627        4.2767284142        6.1960231307
  O        11.4226125291        4.4466745666        6.4055693497
  O        -1.8760536778        7.9540335543        6.6226743514
  O         1.7008559245        7.8580210726        6.2972169322
  O         5.6124951950        7.8612037139        6.3215641402
  O         9.7704635882        7.9433806019        6.2105551398
  O        -3.8978181482       11.0426120220        6.5912303108
  O         0.1050193267       10.8981194634        6.4504669366
  O         3.7918057047       11.1026914302        6.3514913367
  O         7.5566447400       10.9203682136        6.4454066994
  O         0.0507575865        2.0676210335        7.6244034785
  O         3.8396874491        1.9933679369        7.9067133840
  O         7.6237310054        2.1863111975        8.2414896623
  O        11.1365992892        2.5690985863        8.3266185413
  O        -2.1114978232        5.3962810204        7.7972757345
  O         1.8562126688        5.5902001737        7.7961266120
  O         5.7734529354        5.7602242747        7.7045613665
  O         9.3771324872        5.6998975601        7.8198949285
  O        -4.0981441596        8.7451280863        8.4490854618
  O         0.1829030641        9.2445743180        8.4126100191
  O         3.7817080423        8.6452701934        8.0678970349
  O         7.9051303514        8.8401512567        7.9634953939
  O        -6.0168078846       12.1775873042        8.2464715197
  O        -1.8799767689       12.2219030640        8.0744885356
  O         1.8580258364       12.2453354511        8.1221620203
  O         5.8206811371       12.0022929023        7.9563508151
 Ce         0.0000000000        2.2090000000        0.7810000000
 Ce         3.8260000000        2.2090000000        0.7810000000
 Ce         7.6520000000        2.2090000000        0.7810000000
 Ce        11.4780000000        2.2090000000        0.7810000000
 Ce        -1.9130000000        5.5230000000        0.7810000000
 Ce         1.9130000000        5.5230000000        0.7810000000
 Ce         5.7390000000        5.5230000000        0.7810000000
 Ce         9.5650000000        5.5230000000        0.7810000000
 Ce        -3.8260000000        8.8360000000        0.7810000000
 Ce         0.0000000000        8.8360000000        0.7810000000
 Ce         3.8260000000        8.8360000000        0.7810000000
 Ce         7.6520000000        8.8360000000        0.7810000000
 Ce        -5.7390000000       12.1500000000        0.7810000000
 Ce        -1.9130000000       12.1500000000        0.7810000000
 Ce         1.9130000000       12.1500000000        0.7810000000
 Ce         5.7390000000       12.1500000000        0.7810000000
 Ce         1.9180395237        1.1117718402        3.9674735223
 Ce         5.8323733968        1.1655579050        3.9315308262
 Ce         9.6355068878        1.1537996187        4.0086879465
 Ce        13.2960532095        1.0517599086        3.9213889066
 Ce         0.0514193282        4.3013437858        4.1409677549
 Ce         3.7631878717        4.4794368089        3.8684713393
 Ce         7.6544217631        4.4766713659        3.8599786717
 Ce        11.4995662868        4.3619801897        3.9137026888
 Ce        -1.9331490201        7.7975472524        3.8762829427
 Ce         1.7648136614        7.7559847793        3.9671970247
 Ce         5.7257490043        7.7951116944        4.0710538471
 Ce         9.6006577864        7.7469388880        4.0211157948
 Ce        -3.6939741462       11.0838450294        3.9586125713
 Ce        -0.0048145888       11.0642187142        3.7495457597
 Ce         3.9436215317       10.9929726955        3.9451125109
 Ce         7.7318336777       11.0611843955        3.9169526209
 Ce        -0.1365670984       -0.2000606993        7.3817017707
 Ce         3.7631453870       -0.1176371202        7.0472840401
 Ce         7.5902985159       -0.1138188628        7.2796436255
 Ce        11.2570307172        0.2716360753        7.4210175841
 Ce        -2.0555551928        3.3486888772        7.2599564982
 Ce         1.9291825660        3.3230516245        7.2033486811
 Ce         5.7217403638        3.4563307797        6.9841965838
 Ce         9.4784269381        3.5008597554        7.0911626647
 Ce        -3.8827635167        6.7738577362        7.0693366293
 Ce        -0.2928394814        6.5410684594        7.1949293608
 Ce         3.6384653174        6.7962105549        6.9921409233
 Ce         7.6112702313        6.8169791451        7.0503520508
 Ce        -5.7511760038       10.0025684842        7.0815572735
 Ce        -1.7850453019       10.0773667842        7.4203376083
 Ce         1.8883077560       10.0450951581        7.0314145364
 Ce         5.5943633329       10.0751186244        7.2030759127
 Pt        12.7124759069        1.6294804577        9.7719481907
 Pt         0.6854953617        5.2164314248        9.4533042959
 Pt        -0.1826915037        7.7031044629       10.0761209949
 Pt         6.7231864131       13.3139489586       10.6408633346
 Pt        -0.2245520096        2.5653987970        9.7310355003
 Pt        -2.6019196958        7.8226391093        9.4159960334
 Pt         2.1750038287        2.9314665483       10.4161004280
 Pt         3.0580255149        5.5896521331       11.0222920496
 Pt         5.1490920876        4.7856515456        9.5715284301
 Pt         1.7038385284       -0.0286878818        9.9426612354
 Pt         3.9818633027        1.2758782575        9.7799872195
 Pt        -1.2207646036        5.6896073636       10.9385273425
 Pt         6.3427063925        2.3755391327        9.7351716554
 Pt         0.1695403948        3.7700821207       11.9606029084
 Pt         6.1064935483        1.6453141201       12.2262871961
 Pt         1.0611914382        6.4591002153       12.1626785428
 Pt         4.5083559675        3.6991653251       11.6512726544
 Pt         0.6607196136        4.4368266841       14.3547620878
 Pt         0.8764981150        1.0986218090       12.1679520734
 Pt         3.1564747202        5.2611325807       13.5192799507
 Pt         3.6613460484        0.9752568552       12.2711230173
 Pt         2.2927081901        2.7044539663       13.3388195827
     166
 i =     2662, time =     2662.000, E =     -6045.7830689566
  O         0.0000000000        0.0000000000        0.0000000000
  O         3.8260000000        0.0000000000        0.0000000000
  O         7.6520000000        0.0000000000        0.0000000000
  O        11.4780000000        0.0000000000        0.0000000000
  O        -1.9130000000        3.3140000000        0.0000000000
  O         1.9130000000        3.3140000000        0.0000000000
  O         5.7390000000        3.3140000000        0.0000000000
  O         9.5650000000        3.3140000000        0.0000000000
  O        -3.8260000000        6.6270000000        0.0000000000
  O         0.0000000000        6.6270000000        0.0000000000
  O         3.8260000000        6.6270000000        0.0000000000
  O         7.6520000000        6.6270000000        0.0000000000
  O        -5.7390000000        9.9410000000        0.0000000000
  O        -1.9130000000        9.9410000000        0.0000000000
  O         1.9130000000        9.9410000000        0.0000000000
  O         5.7390000000        9.9410000000        0.0000000000
  O         1.9130000000        1.1050000000        1.5620000000
  O         5.7390000000        1.1050000000        1.5620000000
  O         9.5650000000        1.1050000000        1.5620000000
  O        13.3920000000        1.1050000000        1.5620000000
  O         0.0000000000        4.4180000000        1.5620000000
  O         3.8260000000        4.4180000000        1.5620000000
  O         7.6520000000        4.4180000000        1.5620000000
  O        11.4780000000        4.4180000000        1.5620000000
  O        -1.9130000000        7.7320000000        1.5620000000
  O         1.9130000000        7.7320000000        1.5620000000
  O         5.7390000000        7.7320000000        1.5620000000
  O         9.5650000000        7.7320000000        1.5620000000
  O        -3.8260000000       11.0450000000        1.5620000000
  O         0.0000000000       11.0450000000        1.5620000000
  O         3.8260000000       11.0450000000        1.5620000000
  O         7.6520000000       11.0450000000        1.5620000000
  O         0.0000000000        2.2090000000        3.1240000000
  O         3.8260000000        2.2090000000        3.1240000000
  O         7.6520000000        2.2090000000        3.1240000000
  O        11.4780000000        2.2090000000        3.1240000000
  O        -1.9130000000        5.5230000000        3.1240000000
  O         1.9130000000        5.5230000000        3.1240000000
  O         5.7390000000        5.5230000000        3.1240000000
  O         9.5650000000        5.5230000000        3.1240000000
  O        -3.8260000000        8.8360000000        3.1240000000
  O         0.0000000000        8.8360000000        3.1240000000
  O         3.8260000000        8.8360000000        3.1240000000
  O         7.6520000000        8.8360000000        3.1240000000
  O        -5.7390000000       12.1500000000        3.1240000000
  O        -1.9130000000       12.1500000000        3.1240000000
  O         1.9130000000       12.1500000000        3.1240000000
  O         5.7390000000       12.1500000000        3.1240000000
  O        -0.1797146529       -0.0669689575        4.9095683456
  O         3.9178240514       -0.1157482384        4.8119313324
  O         7.7964487167        0.0345408080        4.6796575897
  O        11.2070687609       -0.0335391708        4.8705995510
  O        -2.0449581342        3.2991891801        4.9873567240
  O         1.9206103044        3.2408446844        4.7315561742
  O         5.7128620893        3.4380160787        4.6283092845
  O         9.4660831050        3.3535083900        4.7567515893
  O        -3.6568095728        6.5318443402        4.6837618744
  O        -0.2966809262        6.3157053448        4.9446182541
  O         3.7083356632        6.6990660926        4.6778496195
  O         7.7651214238        6.8064137778        4.7328586177
  O        -5.5939322638       10.0587902999        4.7813181877
  O        -1.8761042238       10.1109371578        4.7652147853
  O         1.7086839751        9.8466882806        4.7475498175
  O         5.7835026679        9.9214323248        4.7565427144
  O         1.9774497586        0.9799176209        6.1376328944
  O         5.7278409821        1.0447626343        6.0825070769
  O         9.3754559586        1.2094084869        6.6079326989
  O        12.9859668457        0.9845802091        6.3120889327
  O        -0.0688373019        4.2541163158        6.4727275628
  O         3.8085032211        4.6298826124        6.2104502294
  O         7.5812824070        4.2736235319        6.1940925341
  O        11.4235429330        4.4475829092        6.4061103883
  O        -1.8754026073        7.9483492283        6.6181234635
  O         1.7025803023        7.8464211829        6.2878773550
  O         5.6109258195        7.8515926158        6.3304917184
  O         9.7767690227        7.9495404384        6.2062477695
  O        -3.8934442680       11.0328874501        6.5979296246
  O         0.1019917510       10.8945913767        6.4481453806
  O         3.7982670163       11.1075932516        6.3470490366
  O         7.5585179980       10.9157875545        6.4493251648
  O         0.0539153854        2.0616109314        7.6287060828
  O         3.8369622522        1.9946125060        7.9189493355
  O         7.6168385809        2.1829911158        8.2286036241
  O        11.1421302804        2.5629557246        8.3248812591
  O        -2.1178176337        5.4023256752        7.7922755289
  O         1.8614748936        5.5797395851        7.7867390197
  O         5.7882760770        5.7517312545        7.7164424634
  O         9.3769468789        5.7119275314        7.8083972250
  O        -4.0980604830        8.7435326412        8.4565609519
  O         0.1924484077        9.2325471173        8.4131758149
  O         3.7892486280        8.6448137546        8.0724221927
  O         7.8952454449        8.8434588267        7.9535403786
  O        -6.0214486715       12.1853139428        8.2371218782
  O        -1.8796399899       12.2340643274        8.0866489117
  O         1.8599902255       12.2442257183        8.1161007507
  O         5.8234928061       12.0051665783        7.9574157486
 Ce         0.0000000000        2.2090000000        0.7810000000
 Ce         3.8260000000        2.2090000000        0.7810000000
 Ce         7.6520000000        2.2090000000        0.7810000000
 Ce        11.4780000000        2.2090000000        0.7810000000
 Ce        -1.9130000000        5.5230000000        0.7810000000
 Ce         1.9130000000        5.5230000000        0.7810000000
 Ce         5.7390000000        5.5230000000        0.7810000000
 Ce         9.5650000000        5.5230000000        0.7810000000
 Ce        -3.8260000000        8.8360000000        0.7810000000
 Ce         0.0000000000        8.8360000000        0.7810000000
 Ce         3.8260000000        8.8360000000        0.7810000000
 Ce         7.6520000000        8.8360000000        0.7810000000
 Ce        -5.7390000000       12.1500000000        0.7810000000
 Ce        -1.9130000000       12.1500000000        0.7810000000
 Ce         1.9130000000       12.1500000000        0.7810000000
 Ce         5.7390000000       12.1500000000        0.7810000000
 Ce         1.9216154730        1.1139243935        3.9706537308
 Ce         5.8317124575        1.1643410637        3.9316856963
 Ce         9.6354085990        1.1519927576        4.0065543538
 Ce        13.2965768793        1.0528924422        3.9212693315
 Ce         0.0499714003        4.2996727528        4.1430460089
 Ce         3.7660434028        4.4783479517        3.8655532488
 Ce         7.6581830893        4.4788640360        3.8620944559
 Ce        11.4977081339        4.3616317301        3.9176775875
 Ce        -1.9307902763        7.7974903496        3.8763755625
 Ce         1.7657089136        7.7607265958        3.9681781036
 Ce         5.7255577064        7.7971941581        4.0698883575
 Ce         9.6018064301        7.7469441269        4.0177691572
 Ce        -3.6961795438       11.0864356121        3.9591366667
 Ce        -0.0000851021       11.0620847575        3.7516539726
 Ce         3.9419278017       10.9941953132        3.9456737916
 Ce         7.7321103998       11.0627301917        3.9155357906
 Ce        -0.1353686015       -0.1977124573        7.3799109408
 Ce         3.7625135112       -0.1173458044        7.0458665009
 Ce         7.5890401538       -0.1127729910        7.2789027601
 Ce        11.2604927791        0.2687808131        7.4189214665
 Ce        -2.0565919648        3.3489004692        7.2610116495
 Ce         1.9321366475        3.3231914681        7.2018725886
 Ce         5.7204862591        3.4570014031        6.9834712752
 Ce         9.4732374952        3.4969904122        7.0865940172
 Ce        -3.8832214141        6.7761531481        7.0697390237
 Ce        -0.2972270123        6.5430280799        7.1943758269
 Ce         3.6383037741        6.7932184617        6.9928419032
 Ce         7.6071479335        6.8157669697        7.0497080868
 Ce        -5.7541834205       10.0017049249        7.0787707573
 Ce        -1.7840952261       10.0797795641        7.4158354338
 Ce         1.8912042671       10.0463555969        7.0318343634
 Ce         5.5899912410       10.0723953473        7.2037664151
 Pt        12.7136072690        1.6297954096        9.7700915816
 Pt         0.6821695853        5.2140713230        9.4539330651
 Pt        -0.1841557638        7.7021359025       10.0749001496
 Pt         6.7215208009       13.3138796648       10.6411628276
 Pt        -0.2232064758        2.5633493417        9.7292876875
 Pt        -2.6012298482        7.8238402404        9.4158193165
 Pt         2.1761963159        2.9322218643       10.4110991780
 Pt         3.0570238039        5.5904358872       11.0198812695
 Pt         5.1472329735        4.7870589934        9.5695810409
 Pt         1.7027081108       -0.0281200261        9.9419355379
 Pt         3.9830407017        1.2767687698        9.7805906973
 Pt        -1.2229463340        5.6870643416       10.9338446076
 Pt         6.3422633244        2.3767218535        9.7349575051
 Pt         0.1656231900        3.7667117620       11.9653212718
 Pt         6.1066690897        1.6470440063       12.2256967165
 Pt         1.0640903080        6.4594210396       12.1603918848
 Pt         4.5045903399        3.7009476763       11.6511135252
 Pt         0.6599102431        4.4344034385       14.3545969453
 Pt         0.8771358147        1.1019637756       12.1657426929
 Pt         3.1547279173        5.2599339571       13.5225294183
 Pt         3.6593081348        0.9712792811       12.2701035894
 Pt         2.2905430548        2.7047074750       13.3411639074
     166
 i =     2663, time =     2663.000, E =     -6045.7843243446
  O         0.0000000000        0.0000000000        0.0000000000
  O         3.8260000000        0.0000000000        0.0000000000
  O         7.6520000000        0.0000000000        0.0000000000
  O        11.4780000000        0.0000000000        0.0000000000
  O        -1.9130000000        3.3140000000        0.0000000000
  O         1.9130000000        3.3140000000        0.0000000000
  O         5.7390000000        3.3140000000        0.0000000000
  O         9.5650000000        3.3140000000        0.0000000000
  O        -3.8260000000        6.6270000000        0.0000000000
  O         0.0000000000        6.6270000000        0.0000000000
  O         3.8260000000        6.6270000000        0.0000000000
  O         7.6520000000        6.6270000000        0.0000000000
  O        -5.7390000000        9.9410000000        0.0000000000
  O        -1.9130000000        9.9410000000        0.0000000000
  O         1.9130000000        9.9410000000        0.0000000000
  O         5.7390000000        9.9410000000        0.0000000000
  O         1.9130000000        1.1050000000        1.5620000000
  O         5.7390000000        1.1050000000        1.5620000000
  O         9.5650000000        1.1050000000        1.5620000000
  O        13.3920000000        1.1050000000        1.5620000000
  O         0.0000000000        4.4180000000        1.5620000000
  O         3.8260000000        4.4180000000        1.5620000000
  O         7.6520000000        4.4180000000        1.5620000000
  O        11.4780000000        4.4180000000        1.5620000000
  O        -1.9130000000        7.7320000000        1.5620000000
  O         1.9130000000        7.7320000000        1.5620000000
  O         5.7390000000        7.7320000000        1.5620000000
  O         9.5650000000        7.7320000000        1.5620000000
  O        -3.8260000000       11.0450000000        1.5620000000
  O         0.0000000000       11.0450000000        1.5620000000
  O         3.8260000000       11.0450000000        1.5620000000
  O         7.6520000000       11.0450000000        1.5620000000
  O         0.0000000000        2.2090000000        3.1240000000
  O         3.8260000000        2.2090000000        3.1240000000
  O         7.6520000000        2.2090000000        3.1240000000
  O        11.4780000000        2.2090000000        3.1240000000
  O        -1.9130000000        5.5230000000        3.1240000000
  O         1.9130000000        5.5230000000        3.1240000000
  O         5.7390000000        5.5230000000        3.1240000000
  O         9.5650000000        5.5230000000        3.1240000000
  O        -3.8260000000        8.8360000000        3.1240000000
  O         0.0000000000        8.8360000000        3.1240000000
  O         3.8260000000        8.8360000000        3.1240000000
  O         7.6520000000        8.8360000000        3.1240000000
  O        -5.7390000000       12.1500000000        3.1240000000
  O        -1.9130000000       12.1500000000        3.1240000000
  O         1.9130000000       12.1500000000        3.1240000000
  O         5.7390000000       12.1500000000        3.1240000000
  O        -0.1926104095       -0.0656850720        4.9128772684
  O         3.9155573446       -0.1093652759        4.7982075359
  O         7.7982077751        0.0317164080        4.6734661645
  O        11.2071636823       -0.0340832447        4.8727554689
  O        -2.0491208674        3.2903449054        4.9897229430
  O         1.9213311055        3.2363656953        4.7417904725
  O         5.7124379751        3.4341637937        4.6206418334
  O         9.4676474489        3.3600541045        4.7478759688
  O        -3.6474459583        6.5446832884        4.6878455458
  O        -0.3072352105        6.3105099718        4.9453517550
  O         3.7160857262        6.6851417777        4.6767668712
  O         7.7662523452        6.8049994406        4.7347111196
  O        -5.5956065769       10.0598611115        4.7920013594
  O        -1.8839011650       10.1109971101        4.7618961641
  O         1.7096541501        9.8401510263        4.7488024130
  O         5.7755293864        9.9332919907        4.7602869184
  O         1.9777728075        0.9894566110        6.1398075055
  O         5.7274676246        1.0417708574        6.0899050649
  O         9.3677825321        1.2109302807        6.6238506097
  O        12.9795951043        0.9738857426        6.3044796041
  O        -0.0680954463        4.2583579592        6.4754897604
  O         3.8107503905        4.6243963454        6.2109536945
  O         7.5719475908        4.2712179023        6.1924691676
  O        11.4236170408        4.4484287949        6.4061472679
  O        -1.8751444316        7.9427152549        6.6124828921
  O         1.7043084383        7.8345884886        6.2785822548
  O         5.6097522271        7.8421645500        6.3389954154
  O         9.7827388525        7.9553511794        6.2020421363
  O        -3.8885064531       11.0228646505        6.6043973390
  O         0.0978628520       10.8922875031        6.4455586049
  O         3.8047152137       11.1121331121        6.3426644221
  O         7.5609058190       10.9114775998        6.4527205422
  O         0.0568487941        2.0553997466        7.6333516215
  O         3.8342406363        1.9963615067        7.9303760213
  O         7.6096651193        2.1797770328        8.2152698740
  O        11.1481765410        2.5561650359        8.3232007159
  O        -2.1239204987        5.4089947909        7.7873893387
  O         1.8667803148        5.5689828291        7.7773682351
  O         5.8029522690        5.7426916594        7.7289128201
  O         9.3767657805        5.7239317797        7.7965999903
  O        -4.0978805234        8.7418850374        8.4634672754
  O         0.2017827528        9.2200375567        8.4140835058
  O         3.7967035409        8.6452663834        8.0765473119
  O         7.8847798747        8.8462131230        7.9433822782
  O        -6.0251497554       12.1922233040        8.2272520803
  O        -1.8791898887       12.2460305732        8.0985388357
  O         1.8619231211       12.2431185560        8.1097192294
  O         5.8251694410       12.0080901177        7.9592768749
 Ce         0.0000000000        2.2090000000        0.7810000000
 Ce         3.8260000000        2.2090000000        0.7810000000
 Ce         7.6520000000        2.2090000000        0.7810000000
 Ce        11.4780000000        2.2090000000        0.7810000000
 Ce        -1.9130000000        5.5230000000        0.7810000000
 Ce         1.9130000000        5.5230000000        0.7810000000
 Ce         5.7390000000        5.5230000000        0.7810000000
 Ce         9.5650000000        5.5230000000        0.7810000000
 Ce        -3.8260000000        8.8360000000        0.7810000000
 Ce         0.0000000000        8.8360000000        0.7810000000
 Ce         3.8260000000        8.8360000000        0.7810000000
 Ce         7.6520000000        8.8360000000        0.7810000000
 Ce        -5.7390000000       12.1500000000        0.7810000000
 Ce        -1.9130000000       12.1500000000        0.7810000000
 Ce         1.9130000000       12.1500000000        0.7810000000
 Ce         5.7390000000       12.1500000000        0.7810000000
 Ce         1.9251899041        1.1160289874        3.9738047359
 Ce         5.8310198698        1.1631052893        3.9318236286
 Ce         9.6351754016        1.1501095661        4.0043937949
 Ce        13.2971731582        1.0540350766        3.9212599479
 Ce         0.0484143065        4.2980212915        4.1450305080
 Ce         3.7689554691        4.4772324926        3.8626497313
 Ce         7.6619135257        4.4810088971        3.8642001882
 Ce        11.4958819165        4.3613659758        3.9216860409
 Ce        -1.9284584105        7.7973369519        3.8764939995
 Ce         1.7667069363        7.7654211103        3.9691481954
 Ce         5.7253461742        7.7992449039        4.0685711407
 Ce         9.6029961966        7.7469849742        4.0142521816
 Ce        -3.6984631761       11.0890179368        3.9596287212
 Ce         0.0046880968       11.0600270185        3.7539116832
 Ce         3.9401059093       10.9954686814        3.9462099857
 Ce         7.7323680959       11.0642943413        3.9141435299
 Ce        -0.1341717210       -0.1951879960        7.3779883743
 Ce         3.7619116742       -0.1169060550        7.0444649557
 Ce         7.5878305457       -0.1115979070        7.2781042496
 Ce        11.2639805585        0.2658665568        7.4167684237
 Ce        -2.0576090061        3.3490517530        7.2620306132
 Ce         1.9350591089        3.3232937190        7.2003913378
 Ce         5.7191861602        3.4576238260        6.9827189041
 Ce         9.4680742220        3.4931123890        7.0820812327
 Ce        -3.8836592560        6.7783300484        7.0702098196
 Ce        -0.3015268832        6.5449824366        7.1938076900
 Ce         3.6381856732        6.7901841125        6.9936217824
 Ce         7.6030743095        6.8145573343        7.0491439018
 Ce        -5.7572567217       10.0007762554        7.0761019641
 Ce        -1.7831663773       10.0821200500        7.4113535287
 Ce         1.8941517321       10.0475136366        7.0323787108
 Ce         5.5856618407       10.0695357276        7.2044304197
 Pt        12.7146424356        1.6301346673        9.7681762040
 Pt         0.6788991680        5.2116641064        9.4545777182
 Pt        -0.1855286142        7.7012916256       10.0736119561
 Pt         6.7198867360       13.3137913684       10.6414841046
 Pt        -0.2218512604        2.5613236390        9.7275029531
 Pt        -2.6005460689        7.8250470492        9.4157131594
 Pt         2.1774022020        2.9330256226       10.4061088396
 Pt         3.0560251841        5.5912349192       11.0173545058
 Pt         5.1454084324        4.7885427357        9.5675640474
 Pt         1.7015669121       -0.0274892140        9.9412509297
 Pt         3.9842451732        1.2776546056        9.7812046734
 Pt        -1.2252659799        5.6844634714       10.9292229857
 Pt         6.3418329030        2.3779104008        9.7348026799
 Pt         0.1616961780        3.7633351786       11.9700338448
 Pt         6.1068240564        1.6487888543       12.2250887225
 Pt         1.0669539844        6.4597407396       12.1581450076
 Pt         4.5008359777        3.7026136522       11.6510431212
 Pt         0.6591502109        4.4320082100       14.3544377889
 Pt         0.8777394332        1.1052488681       12.1634951981
 Pt         3.1529413646        5.2587199376       13.5258011283
 Pt         3.6572776117        0.9672304322       12.2690848725
 Pt         2.2884097501        2.7050764326       13.3435863358
     166
 i =     2664, time =     2664.000, E =     -6045.7844845722
  O         0.0000000000        0.0000000000        0.0000000000
  O         3.8260000000        0.0000000000        0.0000000000
  O         7.6520000000        0.0000000000        0.0000000000
  O        11.4780000000        0.0000000000        0.0000000000
  O        -1.9130000000        3.3140000000        0.0000000000
  O         1.9130000000        3.3140000000        0.0000000000
  O         5.7390000000        3.3140000000        0.0000000000
  O         9.5650000000        3.3140000000        0.0000000000
  O        -3.8260000000        6.6270000000        0.0000000000
  O         0.0000000000        6.6270000000        0.0000000000
  O         3.8260000000        6.6270000000        0.0000000000
  O         7.6520000000        6.6270000000        0.0000000000
  O        -5.7390000000        9.9410000000        0.0000000000
  O        -1.9130000000        9.9410000000        0.0000000000
  O         1.9130000000        9.9410000000        0.0000000000
  O         5.7390000000        9.9410000000        0.0000000000
  O         1.9130000000        1.1050000000        1.5620000000
  O         5.7390000000        1.1050000000        1.5620000000
  O         9.5650000000        1.1050000000        1.5620000000
  O        13.3920000000        1.1050000000        1.5620000000
  O         0.0000000000        4.4180000000        1.5620000000
  O         3.8260000000        4.4180000000        1.5620000000
  O         7.6520000000        4.4180000000        1.5620000000
  O        11.4780000000        4.4180000000        1.5620000000
  O        -1.9130000000        7.7320000000        1.5620000000
  O         1.9130000000        7.7320000000        1.5620000000
  O         5.7390000000        7.7320000000        1.5620000000
  O         9.5650000000        7.7320000000        1.5620000000
  O        -3.8260000000       11.0450000000        1.5620000000
  O         0.0000000000       11.0450000000        1.5620000000
  O         3.8260000000       11.0450000000        1.5620000000
  O         7.6520000000       11.0450000000        1.5620000000
  O         0.0000000000        2.2090000000        3.1240000000
  O         3.8260000000        2.2090000000        3.1240000000
  O         7.6520000000        2.2090000000        3.1240000000
  O        11.4780000000        2.2090000000        3.1240000000
  O        -1.9130000000        5.5230000000        3.1240000000
  O         1.9130000000        5.5230000000        3.1240000000
  O         5.7390000000        5.5230000000        3.1240000000
  O         9.5650000000        5.5230000000        3.1240000000
  O        -3.8260000000        8.8360000000        3.1240000000
  O         0.0000000000        8.8360000000        3.1240000000
  O         3.8260000000        8.8360000000        3.1240000000
  O         7.6520000000        8.8360000000        3.1240000000
  O        -5.7390000000       12.1500000000        3.1240000000
  O        -1.9130000000       12.1500000000        3.1240000000
  O         1.9130000000       12.1500000000        3.1240000000
  O         5.7390000000       12.1500000000        3.1240000000
  O        -0.2052747885       -0.0644543321        4.9156789518
  O         3.9129502181       -0.1031090394        4.7841639650
  O         7.7995687942        0.0284372323        4.6677093022
  O        11.2077567854       -0.0345894332        4.8745466740
  O        -2.0529389665        3.2813148236        4.9910624845
  O         1.9220675926        3.2324193631        4.7524674060
  O         5.7119648806        3.4299766556        4.6132851382
  O         9.4699217656        3.3664788443        4.7390507319
  O        -3.6386399772        6.5582005607        4.6923252736
  O        -0.3173387122        6.3065654460        4.9457950397
  O         3.7239948864        6.6716420023        4.6758052725
  O         7.7667279635        6.8030220444        4.7372366489
  O        -5.5978861544       10.0609554208        4.8025052494
  O        -1.8916693531       10.1104977284        4.7586136946
  O         1.7114945510        9.8342092462        4.7497581006
  O         5.7673142605        9.9455059124        4.7640155452
  O         1.9782230291        0.9989413264        6.1427257990
  O         5.7273889268        1.0390914711        6.0984093333
  O         9.3606143323        1.2126414766        6.6392306694
  O        12.9733619264        0.9636407594        6.2974726170
  O        -0.0670376405        4.2628891565        6.4778490974
  O         3.8129500584        4.6179288251        6.2118532048
  O         7.5627356735        4.2694944670        6.1911303826
  O        11.4228024385        4.4491779299        6.4056701398
  O        -1.8752713795        7.9371837851        6.6057780381
  O         1.7060608568        7.8225913152        6.2693620941
  O         5.6089634711        7.8329775509        6.3470369905
  O         9.7883538630        7.9607993441        6.1979218701
  O        -3.8829945503       11.0126587000        6.6105863290
  O         0.0927119686       10.8911736672        6.4427272778
  O         3.8110680968       11.1162727865        6.3383457790
  O         7.5637754476       10.9074795439        6.4555395336
  O         0.0595253796        2.0490321642        7.6383013232
  O         3.8315327326        1.9985932427        7.9408634492
  O         7.6022143163        2.1766882071        8.2015811474
  O        11.1547325829        2.5487442163        8.3215760468
  O        -2.1297669910        5.4162051061        7.7826429076
  O         1.8720811589        5.5579791255        7.7681266318
  O         5.8174078510        5.7331346045        7.7418888758
  O         9.3765845006        5.7358125492        7.7845367049
  O        -4.0976046776        8.7401858275        8.4697644213
  O         0.2109306319        9.2070341352        8.4153223768
  O         3.8040098340        8.6466285985        8.0802311924
  O         7.8737248197        8.8483817868        7.9330728133
  O        -6.0278516468       12.1983286782        8.2169532054
  O        -1.8786394454       12.2577795820        8.1100718321
  O         1.8638330522       12.2419566048        8.1029988025
  O         5.8256957031       12.0110270994        7.9619260339
 Ce         0.0000000000        2.2090000000        0.7810000000
 Ce         3.8260000000        2.2090000000        0.7810000000
 Ce         7.6520000000        2.2090000000        0.7810000000
 Ce        11.4780000000        2.2090000000        0.7810000000
 Ce        -1.9130000000        5.5230000000        0.7810000000
 Ce         1.9130000000        5.5230000000        0.7810000000
 Ce         5.7390000000        5.5230000000        0.7810000000
 Ce         9.5650000000        5.5230000000        0.7810000000
 Ce        -3.8260000000        8.8360000000        0.7810000000
 Ce         0.0000000000        8.8360000000        0.7810000000
 Ce         3.8260000000        8.8360000000        0.7810000000
 Ce         7.6520000000        8.8360000000        0.7810000000
 Ce        -5.7390000000       12.1500000000        0.7810000000
 Ce        -1.9130000000       12.1500000000        0.7810000000
 Ce         1.9130000000       12.1500000000        0.7810000000
 Ce         5.7390000000       12.1500000000        0.7810000000
 Ce         1.9287608863        1.1180866297        3.9769222838
 Ce         5.8302966143        1.1618519220        3.9319440574
 Ce         9.6348088991        1.1481506142        4.0022041371
 Ce        13.2978415009        1.0551857074        3.9213601756
 Ce         0.0467512742        4.2963907398        4.1469214769
 Ce         3.7719215996        4.4760905800        3.8597629572
 Ce         7.6656055439        4.4831054520        3.8662905927
 Ce        11.4940920288        4.3611864438        3.9257248049
 Ce        -1.9261570819        7.7970876282        3.8766403665
 Ce         1.7678104174        7.7700557810        3.9701032962
 Ce         5.7251141791        7.8012622270        4.0671064658
 Ce         9.6042290372        7.7470628816        4.0105711629
 Ce        -3.7008230089       11.0915871254        3.9600857872
 Ce         0.0094950709       11.0580477953        3.7563143190
 Ce         3.9381604543       10.9967958683        3.9467198506
 Ce         7.7326043283       11.0658776816        3.9127796029
 Ce        -0.1329841007       -0.1924928697        7.3759324479
 Ce         3.7613418599       -0.1163213295        7.0430802922
 Ce         7.5866650052       -0.1102915702        7.2772531990
 Ce        11.2674941839        0.2628924060        7.4145599922
 Ce        -2.0586052441        3.3491477892        7.2630140247
 Ce         1.9379491348        3.3233586814        7.1989054083
 Ce         5.7178370584        3.4581948909        6.9819412317
 Ce         9.4629395465        3.4892285100        7.0776270333
 Ce        -3.8840769282        6.7803918809        7.0707481921
 Ce        -0.3057367784        6.5469286607        7.1932271838
 Ce         3.6381119156        6.7871037459        6.9944795236
 Ce         7.5990528652        6.8133548401        7.0486593687
 Ce        -5.7603954429        9.9997828298        7.0735551505
 Ce        -1.7822644076       10.0843860032        7.4068955511
 Ce         1.8971441290       10.0485699157        7.0330475109
 Ce         5.5813845055       10.0665458515        7.2050714122
 Pt        12.7155822574        1.6304991567        9.7662021933
 Pt         0.6756861955        5.2092109138        9.4552324807
 Pt        -0.1868064140        7.7005766217       10.0722528082
 Pt         6.7182847520       13.3136809773       10.6418274132
 Pt        -0.2204863984        2.5593234959        9.7256831142
 Pt        -2.5998707112        7.8262593706        9.4156768762
 Pt         2.1786227506        2.9338795683       10.4011292035
 Pt         3.0550244794        5.5920495740       11.0147197397
 Pt         5.1436171019        4.7900992122        9.5654829363
 Pt         1.7004143158       -0.0267966274        9.9406075936
 Pt         3.9854731876        1.2785352439        9.7818344224
 Pt        -1.2277190871        5.6818012986       10.9246655850
 Pt         6.3414143439        2.3791067207        9.7347050679
 Pt         0.1577601266        3.7599532941       11.9747360096
 Pt         6.1069552514        1.6505467062       12.2244653862
 Pt         1.0697792868        6.4600538533       12.1559423358
 Pt         4.4970955301        3.7041618605       11.6510579276
 Pt         0.6584373935        4.4296464948       14.3542872072
 Pt         0.8783080127        1.1084770452       12.1612088497
 Pt         3.1511188757        5.2574919532       13.5290873288
 Pt         3.6552595146        0.9631100050       12.2680703270
 Pt         2.2863083761        2.7055587391       13.3460818182
     166
 i =     2665, time =     2665.000, E =     -6045.7857494255
  O         0.0000000000        0.0000000000        0.0000000000
  O         3.8260000000        0.0000000000        0.0000000000
  O         7.6520000000        0.0000000000        0.0000000000
  O        11.4780000000        0.0000000000        0.0000000000
  O        -1.9130000000        3.3140000000        0.0000000000
  O         1.9130000000        3.3140000000        0.0000000000
  O         5.7390000000        3.3140000000        0.0000000000
  O         9.5650000000        3.3140000000        0.0000000000
  O        -3.8260000000        6.6270000000        0.0000000000
  O         0.0000000000        6.6270000000        0.0000000000
  O         3.8260000000        6.6270000000        0.0000000000
  O         7.6520000000        6.6270000000        0.0000000000
  O        -5.7390000000        9.9410000000        0.0000000000
  O        -1.9130000000        9.9410000000        0.0000000000
  O         1.9130000000        9.9410000000        0.0000000000
  O         5.7390000000        9.9410000000        0.0000000000
  O         1.9130000000        1.1050000000        1.5620000000
  O         5.7390000000        1.1050000000        1.5620000000
  O         9.5650000000        1.1050000000        1.5620000000
  O        13.3920000000        1.1050000000        1.5620000000
  O         0.0000000000        4.4180000000        1.5620000000
  O         3.8260000000        4.4180000000        1.5620000000
  O         7.6520000000        4.4180000000        1.5620000000
  O        11.4780000000        4.4180000000        1.5620000000
  O        -1.9130000000        7.7320000000        1.5620000000
  O         1.9130000000        7.7320000000        1.5620000000
  O         5.7390000000        7.7320000000        1.5620000000
  O         9.5650000000        7.7320000000        1.5620000000
  O        -3.8260000000       11.0450000000        1.5620000000
  O         0.0000000000       11.0450000000        1.5620000000
  O         3.8260000000       11.0450000000        1.5620000000
  O         7.6520000000       11.0450000000        1.5620000000
  O         0.0000000000        2.2090000000        3.1240000000
  O         3.8260000000        2.2090000000        3.1240000000
  O         7.6520000000        2.2090000000        3.1240000000
  O        11.4780000000        2.2090000000        3.1240000000
  O        -1.9130000000        5.5230000000        3.1240000000
  O         1.9130000000        5.5230000000        3.1240000000
  O         5.7390000000        5.5230000000        3.1240000000
  O         9.5650000000        5.5230000000        3.1240000000
  O        -3.8260000000        8.8360000000        3.1240000000
  O         0.0000000000        8.8360000000        3.1240000000
  O         3.8260000000        8.8360000000        3.1240000000
  O         7.6520000000        8.8360000000        3.1240000000
  O        -5.7390000000       12.1500000000        3.1240000000
  O        -1.9130000000       12.1500000000        3.1240000000
  O         1.9130000000       12.1500000000        3.1240000000
  O         5.7390000000       12.1500000000        3.1240000000
  O        -0.2176588929       -0.0632932779        4.9179741535
  O         3.9100079338       -0.0969846108        4.7698392929
  O         7.8005313011        0.0247134237        4.6624395665
  O        11.2087844670       -0.0350466293        4.8759494916
  O        -2.0563938677        3.2721167802        4.9913943364
  O         1.9227996572        3.2290352839        4.7634769920
  O         5.7114503701        3.4254613334        4.6062491267
  O         9.4728881774        3.3727351301        4.7303947287
  O        -3.6304615532        6.5722875880        4.6971727467
  O        -0.3269494855        6.3038830703        4.9459526782
  O         3.7320289891        6.6586700162        4.6749788203
  O         7.7665494054        6.8005059415        4.7403896304
  O        -5.6007548683       10.0621034692        4.8127680005
  O        -1.8993465591       10.1094386801        4.7553906932
  O         1.7141928856        9.8289193496        4.7504427241
  O         5.7588769575        9.9579534648        4.7677135946
  O         1.9788153441        1.0083071824        6.1463620589
  O         5.7275806955        1.0367109758        6.1079168639
  O         9.3540021575        1.2145742025        6.6540596793
  O        12.9673182714        0.9539064543        6.2911406785
  O        -0.0657141967        4.2676712991        6.4798102744
  O         3.8151206126        4.6105070328        6.2131529051
  O         7.5537494655        4.2684289571        6.1900470616
  O        11.4210779533        4.4497965782        6.4046720865
  O        -1.8757752656        7.9318246046        6.5980652713
  O         1.7078618726        7.8104694518        6.2602170156
  O         5.6085471485        7.8240701651        6.3545856396
  O         9.7935940833        7.9658635942        6.1938671502
  O        -3.8768825362       11.0023492936        6.6164596946
  O         0.0866152312       10.8912050659        6.4396809038
  O         3.8172526332       11.1199827393        6.3341011099
  O         7.5670896229       10.9038341802        6.4577368583
  O         0.0619046976        2.0425420058        7.6435043897
  O         3.8288400798        2.0012935109        7.9502676225
  O         7.5944852735        2.1737522304        8.1875702445
  O        11.1617973179        2.5407038279        8.3200125320
  O        -2.1353299040        5.4238882767        7.7780655849
  O         1.8773163798        5.5467649477        7.7591072357
  O         5.8315946551        5.7230739117        7.7553446152
  O         9.3763989195        5.7475036732        7.7722924938
  O        -4.0972241952        8.7384413715        8.4754244394
  O         0.2198701332        9.1935818243        8.4168617625
  O         3.8111124942        8.6488938024        8.0834278484
  O         7.8620988939        8.8499340469        7.9226969655
  O        -6.0295046893       12.2036411349        8.2063093812
  O        -1.8780046510       12.2692578902        8.1212204091
  O         1.8657315572       12.2406786276        8.0959344585
  O         5.8250680730       12.0139428296        7.9653532204
 Ce         0.0000000000        2.2090000000        0.7810000000
 Ce         3.8260000000        2.2090000000        0.7810000000
 Ce         7.6520000000        2.2090000000        0.7810000000
 Ce        11.4780000000        2.2090000000        0.7810000000
 Ce        -1.9130000000        5.5230000000        0.7810000000
 Ce         1.9130000000        5.5230000000        0.7810000000
 Ce         5.7390000000        5.5230000000        0.7810000000
 Ce         9.5650000000        5.5230000000        0.7810000000
 Ce        -3.8260000000        8.8360000000        0.7810000000
 Ce         0.0000000000        8.8360000000        0.7810000000
 Ce         3.8260000000        8.8360000000        0.7810000000
 Ce         7.6520000000        8.8360000000        0.7810000000
 Ce        -5.7390000000       12.1500000000        0.7810000000
 Ce        -1.9130000000       12.1500000000        0.7810000000
 Ce         1.9130000000       12.1500000000        0.7810000000
 Ce         5.7390000000       12.1500000000        0.7810000000
 Ce         1.9323265461        1.1200986288        3.9800027513
 Ce         5.8295436128        1.1605825669        3.9320476184
 Ce         9.6343108216        1.1461164011        3.9999832608
 Ce        13.2985811375        1.0563421279        3.9215689954
 Ce         0.0449858311        4.2947825493        4.1487191059
 Ce         3.7749398294        4.4749219894        3.8568957481
 Ce         7.6692511364        4.4851530640        3.8683611537
 Ce        11.4923427061        4.3610960481        3.9297901572
 Ce        -1.9238896297        7.7967431377        3.8768160961
 Ce         1.7690219139        7.7746181084        3.9710387957
 Ce         5.7248615886        7.8032442421        4.0654984776
 Ce         9.6055059790        7.7471789872        4.0067325143
 Ce        -3.7032570934       11.0941385973        3.9605046996
 Ce         0.0143261511       11.0561495996        3.7588568750
 Ce         3.9360959981       10.9981799718        3.9472021118
 Ce         7.7328164230       11.0674811164        3.9114476145
 Ce        -0.1318137897       -0.1896327415        7.3737420404
 Ce         3.7608060762       -0.1155932305        7.0417144573
 Ce         7.5855388049       -0.1088507939        7.2763544228
 Ce        11.2710340747        0.2598572060        7.4122978707
 Ce        -2.0595788920        3.3491927088        7.2639618045
 Ce         1.9408077476        3.3233849090        7.1974165069
 Ce         5.7164365010        3.4587087294        6.9811420268
 Ce         9.4578341906        3.4853416368        7.0732334155
 Ce        -3.8844758004        6.7823414920        7.0713515508
 Ce        -0.3098528932        6.5488626826        7.1926361424
 Ce         3.6380838959        6.7839726659        6.9954144678
 Ce         7.5950858770        6.8121630192        7.0482542332
 Ce        -5.7635999974        9.9987255169        7.0711341031
 Ce        -1.7813940234       10.0865767462        7.4024634913
 Ce         1.9001761764       10.0495260416        7.0338402538
 Ce         5.5771685095       10.0634321604        7.2056928742
 Pt        12.7164277952        1.6308894141        9.7641692189
 Pt         0.6725345168        5.2067110750        9.4558911407
 Pt        -0.1879867024        7.6999938754       10.0708232239
 Pt         6.7167145155       13.3135463724       10.6421929316
 Pt        -0.2191119538        2.5573512117        9.7238307345
 Pt        -2.5992076055        7.8274767079        9.4157107069
 Pt         2.1798624290        2.9347867121       10.3961590729
 Pt         3.0540196400        5.5928787328       11.0119801654
 Pt         5.1418569586        4.7917241658        9.5633448086
 Pt         1.6992497143       -0.0260437526        9.9400043332
 Pt         3.9867228356        1.2794061769        9.7824840616
 Pt        -1.2302951453        5.6790809059       10.9201775258
 Pt         6.3410060435        2.3803130741        9.7346593950
 Pt         0.1538133284        3.7565633690       11.9794236615
 Pt         6.1070609856        1.6523151582       12.2238302588
 Pt         1.0725540577        6.4603570869       12.1537862198
 Pt         4.4933722196        3.7055931152       11.6511533977
 Pt         0.6577701700        4.4273223760       14.3541461427
 Pt         0.8788389573        1.1116484390       12.1588831850
 Pt         3.1492637089        5.2562510399       13.5323843836
 Pt         3.6532572558        0.9589205826       12.2670624872
 Pt         2.2842407197        2.7061522698       13.3486470400
     166
 i =     2666, time =     2666.000, E =     -6045.7865794145
  O         0.0000000000        0.0000000000        0.0000000000
  O         3.8260000000        0.0000000000        0.0000000000
  O         7.6520000000        0.0000000000        0.0000000000
  O        11.4780000000        0.0000000000        0.0000000000
  O        -1.9130000000        3.3140000000        0.0000000000
  O         1.9130000000        3.3140000000        0.0000000000
  O         5.7390000000        3.3140000000        0.0000000000
  O         9.5650000000        3.3140000000        0.0000000000
  O        -3.8260000000        6.6270000000        0.0000000000
  O         0.0000000000        6.6270000000        0.0000000000
  O         3.8260000000        6.6270000000        0.0000000000
  O         7.6520000000        6.6270000000        0.0000000000
  O        -5.7390000000        9.9410000000        0.0000000000
  O        -1.9130000000        9.9410000000        0.0000000000
  O         1.9130000000        9.9410000000        0.0000000000
  O         5.7390000000        9.9410000000        0.0000000000
  O         1.9130000000        1.1050000000        1.5620000000
  O         5.7390000000        1.1050000000        1.5620000000
  O         9.5650000000        1.1050000000        1.5620000000
  O        13.3920000000        1.1050000000        1.5620000000
  O         0.0000000000        4.4180000000        1.5620000000
  O         3.8260000000        4.4180000000        1.5620000000
  O         7.6520000000        4.4180000000        1.5620000000
  O        11.4780000000        4.4180000000        1.5620000000
  O        -1.9130000000        7.7320000000        1.5620000000
  O         1.9130000000        7.7320000000        1.5620000000
  O         5.7390000000        7.7320000000        1.5620000000
  O         9.5650000000        7.7320000000        1.5620000000
  O        -3.8260000000       11.0450000000        1.5620000000
  O         0.0000000000       11.0450000000        1.5620000000
  O         3.8260000000       11.0450000000        1.5620000000
  O         7.6520000000       11.0450000000        1.5620000000
  O         0.0000000000        2.2090000000        3.1240000000
  O         3.8260000000        2.2090000000        3.1240000000
  O         7.6520000000        2.2090000000        3.1240000000
  O        11.4780000000        2.2090000000        3.1240000000
  O        -1.9130000000        5.5230000000        3.1240000000
  O         1.9130000000        5.5230000000        3.1240000000
  O         5.7390000000        5.5230000000        3.1240000000
  O         9.5650000000        5.5230000000        3.1240000000
  O        -3.8260000000        8.8360000000        3.1240000000
  O         0.0000000000        8.8360000000        3.1240000000
  O         3.8260000000        8.8360000000        3.1240000000
  O         7.6520000000        8.8360000000        3.1240000000
  O        -5.7390000000       12.1500000000        3.1240000000
  O        -1.9130000000       12.1500000000        3.1240000000
  O         1.9130000000       12.1500000000        3.1240000000
  O         5.7390000000       12.1500000000        3.1240000000
  O        -0.2297336519       -0.0622132110        4.9197676532
  O         3.9067440796       -0.0909842101        4.7552652090
  O         7.8010926307        0.0205615610        4.6577054558
  O        11.2101804458       -0.0354436117        4.8769378545
  O        -2.0594761184        3.2627676527        4.9907403520
  O         1.9235108377        3.2262370192        4.7747307012
  O         5.7109021738        3.4206212114        4.5995738381
  O         9.4765223926        3.3787683076        4.7219959975
  O        -3.6229652880        6.5868173498        4.7023671483
  O        -0.3360265376        6.3024512602        4.9458237896
  O         3.7401855717        6.6462748297        4.6743038350
  O         7.7657231410        6.7974778596        4.7441153878
  O        -5.6041905903       10.0633347821        4.8226776494
  O        -1.9068864750       10.1078222695        4.7522429833
  O         1.7177345898        9.8243425599        4.7508842299
  O         5.7502613030        9.9705125525        4.7713723405
  O         1.9795615613        1.0175109875        6.1506795413
  O         5.7280234099        1.0346179005        6.1183631233
  O         9.3479839083        1.2167405401        6.6683175311
  O        12.9615106891        0.9447188595        6.2855346502
  O        -0.0641751293        4.2726641082        6.4813797506
  O         3.8172870916        4.6021652847        6.2148617716
  O         7.5450600023        4.2679964254        6.1891959530
  O        11.4184356211        4.4502543357        6.4031435398
  O        -1.8766456543        7.9266882104        6.5894146538
  O         1.7097453444        7.7982536430        6.2511367436
  O         5.6084870109        7.8154570778        6.3616044943
  O         9.7984382596        7.9705198185        6.1898515030
  O        -3.8701629449       10.9920200146        6.6219919917
  O         0.0796757397       10.8923575960        6.4364395123
  O         3.8232071773       11.1232419708        6.3299394618
  O         7.5708042556       10.9005810198        6.4592752812
  O         0.0639696385        2.0359753197        7.6488999547
  O         3.8261704307        2.0044522905        7.9584721949
  O         7.5864429827        2.1710195782        8.1732426385
  O        11.1693338210        2.5320750236        8.3184803500
  O        -2.1405886524        5.4319869173        7.7736864349
  O         1.8824590345        5.5353680161        7.7503549855
  O         5.8454766471        5.7124848515        7.7693177524
  O         9.3761964923        5.7589531732        7.7599456232
  O        -4.0967774616        8.7366425010        8.4804431207
  O         0.2286094786        9.1797570540        8.4186584515
  O         3.8179738297        8.6520426691        8.0860939287
  O         7.8499403477        8.8508487815        7.9123322089
  O        -6.0300671438       12.2081688330        8.1953776022
  O        -1.8772754413       12.2804364501        8.1320036829
  O         1.8676116792       12.2392325437        8.0885423137
  O         5.8232956235       12.0167995063        7.9695475749
 Ce         0.0000000000        2.2090000000        0.7810000000
 Ce         3.8260000000        2.2090000000        0.7810000000
 Ce         7.6520000000        2.2090000000        0.7810000000
 Ce        11.4780000000        2.2090000000        0.7810000000
 Ce        -1.9130000000        5.5230000000        0.7810000000
 Ce         1.9130000000        5.5230000000        0.7810000000
 Ce         5.7390000000        5.5230000000        0.7810000000
 Ce         9.5650000000        5.5230000000        0.7810000000
 Ce        -3.8260000000        8.8360000000        0.7810000000
 Ce         0.0000000000        8.8360000000        0.7810000000
 Ce         3.8260000000        8.8360000000        0.7810000000
 Ce         7.6520000000        8.8360000000        0.7810000000
 Ce        -5.7390000000       12.1500000000        0.7810000000
 Ce        -1.9130000000       12.1500000000        0.7810000000
 Ce         1.9130000000       12.1500000000        0.7810000000
 Ce         5.7390000000       12.1500000000        0.7810000000
 Ce         1.9358845481        1.1220664076        3.9830427819
 Ce         5.8287617750        1.1592982706        3.9321341114
 Ce         9.6336838511        1.1440075621        3.9977287539
 Ce        13.2993910197        1.0575022748        3.9218853861
 Ce         0.0431210770        4.2931989643        4.1504238343
 Ce         3.7780074117        4.4737265943        3.8540500852
 Ce         7.6728432404        4.4871514805        3.8704069011
 Ce        11.4906384201        4.3610974194        3.9338786327
 Ce        -1.9216589668        7.7963048485        3.8770235341
 Ce         1.7703430223        7.7790961667        3.9719499071
 Ce         5.7245884305        7.8051893607        4.0637508199
 Ce         9.6068281416        7.7473343979        4.0027432303
 Ce        -3.7057628907       11.0966668283        3.9608828648
 Ce         0.0191714231       11.0543339308        3.7615349705
 Ce         3.9339168910       10.9996240526        3.9476556451
 Ce         7.7330016478       11.0691055882        3.9101511997
 Ce        -0.1306697223       -0.1866134350        7.3714172567
 Ce         3.7603061455       -0.1147246775        7.0403698529
 Ce         7.5844461373       -0.1072781198        7.2754103789
 Ce        11.2746025707        0.2567611060        7.4099850449
 Ce        -2.0605294646        3.3491897927        7.2648751595
 Ce         1.9436338552        3.3233699813        7.1959248714
 Ce         5.7149811613        3.4591613771        6.9803235740
 Ce         9.4527623425        3.4814547025        7.0689030335
 Ce        -3.8848568843        6.7841827946        7.0720174898
 Ce        -0.3138735699        6.5507840136        7.1920350135
 Ce         3.6381008635        6.7807879678        6.9964247146
 Ce         7.5911778781        6.8109866479        7.0479274871
 Ce        -5.7668695368        9.9976050222        7.0688424188
 Ce        -1.7805583999       10.0886904169        7.3980604147
 Ce         1.9032395091       10.0503836082        7.0347571471
 Ce         5.5730230706       10.0602022624        7.2062982353
 Pt        12.7171785416        1.6313050554        9.7620772525
 Pt         0.6694457896        5.2041664986        9.4565505495
 Pt        -0.1890688440        7.6995381850       10.0693246095
 Pt         6.7151782876       13.3133892856       10.6425809287
 Pt        -0.2177295242        2.5554074596        9.7219487236
 Pt        -2.5985535711        7.8286984123        9.4158163612
 Pt         2.1811157214        2.9357464871       10.3912044603
 Pt         3.0530129321        5.5937216568       11.0091361219
 Pt         5.1401279276        4.7934170113        9.5611526050
 Pt         1.6980747894       -0.0252318480        9.9394379117
 Pt         3.9879946106        1.2802654381        9.7831578240
 Pt        -1.2329998491        5.6763010439       10.9157574006
 Pt         6.3406130820        2.3815277584        9.7346645704
 Pt         0.1498575425        3.7531689918       11.9840900741
 Pt         6.1071394902        1.6540965561       12.2231802031
 Pt         1.0752820920        6.4606528424       12.1516749423
 Pt         4.4896659991        3.7069059030       11.6513323447
 Pt         0.6571478984        4.4250362839       14.3540187923
 Pt         0.8793319260        1.1147606783       12.1565182210
 Pt         3.1473740351        5.2549970632       13.5356896482
 Pt         3.6512681204        0.9546652937       12.2660627218
 Pt         2.2822117643        2.7068523707       13.3512809205
     166
 i =     2667, time =     2667.000, E =     -6045.7879044611
  O         0.0000000000        0.0000000000        0.0000000000
  O         3.8260000000        0.0000000000        0.0000000000
  O         7.6520000000        0.0000000000        0.0000000000
  O        11.4780000000        0.0000000000        0.0000000000
  O        -1.9130000000        3.3140000000        0.0000000000
  O         1.9130000000        3.3140000000        0.0000000000
  O         5.7390000000        3.3140000000        0.0000000000
  O         9.5650000000        3.3140000000        0.0000000000
  O        -3.8260000000        6.6270000000        0.0000000000
  O         0.0000000000        6.6270000000        0.0000000000
  O         3.8260000000        6.6270000000        0.0000000000
  O         7.6520000000        6.6270000000        0.0000000000
  O        -5.7390000000        9.9410000000        0.0000000000
  O        -1.9130000000        9.9410000000        0.0000000000
  O         1.9130000000        9.9410000000        0.0000000000
  O         5.7390000000        9.9410000000        0.0000000000
  O         1.9130000000        1.1050000000        1.5620000000
  O         5.7390000000        1.1050000000        1.5620000000
  O         9.5650000000        1.1050000000        1.5620000000
  O        13.3920000000        1.1050000000        1.5620000000
  O         0.0000000000        4.4180000000        1.5620000000
  O         3.8260000000        4.4180000000        1.5620000000
  O         7.6520000000        4.4180000000        1.5620000000
  O        11.4780000000        4.4180000000        1.5620000000
  O        -1.9130000000        7.7320000000        1.5620000000
  O         1.9130000000        7.7320000000        1.5620000000
  O         5.7390000000        7.7320000000        1.5620000000
  O         9.5650000000        7.7320000000        1.5620000000
  O        -3.8260000000       11.0450000000        1.5620000000
  O         0.0000000000       11.0450000000        1.5620000000
  O         3.8260000000       11.0450000000        1.5620000000
  O         7.6520000000       11.0450000000        1.5620000000
  O         0.0000000000        2.2090000000        3.1240000000
  O         3.8260000000        2.2090000000        3.1240000000
  O         7.6520000000        2.2090000000        3.1240000000
  O        11.4780000000        2.2090000000        3.1240000000
  O        -1.9130000000        5.5230000000        3.1240000000
  O         1.9130000000        5.5230000000        3.1240000000
  O         5.7390000000        5.5230000000        3.1240000000
  O         9.5650000000        5.5230000000        3.1240000000
  O        -3.8260000000        8.8360000000        3.1240000000
  O         0.0000000000        8.8360000000        3.1240000000
  O         3.8260000000        8.8360000000        3.1240000000
  O         7.6520000000        8.8360000000        3.1240000000
  O        -5.7390000000       12.1500000000        3.1240000000
  O        -1.9130000000       12.1500000000        3.1240000000
  O         1.9130000000       12.1500000000        3.1240000000
  O         5.7390000000       12.1500000000        3.1240000000
  O        -0.2414549414       -0.0612240133        4.9210688259
  O         3.9031741577       -0.0850958754        4.7405504033
  O         7.8012499579        0.0160018392        4.6535424392
  O        11.2118799658       -0.0357704229        4.8774850391
  O        -2.0621831354        3.2532973728        4.9891278391
  O         1.9241851483        3.2240424123        4.7861880345
  O         5.7103282907        3.4154573156        4.5933097080
  O         9.4807979405        3.3845281392        4.7139003311
  O        -3.6161779504        6.6017001581        4.7078988339
  O        -0.3445423231        6.3022443481        4.9454078256
  O         3.7484749233        6.6344934387        4.6737984233
  O         7.7642643893        6.7939680942        4.7483485361
  O        -5.6081641183       10.0646756476        4.8320872054
  O        -1.9142548806       10.1056538654        4.7491912119
  O         1.7221036149        9.8205409935        4.7511156885
  O         5.7415364682        9.9830777013        4.7749886980
  O         1.9804705279        1.0265155104        6.1556271659
  O         5.7286956279        1.0327991435        6.1297119764
  O         9.3425948100        1.2191400560        6.6819032187
  O        12.9559744730        0.9361024173        6.2806824487
  O        -0.0624783719        4.2778272781        6.4825631161
  O         3.8194798466        4.5929532155        6.2169843767
  O         7.5367303856        4.2681861982        6.1885509371
  O        11.4148871317        4.4505273730        6.4010769469
  O        -1.8778714557        7.9218391018        6.5799077143
  O         1.7117425570        7.7859954466        6.2421308924
  O         5.6087603479        7.8071450732        6.3680406996
  O         9.8028747642        7.9747468553        6.1858518944
  O        -3.8628464816       10.9817635328        6.6271736419
  O         0.0719946730       10.8945997731        6.4330246428
  O         3.8288723712       11.1260330261        6.3258740071
  O         7.5748732356       10.8977571383        6.4601269801
  O         0.0657064839        2.0293827274        7.6544246436
  O         3.8235295452        2.0080651873        7.9654052734
  O         7.5780324553        2.1685458366        8.1586624271
  O        11.1772890585        2.5229096440        8.3169400744
  O        -2.1455374848        5.4404560447        7.7695348021
  O         1.8874952532        5.5238295002        7.7418920732
  O         5.8589773625        5.7013874186        7.7838162889
  O         9.3759706051        5.7701064565        7.7475178753
  O        -4.0962983859        8.7347777697        8.4848337094
  O         0.2371793406        9.1655971745        8.4206538492
  O         3.8245683223        8.6560541130        8.0881906465
  O         7.8372828514        8.8511259264        7.9020128943
  O        -6.0295014265       12.2119154028        8.1841864190
  O        -1.8764390251       12.2912704247        8.1424368668
  O         1.8694628053       12.2375638902        8.0808620483
  O         5.8204016315       12.0195589251        7.9744966821
 Ce         0.0000000000        2.2090000000        0.7810000000
 Ce         3.8260000000        2.2090000000        0.7810000000
 Ce         7.6520000000        2.2090000000        0.7810000000
 Ce        11.4780000000        2.2090000000        0.7810000000
 Ce        -1.9130000000        5.5230000000        0.7810000000
 Ce         1.9130000000        5.5230000000        0.7810000000
 Ce         5.7390000000        5.5230000000        0.7810000000
 Ce         9.5650000000        5.5230000000        0.7810000000
 Ce        -3.8260000000        8.8360000000        0.7810000000
 Ce         0.0000000000        8.8360000000        0.7810000000
 Ce         3.8260000000        8.8360000000        0.7810000000
 Ce         7.6520000000        8.8360000000        0.7810000000
 Ce        -5.7390000000       12.1500000000        0.7810000000
 Ce        -1.9130000000       12.1500000000        0.7810000000
 Ce         1.9130000000       12.1500000000        0.7810000000
 Ce         5.7390000000       12.1500000000        0.7810000000
 Ce         1.9394324181        1.1239917579        3.9860392395
 Ce         5.8279521685        1.1580000789        3.9322036624
 Ce         9.6329309905        1.1418249624        3.9954384354
 Ce        13.3002696159        1.0586641513        3.9223079610
 Ce         0.0411601389        4.2916424835        4.1520362242
 Ce         3.7811215206        4.4725041359        3.8512279793
 Ce         7.6763752212        4.4891002965        3.8724233200
 Ce        11.4889833508        4.3611923823        3.9379866751
 Ce        -1.9194675503        7.7957742693        3.8772645354
 Ce         1.7717749717        7.7834783714        3.9728314905
 Ce         5.7242948046        7.8070959622        4.0618668713
 Ce         9.6081959947        7.7475298324        3.9986102291
 Ce        -3.7083377057       11.0991663782        3.9612174411
 Ce         0.0240213176       11.0526023077        3.7643439899
 Ce         3.9316273063       11.0011312148        3.9480793907
 Ce         7.7331569943       11.0707520350        3.9088937340
 Ce        -0.1295615441       -0.1834413378        7.3689592010
 Ce         3.7598439841       -0.1137174841        7.0390499449
 Ce         7.5833815457       -0.1055765933        7.2744227810
 Ce        11.2782020644        0.2536047344        7.4076254623
 Ce        -2.0614570546        3.3491410000        7.2657553943
 Ce         1.9464270630        3.3233105969        7.1944315621
 Ce         5.7134677994        3.4595483347        6.9794877475
 Ce         9.4477277764        3.4775704323        7.0646387059
 Ce        -3.8852226557        6.7859185565        7.0727417450
 Ce        -0.3177959216        6.5526916820        7.1914236541
 Ce         3.6381614463        6.7775468289        6.9975080615
 Ce         7.5873336663        6.8098297477        7.0476776040
 Ce        -5.7702038387        9.9964227238        7.0666827444
 Ce        -1.7797572104       10.0907274935        7.3936880916
 Ce         1.9063261924       10.0511449911        7.0357982683
 Ce         5.5689569245       10.0568643884        7.2068909659
 Pt        12.7178328485        1.6317454425        9.7599258558
 Pt         0.6664248452        5.2015785375        9.4572066472
 Pt        -0.1900533145        7.6992006722       10.0677625357
 Pt         6.7136785117       13.3132124288       10.6429922423
 Pt        -0.2163401645        2.5534925264        9.7200413646
 Pt        -2.5979053078        7.8299237306        9.4159965115
 Pt         2.1823771257        2.9367586358       10.3862715643
 Pt         3.0520115464        5.5945770744       11.0061827807
 Pt         5.1384305030        4.7951780500        9.5589089179
 Pt         1.6968919707       -0.0243620877        9.9389036674
 Pt         3.9892906851        1.2811086713        9.7838585565
 Pt        -1.2358390471        5.6734656980       10.9114049748
 Pt         6.3402415762        2.3827468198        9.7347190991
 Pt         0.1458937478        3.7497719809       11.9887291920
 Pt         6.1071898236        1.6558940647       12.2225112503
 Pt         1.0779630767        6.4609467618       12.1496041745
 Pt         4.4859759930        3.7080991786       11.6515989830
 Pt         0.6565711578        4.4227847413       14.3539076644
 Pt         0.8797860722        1.1178098970       12.1541145623
 Pt         3.1454454524        5.2537302281       13.5390038946
 Pt         3.6492859160        0.9503508835       12.2650714835
 Pt         2.2802279399        2.7076543528       13.3539834987
     166
 i =     2668, time =     2668.000, E =     -6045.7884807503
  O         0.0000000000        0.0000000000        0.0000000000
  O         3.8260000000        0.0000000000        0.0000000000
  O         7.6520000000        0.0000000000        0.0000000000
  O        11.4780000000        0.0000000000        0.0000000000
  O        -1.9130000000        3.3140000000        0.0000000000
  O         1.9130000000        3.3140000000        0.0000000000
  O         5.7390000000        3.3140000000        0.0000000000
  O         9.5650000000        3.3140000000        0.0000000000
  O        -3.8260000000        6.6270000000        0.0000000000
  O         0.0000000000        6.6270000000        0.0000000000
  O         3.8260000000        6.6270000000        0.0000000000
  O         7.6520000000        6.6270000000        0.0000000000
  O        -5.7390000000        9.9410000000        0.0000000000
  O        -1.9130000000        9.9410000000        0.0000000000
  O         1.9130000000        9.9410000000        0.0000000000
  O         5.7390000000        9.9410000000        0.0000000000
  O         1.9130000000        1.1050000000        1.5620000000
  O         5.7390000000        1.1050000000        1.5620000000
  O         9.5650000000        1.1050000000        1.5620000000
  O        13.3920000000        1.1050000000        1.5620000000
  O         0.0000000000        4.4180000000        1.5620000000
  O         3.8260000000        4.4180000000        1.5620000000
  O         7.6520000000        4.4180000000        1.5620000000
  O        11.4780000000        4.4180000000        1.5620000000
  O        -1.9130000000        7.7320000000        1.5620000000
  O         1.9130000000        7.7320000000        1.5620000000
  O         5.7390000000        7.7320000000        1.5620000000
  O         9.5650000000        7.7320000000        1.5620000000
  O        -3.8260000000       11.0450000000        1.5620000000
  O         0.0000000000       11.0450000000        1.5620000000
  O         3.8260000000       11.0450000000        1.5620000000
  O         7.6520000000       11.0450000000        1.5620000000
  O         0.0000000000        2.2090000000        3.1240000000
  O         3.8260000000        2.2090000000        3.1240000000
  O         7.6520000000        2.2090000000        3.1240000000
  O        11.4780000000        2.2090000000        3.1240000000
  O        -1.9130000000        5.5230000000        3.1240000000
  O         1.9130000000        5.5230000000        3.1240000000
  O         5.7390000000        5.5230000000        3.1240000000
  O         9.5650000000        5.5230000000        3.1240000000
  O        -3.8260000000        8.8360000000        3.1240000000
  O         0.0000000000        8.8360000000        3.1240000000
  O         3.8260000000        8.8360000000        3.1240000000
  O         7.6520000000        8.8360000000        3.1240000000
  O        -5.7390000000       12.1500000000        3.1240000000
  O        -1.9130000000       12.1500000000        3.1240000000
  O         1.9130000000       12.1500000000        3.1240000000
  O         5.7390000000       12.1500000000        3.1240000000
  O        -0.2527475381       -0.0603344674        4.9218904691
  O         3.8993120165       -0.0793045259        4.7258641014
  O         7.8010046795        0.0110605457        4.6499700328
  O        11.2138223187       -0.0360186112        4.8775682981
  O        -2.0645132878        3.2437500762        4.9865930251
  O         1.9248044892        3.2224636926        4.7978422477
  O         5.7097372654        3.4099696930        4.5875009471
  O         9.4856899223        3.3899718808        4.7061294388
  O        -3.6101308335        6.6168698803        4.7137632045
  O        -0.3524788972        6.3032283023        4.9447044298
  O         3.7568896186        6.6233887255        4.6734781621
  O         7.7621957305        6.7900075037        4.7530105180
  O        -5.6126498996       10.0661525188        4.8408667391
  O        -1.9214204485       10.1029464335        4.7462556084
  O         1.7272873755        9.8175729766        4.7511762848
  O         5.7327593841        9.9955598765        4.7785650014
  O         1.9815508620        1.0352794797        6.1611417440
  O         5.7295692256        1.0312364460        6.1419156551
  O         9.3378842572        1.2217726813        6.6946682154
  O        12.9507334256        0.9280841192        6.2766011348
  O        -0.0606870905        4.2831151059        6.4833659840
  O         3.8217309151        4.5829259051        6.2195120275
  O         7.5288347803        4.2689955868        6.1880797491
  O        11.4104477004        4.4505840115        6.3984712823
  O        -1.8794289805        7.9173501765        6.5695976955
  O         1.7138740295        7.7737628784        6.2332468386
  O         5.6093364591        7.7991510355        6.3738249421
  O         9.8068966633        7.9785284344        6.1818431252
  O        -3.8549649898       10.9717010133        6.6320079259
  O         0.0636797446       10.8978801573        6.4294563440
  O         3.8341867006       11.1283405949        6.3219263602
  O         7.5792448560       10.8954003253        6.4602736106
  O         0.0670958807        2.0228168401        7.6600318191
  O         3.8209193377        2.0121140570        7.9710333893
  O         7.5692393723        2.1663602001        8.1439431644
  O        11.1856324417        2.5132639588        8.3153896876
  O        -2.1501801320        5.4492370069        7.7656151817
  O         1.8924255532        5.5122195554        7.7337335838
  O         5.8720252675        5.6898506434        7.7987402443
  O         9.3757312880        5.7808810923        7.7349837309
  O        -4.0957962593        8.7328485438        8.4886146087
  O         0.2456179505        9.1510990358        8.4228172253
  O         3.8308734558        8.6609120203        8.0896862572
  O         7.8241345407        8.8507786391        7.8917300333
  O        -6.0277743897       12.2148938758        8.1727410797
  O        -1.8755039360       12.3017176019        8.1524988690
  O         1.8712882600       12.2356149606        8.0729464232
  O         5.8164224636       12.0221929387        7.9801916195
 Ce         0.0000000000        2.2090000000        0.7810000000
 Ce         3.8260000000        2.2090000000        0.7810000000
 Ce         7.6520000000        2.2090000000        0.7810000000
 Ce        11.4780000000        2.2090000000        0.7810000000
 Ce        -1.9130000000        5.5230000000        0.7810000000
 Ce         1.9130000000        5.5230000000        0.7810000000
 Ce         5.7390000000        5.5230000000        0.7810000000
 Ce         9.5650000000        5.5230000000        0.7810000000
 Ce        -3.8260000000        8.8360000000        0.7810000000
 Ce         0.0000000000        8.8360000000        0.7810000000
 Ce         3.8260000000        8.8360000000        0.7810000000
 Ce         7.6520000000        8.8360000000        0.7810000000
 Ce        -5.7390000000       12.1500000000        0.7810000000
 Ce        -1.9130000000       12.1500000000        0.7810000000
 Ce         1.9130000000       12.1500000000        0.7810000000
 Ce         5.7390000000       12.1500000000        0.7810000000
 Ce         1.9429677540        1.1258767565        3.9889892896
 Ce         5.8271159050        1.1566890487        3.9322572514
 Ce         9.6320552248        1.1395695967        3.9931102811
 Ce        13.3012151342        1.0598257365        3.9228344319
 Ce         0.0391062774        4.2901160295        4.1535567599
 Ce         3.7842795306        4.4712544377        3.8484320372
 Ce         7.6798403541        4.4909994158        3.8744067770
 Ce        11.4873814789        4.3613825864        3.9421103031
 Ce        -1.9173176498        7.7951534392        3.8775412503
 Ce         1.7733187233        7.7877533556        3.9736781577
 Ce         5.7239810129        7.8089620678        4.0598504222
 Ce         9.6096094809        7.7477657346        3.9943412774
 Ce        -3.7109786342       11.1016315848        3.9615059876
 Ce         0.0288661934       11.0509561021        3.7672792843
 Ce         3.9292313316       11.0027042261        3.9484721867
 Ce         7.7332795301       11.0724210390        3.9076784752
 Ce        -0.1284971240       -0.1801247243        7.3663694840
 Ce         3.7594215307       -0.1125744119        7.0377580499
 Ce         7.5823395347       -0.1037457567        7.2733952396
 Ce        11.2818335128        0.2503870768        7.4052217729
 Ce        -2.0623610466        3.3490506282        7.2666024965
 Ce         1.9491880572        3.3232047244        7.1929383685
 Ce         5.7118935273        3.4598649538        6.9786374202
 Ce         9.4427313185        3.4736914839        7.0604425278
 Ce        -3.8855747203        6.7875529711        7.0735214825
 Ce        -0.3216177753        6.5545844051        7.1908025982
 Ce         3.6382659114        6.7742452788        6.9986629731
 Ce         7.5835557920        6.8086948658        7.0475037609
 Ce        -5.7736013289        9.9951796544        7.0646587598
 Ce        -1.7789948292       10.0926860358        7.3893484405
 Ce         1.9094291384       10.0518135907        7.0369623843
 Ce         5.5649787808       10.0534257437        7.2074744333
 Pt        12.7183919631        1.6322103662        9.7577150915
 Pt         0.6634727939        5.1989474795        9.4578559961
 Pt        -0.1909382774        7.6989810861       10.0661374684
 Pt         6.7122159057       13.3130152219       10.6434270498
 Pt        -0.2149447863        2.5516082797        9.7181118433
 Pt        -2.5972636727        7.8311523900        9.4162511926
 Pt         2.1836471715        2.9378242634       10.3813611170
 Pt         3.0510147624        5.5954437603       11.0031240934
 Pt         5.1367622659        4.7970041211        9.5566201698
 Pt         1.6957016639       -0.0234359589        9.9383993277
 Pt         3.9906089441        1.2819345028        9.7845886641
 Pt        -1.2388103785        5.6705741921       10.9071214171
 Pt         6.3398930146        2.3839703499        9.7348204803
 Pt         0.1419226924        3.7463732767       11.9933359531
 Pt         6.1072093180        1.6577072650       12.2218240264
 Pt         1.0805944531        6.4612369495       12.1475755486
 Pt         4.4823041675        3.7091729373       11.6519514984
 Pt         0.6560386268        4.4205711647       14.3538151338
 Pt         0.8802003797        1.1207953069       12.1516717802
 Pt         3.1434787651        5.2524512302       13.5423222760
 Pt         3.6473123979        0.9459787032       12.2640914044
 Pt         2.2782908241        2.7085549620       13.3567515492
     166
 i =     2669, time =     2669.000, E =     -6045.7896077077
  O         0.0000000000        0.0000000000        0.0000000000
  O         3.8260000000        0.0000000000        0.0000000000
  O         7.6520000000        0.0000000000        0.0000000000
  O        11.4780000000        0.0000000000        0.0000000000
  O        -1.9130000000        3.3140000000        0.0000000000
  O         1.9130000000        3.3140000000        0.0000000000
  O         5.7390000000        3.3140000000        0.0000000000
  O         9.5650000000        3.3140000000        0.0000000000
  O        -3.8260000000        6.6270000000        0.0000000000
  O         0.0000000000        6.6270000000        0.0000000000
  O         3.8260000000        6.6270000000        0.0000000000
  O         7.6520000000        6.6270000000        0.0000000000
  O        -5.7390000000        9.9410000000        0.0000000000
  O        -1.9130000000        9.9410000000        0.0000000000
  O         1.9130000000        9.9410000000        0.0000000000
  O         5.7390000000        9.9410000000        0.0000000000
  O         1.9130000000        1.1050000000        1.5620000000
  O         5.7390000000        1.1050000000        1.5620000000
  O         9.5650000000        1.1050000000        1.5620000000
  O        13.3920000000        1.1050000000        1.5620000000
  O         0.0000000000        4.4180000000        1.5620000000
  O         3.8260000000        4.4180000000        1.5620000000
  O         7.6520000000        4.4180000000        1.5620000000
  O        11.4780000000        4.4180000000        1.5620000000
  O        -1.9130000000        7.7320000000        1.5620000000
  O         1.9130000000        7.7320000000        1.5620000000
  O         5.7390000000        7.7320000000        1.5620000000
  O         9.5650000000        7.7320000000        1.5620000000
  O        -3.8260000000       11.0450000000        1.5620000000
  O         0.0000000000       11.0450000000        1.5620000000
  O         3.8260000000       11.0450000000        1.5620000000
  O         7.6520000000       11.0450000000        1.5620000000
  O         0.0000000000        2.2090000000        3.1240000000
  O         3.8260000000        2.2090000000        3.1240000000
  O         7.6520000000        2.2090000000        3.1240000000
  O        11.4780000000        2.2090000000        3.1240000000
  O        -1.9130000000        5.5230000000        3.1240000000
  O         1.9130000000        5.5230000000        3.1240000000
  O         5.7390000000        5.5230000000        3.1240000000
  O         9.5650000000        5.5230000000        3.1240000000
  O        -3.8260000000        8.8360000000        3.1240000000
  O         0.0000000000        8.8360000000        3.1240000000
  O         3.8260000000        8.8360000000        3.1240000000
  O         7.6520000000        8.8360000000        3.1240000000
  O        -5.7390000000       12.1500000000        3.1240000000
  O        -1.9130000000       12.1500000000        3.1240000000
  O         1.9130000000       12.1500000000        3.1240000000
  O         5.7390000000       12.1500000000        3.1240000000
  O        -0.2635200967       -0.0595513274        4.9222491611
  O         3.8951675576       -0.0735947516        4.7113306505
  O         7.8003620570        0.0057730535        4.6469978146
  O        11.2159495611       -0.0361797518        4.8771684099
  O        -2.0664594461        3.2341755953        4.9831814200
  O         1.9253510867        3.2215087023        4.8096709441
  O         5.7091375320        3.4041573195        4.5821788220
  O         9.4911740697        3.3950658143        4.6987009188
  O        -3.6048786110        6.6322251808        4.7199561247
  O        -0.3598225912        6.3053688154        4.9437127626
  O         3.7653905395        6.6130563512        4.6733596620
  O         7.7595439429        6.7856248400        4.7580185737
  O        -5.6176221805       10.0677924301        4.8489262314
  O        -1.9283506066       10.0997215909        4.7434524818
  O         1.7332783661        9.8154889327        4.7511072255
  O         5.7239621087       10.0078641845        4.7821078441
  O         1.9828112409        1.0437530950        6.1671555008
  O         5.7306123418        1.0299098817        6.1548694867
  O         9.3339002462        1.2246497511        6.7065191721
  O        12.9458140901        0.9207037781        6.2733000625
  O        -0.0588655960        4.2884745842        6.4837924805
  O         3.8240677627        4.5721304192        6.2224291482
  O         7.5214596134        4.2704242883        6.1877493436
  O        11.4051312411        4.4503858431        6.3953335191
  O        -1.8812880963        7.9132862079        6.5584961942
  O         1.7161474199        7.7616081491        6.2245651630
  O         5.6101778340        7.7914996742        6.3788824589
  O         9.8104996974        7.9818543860        6.1778029142
  O        -3.8465615768       10.9619478367        6.6365052044
  O         0.0548519409       10.9021342815        6.4257501867
  O         3.8390861491       11.1301506021        6.3181251341
  O         7.5838672024       10.8935490259        6.4597058250
  O         0.0681211743        2.0163310736        7.6656863271
  O         3.8183390300        2.0165745414        7.9753413292
  O         7.5600617884        2.1644779016        8.1292001961
  O        11.1943597110        2.5031930101        8.3138446791
  O        -2.1545205588        5.4582454894        7.7619140895
  O         1.8972313202        5.5006125423        7.7259158254
  O         5.8846204996        5.6779168372        7.8139543116
  O         9.3755017422        5.7911884088        7.7223290812
  O        -4.0952710549        8.7308615059        8.4918002111
  O         0.2539295159        9.1362959161        8.4251198076
  O         3.8368666747        8.6665988612        8.0905514779
  O         7.8104870656        8.8498155749        7.8814599598
  O        -6.0248552888       12.2171309438        8.1610792631
  O        -1.8744888619       12.3117533982        8.1621269039
  O         1.8730967054       12.2333317891        8.0648423345
  O         5.8114101835       12.0246795250        7.9866189612
 Ce         0.0000000000        2.2090000000        0.7810000000
 Ce         3.8260000000        2.2090000000        0.7810000000
 Ce         7.6520000000        2.2090000000        0.7810000000
 Ce        11.4780000000        2.2090000000        0.7810000000
 Ce        -1.9130000000        5.5230000000        0.7810000000
 Ce         1.9130000000        5.5230000000        0.7810000000
 Ce         5.7390000000        5.5230000000        0.7810000000
 Ce         9.5650000000        5.5230000000        0.7810000000
 Ce        -3.8260000000        8.8360000000        0.7810000000
 Ce         0.0000000000        8.8360000000        0.7810000000
 Ce         3.8260000000        8.8360000000        0.7810000000
 Ce         7.6520000000        8.8360000000        0.7810000000
 Ce        -5.7390000000       12.1500000000        0.7810000000
 Ce        -1.9130000000       12.1500000000        0.7810000000
 Ce         1.9130000000       12.1500000000        0.7810000000
 Ce         5.7390000000       12.1500000000        0.7810000000
 Ce         1.9464881302        1.1277236886        3.9918900171
 Ce         5.8262541488        1.1553660354        3.9322962166
 Ce         9.6310595471        1.1372422545        3.9907420940
 Ce        13.3022254963        1.0609849600        3.9234616550
 Ce         0.0369626478        4.2886231507        4.1549857019
 Ce         3.7874789369        4.4699774220        3.8456647530
 Ce         7.6832318930        4.4928489621        3.8763538470
 Ce        11.4858368748        4.3616696384        3.9462449351
 Ce        -1.9152113459        7.7944448379        3.8778561267
 Ce         1.7749748440        7.7919103689        3.9744843330
 Ce         5.7236474739        7.8107856719        4.0577051722
 Ce         9.6110682852        7.7480424653        3.9899444650
 Ce        -3.7136822831       11.1040563618        3.9617463586
 Ce         0.0336963346       11.0493963289        3.7703364241
 Ce         3.9267328577       11.0043455235        3.9488327891
 Ce         7.7333663642       11.0741128470        3.9065083709
 Ce        -0.1274841937       -0.1766736113        7.3636499959
 Ce         3.7590414722       -0.1112991748        7.0364974602
 Ce         7.5813139936       -0.1017848908        7.2723321701
 Ce        11.2854972424        0.2471056068        7.4027762079
 Ce        -2.0632402490        3.3489244599        7.2674158405
 Ce         1.9519177155        3.3230504772        7.1914466671
 Ce         5.7102561255        3.4601054048        6.9777761626
 Ce         9.4377728580        3.4698208614        7.0563154537
 Ce        -3.8859138808        6.7890912889        7.0743542890
 Ce        -0.3253380976        6.5564615432        7.1901729187
 Ce         3.6384153597        6.7708798145        6.9998884924
 Ce         7.5798455384        6.8075840287        7.0474053149
 Ce        -5.7770591106        9.9938763141        7.0627741402
 Ce        -1.7782768688       10.0945634266        7.3850434463
 Ce         1.9125412948       10.0523932807        7.0382481366
 Ce         5.5610968912       10.0498930754        7.2080519325
 Pt        12.7188582164        1.6327002266        9.7554451326
 Pt         0.6605917291        5.1962727116        9.4584946691
 Pt        -0.1917217666        7.6988817490       10.0644482159
 Pt         6.7107898020       13.3127943773       10.6438852263
 Pt        -0.2135444478        2.5497568950        9.7161625092
 Pt        -2.5966314761        7.8323843216        9.4165800286
 Pt         2.1849284171        2.9389455304       10.3764724706
 Pt         3.0500187134        5.5963216542       10.9999659494
 Pt         5.1351198649        4.7988903454        9.5542947718
 Pt         1.6945031119       -0.0224551867        9.9379228165
 Pt         3.9919467577        1.2827413776        9.7853498771
 Pt        -1.2419060137        5.6676274013       10.9029096947
 Pt         6.3395657032        2.3852007014        9.7349649641
 Pt         0.1379436571        3.7429720480       11.9979057264
 Pt         6.1071958770        1.6595335595       12.2211222142
 Pt         1.0831686226        6.4615193922       12.1455922887
 Pt         4.4786540048        3.7101277225       11.6523851930
 Pt         0.6555480364        4.4184004260       14.3537435834
 Pt         0.8805740604        1.1237186801       12.1491897902
 Pt         3.1414781314        5.2511606247       13.5456392657
 Pt         3.6453514398        0.9415505008       12.2631246623
 Pt         2.2764017384        2.7095503645       13.3595808910
     166
 i =     2670, time =     2670.000, E =     -6045.7902952025
  O         0.0000000000        0.0000000000        0.0000000000
  O         3.8260000000        0.0000000000        0.0000000000
  O         7.6520000000        0.0000000000        0.0000000000
  O        11.4780000000        0.0000000000        0.0000000000
  O        -1.9130000000        3.3140000000        0.0000000000
  O         1.9130000000        3.3140000000        0.0000000000
  O         5.7390000000        3.3140000000        0.0000000000
  O         9.5650000000        3.3140000000        0.0000000000
  O        -3.8260000000        6.6270000000        0.0000000000
  O         0.0000000000        6.6270000000        0.0000000000
  O         3.8260000000        6.6270000000        0.0000000000
  O         7.6520000000        6.6270000000        0.0000000000
  O        -5.7390000000        9.9410000000        0.0000000000
  O        -1.9130000000        9.9410000000        0.0000000000
  O         1.9130000000        9.9410000000        0.0000000000
  O         5.7390000000        9.9410000000        0.0000000000
  O         1.9130000000        1.1050000000        1.5620000000
  O         5.7390000000        1.1050000000        1.5620000000
  O         9.5650000000        1.1050000000        1.5620000000
  O        13.3920000000        1.1050000000        1.5620000000
  O         0.0000000000        4.4180000000        1.5620000000
  O         3.8260000000        4.4180000000        1.5620000000
  O         7.6520000000        4.4180000000        1.5620000000
  O        11.4780000000        4.4180000000        1.5620000000
  O        -1.9130000000        7.7320000000        1.5620000000
  O         1.9130000000        7.7320000000        1.5620000000
  O         5.7390000000        7.7320000000        1.5620000000
  O         9.5650000000        7.7320000000        1.5620000000
  O        -3.8260000000       11.0450000000        1.5620000000
  O         0.0000000000       11.0450000000        1.5620000000
  O         3.8260000000       11.0450000000        1.5620000000
  O         7.6520000000       11.0450000000        1.5620000000
  O         0.0000000000        2.2090000000        3.1240000000
  O         3.8260000000        2.2090000000        3.1240000000
  O         7.6520000000        2.2090000000        3.1240000000
  O        11.4780000000        2.2090000000        3.1240000000
  O        -1.9130000000        5.5230000000        3.1240000000
  O         1.9130000000        5.5230000000        3.1240000000
  O         5.7390000000        5.5230000000        3.1240000000
  O         9.5650000000        5.5230000000        3.1240000000
  O        -3.8260000000        8.8360000000        3.1240000000
  O         0.0000000000        8.8360000000        3.1240000000
  O         3.8260000000        8.8360000000        3.1240000000
  O         7.6520000000        8.8360000000        3.1240000000
  O        -5.7390000000       12.1500000000        3.1240000000
  O        -1.9130000000       12.1500000000        3.1240000000
  O         1.9130000000       12.1500000000        3.1240000000
  O         5.7390000000       12.1500000000        3.1240000000
  O        -0.2736955457       -0.0588791056        4.9221621513
  O         3.8907490940       -0.0679509922        4.6969819802
  O         7.7993284897        0.0001835927        4.6446311429
  O        11.2182062938       -0.0362474422        4.8762669519
  O        -2.0680048679        3.2246173886        4.9789451373
  O         1.9258097155        3.2211814811        4.8215908663
  O         5.7085371818        3.3980173526        4.5773623100
  O         9.4972184726        3.3997831480        4.6916209849
  O        -3.6004755928        6.6476297563        4.7264688922
  O        -0.3665627357        6.3086328073        4.9424299943
  O         3.7739514381        6.6035588469        4.6734635680
  O         7.7563373639        6.7808486713        4.7632923136
  O        -5.6230548207       10.0696197223        4.8562131400
  O        -1.9350087381       10.0960070257        4.7407948309
  O         1.7400710873        9.8143290970        4.7509495948
  O         5.7151860178       10.0198773453        4.7856260922
  O         1.9842592502        1.0518806003        6.1736004222
  O         5.7317962895        1.0287997137        6.1684049338
  O         9.3306644872        1.2277557940        6.7174432067
  O        12.9412592403        0.9140104883        6.2707762665
  O        -0.0570770292        4.2938515248        6.4838458064
  O         3.8265163944        4.5606061937        6.2257165054
  O         7.5146628888        4.2724782941        6.1875265017
  O        11.3989789774        4.4499138805        6.3916737910
  O        -1.8834195204        7.9097059732        6.5465985709
  O         1.7185632210        7.7495593394        6.2161770125
  O         5.6112380060        7.7842141418        6.3831502158
  O         9.8136814363        7.9847234725        6.1737179177
  O        -3.8376687255       10.9525695617        6.6406778826
  O         0.0456361614       10.9072937578        6.4219127448
  O         3.8435062585       11.1314484594        6.3145049639
  O         7.5886910838       10.8922341723        6.4584228918
  O         0.0687749946        2.0099765352        7.6713623329
  O         3.8157906994        2.0214218615        7.9783307972
  O         7.5504740465        2.1629259361        8.1144922450
  O        11.2034694769        2.4927506105        8.3122911858
  O        -2.1585464687        5.4673820025        7.7584244131
  O         1.9018869065        5.4890806501        7.7184932123
  O         5.8967520975        5.6655999113        7.8294126120
  O         9.3753067525        5.8009842451        7.7096066804
  O        -4.0947516217        8.7288150038        8.4944122986
  O         0.2621130491        9.1212776531        8.4275112502
  O         3.8425200726        8.6730866776        8.0907647631
  O         7.7963483924        8.8482377484        7.8712008728
  O        -6.0207252424       12.2186515415        8.1493017098
  O        -1.8733975272       12.3213649017        8.1712484453
  O         1.8748806204       12.2306661545        8.0565769553
  O         5.8054334389       12.0269918276        7.9937550852
 Ce         0.0000000000        2.2090000000        0.7810000000
 Ce         3.8260000000        2.2090000000        0.7810000000
 Ce         7.6520000000        2.2090000000        0.7810000000
 Ce        11.4780000000        2.2090000000        0.7810000000
 Ce        -1.9130000000        5.5230000000        0.7810000000
 Ce         1.9130000000        5.5230000000        0.7810000000
 Ce         5.7390000000        5.5230000000        0.7810000000
 Ce         9.5650000000        5.5230000000        0.7810000000
 Ce        -3.8260000000        8.8360000000        0.7810000000
 Ce         0.0000000000        8.8360000000        0.7810000000
 Ce         3.8260000000        8.8360000000        0.7810000000
 Ce         7.6520000000        8.8360000000        0.7810000000
 Ce        -5.7390000000       12.1500000000        0.7810000000
 Ce        -1.9130000000       12.1500000000        0.7810000000
 Ce         1.9130000000       12.1500000000        0.7810000000
 Ce         5.7390000000       12.1500000000        0.7810000000
 Ce         1.9499907052        1.1295350177        3.9947388993
 Ce         5.8253682753        1.1540317735        3.9323213679
 Ce         9.6299476934        1.1348444888        3.9883320810
 Ce        13.3032980690        1.0621399524        3.9241865222
 Ce         0.0347320942        4.2871675056        4.1563234823
 Ce         3.7907169741        4.4686730292        3.8429283623
 Ce         7.6865442674        4.4946488634        3.8782616381
 Ce        11.4843531611        4.3620541966        3.9503866137
 Ce        -1.9131503513        7.7936511570        3.8782114599
 Ce         1.7767433187        7.7959393837        3.9752442837
 Ce         5.7232947596        7.8125648705        4.0554344604
 Ce         9.6125718259        7.7483600280        3.9854278092
 Ce        -3.7164450107       11.1064345449        3.9619365520
 Ce         0.0385023613       11.0479236020        3.7735110725
 Ce         3.9241355551       11.0060575601        3.9491601454
 Ce         7.7334144463       11.0758278051        3.9053862147
 Ce        -0.1265306652       -0.1730976200        7.3608036839
 Ce         3.7587059365       -0.1098948501        7.0352722322
 Ce         7.5802992981       -0.0996966903        7.2712355979
 Ce        11.2891946993        0.2437597265        7.4002923460
 Ce        -2.0640954196        3.3487658454        7.2681956553
 Ce         1.9546163774        3.3228445639        7.1899576037
 Ce         5.7085535063        3.4602645791        6.9769060000
 Ce         9.4328541304        3.4659619256        7.0522591427
 Ce        -3.8862424860        6.7905375287        7.0752362777
 Ce        -0.3289558359        6.5583238211        7.1895342579
 Ce         3.6386091242        6.7674477190        7.0011821885
 Ce         7.5762061672        6.8064987582        7.0473807478
 Ce        -5.7805747513        9.9925138033        7.0610312758
 Ce        -1.7776046894       10.0963582865        7.3807744579
 Ce         1.9156555629       10.0528881993        7.0396544082
 Ce         5.5573190044       10.0462741813        7.2086263887
 Pt        12.7192323016        1.6332143283        9.7531164084
 Pt         0.6577835708        5.1935550754        9.4591200111
 Pt        -0.1924034883        7.6988974992       10.0626978388
 Pt         6.7094022764       13.3125516638       10.6443669911
 Pt        -0.2121403385        2.5479392114        9.7141970897
 Pt        -2.5960073960        7.8336192766        9.4169834638
 Pt         2.1862177716        2.9401226173       10.3716091674
 Pt         3.0490262236        5.5972094519       10.9967081780
 Pt         5.1335018296        4.8008351679        9.5519384733
 Pt         1.6932973946       -0.0214214611        9.9374704796
 Pt         3.9933036379        1.2835280010        9.7861428814
 Pt        -1.2451279692        5.6646259701       10.8987697804
 Pt         6.3392627653        2.3864363771        9.7351514969
 Pt         0.1339576009        3.7395699527       12.0024328548
 Pt         6.1071473069        1.6613743976       12.2204038205
 Pt         1.0856858871        6.4617956989       12.1436534518
 Pt         4.4750259728        3.7109627968       11.6529012367
 Pt         0.6550986431        4.4162727871       14.3536959395
 Pt         0.8809068737        1.1265782375       12.1466683318
 Pt         3.1394423432        5.2498590218       13.5489527596
 Pt         3.6434007249        0.9370701751       12.2621725770
 Pt         2.2745642703        2.7106355442       13.3624692977
     166
 i =     2671, time =     2671.000, E =     -6045.7915085042
  O         0.0000000000        0.0000000000        0.0000000000
  O         3.8260000000        0.0000000000        0.0000000000
  O         7.6520000000        0.0000000000        0.0000000000
  O        11.4780000000        0.0000000000        0.0000000000
  O        -1.9130000000        3.3140000000        0.0000000000
  O         1.9130000000        3.3140000000        0.0000000000
  O         5.7390000000        3.3140000000        0.0000000000
  O         9.5650000000        3.3140000000        0.0000000000
  O        -3.8260000000        6.6270000000        0.0000000000
  O         0.0000000000        6.6270000000        0.0000000000
  O         3.8260000000        6.6270000000        0.0000000000
  O         7.6520000000        6.6270000000        0.0000000000
  O        -5.7390000000        9.9410000000        0.0000000000
  O        -1.9130000000        9.9410000000        0.0000000000
  O         1.9130000000        9.9410000000        0.0000000000
  O         5.7390000000        9.9410000000        0.0000000000
  O         1.9130000000        1.1050000000        1.5620000000
  O         5.7390000000        1.1050000000        1.5620000000
  O         9.5650000000        1.1050000000        1.5620000000
  O        13.3920000000        1.1050000000        1.5620000000
  O         0.0000000000        4.4180000000        1.5620000000
  O         3.8260000000        4.4180000000        1.5620000000
  O         7.6520000000        4.4180000000        1.5620000000
  O        11.4780000000        4.4180000000        1.5620000000
  O        -1.9130000000        7.7320000000        1.5620000000
  O         1.9130000000        7.7320000000        1.5620000000
  O         5.7390000000        7.7320000000        1.5620000000
  O         9.5650000000        7.7320000000        1.5620000000
  O        -3.8260000000       11.0450000000        1.5620000000
  O         0.0000000000       11.0450000000        1.5620000000
  O         3.8260000000       11.0450000000        1.5620000000
  O         7.6520000000       11.0450000000        1.5620000000
  O         0.0000000000        2.2090000000        3.1240000000
  O         3.8260000000        2.2090000000        3.1240000000
  O         7.6520000000        2.2090000000        3.1240000000
  O        11.4780000000        2.2090000000        3.1240000000
  O        -1.9130000000        5.5230000000        3.1240000000
  O         1.9130000000        5.5230000000        3.1240000000
  O         5.7390000000        5.5230000000        3.1240000000
  O         9.5650000000        5.5230000000        3.1240000000
  O        -3.8260000000        8.8360000000        3.1240000000
  O         0.0000000000        8.8360000000        3.1240000000
  O         3.8260000000        8.8360000000        3.1240000000
  O         7.6520000000        8.8360000000        3.1240000000
  O        -5.7390000000       12.1500000000        3.1240000000
  O        -1.9130000000       12.1500000000        3.1240000000
  O         1.9130000000       12.1500000000        3.1240000000
  O         5.7390000000       12.1500000000        3.1240000000
  O        -0.2832229937       -0.0583216078        4.9216478015
  O         3.8860639709       -0.0623666864        4.6828378492
  O         7.7979116245       -0.0056585092        4.6428740036
  O        11.2205398875       -0.0362167462        4.8748462642
  O        -2.0691259842        3.2151076996        4.9739486661
  O         1.9261679795        3.2214821345        4.8334655239
  O         5.7079430557        3.3915487007        4.5730587132
  O         9.5037802891        3.4040954639        4.6848964950
  O        -3.5969509435        6.6629825442        4.7332797452
  O        -0.3726868911        6.3129870681        4.9408542599
  O         3.7825693140        6.5949200876        4.6738110853
  O         7.7526039600        6.7757074705        4.7687598772
  O        -5.6289253693       10.0716588273        4.8626979407
  O        -1.9413572159       10.0918337524        4.7382953867
  O         1.7476600357        9.8141261479        4.7507441722
  O         5.7065037975       10.0314876882        4.7891287688
  O         1.9859028121        1.0596037958        6.1804166951
  O         5.7330917567        1.0278849317        6.1823477786
  O         9.3281846133        1.2310455085        6.7274542694
  O        12.9371244055        0.9080566913        6.2690212465
  O        -0.0553830638        4.2991940509        6.4835269816
  O         3.8290948498        4.5484005800        6.2293472967
  O         7.5084778274        4.2751630446        6.1873751812
  O        11.3920660257        4.4491664451        6.3875085168
  O        -1.8857905719        7.9066628323        6.5339257778
  O         1.7211187785        7.7376448610        6.2081602580
  O         5.6124606835        7.7773106624        6.3865787305
  O         9.8164407189        7.9871425087        6.1695856800
  O        -3.8283138370       10.9435966986        6.6445390735
  O         0.0361431464       10.9132886500        6.4179492820
  O         3.8473830952       11.1322184670        6.3111053330
  O         7.5936724949       10.8914828616        6.4564317690
  O         0.0690483216        2.0037976472        7.6770362439
  O         3.8132815210        2.0266272241        7.9800124384
  O         7.5404383836        2.1617395799        8.0998548132
  O        11.2129593645        2.4819733303        8.3107106691
  O        -2.1622358891        5.4765418299        7.7551438550
  O         1.9063655516        5.4776902031        7.7115347213
  O         5.9083736277        5.6529375706        7.8451374828
  O         9.3751700498        5.8102641738        7.6969253116
  O        -4.0942610733        8.7267039173        8.4964768084
  O         0.2701861595        9.1060933437        8.4299390791
  O         3.8477914188        8.6803423041        8.0903089546
  O         7.7817646365        8.8460546758        7.8609925745
  O        -6.0153692181       12.2194798691        8.1375244910
  O        -1.8722307752       12.3305175863        8.1798033797
  O         1.8766256769       12.2275702713        8.0481472223
  O         5.7985725538       12.0291035246        8.0015514789
 Ce         0.0000000000        2.2090000000        0.7810000000
 Ce         3.8260000000        2.2090000000        0.7810000000
 Ce         7.6520000000        2.2090000000        0.7810000000
 Ce        11.4780000000        2.2090000000        0.7810000000
 Ce        -1.9130000000        5.5230000000        0.7810000000
 Ce         1.9130000000        5.5230000000        0.7810000000
 Ce         5.7390000000        5.5230000000        0.7810000000
 Ce         9.5650000000        5.5230000000        0.7810000000
 Ce        -3.8260000000        8.8360000000        0.7810000000
 Ce         0.0000000000        8.8360000000        0.7810000000
 Ce         3.8260000000        8.8360000000        0.7810000000
 Ce         7.6520000000        8.8360000000        0.7810000000
 Ce        -5.7390000000       12.1500000000        0.7810000000
 Ce        -1.9130000000       12.1500000000        0.7810000000
 Ce         1.9130000000       12.1500000000        0.7810000000
 Ce         5.7390000000       12.1500000000        0.7810000000
 Ce         1.9534722434        1.1313134902        3.9975334901
 Ce         5.8244599893        1.1526870368        3.9323334060
 Ce         9.6287234028        1.1323783507        3.9858788091
 Ce        13.3044298032        1.0632890332        3.9250058692
 Ce         0.0324171806        4.2857528178        4.1575704601
 Ce         3.7939909655        4.4673412713        3.8402249279
 Ce         7.6897729689        4.4963986336        3.8801281539
 Ce        11.4829332793        4.3625361103        3.9545319157
 Ce        -1.9111363099        7.7927750048        3.8786090470
 Ce         1.7786239090        7.7998311868        3.9759521907
 Ce         5.7229236109        7.8142977903        4.0530412693
 Ce         9.6141190752        7.7487179470        3.9807990581
 Ce        -3.7192629041       11.1087599452        3.9620742313
 Ce         0.0432753939       11.0465386954        3.7767988092
 Ce         3.9214429143       11.0078429242        3.9494532684
 Ce         7.7334204928       11.0775662724        3.9043144966
 Ce        -0.1256447402       -0.1694067137        7.3578344855
 Ce         3.7584171049       -0.1083635283        7.0340872455
 Ce         7.5792911211       -0.0974840526        7.2701064153
 Ce        11.2929266181        0.2403494428        7.3977741306
 Ce        -2.0649285947        3.3485768134        7.2689417184
 Ce         1.9572842850        3.3225828515        7.1884731576
 Ce         5.7067847980        3.4603372081        6.9760275734
 Ce         9.4279765709        3.4621195306        7.0482756509
 Ce        -3.8865645758        6.7918940740        7.0761620632
 Ce        -0.3324697025        6.5601716342        7.1888843464
 Ce         3.6388462001        6.7639467327        7.0025409230
 Ce         7.5726422689        6.8054393728        7.0474281394
 Ce        -5.7841463166        9.9910933173        7.0594315127
 Ce        -1.7769776506       10.0980703663        7.3765417790
 Ce         1.9187654559       10.0533029514        7.0411802442
 Ce         5.5536523104       10.0425771786        7.2092005298
 Pt        12.7195127179        1.6337526021        9.7507285972
 Pt         0.6550516789        5.1907963570        9.4597291609
 Pt        -0.1929836203        7.6990187206       10.0608928077
 Pt         6.7080546629       13.3122890482       10.6448724573
 Pt        -0.2107329627        2.5461554152        9.7122202773
 Pt        -2.5953884121        7.8348564115        9.4174635872
 Pt         2.1875121831        2.9413549589       10.3667765325
 Pt         3.0480443784        5.5981051638       10.9933463176
 Pt         5.1319068126        4.8028378927        9.5495570440
 Pt         1.6920865526       -0.0203371064        9.9370364960
 Pt         3.9946813901        1.2842916621        9.7869662140
 Pt        -1.2484800360        5.6615754259       10.8947014837
 Pt         6.3389889535        2.3876732315        9.7353783165
 Pt         0.1299637093        3.7361690984       12.0069126949
 Pt         6.1070634957        1.6632326919       12.2196653299
 Pt         1.0881444043        6.4620705572       12.1417544667
 Pt         4.4714190483        3.7116784373       11.6535025906
 Pt         0.6546904556        4.4141858210       14.3536745028
 Pt         0.8811977948        1.1293700434       12.1441087272
 Pt         3.1373674938        5.2485475453       13.5522634291
 Pt         3.6414553025        0.9325439908       12.2612355433
 Pt         2.2727841274        2.7118061120       13.3654161853
     166
 i =     2672, time =     2672.000, E =     -6045.7922732838
  O         0.0000000000        0.0000000000        0.0000000000
  O         3.8260000000        0.0000000000        0.0000000000
  O         7.6520000000        0.0000000000        0.0000000000
  O        11.4780000000        0.0000000000        0.0000000000
  O        -1.9130000000        3.3140000000        0.0000000000
  O         1.9130000000        3.3140000000        0.0000000000
  O         5.7390000000        3.3140000000        0.0000000000
  O         9.5650000000        3.3140000000        0.0000000000
  O        -3.8260000000        6.6270000000        0.0000000000
  O         0.0000000000        6.6270000000        0.0000000000
  O         3.8260000000        6.6270000000        0.0000000000
  O         7.6520000000        6.6270000000        0.0000000000
  O        -5.7390000000        9.9410000000        0.0000000000
  O        -1.9130000000        9.9410000000        0.0000000000
  O         1.9130000000        9.9410000000        0.0000000000
  O         5.7390000000        9.9410000000        0.0000000000
  O         1.9130000000        1.1050000000        1.5620000000
  O         5.7390000000        1.1050000000        1.5620000000
  O         9.5650000000        1.1050000000        1.5620000000
  O        13.3920000000        1.1050000000        1.5620000000
  O         0.0000000000        4.4180000000        1.5620000000
  O         3.8260000000        4.4180000000        1.5620000000
  O         7.6520000000        4.4180000000        1.5620000000
  O        11.4780000000        4.4180000000        1.5620000000
  O        -1.9130000000        7.7320000000        1.5620000000
  O         1.9130000000        7.7320000000        1.5620000000
  O         5.7390000000        7.7320000000        1.5620000000
  O         9.5650000000        7.7320000000        1.5620000000
  O        -3.8260000000       11.0450000000        1.5620000000
  O         0.0000000000       11.0450000000        1.5620000000
  O         3.8260000000       11.0450000000        1.5620000000
  O         7.6520000000       11.0450000000        1.5620000000
  O         0.0000000000        2.2090000000        3.1240000000
  O         3.8260000000        2.2090000000        3.1240000000
  O         7.6520000000        2.2090000000        3.1240000000
  O        11.4780000000        2.2090000000        3.1240000000
  O        -1.9130000000        5.5230000000        3.1240000000
  O         1.9130000000        5.5230000000        3.1240000000
  O         5.7390000000        5.5230000000        3.1240000000
  O         9.5650000000        5.5230000000        3.1240000000
  O        -3.8260000000        8.8360000000        3.1240000000
  O         0.0000000000        8.8360000000        3.1240000000
  O         3.8260000000        8.8360000000        3.1240000000
  O         7.6520000000        8.8360000000        3.1240000000
  O        -5.7390000000       12.1500000000        3.1240000000
  O        -1.9130000000       12.1500000000        3.1240000000
  O         1.9130000000       12.1500000000        3.1240000000
  O         5.7390000000       12.1500000000        3.1240000000
  O        -0.2920717625       -0.0578791762        4.9207279693
  O         3.8811226387       -0.0568383130        4.6689879978
  O         7.7961257366       -0.0117000347        4.6417258170
  O        11.2229042601       -0.0360834960        4.8728951500
  O        -2.0697975770        3.2056755507        4.9682738791
  O         1.9264136613        3.2224053573        4.8451636405
  O         5.7073623991        3.3847611381        4.5692601894
  O         9.5108038375        3.4079704278        4.6785594069
  O        -3.5943149129        6.6782229537        4.7403413054
  O        -0.3781755576        6.3183857340        4.9389832045
  O         3.7912418545        6.5871457106        4.6744200265
  O         7.7483697069        6.7702271965        4.7743578910
  O        -5.6352149747       10.0739329630        4.8683561502
  O        -1.9473621862       10.0872321500        4.7359619143
  O         1.7560341841        9.8149065770        4.7505319787
  O         5.6979914588       10.0426148933        4.7926246497
  O         1.9877445277        1.0668759963        6.1875662403
  O         5.7344620584        1.0271425501        6.1965922763
  O         9.3264779505        1.2344880824        6.7365393003
  O        12.9334679225        0.9028879049        6.2680306819
  O        -0.0538400371        4.3044508871        6.4828376044
  O         3.8318035886        4.5355919809        6.2332835125
  O         7.5029461750        4.2784728947        6.1872565082
  O        11.3844655808        4.4481406359        6.3828681530
  O        -1.8883598894        7.9042046839        6.5205626782
  O         1.7238167360        7.7259147874        6.2005593056
  O         5.6137818302        7.7707994694        6.3891318658
  O         9.8187704073        7.9891246212        6.1654109953
  O        -3.8185400740       10.9350730582        6.6480975163
  O         0.0264608896       10.9200429949        6.4138601938
  O         3.8506572881       11.1324518793        6.3079697538
  O         7.5987654186       10.8913204709        6.4537511050
  O         0.0689315271        1.9978278311        7.6826938832
  O         3.8108209236        2.0321449080        7.9804061022
  O         7.5299721116        2.1609449129        8.0853217523
  O        11.2228201206        2.4708855870        8.3091192450
  O        -2.1655738966        5.4856228904        7.7520509751
  O         1.9106540137        5.4665029545        7.7051152971
  O         5.9194763605        5.6400017806        7.8610873394
  O         9.3751196501        5.8190045924        7.6843738066
  O        -4.0938090825        8.7245355898        8.4980088189
  O         0.2781859692        9.0907425913        8.4323650825
  O         3.8526318236        8.6883403923        8.0891737163
  O         7.7667976216        8.8433083905        7.8509132919
  O        -6.0087832408       12.2196510869        8.1258099727
  O        -1.8710081032       12.3391521116        8.1877731514
  O         1.8783278118       12.2240022308        8.0395273708
  O         5.7909132365       12.0310007920        8.0099312373
 Ce         0.0000000000        2.2090000000        0.7810000000
 Ce         3.8260000000        2.2090000000        0.7810000000
 Ce         7.6520000000        2.2090000000        0.7810000000
 Ce        11.4780000000        2.2090000000        0.7810000000
 Ce        -1.9130000000        5.5230000000        0.7810000000
 Ce         1.9130000000        5.5230000000        0.7810000000
 Ce         5.7390000000        5.5230000000        0.7810000000
 Ce         9.5650000000        5.5230000000        0.7810000000
 Ce        -3.8260000000        8.8360000000        0.7810000000
 Ce         0.0000000000        8.8360000000        0.7810000000
 Ce         3.8260000000        8.8360000000        0.7810000000
 Ce         7.6520000000        8.8360000000        0.7810000000
 Ce        -5.7390000000       12.1500000000        0.7810000000
 Ce        -1.9130000000       12.1500000000        0.7810000000
 Ce         1.9130000000       12.1500000000        0.7810000000
 Ce         5.7390000000       12.1500000000        0.7810000000
 Ce         1.9569295677        1.1330619486        4.0002711749
 Ce         5.8235310728        1.1513325656        3.9323332883
 Ce         9.6273903627        1.1298461502        3.9833809065
 Ce        13.3056173449        1.0644305078        3.9259154745
 Ce         0.0300204627        4.2843831690        4.1587266705
 Ce         3.7972984927        4.4659823718        3.8375567078
 Ce         7.6929135225        4.4980980184        3.8819520775
 Ce        11.4815799659        4.3631152001        3.9586770140
 Ce        -1.9091708443        7.7918194053        3.8790509656
 Ce         1.7806161002        7.8035772523        3.9766023105
 Ce         5.7225349594        7.8159823733        4.0505289190
 Ce         9.6157087719        7.7491155831        3.9760664706
 Ce        -3.7221317920       11.1110262365        3.9621574305
 Ce         0.0480066026       11.0452420789        3.7801952630
 Ce         3.9186583086       11.0097036317        3.9497110951
 Ce         7.7333814267       11.0793281369        3.9032954109
 Ce        -0.1248326507       -0.1656126237        7.3547463831
 Ce         3.7581774944       -0.1067083574        7.0329467365
 Ce         7.5782853258       -0.0951472394        7.2689470924
 Ce        11.2966925724        0.2368731455        7.3952243804
 Ce        -2.0657413691        3.3483616574        7.2696529059
 Ce         1.9599221585        3.3222624316        7.1869948215
 Ce         5.7049502676        3.4603177751        6.9751426487
 Ce         9.4231401774        3.4582983359        7.0443661717
 Ce        -3.8868830391        6.7931646713        7.0771276671
 Ce        -0.3358795794        6.5620060786        7.1882220718
 Ce         3.6391269544        6.7603744277        7.0039622931
 Ce         7.5691563001        6.8044048597        7.0475460154
 Ce        -5.7877703301        9.9896153750        7.0579765808
 Ce        -1.7764006550       10.0996967727        7.3723461824
 Ce         1.9218657066       10.0536424887        7.0428239479
 Ce         5.5501035255       10.0388091730        7.2097767611
 Pt        12.7197015754        1.6343150045        9.7482820662
 Pt         0.6523969858        5.1879969296        9.4603199190
 Pt        -0.1934610809        7.6992436661       10.0590339606
 Pt         6.7067473432       13.3120058586       10.6454014292
 Pt        -0.2093240028        2.5444069211        9.7102355144
 Pt        -2.5947750717        7.8360958684        9.4180202607
 Pt         2.1888108539        2.9426425574       10.3619765169
 Pt         3.0470721283        5.5990076903       10.9898841225
 Pt         5.1303313918        4.8048950886        9.5471587235
 Pt         1.6908709366       -0.0192039818        9.9366176566
 Pt         3.9960783836        1.2850331638        9.7878187002
 Pt        -1.2519602436        5.6584752976       10.8907052891
 Pt         6.3387447318        2.3889115099        9.7356433382
 Pt         0.1259625331        3.7327708074       12.0113402016
 Pt         6.1069426270        1.6651078496       12.2189077831
 Pt         1.0905427511        6.4623425130       12.1398968935
 Pt         4.4678350411        3.7122746340       11.6541877443
 Pt         0.6543221127        4.4121426210       14.3536817965
 Pt         0.8814469162        1.1320946532       12.1415110384
 Pt         3.1352543986        5.2472268761       13.5555666773
 Pt         3.6395162033        0.9279736863       12.2603155156
 Pt         2.2710629521        2.7130578051       13.3684182884
     166
 i =     2673, time =     2673.000, E =     -6045.7927249169
  O         0.0000000000        0.0000000000        0.0000000000
  O         3.8260000000        0.0000000000        0.0000000000
  O         7.6520000000        0.0000000000        0.0000000000
  O        11.4780000000        0.0000000000        0.0000000000
  O        -1.9130000000        3.3140000000        0.0000000000
  O         1.9130000000        3.3140000000        0.0000000000
  O         5.7390000000        3.3140000000        0.0000000000
  O         9.5650000000        3.3140000000        0.0000000000
  O        -3.8260000000        6.6270000000        0.0000000000
  O         0.0000000000        6.6270000000        0.0000000000
  O         3.8260000000        6.6270000000        0.0000000000
  O         7.6520000000        6.6270000000        0.0000000000
  O        -5.7390000000        9.9410000000        0.0000000000
  O        -1.9130000000        9.9410000000        0.0000000000
  O         1.9130000000        9.9410000000        0.0000000000
  O         5.7390000000        9.9410000000        0.0000000000
  O         1.9130000000        1.1050000000        1.5620000000
  O         5.7390000000        1.1050000000        1.5620000000
  O         9.5650000000        1.1050000000        1.5620000000
  O        13.3920000000        1.1050000000        1.5620000000
  O         0.0000000000        4.4180000000        1.5620000000
  O         3.8260000000        4.4180000000        1.5620000000
  O         7.6520000000        4.4180000000        1.5620000000
  O        11.4780000000        4.4180000000        1.5620000000
  O        -1.9130000000        7.7320000000        1.5620000000
  O         1.9130000000        7.7320000000        1.5620000000
  O         5.7390000000        7.7320000000        1.5620000000
  O         9.5650000000        7.7320000000        1.5620000000
  O        -3.8260000000       11.0450000000        1.5620000000
  O         0.0000000000       11.0450000000        1.5620000000
  O         3.8260000000       11.0450000000        1.5620000000
  O         7.6520000000       11.0450000000        1.5620000000
  O         0.0000000000        2.2090000000        3.1240000000
  O         3.8260000000        2.2090000000        3.1240000000
  O         7.6520000000        2.2090000000        3.1240000000
  O        11.4780000000        2.2090000000        3.1240000000
  O        -1.9130000000        5.5230000000        3.1240000000
  O         1.9130000000        5.5230000000        3.1240000000
  O         5.7390000000        5.5230000000        3.1240000000
  O         9.5650000000        5.5230000000        3.1240000000
  O        -3.8260000000        8.8360000000        3.1240000000
  O         0.0000000000        8.8360000000        3.1240000000
  O         3.8260000000        8.8360000000        3.1240000000
  O         7.6520000000        8.8360000000        3.1240000000
  O        -5.7390000000       12.1500000000        3.1240000000
  O        -1.9130000000       12.1500000000        3.1240000000
  O         1.9130000000       12.1500000000        3.1240000000
  O         5.7390000000       12.1500000000        3.1240000000
  O        -0.3002129922       -0.0575517532        4.9194256782
  O         3.8759441406       -0.0513679292        4.6555825367
  O         7.7939896717       -0.0178875016        4.6411862651
  O        11.2252564147       -0.0358422208        4.8704052587
  O        -2.0699982675        3.1963623782        4.9620152560
  O         1.9265362267        3.2239422671        4.8566060209
  O         5.7068059159        3.3776786143        4.5659522437
  O         9.5182220071        3.4113716688        4.6726691436
  O        -3.5925774267        6.6932706120        4.7475835836
  O        -0.3829989306        6.3247681524        4.9368123802
  O         3.7999496486        6.5802441240        4.6753057798
  O         7.7436578108        6.7644314447        4.7800367163
  O        -5.6419047028       10.0764608105        4.8731588501
  O        -1.9529998094       10.0822303238        4.7337955577
  O         1.7651689974        9.8166880145        4.7503486722
  O         5.6896991644       10.0532019880        4.7961192394
  O         1.9897811259        1.0736601325        6.1950266425
  O         5.7358716383        1.0265501132        6.2110964730
  O         9.3255603330        1.2380744512        6.7446496604
  O        12.9303436520        0.8985395118        6.2678005586
  O        -0.0525014822        4.3095777078        6.4817761912
  O         3.8346405650        4.5222982964        6.2374786406
  O         7.4981288389        4.2823877774        6.1871363121
  O        11.3762381557        4.4468278826        6.3777991837
  O        -1.8910875993        7.9023625668        6.5066488282
  O         1.7266722852        7.7144234906        6.1933872305
  O         5.6151344378        7.7646795195        6.3907869102
  O         9.8206592948        7.9906862898        6.1612070691
  O        -3.8084213811       10.9270647835        6.6513547570
  O         0.0166641504       10.9274844274        6.4096410853
  O         3.8532752707       11.1321464525        6.3051412737
  O         7.6039237243       10.8917687488        6.4504091479
  O         0.0684157470        1.9920921615        7.6883177273
  O         3.8084245568        2.0379249390        7.9795422482
  O         7.5191031439        2.1605797837        8.0709974865
  O        11.2330283949        2.4595295461        8.3075294295
  O        -2.1685607055        5.4945413275        7.7491192400
  O         1.9147523580        5.4555977674        7.6993070144
  O         5.9301009667        5.6268732762        7.8771153617
  O         9.3751813850        5.8271510109        7.6719728102
  O        -4.0934083080        8.7223190712        8.4990165001
  O         0.2861277196        9.0752584555        8.4347483342
  O         3.8569960743        8.6970571613        8.0873540599
  O         7.7514683921        8.8400516285        7.8410379066
  O        -6.0009763854       12.2192033277        8.1141609150
  O        -1.8697429709       12.3472129066        8.1951697104
  O         1.8799822286       12.2199340264        8.0306866810
  O         5.7825289833       12.0326776828        8.0187920242
 Ce         0.0000000000        2.2090000000        0.7810000000
 Ce         3.8260000000        2.2090000000        0.7810000000
 Ce         7.6520000000        2.2090000000        0.7810000000
 Ce        11.4780000000        2.2090000000        0.7810000000
 Ce        -1.9130000000        5.5230000000        0.7810000000
 Ce         1.9130000000        5.5230000000        0.7810000000
 Ce         5.7390000000        5.5230000000        0.7810000000
 Ce         9.5650000000        5.5230000000        0.7810000000
 Ce        -3.8260000000        8.8360000000        0.7810000000
 Ce         0.0000000000        8.8360000000        0.7810000000
 Ce         3.8260000000        8.8360000000        0.7810000000
 Ce         7.6520000000        8.8360000000        0.7810000000
 Ce        -5.7390000000       12.1500000000        0.7810000000
 Ce        -1.9130000000       12.1500000000        0.7810000000
 Ce         1.9130000000       12.1500000000        0.7810000000
 Ce         5.7390000000       12.1500000000        0.7810000000
 Ce         1.9603592994        1.1347832962        4.0029496985
 Ce         5.8225831429        1.1499687950        3.9323219096
 Ce         9.6259523536        1.1272497546        3.9808366860
 Ce        13.3068573820        1.0655625292        3.9269107120
 Ce         0.0275445363        4.2830628285        4.1597921800
 Ce         3.8006369821        4.4645967589        3.8349260067
 Ce         7.6959613638        4.4997470445        3.8837316874
 Ce        11.4802964065        4.3637911949        3.9628171999
 Ce        -1.9072553216        7.7907877669        3.8795394001
 Ce         1.7827190441        7.8071700236        3.9771893207
 Ce         5.7221297108        7.8176167580        4.0479007584
 Ce         9.6173395208        7.7495524888        3.9712383216
 Ce        -3.7250472181       11.1132270726        3.9621845520
 Ce         0.0526873757       11.0440337724        3.7836963740
 Ce         3.9157850260       11.0116412252        3.9499327237
 Ce         7.7332942576       11.0811131626        3.9023310555
 Ce        -0.1240994020       -0.1617274040        7.3515441484
 Ce         3.7579895794       -0.1049326955        7.0318553414
 Ce         7.5772769391       -0.0926877966        7.2677602028
 Ce        11.3004926645        0.2333279146        7.3926460342
 Ce        -2.0665338581        3.3481241825        7.2703284566
 Ce         1.9625306450        3.3218797573        7.1855247150
 Ce         5.7030495854        3.4602002671        6.9742537599
 Ce         9.4183445980        3.4545019747        7.0405311280
 Ce        -3.8872000496        6.7943544631        7.0781295235
 Ce        -0.3391857213        6.5638289515        7.1875463641
 Ce         3.6394517281        6.7567288602        7.0054440247
 Ce         7.5657494093        6.8033942223        7.0477328548
 Ce        -5.7914425126        9.9880807021        7.0566679538
 Ce        -1.7758786239       10.1012343331        7.3681885566
 Ce         1.9249516774       10.0539116092        7.0445840819
 Ce         5.5466787489       10.0349771541        7.2103572617
 Pt        12.7198012687        1.6349013435        9.7457775013
 Pt         0.6498200669        5.1851567736        9.4608903658
 Pt        -0.1938352503        7.6995711657       10.0571218807
 Pt         6.7054805745       13.3117009911       10.6459536169
 Pt        -0.2079150045        2.5426949422        9.7082459931
 Pt        -2.5941681432        7.8373377132        9.4186530807
 Pt         2.1901139205        2.9439860691       10.3572098263
 Pt         3.0461073504        5.5999160301       10.9863257944
 Pt         5.1287717485        4.8070026040        9.5447527547
 Pt         1.6896506062       -0.0180238424        9.9362110948
 Pt         3.9974927504        1.2857528966        9.7886986616
 Pt        -1.2555644024        5.6553262936       10.8867820330
 Pt         6.3385294630        2.3901526853        9.7359444460
 Pt         0.1219543375        3.7293754928       12.0157103302
 Pt         6.1067827817        1.6669989326       12.2181327947
 Pt         1.0928783345        6.4626095030       12.1380818491
 Pt         4.4642759637        3.7127514995       11.6549545418
 Pt         0.6539915949        4.4101467630       14.3537207503
 Pt         0.8816545250        1.1347536497       12.1388751885
 Pt         3.1331054576        5.2458974357       13.5588582837
 Pt         3.6375847849        0.9233612587       12.2594141256
 Pt         2.2694024240        2.7143856335       13.3714723110
     166
 i =     2674, time =     2674.000, E =     -6045.7930284300
  O         0.0000000000        0.0000000000        0.0000000000
  O         3.8260000000        0.0000000000        0.0000000000
  O         7.6520000000        0.0000000000        0.0000000000
  O        11.4780000000        0.0000000000        0.0000000000
  O        -1.9130000000        3.3140000000        0.0000000000
  O         1.9130000000        3.3140000000        0.0000000000
  O         5.7390000000        3.3140000000        0.0000000000
  O         9.5650000000        3.3140000000        0.0000000000
  O        -3.8260000000        6.6270000000        0.0000000000
  O         0.0000000000        6.6270000000        0.0000000000
  O         3.8260000000        6.6270000000        0.0000000000
  O         7.6520000000        6.6270000000        0.0000000000
  O        -5.7390000000        9.9410000000        0.0000000000
  O        -1.9130000000        9.9410000000        0.0000000000
  O         1.9130000000        9.9410000000        0.0000000000
  O         5.7390000000        9.9410000000        0.0000000000
  O         1.9130000000        1.1050000000        1.5620000000
  O         5.7390000000        1.1050000000        1.5620000000
  O         9.5650000000        1.1050000000        1.5620000000
  O        13.3920000000        1.1050000000        1.5620000000
  O         0.0000000000        4.4180000000        1.5620000000
  O         3.8260000000        4.4180000000        1.5620000000
  O         7.6520000000        4.4180000000        1.5620000000
  O        11.4780000000        4.4180000000        1.5620000000
  O        -1.9130000000        7.7320000000        1.5620000000
  O         1.9130000000        7.7320000000        1.5620000000
  O         5.7390000000        7.7320000000        1.5620000000
  O         9.5650000000        7.7320000000        1.5620000000
  O        -3.8260000000       11.0450000000        1.5620000000
  O         0.0000000000       11.0450000000        1.5620000000
  O         3.8260000000       11.0450000000        1.5620000000
  O         7.6520000000       11.0450000000        1.5620000000
  O         0.0000000000        2.2090000000        3.1240000000
  O         3.8260000000        2.2090000000        3.1240000000
  O         7.6520000000        2.2090000000        3.1240000000
  O        11.4780000000        2.2090000000        3.1240000000
  O        -1.9130000000        5.5230000000        3.1240000000
  O         1.9130000000        5.5230000000        3.1240000000
  O         5.7390000000        5.5230000000        3.1240000000
  O         9.5650000000        5.5230000000        3.1240000000
  O        -3.8260000000        8.8360000000        3.1240000000
  O         0.0000000000        8.8360000000        3.1240000000
  O         3.8260000000        8.8360000000        3.1240000000
  O         7.6520000000        8.8360000000        3.1240000000
  O        -5.7390000000       12.1500000000        3.1240000000
  O        -1.9130000000       12.1500000000        3.1240000000
  O         1.9130000000       12.1500000000        3.1240000000
  O         5.7390000000       12.1500000000        3.1240000000
  O        -0.3076066507       -0.0573399644        4.9177661966
  O         3.8705624451       -0.0459610295        4.6427442112
  O         7.7915220442       -0.0241735521        4.6412564951
  O        11.2275588215       -0.0354878411        4.8673690701
  O        -2.0697123419        3.1872288511        4.9552719525
  O         1.9265277640        3.2260798525        4.8677628485
  O         5.7062858833        3.3703374629        4.5631188012
  O         9.5259632477        3.4142613114        4.6672849564
  O        -3.5917611365        6.7080066564        4.7549217902
  O        -0.3871194045        6.3320614428        4.9343355577
  O         3.8086561200        6.5742354351        4.6764809028
  O         7.7384916162        6.7583486800        4.7857571635
  O        -5.6489688224       10.0792542359        4.8770733661
  O        -1.9582575446       10.0768559378        4.7317923481
  O         1.7750160404        9.8194746818        4.7502225331
  O         5.6816641458       10.0631873555        4.7996132923
  O         1.9920013693        1.0799233468        6.2027831244
  O         5.7372870748        1.0260851886        6.2257899717
  O         9.3254377655        1.2417859127        6.7517185436
  O        12.9278026267        0.8950368933        6.2683249056
  O        -0.0514172373        4.3145396085        6.4803399938
  O         3.8376161549        4.5086102133        6.2418883399
  O         7.4940770666        4.2868831217        6.1869822423
  O        11.3674544656        4.4452206035        6.3723579598
  O        -1.8939372813        7.9011570565        6.4922911749
  O         1.7297091945        7.7032032494        6.1866389268
  O         5.6164499760        7.7589414470        6.3915342841
  O         9.8220940228        7.9918496333        6.1569965225
  O        -3.7980340091       10.9196406668        6.6543056747
  O         0.0068349943       10.9355347724        6.4052858261
  O         3.8551904468       11.1313058554        6.3026604822
  O         7.6091027048       10.8928464141        6.4464443438
  O         0.0674940792        1.9866116255        7.6938801469
  O         3.8061163109        2.0439174252        7.9774629313
  O         7.5078324634        2.1606844042        8.0570053511
  O        11.2435813123        2.4479590017        8.3059438878
  O        -2.1712062865        5.5032315486        7.7463275565
  O         1.9186692172        5.4450665549        7.6941640737
  O         5.9402748890        5.6136342314        7.8930674417
  O         9.3753739621        5.8346477955        7.6597043021
  O        -4.0930796367        8.7200615313        8.4995109131
  O         0.2939969032        9.0597263001        8.4370401223
  O         3.8608500710        8.7064635425        8.0848534117
  O         7.7357710302        8.8363330137        7.8314070303
  O        -5.9919823880       12.2181736737        8.1025632410
  O        -1.8684371448       12.3546592998        8.2020187821
  O         1.8815786420       12.2153502888        8.0216096832
  O         5.7734809814       12.0341326762        8.0280327179
 Ce         0.0000000000        2.2090000000        0.7810000000
 Ce         3.8260000000        2.2090000000        0.7810000000
 Ce         7.6520000000        2.2090000000        0.7810000000
 Ce        11.4780000000        2.2090000000        0.7810000000
 Ce        -1.9130000000        5.5230000000        0.7810000000
 Ce         1.9130000000        5.5230000000        0.7810000000
 Ce         5.7390000000        5.5230000000        0.7810000000
 Ce         9.5650000000        5.5230000000        0.7810000000
 Ce        -3.8260000000        8.8360000000        0.7810000000
 Ce         0.0000000000        8.8360000000        0.7810000000
 Ce         3.8260000000        8.8360000000        0.7810000000
 Ce         7.6520000000        8.8360000000        0.7810000000
 Ce        -5.7390000000       12.1500000000        0.7810000000
 Ce        -1.9130000000       12.1500000000        0.7810000000
 Ce         1.9130000000       12.1500000000        0.7810000000
 Ce         5.7390000000       12.1500000000        0.7810000000
 Ce         1.9637577061        1.1364805939        4.0055668588
 Ce         5.8216179539        1.1485960582        3.9322997992
 Ce         9.6244134166        1.1245914297        3.9782446842
 Ce        13.3081462655        1.0666833388        3.9279866964
 Ce         0.0249919195        4.2817960718        4.1607670447
 Ce         3.8040036808        4.4631851448        3.8323350217
 Ce         7.6989126653        4.5013457221        3.8854655397
 Ce        11.4790855279        4.3645633353        3.9669477950
 Ce        -1.9053908349        7.7896837035        3.8800763322
 Ce         1.7849315585        7.8106028829        3.9777083615
 Ce         5.7217087819        7.8191992206        4.0451601228
 Ce         9.6190097319        7.7500280141        3.9663226788
 Ce        -3.7280045026       11.1153561182        3.9621540827
 Ce         0.0573095628       11.0429133710        3.7872982407
 Ce         3.9128262238       11.0136569066        3.9501174383
 Ce         7.7331559074       11.0829209854        3.9014232320
 Ce        -0.1234493693       -0.1577630644        7.3482328832
 Ce         3.7578557850       -0.1030395906        7.0308182951
 Ce         7.5762613285       -0.0901088082        7.2665477090
 Ce        11.3043268885        0.2297109761        7.3900423929
 Ce        -2.0673065397        3.3478670326        7.2709677656
 Ce         1.9651102779        3.3214309750        7.1840654724
 Ce         5.7010829282        3.4599787864        6.9733631171
 Ce         9.4135885008        3.4507345134        7.0367707559
 Ce        -3.8875184114        6.7954682119        7.0791634481
 Ce        -0.3423879846        6.5656425301        7.1868555923
 Ce         3.6398203455        6.7530086865        7.0069834081
 Ce         7.5624229814        6.8024057110        7.0479868308
 Ce        -5.7951586582        9.9864901783        7.0555061070
 Ce        -1.7754149052       10.1026802662        7.3640693987
 Ce         1.9280197262       10.0541150027        7.0464594976
 Ce         5.5433832997       10.0310881654        7.2109438035
 Pt        12.7198134797        1.6355111728        9.7432158279
 Pt         0.6473213983        5.1822766131        9.4614389071
 Pt        -0.1941061820        7.6999965746       10.0551595528
 Pt         6.7042551067       13.3113751011       10.6465287719
 Pt        -0.2065070737        2.5410202656        9.7062557906
 Pt        -2.5935669738        7.8385818647        9.4193616962
 Pt         2.1914205397        2.9453858375       10.3524781797
 Pt         3.0451510850        5.6008291334       10.9826729135
 Pt         5.1272240257        4.8091567595        9.5423486029
 Pt         1.6884261911       -0.0167984624        9.9358131233
 Pt         3.9989235577        1.2864507506        9.7896033562
 Pt        -1.2592905090        5.6521308196       10.8829322252
 Pt         6.3383440935        2.3913963019        9.7362796310
 Pt         0.1179392781        3.7259840249       12.0200184630
 Pt         6.1065826973        1.6689060062       12.2173404793
 Pt         1.0951485879        6.4628715069       12.1363084300
 Pt         4.4607427578        3.7131095995       11.6558023863
 Pt         0.6536978018        4.4081997643       14.3537936516
 Pt         0.8818204311        1.1373471269       12.1362014938
 Pt         3.1309209165        5.2445596010       13.5621361201
 Pt         3.6356603493        0.9187100768       12.2585324076
 Pt         2.2678048936        2.7157845240       13.3745756262
