     166
 i =       75, time =       75.000, E =     -6045.8769251210
  O         0.0000000000        0.0000000000        0.0000000000
  O         3.8260000000        0.0000000000        0.0000000000
  O         7.6520000000        0.0000000000        0.0000000000
  O        11.4780000000        0.0000000000        0.0000000000
  O        -1.9130000000        3.3140000000        0.0000000000
  O         1.9130000000        3.3140000000        0.0000000000
  O         5.7390000000        3.3140000000        0.0000000000
  O         9.5650000000        3.3140000000        0.0000000000
  O        -3.8260000000        6.6270000000        0.0000000000
  O         0.0000000000        6.6270000000        0.0000000000
  O         3.8260000000        6.6270000000        0.0000000000
  O         7.6520000000        6.6270000000        0.0000000000
  O        -5.7390000000        9.9410000000        0.0000000000
  O        -1.9130000000        9.9410000000        0.0000000000
  O         1.9130000000        9.9410000000        0.0000000000
  O         5.7390000000        9.9410000000        0.0000000000
  O         1.9130000000        1.1050000000        1.5620000000
  O         5.7390000000        1.1050000000        1.5620000000
  O         9.5650000000        1.1050000000        1.5620000000
  O        13.3920000000        1.1050000000        1.5620000000
  O         0.0000000000        4.4180000000        1.5620000000
  O         3.8260000000        4.4180000000        1.5620000000
  O         7.6520000000        4.4180000000        1.5620000000
  O        11.4780000000        4.4180000000        1.5620000000
  O        -1.9130000000        7.7320000000        1.5620000000
  O         1.9130000000        7.7320000000        1.5620000000
  O         5.7390000000        7.7320000000        1.5620000000
  O         9.5650000000        7.7320000000        1.5620000000
  O        -3.8260000000       11.0450000000        1.5620000000
  O         0.0000000000       11.0450000000        1.5620000000
  O         3.8260000000       11.0450000000        1.5620000000
  O         7.6520000000       11.0450000000        1.5620000000
  O         0.0000000000        2.2090000000        3.1240000000
  O         3.8260000000        2.2090000000        3.1240000000
  O         7.6520000000        2.2090000000        3.1240000000
  O        11.4780000000        2.2090000000        3.1240000000
  O        -1.9130000000        5.5230000000        3.1240000000
  O         1.9130000000        5.5230000000        3.1240000000
  O         5.7390000000        5.5230000000        3.1240000000
  O         9.5650000000        5.5230000000        3.1240000000
  O        -3.8260000000        8.8360000000        3.1240000000
  O         0.0000000000        8.8360000000        3.1240000000
  O         3.8260000000        8.8360000000        3.1240000000
  O         7.6520000000        8.8360000000        3.1240000000
  O        -5.7390000000       12.1500000000        3.1240000000
  O        -1.9130000000       12.1500000000        3.1240000000
  O         1.9130000000       12.1500000000        3.1240000000
  O         5.7390000000       12.1500000000        3.1240000000
  O         0.1189780448       -0.0318927312        4.8427009081
  O         3.9431955222        0.0029339640        4.9174995449
  O         7.4738775219        0.0568490517        4.8439789516
  O        11.4462669617        0.0498442419        4.8020272849
  O        -1.8237954658        3.4134027204        4.5304518676
  O         2.0217333036        3.2473782309        4.6792236946
  O         5.7290128530        3.4083801550        4.7886978724
  O         9.5630678787        3.1358051528        4.8897856171
  O        -4.0214629954        6.5396417118        4.7433672618
  O         0.0021813607        6.6326340542        4.7304898866
  O         3.8503732902        6.5189996907        4.7110536242
  O         7.6274667603        6.6436955341        4.8690501652
  O        -5.7936421748       10.0647965517        4.6729312260
  O        -1.8604761209        9.9372262257        4.6076114520
  O         1.8945312227        9.9828492189        4.7481998427
  O         5.7795477349        9.8831926085        4.6574409078
  O         1.8334349387        1.0468654138        6.3500145520
  O         5.8571768767        1.2468135835        6.4067008978
  O         9.7155046261        0.8662774057        6.5926120843
  O        13.4424907701        1.1994358703        6.1795425114
  O         0.1203133489        4.4088401245        6.3659192650
  O         3.8277015484        4.3839695254        6.4369287957
  O         7.5632391660        4.3051187943        6.4073601243
  O        11.4995972387        4.2092993031        6.2772122193
  O        -1.9504757936        7.7580615039        6.3351750074
  O         1.9687015273        7.7494500396        6.4127901034
  O         5.6076067177        7.5332247306        6.3076912118
  O         9.4441715010        7.8353357069        6.2954878254
  O        -3.8650293818       10.8525200303        6.1991207457
  O        -0.0035741537       11.1638377745        6.2985741174
  O         3.9574807801       11.1508556907        6.3552905584
  O         7.5520759790       10.9678906052        6.4475030011
  O         0.1129872765        2.3772923505        7.8616523863
  O         3.7734614381        2.1051551434        7.8929841720
  O         7.8854669183        2.2362368646        8.1111284662
  O        11.1329530662        2.2579550255        8.2078496481
  O        -2.0146973432        5.5534903575        7.6433869623
  O         1.8986036331        5.6723488418        7.9431239252
  O         5.7260383266        5.4721626573        8.0695511401
  O         9.4565706970        5.5239208276        7.9073642228
  O        -4.1464085755        8.9390587120        8.1214909227
  O         0.2603036232        9.0680618479        8.1471812582
  O         3.7758244828        8.9221370723        7.8656158142
  O         7.5066311515        8.8751240626        8.0818826401
  O        -5.8356979321       12.0428896136        8.0704312607
  O        -1.8271664335       12.1792323351        7.9211305238
  O         1.8861330887       12.1011317289        8.1184084387
  O         5.8688492664       12.1465894612        8.2831681752
 Ce         0.0000000000        2.2090000000        0.7810000000
 Ce         3.8260000000        2.2090000000        0.7810000000
 Ce         7.6520000000        2.2090000000        0.7810000000
 Ce        11.4780000000        2.2090000000        0.7810000000
 Ce        -1.9130000000        5.5230000000        0.7810000000
 Ce         1.9130000000        5.5230000000        0.7810000000
 Ce         5.7390000000        5.5230000000        0.7810000000
 Ce         9.5650000000        5.5230000000        0.7810000000
 Ce        -3.8260000000        8.8360000000        0.7810000000
 Ce         0.0000000000        8.8360000000        0.7810000000
 Ce         3.8260000000        8.8360000000        0.7810000000
 Ce         7.6520000000        8.8360000000        0.7810000000
 Ce        -5.7390000000       12.1500000000        0.7810000000
 Ce        -1.9130000000       12.1500000000        0.7810000000
 Ce         1.9130000000       12.1500000000        0.7810000000
 Ce         5.7390000000       12.1500000000        0.7810000000
 Ce         1.9937743406        1.0214943500        4.0225118499
 Ce         5.8060647419        1.0692110043        3.9045968319
 Ce         9.7196198116        1.0312784024        4.0042932224
 Ce        13.5135781047        1.1971327619        3.9896897646
 Ce         0.0740882681        4.4165385703        3.8688403120
 Ce         3.6999796020        4.3515725422        3.8027117620
 Ce         7.5831067547        4.3452241922        3.8869392067
 Ce        11.4361309013        4.4508327382        3.8288904901
 Ce        -1.7755977237        7.7666458229        3.9185347800
 Ce         1.9996264225        7.7468927807        4.0677563705
 Ce         5.8108066903        7.6200540636        3.9567408972
 Ce         9.4479249956        7.7392798656        3.9723437365
 Ce        -3.8203073866       10.9480413350        3.9190292344
 Ce         0.0734830537       11.1071404554        3.8692051471
 Ce         3.9804349414       10.9546285956        3.9893215135
 Ce         7.5712337247       11.1623403924        3.8112095103
 Ce         0.0637135999       -0.0895459427        7.4218982091
 Ce         3.7317181197       -0.0779468766        7.1945935702
 Ce         7.7874481125        0.0202242346        7.2742376866
 Ce        11.6249890563        0.0796068534        7.2118333385
 Ce        -1.8174242953        3.4826585778        6.9247043682
 Ce         2.0291322476        3.3363483928        7.3342655083
 Ce         5.7194391241        3.1712917691        6.9276399411
 Ce         9.6391256392        3.2896282091        7.1182905707
 Ce        -3.9571872231        6.7321408807        7.0149524254
 Ce        -0.1643716418        6.6570042787        7.0956390607
 Ce         3.7584224580        6.5532987505        7.0416875997
 Ce         7.4651416549        6.5091137757        7.2980311734
 Ce        -5.8945712761        9.9479763046        6.9776763929
 Ce        -1.8222631646       10.0632129313        7.0415220162
 Ce         1.9993639919       10.1405745798        7.1270492619
 Ce         5.6601105014        9.8666665199        7.4031032088
 Pt        12.8264569276        1.9147475441        9.3325657733
 Pt         0.9812435438        5.4341374791        9.7701218159
 Pt        -0.0769068250        8.0640997043        9.9284968580
 Pt         7.1701274434       13.6132152865       10.0527275118
 Pt         0.0003131921        2.9642175300        9.8451115513
 Pt        -2.4704075747        8.5301810300        9.2606741316
 Pt         2.8416143361        3.6938909097       10.5913725966
 Pt         3.4487586522        6.4427250121       10.5800098528
 Pt         5.2442278446        4.8343658799        9.8585796852
 Pt         1.7497681029        1.3142731048       11.2137525911
 Pt         4.1602540725        1.4338407217        9.7763028905
 Pt        -0.1193547891        6.4953100794       11.8483673148
 Pt         6.5529854138        2.5019724481        9.7151886011
 Pt         0.6127883315        3.9392953529       12.1217812868
 Pt         5.4947769952        0.5684605874       11.6954419794
 Pt         2.2816941060        6.0402391174       12.8821113862
 Pt         5.1496955390        3.0962280950       11.7934689166
 Pt         0.0765301170        5.1774191900       14.2257829548
 Pt         1.1584140551        2.1817284270       13.9283587879
 Pt         4.7928252016        5.4509034091       12.6522642181
 Pt         3.4809305026        1.0691513940       13.1624412584
 Pt         3.2518560572        3.6048136702       13.6123766372
     166
 i =       76, time =       76.000, E =     -6045.8787372523
  O         0.0000000000        0.0000000000        0.0000000000
  O         3.8260000000        0.0000000000        0.0000000000
  O         7.6520000000        0.0000000000        0.0000000000
  O        11.4780000000        0.0000000000        0.0000000000
  O        -1.9130000000        3.3140000000        0.0000000000
  O         1.9130000000        3.3140000000        0.0000000000
  O         5.7390000000        3.3140000000        0.0000000000
  O         9.5650000000        3.3140000000        0.0000000000
  O        -3.8260000000        6.6270000000        0.0000000000
  O         0.0000000000        6.6270000000        0.0000000000
  O         3.8260000000        6.6270000000        0.0000000000
  O         7.6520000000        6.6270000000        0.0000000000
  O        -5.7390000000        9.9410000000        0.0000000000
  O        -1.9130000000        9.9410000000        0.0000000000
  O         1.9130000000        9.9410000000        0.0000000000
  O         5.7390000000        9.9410000000        0.0000000000
  O         1.9130000000        1.1050000000        1.5620000000
  O         5.7390000000        1.1050000000        1.5620000000
  O         9.5650000000        1.1050000000        1.5620000000
  O        13.3920000000        1.1050000000        1.5620000000
  O         0.0000000000        4.4180000000        1.5620000000
  O         3.8260000000        4.4180000000        1.5620000000
  O         7.6520000000        4.4180000000        1.5620000000
  O        11.4780000000        4.4180000000        1.5620000000
  O        -1.9130000000        7.7320000000        1.5620000000
  O         1.9130000000        7.7320000000        1.5620000000
  O         5.7390000000        7.7320000000        1.5620000000
  O         9.5650000000        7.7320000000        1.5620000000
  O        -3.8260000000       11.0450000000        1.5620000000
  O         0.0000000000       11.0450000000        1.5620000000
  O         3.8260000000       11.0450000000        1.5620000000
  O         7.6520000000       11.0450000000        1.5620000000
  O         0.0000000000        2.2090000000        3.1240000000
  O         3.8260000000        2.2090000000        3.1240000000
  O         7.6520000000        2.2090000000        3.1240000000
  O        11.4780000000        2.2090000000        3.1240000000
  O        -1.9130000000        5.5230000000        3.1240000000
  O         1.9130000000        5.5230000000        3.1240000000
  O         5.7390000000        5.5230000000        3.1240000000
  O         9.5650000000        5.5230000000        3.1240000000
  O        -3.8260000000        8.8360000000        3.1240000000
  O         0.0000000000        8.8360000000        3.1240000000
  O         3.8260000000        8.8360000000        3.1240000000
  O         7.6520000000        8.8360000000        3.1240000000
  O        -5.7390000000       12.1500000000        3.1240000000
  O        -1.9130000000       12.1500000000        3.1240000000
  O         1.9130000000       12.1500000000        3.1240000000
  O         5.7390000000       12.1500000000        3.1240000000
  O         0.1232686466       -0.0396626682        4.8397354045
  O         3.9460659800        0.0025662876        4.9169579189
  O         7.4673571466        0.0618648519        4.8376185443
  O        11.4499875872        0.0424715524        4.7943438859
  O        -1.8218841874        3.4100515027        4.5384520853
  O         2.0289079798        3.2400544865        4.6752071931
  O         5.7241363876        3.4071427948        4.7844084691
  O         9.5602688096        3.1346310610        4.8811733390
  O        -4.0330113919        6.5320097698        4.7306081940
  O         0.0002481598        6.6479378174        4.7311555571
  O         3.8535660134        6.5156245957        4.7180381643
  O         7.6271681946        6.6464789265        4.8729847740
  O        -5.7950537882       10.0623912676        4.6744505549
  O        -1.8617581190        9.9369365568        4.6010970208
  O         1.9015540394        9.9898154579        4.7478188646
  O         5.7803467562        9.8677493893        4.6526440405
  O         1.8309808333        1.0491046025        6.3519483950
  O         5.8492322945        1.2398013262        6.4142073596
  O         9.7071847123        0.8602040047        6.5970293618
  O        13.4395713687        1.1951506791        6.1812609689
  O         0.1318260441        4.4060223542        6.3669672126
  O         3.8324434089        4.3862671031        6.4371599960
  O         7.5669592792        4.3026754575        6.4091245709
  O        11.4835931218        4.2109641335        6.2793112427
  O        -1.9536305043        7.7576900180        6.3420159519
  O         1.9754524137        7.7542460170        6.4103736978
  O         5.6072525663        7.5464568111        6.3112543361
  O         9.4451624148        7.8314640181        6.2943381270
  O        -3.8619527887       10.8605698583        6.1972203865
  O        -0.0065185033       11.1722176288        6.2986612031
  O         3.9605208459       11.1479302063        6.3634716562
  O         7.5599244676       10.9701891325        6.4459624077
  O         0.1147776110        2.3621802939        7.8591658874
  O         3.7792913560        2.1009765612        7.8872625832
  O         7.8795195535        2.2333451515        8.1179400075
  O        11.1309192391        2.2498704601        8.2076735762
  O        -2.0117274311        5.5616552415        7.6459380329
  O         1.9022731859        5.6764582366        7.9461041247
  O         5.7241343266        5.4660568672        8.0688446897
  O         9.4576035859        5.5368824874        7.9116355862
  O        -4.1458578110        8.9394033436        8.1229852109
  O         0.2596935866        9.0775929889        8.1463609097
  O         3.7791897185        8.9227590669        7.8699882212
  O         7.5055163537        8.8712179208        8.0732997477
  O        -5.8386438080       12.0384537751        8.0621062077
  O        -1.8228019523       12.1795311327        7.9298266075
  O         1.8834675764       12.0842181472        8.1173851989
  O         5.8698547400       12.1457630650        8.2861130929
 Ce         0.0000000000        2.2090000000        0.7810000000
 Ce         3.8260000000        2.2090000000        0.7810000000
 Ce         7.6520000000        2.2090000000        0.7810000000
 Ce        11.4780000000        2.2090000000        0.7810000000
 Ce        -1.9130000000        5.5230000000        0.7810000000
 Ce         1.9130000000        5.5230000000        0.7810000000
 Ce         5.7390000000        5.5230000000        0.7810000000
 Ce         9.5650000000        5.5230000000        0.7810000000
 Ce        -3.8260000000        8.8360000000        0.7810000000
 Ce         0.0000000000        8.8360000000        0.7810000000
 Ce         3.8260000000        8.8360000000        0.7810000000
 Ce         7.6520000000        8.8360000000        0.7810000000
 Ce        -5.7390000000       12.1500000000        0.7810000000
 Ce        -1.9130000000       12.1500000000        0.7810000000
 Ce         1.9130000000       12.1500000000        0.7810000000
 Ce         5.7390000000       12.1500000000        0.7810000000
 Ce         1.9926299879        1.0219000245        4.0236706756
 Ce         5.8065640472        1.0683420862        3.9042446689
 Ce         9.7198947822        1.0329629870        4.0030546751
 Ce        13.5137209852        1.1951146300        3.9876209469
 Ce         0.0744318369        4.4159662572        3.8678250305
 Ce         3.7006038202        4.3512028988        3.8047684388
 Ce         7.5854588547        4.3459525819        3.8878328254
 Ce        11.4337583544        4.4509766977        3.8295376001
 Ce        -1.7769271208        7.7666228079        3.9147619844
 Ce         1.9988825930        7.7473319488        4.0662338194
 Ce         5.8107972418        7.6195333769        3.9573545433
 Ce         9.4475680362        7.7375431360        3.9699026249
 Ce        -3.8211357575       10.9486949121        3.9186904254
 Ce         0.0752703523       11.1072998451        3.8695741107
 Ce         3.9796546718       10.9553091061        3.9882228031
 Ce         7.5723599624       11.1622587754        3.8136218752
 Ce         0.0643856272       -0.0887863431        7.4234843325
 Ce         3.7317237051       -0.0813160733        7.1945497228
 Ce         7.7869548189        0.0193854572        7.2741309394
 Ce        11.6270901275        0.0815541931        7.2138068520
 Ce        -1.8177501824        3.4848124328        6.9262211454
 Ce         2.0263201804        3.3347561593        7.3345953008
 Ce         5.7204361770        3.1726202136        6.9265882382
 Ce         9.6395252328        3.2937060870        7.1161245670
 Ce        -3.9575037140        6.7301420301        7.0168010940
 Ce        -0.1640321803        6.6574653775        7.0977995886
 Ce         3.7571409986        6.5548721273        7.0408966185
 Ce         7.4651528336        6.5087857967        7.2977174472
 Ce        -5.8962997526        9.9486312353        6.9799485344
 Ce        -1.8217879571       10.0651158115        7.0430177638
 Ce         1.9989668185       10.1382944886        7.1296718485
 Ce         5.6610956033        9.8651177090        7.4060384083
 Pt        12.8264560575        1.9157121181        9.3327406266
 Pt         0.9819476431        5.4355030119        9.7705016443
 Pt        -0.0772561132        8.0645459442        9.9272682617
 Pt         7.1670171254       13.6137542040       10.0518879809
 Pt        -0.0028727243        2.9627921228        9.8478578321
 Pt        -2.4712926171        8.5334303873        9.2595349455
 Pt         2.8404676418        3.6957529779       10.5932650258
 Pt         3.4482186704        6.4450822298       10.5773293769
 Pt         5.2449194401        4.8343164118        9.8589492294
 Pt         1.7497084787        1.3135309099       11.2137834001
 Pt         4.1606531882        1.4327227673        9.7768408779
 Pt        -0.1194708635        6.4946154853       11.8499349451
 Pt         6.5539926870        2.5029047247        9.7135075993
 Pt         0.6132332332        3.9374453451       12.1219097326
 Pt         5.4968761100        0.5686707258       11.6949339118
 Pt         2.2802986423        6.0395286947       12.8792783855
 Pt         5.1508490042        3.0948349877       11.7940151241
 Pt         0.0771284686        5.1802322769       14.2255986199
 Pt         1.1590303515        2.1792960378       13.9279157161
 Pt         4.7926115664        5.4510568440       12.6519334390
 Pt         3.4796405017        1.0682264338       13.1606208429
 Pt         3.2510726183        3.6036286885       13.6110548527
     166
 i =       77, time =       77.000, E =     -6045.8803662331
  O         0.0000000000        0.0000000000        0.0000000000
  O         3.8260000000        0.0000000000        0.0000000000
  O         7.6520000000        0.0000000000        0.0000000000
  O        11.4780000000        0.0000000000        0.0000000000
  O        -1.9130000000        3.3140000000        0.0000000000
  O         1.9130000000        3.3140000000        0.0000000000
  O         5.7390000000        3.3140000000        0.0000000000
  O         9.5650000000        3.3140000000        0.0000000000
  O        -3.8260000000        6.6270000000        0.0000000000
  O         0.0000000000        6.6270000000        0.0000000000
  O         3.8260000000        6.6270000000        0.0000000000
  O         7.6520000000        6.6270000000        0.0000000000
  O        -5.7390000000        9.9410000000        0.0000000000
  O        -1.9130000000        9.9410000000        0.0000000000
  O         1.9130000000        9.9410000000        0.0000000000
  O         5.7390000000        9.9410000000        0.0000000000
  O         1.9130000000        1.1050000000        1.5620000000
  O         5.7390000000        1.1050000000        1.5620000000
  O         9.5650000000        1.1050000000        1.5620000000
  O        13.3920000000        1.1050000000        1.5620000000
  O         0.0000000000        4.4180000000        1.5620000000
  O         3.8260000000        4.4180000000        1.5620000000
  O         7.6520000000        4.4180000000        1.5620000000
  O        11.4780000000        4.4180000000        1.5620000000
  O        -1.9130000000        7.7320000000        1.5620000000
  O         1.9130000000        7.7320000000        1.5620000000
  O         5.7390000000        7.7320000000        1.5620000000
  O         9.5650000000        7.7320000000        1.5620000000
  O        -3.8260000000       11.0450000000        1.5620000000
  O         0.0000000000       11.0450000000        1.5620000000
  O         3.8260000000       11.0450000000        1.5620000000
  O         7.6520000000       11.0450000000        1.5620000000
  O         0.0000000000        2.2090000000        3.1240000000
  O         3.8260000000        2.2090000000        3.1240000000
  O         7.6520000000        2.2090000000        3.1240000000
  O        11.4780000000        2.2090000000        3.1240000000
  O        -1.9130000000        5.5230000000        3.1240000000
  O         1.9130000000        5.5230000000        3.1240000000
  O         5.7390000000        5.5230000000        3.1240000000
  O         9.5650000000        5.5230000000        3.1240000000
  O        -3.8260000000        8.8360000000        3.1240000000
  O         0.0000000000        8.8360000000        3.1240000000
  O         3.8260000000        8.8360000000        3.1240000000
  O         7.6520000000        8.8360000000        3.1240000000
  O        -5.7390000000       12.1500000000        3.1240000000
  O        -1.9130000000       12.1500000000        3.1240000000
  O         1.9130000000       12.1500000000        3.1240000000
  O         5.7390000000       12.1500000000        3.1240000000
  O         0.1270355482       -0.0474978366        4.8361162284
  O         3.9486163959        0.0022238214        4.9160569293
  O         7.4620636965        0.0666970697        4.8309833465
  O        11.4541920556        0.0348951158        4.7866444716
  O        -1.8201446469        3.4066206563        4.5470411060
  O         2.0355547403        3.2329953278        4.6714056387
  O         5.7191270958        3.4055695719        4.7790073495
  O         9.5572640398        3.1336512691        4.8719764583
  O        -4.0440017925        6.5247039376        4.7183202145
  O        -0.0014589089        6.6631728966        4.7321050268
  O         3.8562606247        6.5124701590        4.7250170926
  O         7.6268284134        6.6487853204        4.8766415045
  O        -5.7967501810       10.0594915945        4.6759209834
  O        -1.8627911295        9.9366181671        4.5950367200
  O         1.9089647161        9.9966161730        4.7475945513
  O         5.7809176046        9.8524386883        4.6481879205
  O         1.8291454942        1.0514311814        6.3542819274
  O         5.8411774638        1.2316727318        6.4213525357
  O         9.6984775690        0.8548431507        6.6003775875
  O        13.4364129977        1.1908585506        6.1834549814
  O         0.1431907466        4.4037314557        6.3674709110
  O         3.8368440560        4.3885539092        6.4372025450
  O         7.5709549193        4.3007012583        6.4103905601
  O        11.4677497741        4.2131889508        6.2811532732
  O        -1.9567421617        7.7578095564        6.3480917426
  O         1.9817862471        7.7589911777        6.4070142312
  O         5.6073338996        7.5600728808        6.3151135382
  O         9.4463022906        7.8272978283        6.2931485598
  O        -3.8585802992       10.8690964643        6.1957981782
  O        -0.0090186894       11.1801842065        6.2986154077
  O         3.9636004728       11.1450306419        6.3717344335
  O         7.5673951984       10.9728305500        6.4441513058
  O         0.1164989549        2.3467915035        7.8567378361
  O         3.7849718842        2.0966440473        7.8814762765
  O         7.8732871949        2.2300223794        8.1248778462
  O        11.1297884640        2.2413814102        8.2080857124
  O        -2.0087134687        5.5697759911        7.6485345418
  O         1.9056217090        5.6800091414        7.9490696632
  O         5.7221792634        5.4603407356        8.0677221880
  O         9.4587858597        5.5500221267        7.9156566637
  O        -4.1451313296        8.9392556697        8.1243830572
  O         0.2588563101        9.0872369844        8.1451165992
  O         3.7828147085        8.9233199264        7.8746943266
  O         7.5040913731        8.8667136529        8.0645742081
  O        -5.8409957845       12.0341672610        8.0534701426
  O        -1.8188167140       12.1797048665        7.9383007119
  O         1.8810117157       12.0671686827        8.1162577937
  O         5.8704747046       12.1447290366        8.2888445462
 Ce         0.0000000000        2.2090000000        0.7810000000
 Ce         3.8260000000        2.2090000000        0.7810000000
 Ce         7.6520000000        2.2090000000        0.7810000000
 Ce        11.4780000000        2.2090000000        0.7810000000
 Ce        -1.9130000000        5.5230000000        0.7810000000
 Ce         1.9130000000        5.5230000000        0.7810000000
 Ce         5.7390000000        5.5230000000        0.7810000000
 Ce         9.5650000000        5.5230000000        0.7810000000
 Ce        -3.8260000000        8.8360000000        0.7810000000
 Ce         0.0000000000        8.8360000000        0.7810000000
 Ce         3.8260000000        8.8360000000        0.7810000000
 Ce         7.6520000000        8.8360000000        0.7810000000
 Ce        -5.7390000000       12.1500000000        0.7810000000
 Ce        -1.9130000000       12.1500000000        0.7810000000
 Ce         1.9130000000       12.1500000000        0.7810000000
 Ce         5.7390000000       12.1500000000        0.7810000000
 Ce         1.9914496182        1.0223192160        4.0248361377
 Ce         5.8070164243        1.0674690081        3.9039300870
 Ce         9.7200877434        1.0346845059        4.0017878673
 Ce        13.5138179458        1.1930471372        3.9855185398
 Ce         0.0747399646        4.4153821148        3.8668399215
 Ce         3.7013339564        4.3508471364        3.8069208787
 Ce         7.5878595743        4.3467022380        3.8887958695
 Ce        11.4314128158        4.4510896441        3.8302557292
 Ce        -1.7783666248        7.7665985056        3.9109584359
 Ce         1.9981026732        7.7477963929        4.0646486423
 Ce         5.8107418164        7.6190936616        3.9579693670
 Ce         9.4472723854        7.7358330294        3.9674370111
 Ce        -3.8219649849       10.9493916752        3.9183565705
 Ce         0.0769829133       11.1074408999        3.8699923776
 Ce         3.9787988953       10.9560253614        3.9871071900
 Ce         7.5735916473       11.1620889818        3.8161724410
 Ce         0.0650326508       -0.0880157954        7.4249866469
 Ce         3.7317825695       -0.0847343863        7.1944880705
 Ce         7.7863669893        0.0185015345        7.2740334107
 Ce        11.6291932690        0.0834666374        7.2158069433
 Ce        -1.8180756378        3.4869032201        6.9277997797
 Ce         2.0234251550        3.3331661295        7.3348736048
 Ce         5.7214656452        3.1740809645        6.9256931268
 Ce         9.6398319088        3.2978537886        7.1139991777
 Ce        -3.9578322428        6.7281160088        7.0187316379
 Ce        -0.1636289619        6.6579375037        7.1000026969
 Ce         3.7558820339        6.5565153984        7.0401668764
 Ce         7.4653183923        6.5085070448        7.2973378350
 Ce        -5.8980109501        9.9492887529        6.9823164426
 Ce        -1.8213572320       10.0670556679        7.0445627104
 Ce         1.9985360849       10.1359534660        7.1323233842
 Ce         5.6621821810        9.8636177908        7.4089133148
 Pt        12.8264829497        1.9166901626        9.3329174488
 Pt         0.9826673804        5.4369421743        9.7708836335
 Pt        -0.0775844215        8.0649337902        9.9260187834
 Pt         7.1639040286       13.6143014305       10.0510725947
 Pt        -0.0060764178        2.9613467942        9.8506065387
 Pt        -2.4721880650        8.5366622220        9.2583884221
 Pt         2.8392832994        3.6976696854       10.5951502586
 Pt         3.4476237811        6.4474325477       10.5746642345
 Pt         5.2456203638        4.8342410269        9.8593689332
 Pt         1.7496596055        1.3127869455       11.2138405045
 Pt         4.1610279165        1.4315922379        9.7773739926
 Pt        -0.1195887718        6.4939233561       11.8515854888
 Pt         6.5550450066        2.5038195100        9.7118220183
 Pt         0.6137133104        3.9355636018       12.1220005015
 Pt         5.4989908390        0.5688685759       11.6944375788
 Pt         2.2788598105        6.0387900645       12.8764562250
 Pt         5.1519994634        3.0934073377       11.7946063966
 Pt         0.0777455782        5.1830654392       14.2254032946
 Pt         1.1596497977        2.1768560295       13.9274542081
 Pt         4.7924167997        5.4512406305       12.6515931000
 Pt         3.4783041684        1.0673087846       13.1587831187
 Pt         3.2502773898        3.6024778114       13.6097258116
     166
 i =       78, time =       78.000, E =     -6045.8819428909
  O         0.0000000000        0.0000000000        0.0000000000
  O         3.8260000000        0.0000000000        0.0000000000
  O         7.6520000000        0.0000000000        0.0000000000
  O        11.4780000000        0.0000000000        0.0000000000
  O        -1.9130000000        3.3140000000        0.0000000000
  O         1.9130000000        3.3140000000        0.0000000000
  O         5.7390000000        3.3140000000        0.0000000000
  O         9.5650000000        3.3140000000        0.0000000000
  O        -3.8260000000        6.6270000000        0.0000000000
  O         0.0000000000        6.6270000000        0.0000000000
  O         3.8260000000        6.6270000000        0.0000000000
  O         7.6520000000        6.6270000000        0.0000000000
  O        -5.7390000000        9.9410000000        0.0000000000
  O        -1.9130000000        9.9410000000        0.0000000000
  O         1.9130000000        9.9410000000        0.0000000000
  O         5.7390000000        9.9410000000        0.0000000000
  O         1.9130000000        1.1050000000        1.5620000000
  O         5.7390000000        1.1050000000        1.5620000000
  O         9.5650000000        1.1050000000        1.5620000000
  O        13.3920000000        1.1050000000        1.5620000000
  O         0.0000000000        4.4180000000        1.5620000000
  O         3.8260000000        4.4180000000        1.5620000000
  O         7.6520000000        4.4180000000        1.5620000000
  O        11.4780000000        4.4180000000        1.5620000000
  O        -1.9130000000        7.7320000000        1.5620000000
  O         1.9130000000        7.7320000000        1.5620000000
  O         5.7390000000        7.7320000000        1.5620000000
  O         9.5650000000        7.7320000000        1.5620000000
  O        -3.8260000000       11.0450000000        1.5620000000
  O         0.0000000000       11.0450000000        1.5620000000
  O         3.8260000000       11.0450000000        1.5620000000
  O         7.6520000000       11.0450000000        1.5620000000
  O         0.0000000000        2.2090000000        3.1240000000
  O         3.8260000000        2.2090000000        3.1240000000
  O         7.6520000000        2.2090000000        3.1240000000
  O        11.4780000000        2.2090000000        3.1240000000
  O        -1.9130000000        5.5230000000        3.1240000000
  O         1.9130000000        5.5230000000        3.1240000000
  O         5.7390000000        5.5230000000        3.1240000000
  O         9.5650000000        5.5230000000        3.1240000000
  O        -3.8260000000        8.8360000000        3.1240000000
  O         0.0000000000        8.8360000000        3.1240000000
  O         3.8260000000        8.8360000000        3.1240000000
  O         7.6520000000        8.8360000000        3.1240000000
  O        -5.7390000000       12.1500000000        3.1240000000
  O        -1.9130000000       12.1500000000        3.1240000000
  O         1.9130000000       12.1500000000        3.1240000000
  O         5.7390000000       12.1500000000        3.1240000000
  O         0.1302447780       -0.0553444955        4.8318670557
  O         3.9508179578        0.0019094705        4.9147984244
  O         7.4580545352        0.0713088527        4.8241254449
  O        11.4588467685        0.0271448538        4.7789289991
  O        -1.8185739211        3.4031344036        4.5562154059
  O         2.0416268745        3.2262293955        4.6678658586
  O         5.7140313949        3.4036545769        4.7725269204
  O         9.5540589490        3.1328762790        4.8622633290
  O        -4.0543585314        6.5177332156        4.7065603195
  O        -0.0029273913        6.6782764096        4.7333480252
  O         3.8584452504        6.5095500261        4.7319756184
  O         7.6264374305        6.6505883188        4.8800210585
  O        -5.7987050111       10.0561173288        4.6773350804
  O        -1.8635680237        9.9362634168        4.5894917898
  O         1.9167356207       10.0032215612        4.7475184046
  O         5.7812611257        9.8373520620        4.6440746830
  O         1.8279319334        1.0538308416        6.3570069545
  O         5.8330223170        1.2225153492        6.4281743345
  O         9.6894936278        0.8502367187        6.6026183753
  O        13.4330167990        1.1865732648        6.1861143529
  O         0.1543090762        4.4019744565        6.3674357845
  O         3.8408621720        4.3908028112        6.4370674143
  O         7.5752309152        4.2991893046        6.4111601303
  O        11.4521675886        4.2159888308        6.2827663746
  O        -1.9598126150        7.7584192672        6.3534076151
  O         1.9876661688        7.7636714386        6.4027071931
  O         5.6078382245        7.5739973762        6.3192629894
  O         9.4476151626        7.8228540285        6.2919376806
  O        -3.8549340824       10.8780432511        6.1948700549
  O        -0.0110896810       11.1876921713        6.2984038161
  O         3.9667311480       11.1421889654        6.3800103559
  O         7.5744351190       10.9757939462        6.4420776699
  O         0.1181405591        2.3311848890        7.8544029288
  O         3.7904689986        2.0921918436        7.8756533840
  O         7.8668408337        2.2262896375        8.1319233862
  O        11.1295165922        2.2325078297        8.2090521938
  O        -2.0056841616        5.5777485095        7.6511416254
  O         1.9086245439        5.6830033850        7.9520065749
  O         5.7201983027        5.4550440238        8.0661682318
  O         9.4601183850        5.5632981244        7.9194339178
  O        -4.1442448737        8.9386239901        8.1256769868
  O         0.2577663788        9.0969372496        8.1434763239
  O         3.7866794597        8.9237974627        7.8797353881
  O         7.5023918395        8.8616066146        8.0557620957
  O        -5.8427343853       12.0300406899        8.0445457133
  O        -1.8152237892       12.1797369388        7.9465020154
  O         1.8787788271       12.0500842944        8.1150500296
  O         5.8707171994       12.1435077280        8.2913699590
 Ce         0.0000000000        2.2090000000        0.7810000000
 Ce         3.8260000000        2.2090000000        0.7810000000
 Ce         7.6520000000        2.2090000000        0.7810000000
 Ce        11.4780000000        2.2090000000        0.7810000000
 Ce        -1.9130000000        5.5230000000        0.7810000000
 Ce         1.9130000000        5.5230000000        0.7810000000
 Ce         5.7390000000        5.5230000000        0.7810000000
 Ce         9.5650000000        5.5230000000        0.7810000000
 Ce        -3.8260000000        8.8360000000        0.7810000000
 Ce         0.0000000000        8.8360000000        0.7810000000
 Ce         3.8260000000        8.8360000000        0.7810000000
 Ce         7.6520000000        8.8360000000        0.7810000000
 Ce        -5.7390000000       12.1500000000        0.7810000000
 Ce        -1.9130000000       12.1500000000        0.7810000000
 Ce         1.9130000000       12.1500000000        0.7810000000
 Ce         5.7390000000       12.1500000000        0.7810000000
 Ce         1.9902385510        1.0227489776        4.0260064400
 Ce         5.8074164981        1.0665938186        3.9036514478
 Ce         9.7201980878        1.0364379578        4.0004906532
 Ce        13.5138682342        1.1909280292        3.9833844351
 Ce         0.0750136648        4.4147871844        3.8658841494
 Ce         3.7021736341        4.3505042148        3.8091664563
 Ce         7.5903043428        4.3474714480        3.8898241386
 Ce        11.4290934350        4.4511716727        3.8310399610
 Ce        -1.7799168837        7.7665771078        3.9071262923
 Ce         1.9972899504        7.7482890611        4.0630020511
 Ce         5.8106401846        7.6187366311        3.9585864776
 Ce         9.4470360162        7.7341529836        3.9649488852
 Ce        -3.8227945708       10.9501322636        3.9180275565
 Ce         0.0786184041       11.1075644075        3.8704594517
 Ce         3.9778702400       10.9567739838        3.9859781702
 Ce         7.5749281430       11.1618264111        3.8188587641
 Ce         0.0656535679       -0.0872358816        7.4264030765
 Ce         3.7318983000       -0.0881985237        7.1944054403
 Ce         7.7856785800        0.0175696446        7.2739472933
 Ce        11.6312969469        0.0853372520        7.2178307907
 Ce        -1.8183974735        3.4889285458        6.9294407529
 Ce         2.0204555845        3.3315752797        7.3351024796
 Ce         5.7225240174        3.1756628439        6.9249492570
 Ce         9.6400396303        3.3020635657        7.1119186689
 Ce        -3.9581771744        6.7260692675        7.0207404958
 Ce        -0.1631597166        6.6584264943        7.1022470133
 Ce         3.7546510895        6.5582305373        7.0394981222
 Ce         7.4656356342        6.5082827791        7.2968915816
 Ce        -5.8997022007        9.9499443306        6.9847743292
 Ce        -1.8209693978       10.0690345338        7.0461550208
 Ce         1.9980767309       10.1335523112        7.1350011197
 Ce         5.6633650733        9.8621658153        7.4117251836
 Pt        12.8265369459        1.9176825021        9.3330956587
 Pt         0.9834020900        5.4384527346        9.7712693058
 Pt        -0.0778927854        8.0652629973        9.9247492743
 Pt         7.1607885429       13.6148557122       10.0502824583
 Pt        -0.0092956832        2.9598818373        9.8533533634
 Pt        -2.4730921369        8.5398759585        9.2572365011
 Pt         2.8380628800        3.6996395386       10.5970267897
 Pt         3.4469753274        6.4497745384       10.5720163270
 Pt         5.2463296559        4.8341403189        9.8598407413
 Pt         1.7496210853        1.3120414904       11.2139228972
 Pt         4.1613781099        1.4304511292        9.7779000135
 Pt        -0.1197086939        6.4932352615       11.8533158285
 Pt         6.5561390676        2.5047164235        9.7101341934
 Pt         0.6142267096        3.9336522428       12.1220546884
 Pt         5.5011202866        0.5690538655       11.6939537931
 Pt         2.2773792786        6.0380238050       12.8736442691
 Pt         5.1531467876        3.0919477124       11.7952427568
 Pt         0.0783812843        5.1859182419       14.2251966758
 Pt         1.1602717273        2.1744073100       13.9269751152
 Pt         4.7922399537        5.4514538954       12.6512412605
 Pt         3.4769231226        1.0663973134       13.1569278692
 Pt         3.2494706263        3.6013622579       13.6083895649
     166
 i =       79, time =       79.000, E =     -6045.8835411789
  O         0.0000000000        0.0000000000        0.0000000000
  O         3.8260000000        0.0000000000        0.0000000000
  O         7.6520000000        0.0000000000        0.0000000000
  O        11.4780000000        0.0000000000        0.0000000000
  O        -1.9130000000        3.3140000000        0.0000000000
  O         1.9130000000        3.3140000000        0.0000000000
  O         5.7390000000        3.3140000000        0.0000000000
  O         9.5650000000        3.3140000000        0.0000000000
  O        -3.8260000000        6.6270000000        0.0000000000
  O         0.0000000000        6.6270000000        0.0000000000
  O         3.8260000000        6.6270000000        0.0000000000
  O         7.6520000000        6.6270000000        0.0000000000
  O        -5.7390000000        9.9410000000        0.0000000000
  O        -1.9130000000        9.9410000000        0.0000000000
  O         1.9130000000        9.9410000000        0.0000000000
  O         5.7390000000        9.9410000000        0.0000000000
  O         1.9130000000        1.1050000000        1.5620000000
  O         5.7390000000        1.1050000000        1.5620000000
  O         9.5650000000        1.1050000000        1.5620000000
  O        13.3920000000        1.1050000000        1.5620000000
  O         0.0000000000        4.4180000000        1.5620000000
  O         3.8260000000        4.4180000000        1.5620000000
  O         7.6520000000        4.4180000000        1.5620000000
  O        11.4780000000        4.4180000000        1.5620000000
  O        -1.9130000000        7.7320000000        1.5620000000
  O         1.9130000000        7.7320000000        1.5620000000
  O         5.7390000000        7.7320000000        1.5620000000
  O         9.5650000000        7.7320000000        1.5620000000
  O        -3.8260000000       11.0450000000        1.5620000000
  O         0.0000000000       11.0450000000        1.5620000000
  O         3.8260000000       11.0450000000        1.5620000000
  O         7.6520000000       11.0450000000        1.5620000000
  O         0.0000000000        2.2090000000        3.1240000000
  O         3.8260000000        2.2090000000        3.1240000000
  O         7.6520000000        2.2090000000        3.1240000000
  O        11.4780000000        2.2090000000        3.1240000000
  O        -1.9130000000        5.5230000000        3.1240000000
  O         1.9130000000        5.5230000000        3.1240000000
  O         5.7390000000        5.5230000000        3.1240000000
  O         9.5650000000        5.5230000000        3.1240000000
  O        -3.8260000000        8.8360000000        3.1240000000
  O         0.0000000000        8.8360000000        3.1240000000
  O         3.8260000000        8.8360000000        3.1240000000
  O         7.6520000000        8.8360000000        3.1240000000
  O        -5.7390000000       12.1500000000        3.1240000000
  O        -1.9130000000       12.1500000000        3.1240000000
  O         1.9130000000       12.1500000000        3.1240000000
  O         5.7390000000       12.1500000000        3.1240000000
  O         0.1328732550       -0.0631392764        4.8270239078
  O         3.9526405947        0.0016261741        4.9131835744
  O         7.4553716516        0.0756718930        4.8171154669
  O        11.4639251045        0.0192420451        4.7711860229
  O        -1.8171687652        3.3996159777        4.5660030059
  O         2.0470889160        3.2197733643        4.6646319041
  O         5.7088948272        3.4013913063        4.7650133421
  O         9.5506611076        3.1323196059        4.8520662599
  O        -4.0640016022        6.5111272940        4.6953412749
  O        -0.0041529641        6.6931787252        4.7348918347
  O         3.8601143151        6.5068758114        4.7388790242
  O         7.6259862595        6.6518640138        4.8831197905
  O        -5.8008869453       10.0522912808        4.6786891324
  O        -1.8640855318        9.9358670982        4.5845126076
  O         1.9248479910       10.0096052384        4.7475798253
  O         5.7813848861        9.8225575468        4.6403002665
  O         1.8273411953        1.0562891666        6.3601106393
  O         5.8247828245        1.2124382821        6.4346993346
  O         9.6803150259        0.8464107370        6.6037283085
  O        13.4293924356        1.1823123632        6.1892301080
  O         0.1650950134        4.4007398489        6.3668701025
  O         3.8444623009        4.3929845144        6.4367668117
  O         7.5797811702        4.2981277293        6.4114371895
  O        11.4369560094        4.2193916108        6.2841749327
  O        -1.9628448536        7.7595131671        6.3579645076
  O         1.9930676985        7.7682780462        6.3974552110
  O         5.6087398481        7.5881752624        6.3236990569
  O         9.4491256259        7.8181483579        6.2907224717
  O        -3.8510350572       10.8873656595        6.1944499700
  O        -0.0127537364       11.1947168555        6.2979963973
  O         3.9699253384       11.1394300192        6.3882156795
  O         7.5810075320       10.9790597061        6.4397517075
  O         0.1196865330        2.3154627023        7.8521957310
  O         3.7957593987        2.0876565613        7.8698376003
  O         7.8602538422        2.2221766118        8.1390493295
  O        11.1300492431        2.2232780220        8.2105323757
  O        -2.0026682426        5.5854640345        7.6537277941
  O         1.9112633488        5.6854438019        7.9549010560
  O         5.7182178429        5.4501884591        8.0641762266
  O         9.4615970036        5.5766721723        7.9229682604
  O        -4.1432181021        8.9375135240        8.1268563808
  O         0.2563840985        9.1066523960        8.1414627046
  O         3.7907616744        8.9241681538        7.8851181999
  O         7.5004609620        8.8558938138        8.0468824990
  O        -5.8438435540       12.0260857659        8.0353310328
  O        -1.8120350260       12.1796122120        7.9543905779
  O         1.8767729761       12.0330215924        8.1137867486
  O         5.8705985634       12.1421199554        8.2936970129
 Ce         0.0000000000        2.2090000000        0.7810000000
 Ce         3.8260000000        2.2090000000        0.7810000000
 Ce         7.6520000000        2.2090000000        0.7810000000
 Ce        11.4780000000        2.2090000000        0.7810000000
 Ce        -1.9130000000        5.5230000000        0.7810000000
 Ce         1.9130000000        5.5230000000        0.7810000000
 Ce         5.7390000000        5.5230000000        0.7810000000
 Ce         9.5650000000        5.5230000000        0.7810000000
 Ce        -3.8260000000        8.8360000000        0.7810000000
 Ce         0.0000000000        8.8360000000        0.7810000000
 Ce         3.8260000000        8.8360000000        0.7810000000
 Ce         7.6520000000        8.8360000000        0.7810000000
 Ce        -5.7390000000       12.1500000000        0.7810000000
 Ce        -1.9130000000       12.1500000000        0.7810000000
 Ce         1.9130000000       12.1500000000        0.7810000000
 Ce         5.7390000000       12.1500000000        0.7810000000
 Ce         1.9890020293        1.0231864533        4.0271795458
 Ce         5.8077591729        1.0657184140        3.9034068864
 Ce         9.7202252521        1.0382180440        3.9991611292
 Ce        13.5138708191        1.1887549522        3.9812205666
 Ce         0.0752539367        4.4141824280        3.8649567656
 Ce         3.7031260305        4.3501731784        3.8115021699
 Ce         7.5927888543        4.3482585585        3.8909129754
 Ce        11.4267994557        4.4512225450        3.8318851720
 Ce        -1.7815781385        7.7665627074        3.9032677860
 Ce         1.9964475346        7.7488129434        4.0612951108
 Ce         5.8104920981        7.6184638676        3.9592066875
 Ce         9.4468566534        7.7325063799        3.9624399511
 Ce        -3.8236238181       10.9509173095        3.9177031605
 Ce         0.0801749078       11.1076711173        3.8709748114
 Ce         3.9768711410       10.9575518414        3.9848391512
 Ce         7.5763683329       11.1614665239        3.8216778619
 Ce         0.0662470840       -0.0864484502        7.4277317999
 Ce         3.7320745216       -0.0917054237        7.1942988329
 Ce         7.7848840428        0.0165865171        7.2738743725
 Ce        11.6333998837        0.0871593873        7.2198761380
 Ce        -1.8187125460        3.4908857511        6.9311448239
 Ce         2.0174197555        3.3299803548        7.3352839370
 Ce         5.7236076837        3.1773538612        6.9243500819
 Ce         9.6401433165        3.3063270507        7.1098871659
 Ce        -3.9585426854        6.7240082932        7.0228242949
 Ce        -0.1626223672        6.6589381291        7.1045307507
 Ce         3.7534534550        6.5600201668        7.0388901498
 Ce         7.4661020297        6.5081188614        7.2963778335
 Ce        -5.9013710184        9.9505935270        6.9873165480
 Ce        -1.8206228969       10.0710542592        7.0477929218
 Ce         1.9975939983       10.1310917159        7.1377020734
 Ce         5.6646386528        9.8607610666        7.4144714959
 Pt        12.8266172638        1.9186894323        9.3332746576
 Pt         0.9841506425        5.4400315702        9.7716597233
 Pt        -0.0781832088        8.0655327761        9.9234623677
 Pt         7.1576719562       13.6154158757       10.0495189424
 Pt        -0.0125280595        2.9583986065        9.8560941096
 Pt        -2.4740020029        8.5430717810        9.2560803003
 Pt         2.8368075374        3.7016605374       10.5988921541
 Pt         3.4462750377        6.4521077522       10.5693863405
 Pt         5.2470458557        4.8340146681        9.8603663609
 Pt         1.7495923075        1.3112936608       11.2140297469
 Pt         4.1617029238        1.4293015377        9.7784168544
 Pt        -0.1198308208        6.4925534144       11.8551229306
 Pt         6.5572713796        2.5055957411        9.7084470097
 Pt         0.6147723385        3.9317123459       12.1220734282
 Pt         5.5032635587        0.5692259327       11.6934832944
 Pt         2.2758587208        6.0372296380       12.8708429282
 Pt         5.1542910986        3.0904585839       11.7959242956
 Pt         0.0790356850        5.1887900194       14.2249776919
 Pt         1.1608962045        2.1719495869       13.9264784962
 Pt         4.7920806044        5.4516951346       12.6508767480
 Pt         3.4754987043        1.0654918291       13.1550546373
 Pt         3.2486524622        3.6002834888       13.6070470382
     166
 i =       80, time =       80.000, E =     -6045.8848847387
  O         0.0000000000        0.0000000000        0.0000000000
  O         3.8260000000        0.0000000000        0.0000000000
  O         7.6520000000        0.0000000000        0.0000000000
  O        11.4780000000        0.0000000000        0.0000000000
  O        -1.9130000000        3.3140000000        0.0000000000
  O         1.9130000000        3.3140000000        0.0000000000
  O         5.7390000000        3.3140000000        0.0000000000
  O         9.5650000000        3.3140000000        0.0000000000
  O        -3.8260000000        6.6270000000        0.0000000000
  O         0.0000000000        6.6270000000        0.0000000000
  O         3.8260000000        6.6270000000        0.0000000000
  O         7.6520000000        6.6270000000        0.0000000000
  O        -5.7390000000        9.9410000000        0.0000000000
  O        -1.9130000000        9.9410000000        0.0000000000
  O         1.9130000000        9.9410000000        0.0000000000
  O         5.7390000000        9.9410000000        0.0000000000
  O         1.9130000000        1.1050000000        1.5620000000
  O         5.7390000000        1.1050000000        1.5620000000
  O         9.5650000000        1.1050000000        1.5620000000
  O        13.3920000000        1.1050000000        1.5620000000
  O         0.0000000000        4.4180000000        1.5620000000
  O         3.8260000000        4.4180000000        1.5620000000
  O         7.6520000000        4.4180000000        1.5620000000
  O        11.4780000000        4.4180000000        1.5620000000
  O        -1.9130000000        7.7320000000        1.5620000000
  O         1.9130000000        7.7320000000        1.5620000000
  O         5.7390000000        7.7320000000        1.5620000000
  O         9.5650000000        7.7320000000        1.5620000000
  O        -3.8260000000       11.0450000000        1.5620000000
  O         0.0000000000       11.0450000000        1.5620000000
  O         3.8260000000       11.0450000000        1.5620000000
  O         7.6520000000       11.0450000000        1.5620000000
  O         0.0000000000        2.2090000000        3.1240000000
  O         3.8260000000        2.2090000000        3.1240000000
  O         7.6520000000        2.2090000000        3.1240000000
  O        11.4780000000        2.2090000000        3.1240000000
  O        -1.9130000000        5.5230000000        3.1240000000
  O         1.9130000000        5.5230000000        3.1240000000
  O         5.7390000000        5.5230000000        3.1240000000
  O         9.5650000000        5.5230000000        3.1240000000
  O        -3.8260000000        8.8360000000        3.1240000000
  O         0.0000000000        8.8360000000        3.1240000000
  O         3.8260000000        8.8360000000        3.1240000000
  O         7.6520000000        8.8360000000        3.1240000000
  O        -5.7390000000       12.1500000000        3.1240000000
  O        -1.9130000000       12.1500000000        3.1240000000
  O         1.9130000000       12.1500000000        3.1240000000
  O         5.7390000000       12.1500000000        3.1240000000
  O         0.1349075940       -0.0708131702        4.8216370008
  O         3.9540545407        0.0013761302        4.9112136056
  O         7.4540467482        0.0797650173        4.8100306945
  O        11.4693984887        0.0112139361        4.7634130350
  O        -1.8159258274        3.3960890308        4.5764467776
  O         2.0519059160        3.2136416858        4.6617428840
  O         5.7037653157        3.3987747762        4.7565400102
  O         9.5470831530        3.1319965035        4.8414034810
  O        -4.0728719076        6.5049186140        4.6846868002
  O        -0.0051329452        6.7077886151        4.7367418837
  O         3.8612663896        6.5044580678        4.7456723967
  O         7.6254679060        6.6525912476        4.8859299501
  O        -5.8032591233       10.0480380433        4.6799827456
  O        -1.8643429681        9.9354261217        4.5801358322
  O         1.9332757600       10.0157404214        4.7477675764
  O         5.7812936052        9.8081492810        4.6368555469
  O         1.8273715801        1.0587900380        6.3635733902
  O         5.8164992675        1.2015651540        6.4409367570
  O         9.6710066167        0.8433802399        6.6036965128
  O        13.4255551275        1.1780971418        6.1927945488
  O         0.1754839014        4.4000088511        6.3657869801
  O         3.8476150798        4.3950679249        6.4363118957
  O         7.5845921485        4.2974986041        6.4112252325
  O        11.4222462751        4.2234011172        6.2854020326
  O        -1.9658398278        7.7610822965        6.3617562739
  O         1.9979743333        7.7728053344        6.3912741432
  O         5.6100049987        7.6025569125        6.3284226574
  O         9.4508569966        7.8131984270        6.2895183826
  O        -3.8468964598       10.8970388165        6.1945517370
  O        -0.0140377755       11.2012452325        6.2973678519
  O         3.9731955642       11.1367752801        6.3962752211
  O         7.5870884948       10.9826095434        6.4371854937
  O         0.1211028158        2.2997325433        7.8501492589
  O         3.8008242909        2.0830759169        7.8640823433
  O         7.8536076913        2.2177204607        8.1462098217
  O        11.1313240811        2.2137397664        8.2124836345
  O        -1.9996863431        5.5928145635        7.6562667657
  O         1.9135216129        5.6873331936        7.9577459249
  O         5.7162664138        5.4457915071        8.0617358016
  O         9.4632160135        5.5900733324        7.9262607474
  O        -4.1420735946        8.9359325887        8.1279126255
  O         0.2546650954        9.1163529497        8.1391130271
  O         3.7950349426        8.9244115527        7.8908608461
  O         7.4983504505        8.8495797343        8.0379310617
  O        -5.8443081022       12.0223133020        8.0258298108
  O        -1.8092586902       12.1793128124        7.9619549854
  O         1.8749868267       12.0160659780        8.1124962954
  O         5.8701380101       12.1405869127        8.2958302300
 Ce         0.0000000000        2.2090000000        0.7810000000
 Ce         3.8260000000        2.2090000000        0.7810000000
 Ce         7.6520000000        2.2090000000        0.7810000000
 Ce        11.4780000000        2.2090000000        0.7810000000
 Ce        -1.9130000000        5.5230000000        0.7810000000
 Ce         1.9130000000        5.5230000000        0.7810000000
 Ce         5.7390000000        5.5230000000        0.7810000000
 Ce         9.5650000000        5.5230000000        0.7810000000
 Ce        -3.8260000000        8.8360000000        0.7810000000
 Ce         0.0000000000        8.8360000000        0.7810000000
 Ce         3.8260000000        8.8360000000        0.7810000000
 Ce         7.6520000000        8.8360000000        0.7810000000
 Ce        -5.7390000000       12.1500000000        0.7810000000
 Ce        -1.9130000000       12.1500000000        0.7810000000
 Ce         1.9130000000       12.1500000000        0.7810000000
 Ce         5.7390000000       12.1500000000        0.7810000000
 Ce         1.9877452607        1.0236289124        4.0283534103
 Ce         5.8080396571        1.0648446154        3.9031944830
 Ce         9.7201687697        1.0400191616        3.9977974798
 Ce        13.5138245664        1.1865255203        3.9790290862
 Ce         0.0754618055        4.4135687289        3.8640569197
 Ce         3.7041938909        4.3498531577        3.8139249405
 Ce         7.5953087966        4.3490620016        3.8920575053
 Ce        11.4245301967        4.4512419369        3.8327861522
 Ce        -1.7833502862        7.7665592504        3.8993853343
 Ce         1.9955784264        7.7493709510        4.0595288125
 Ce         5.8102972504        7.6182766135        3.9598307997
 Ce         9.4467317826        7.7308964355        3.9599119211
 Ce        -3.8244519657       10.9517474016        3.9173832411
 Ce         0.0816509932       11.1077617442        3.8715379341
 Ce         3.9758039859       10.9583558422        3.9836934043
 Ce         7.5779106964       11.1610047341        3.8246264353
 Ce         0.0668116934       -0.0856553245        7.4289709661
 Ce         3.7323149391       -0.0952518650        7.1941652450
 Ce         7.7839779624        0.0155488242        7.2738157841
 Ce        11.6355014469        0.0889266535        7.2219408453
 Ce        -1.8190173972        3.4927720373        6.9329130938
 Ce         2.0143256485        3.3283779446        7.3354198634
 Ce         5.7247126988        3.1791416600        6.9238883333
 Ce         9.6401386934        3.3106353666        7.1079086654
 Ce        -3.9589321310        6.7219397382        7.0249795994
 Ce        -0.1620152001        6.6594779344        7.1068515331
 Ce         3.7522941870        6.5618868865        7.0383429297
 Ce         7.4667147423        6.5080212423        7.2957957802
 Ce        -5.9030150793        9.9512316824        6.9899371764
 Ce        -1.8203159867       10.0731163946        7.0494743306
 Ce         1.9970937908       10.1285716113        7.1404224863
 Ce         5.6659968045        9.8594029896        7.4171497372
 Pt        12.8267238309        1.9197115700        9.3334538498
 Pt         0.9849113285        5.4416777101        9.7720548117
 Pt        -0.0784566101        8.0657415470        9.9221584390
 Pt         7.1545548361       13.6159806970       10.0487832266
 Pt        -0.0157719205        2.9568983094        9.8588254909
 Pt        -2.4749148353        8.5462491252        9.2549210849
 Pt         2.8355187995        3.7037314551       10.6007451415
 Pt         3.4455243123        6.4544323435       10.5667738111
 Pt         5.2477671563        4.8338643588        9.8609468767
 Pt         1.7495723490        1.3105430629       11.2141595570
 Pt         4.1620013422        1.4281452160        9.7789223684
 Pt        -0.1199554899        6.4918801171       11.8570037349
 Pt         6.5584383276        2.5064582783        9.7067642486
 Pt         0.6153490290        3.9297445867       12.1220573970
 Pt         5.5054204838        0.5693836975       11.6930265295
 Pt         2.2742995385        6.0364072322       12.8680530878
 Pt         5.1554325585        3.0889408020       11.7966505436
 Pt         0.0797088381        5.1916801386       14.2247460804
 Pt         1.1615233376        2.1694829903       13.9259642023
 Pt         4.7919384676        5.4519634860       12.6504997164
 Pt         3.4740326960        1.0645921645       13.1531634551
 Pt         3.2478228534        3.5992420791       13.6056992412
     166
 i =       81, time =       81.000, E =     -6045.8860025291
  O         0.0000000000        0.0000000000        0.0000000000
  O         3.8260000000        0.0000000000        0.0000000000
  O         7.6520000000        0.0000000000        0.0000000000
  O        11.4780000000        0.0000000000        0.0000000000
  O        -1.9130000000        3.3140000000        0.0000000000
  O         1.9130000000        3.3140000000        0.0000000000
  O         5.7390000000        3.3140000000        0.0000000000
  O         9.5650000000        3.3140000000        0.0000000000
  O        -3.8260000000        6.6270000000        0.0000000000
  O         0.0000000000        6.6270000000        0.0000000000
  O         3.8260000000        6.6270000000        0.0000000000
  O         7.6520000000        6.6270000000        0.0000000000
  O        -5.7390000000        9.9410000000        0.0000000000
  O        -1.9130000000        9.9410000000        0.0000000000
  O         1.9130000000        9.9410000000        0.0000000000
  O         5.7390000000        9.9410000000        0.0000000000
  O         1.9130000000        1.1050000000        1.5620000000
  O         5.7390000000        1.1050000000        1.5620000000
  O         9.5650000000        1.1050000000        1.5620000000
  O        13.3920000000        1.1050000000        1.5620000000
  O         0.0000000000        4.4180000000        1.5620000000
  O         3.8260000000        4.4180000000        1.5620000000
  O         7.6520000000        4.4180000000        1.5620000000
  O        11.4780000000        4.4180000000        1.5620000000
  O        -1.9130000000        7.7320000000        1.5620000000
  O         1.9130000000        7.7320000000        1.5620000000
  O         5.7390000000        7.7320000000        1.5620000000
  O         9.5650000000        7.7320000000        1.5620000000
  O        -3.8260000000       11.0450000000        1.5620000000
  O         0.0000000000       11.0450000000        1.5620000000
  O         3.8260000000       11.0450000000        1.5620000000
  O         7.6520000000       11.0450000000        1.5620000000
  O         0.0000000000        2.2090000000        3.1240000000
  O         3.8260000000        2.2090000000        3.1240000000
  O         7.6520000000        2.2090000000        3.1240000000
  O        11.4780000000        2.2090000000        3.1240000000
  O        -1.9130000000        5.5230000000        3.1240000000
  O         1.9130000000        5.5230000000        3.1240000000
  O         5.7390000000        5.5230000000        3.1240000000
  O         9.5650000000        5.5230000000        3.1240000000
  O        -3.8260000000        8.8360000000        3.1240000000
  O         0.0000000000        8.8360000000        3.1240000000
  O         3.8260000000        8.8360000000        3.1240000000
  O         7.6520000000        8.8360000000        3.1240000000
  O        -5.7390000000       12.1500000000        3.1240000000
  O        -1.9130000000       12.1500000000        3.1240000000
  O         1.9130000000       12.1500000000        3.1240000000
  O         5.7390000000       12.1500000000        3.1240000000
  O         0.1363422486       -0.0782984650        4.8157700617
  O         3.9550318213        0.0011605981        4.9088898346
  O         7.4541037411        0.0835724979        4.8029397805
  O        11.4752302494        0.0031039307        4.7556292118
  O        -1.8148426723        3.3925781696        4.5875691968
  O         2.0560401473        3.2078522113        4.6592318249
  O         5.6986933045        3.3958030535        4.7472186693
  O         9.5433429597        3.1319238422        4.8303142727
  O        -4.0809327158        6.4991332737        4.6746637636
  O        -0.0058599471        6.7220313349        4.7389004802
  O         3.8619047529        6.5023057402        4.7522890964
  O         7.6248769556        6.6527516780        4.8884417017
  O        -5.8057809438       10.0433813176        4.6812181934
  O        -1.8643425923        9.9349400508        4.5763842931
  O         1.9419739572       10.0215982479        4.7480690240
  O         5.7809842655        9.7942317079        4.6337301152
  O         1.8280169522        1.0613180465        6.3673676070
  O         5.8082263546        1.1900072295        6.4468768421
  O         9.6616297720        0.8411601537        6.6025254668
  O        13.4215266959        1.1739536633        6.1968033902
  O         0.1854268836        4.3997657857        6.3642049332
  O         3.8502986597        4.3970220211        6.4357144381
  O         7.5896457561        4.2972778998        6.4105289028
  O        11.4081456771        4.2279998044        6.2864696701
  O        -1.9687970018        7.7631152172        6.3647741298
  O         2.0023763273        7.7772470456        6.3842026624
  O         5.6115998367        7.6170587559        6.3334405003
  O         9.4528286138        7.8080258969        6.2883410133
  O        -3.8425238606       10.9070480143        6.1951884531
  O        -0.0149727855       11.2072697764        6.2964972516
  O         3.9765548087       11.1342445742        6.4041409080
  O         7.5926619522       10.9864238956        6.4343918427
  O         0.1223404599        2.2840631647        7.8482888660
  O         3.8056463858        2.0784919416        7.8584494500
  O         7.8469858609        2.2129658598        8.1533339095
  O        11.1332698254        2.2039631794        8.2148589426
  O        -1.9967528227        5.5997069488        7.6587373121
  O         1.9153926206        5.6886762053        7.9605301374
  O         5.7143722498        5.4418633628        8.0588389911
  O         9.4649700813        5.6033981549        7.9293091471
  O        -4.1408362363        8.9338954178        8.1288378064
  O         0.2525699056        9.1260131920        8.1364654773
  O         3.7994710181        8.9245082275        7.8969930495
  O         7.4961160592        8.8426788542        8.0289029021
  O        -5.8441158068       12.0187319107        8.0160787087
  O        -1.8068990686       12.1788177725        7.9692120789
  O         1.8734119119       11.9993299615        8.1112083941
  O         5.8693555988       12.1389305709        8.2977725971
 Ce         0.0000000000        2.2090000000        0.7810000000
 Ce         3.8260000000        2.2090000000        0.7810000000
 Ce         7.6520000000        2.2090000000        0.7810000000
 Ce        11.4780000000        2.2090000000        0.7810000000
 Ce        -1.9130000000        5.5230000000        0.7810000000
 Ce         1.9130000000        5.5230000000        0.7810000000
 Ce         5.7390000000        5.5230000000        0.7810000000
 Ce         9.5650000000        5.5230000000        0.7810000000
 Ce        -3.8260000000        8.8360000000        0.7810000000
 Ce         0.0000000000        8.8360000000        0.7810000000
 Ce         3.8260000000        8.8360000000        0.7810000000
 Ce         7.6520000000        8.8360000000        0.7810000000
 Ce        -5.7390000000       12.1500000000        0.7810000000
 Ce        -1.9130000000       12.1500000000        0.7810000000
 Ce         1.9130000000       12.1500000000        0.7810000000
 Ce         5.7390000000       12.1500000000        0.7810000000
 Ce         1.9864733328        1.0240738576        4.0295258082
 Ce         5.8082536526        1.0639741808        3.9030123214
 Ce         9.7200280996        1.0418355079        3.9963980068
 Ce        13.5137282042        1.1842373195        3.9768120054
 Ce         0.0756383924        4.4129469598        3.8631838037
 Ce         3.7053794611        4.3495434493        3.8164315457
 Ce         7.5978599273        4.3498803438        3.8932526149
 Ce        11.4222850933        4.4512296516        3.8337377038
 Ce        -1.7852329556        7.7665703069        3.8954815917
 Ce         1.9946855245        7.7499658049        4.0577040624
 Ce         5.8100552366        7.6181758702        3.9604594673
 Ce         9.4466589348        7.7293261297        3.9573665731
 Ce        -3.8252781902       10.9526230168        3.9170676245
 Ce         0.0830457144       11.1078369704        3.8721482683
 Ce         3.9746711631       10.9591830296        3.9825439937
 Ce         7.5795531577       11.1604364880        3.8277008242
 Ce         0.0673456981       -0.0848589359        7.4301186780
 Ce         3.7326232022       -0.0988345545        7.1940019939
 Ce         7.7829552432        0.0144533640        7.2737723681
 Ce        11.6376008397        0.0906322408        7.2240223614
 Ce        -1.8193088370        3.4945846331        6.9347459857
 Ce         2.0111813861        3.3267649305        7.3355119498
 Ce         5.7258349954        3.1810139662        6.9235564043
 Ce         9.6400218228        3.3149797329        7.1059866894
 Ce        -3.9593485354        6.7198701366        7.0272025969
 Ce        -0.1613367015        6.6600517748        7.1092067448
 Ce         3.7511780609        6.5638331423        7.0378565606
 Ce         7.4674704518        6.5079957809        7.2951447159
 Ce        -5.9046325164        9.9518540860        6.9926300927
 Ce        -1.8200462073       10.0752223357        7.0511968284
 Ce         1.9965824664       10.1259914517        7.1431582273
 Ce         5.6674331548        9.8580911770        7.4197574829
 Pt        12.8268566218        1.9207496725        9.3336331123
 Pt         0.9856821947        5.4433915807        9.7724543950
 Pt        -0.0787124961        8.0658887287        9.9208356242
 Pt         7.1514375987       13.6165484919       10.0480766002
 Pt        -0.0190257799        2.9553814451        9.8615455660
 Pt        -2.4758293491        8.5494064604        9.2537610165
 Pt         2.8341989882        3.7058516129       10.6025854378
 Pt         3.4447248793        6.4567483015       10.5641784647
 Pt         5.2484920184        4.8336894254        9.8615828331
 Pt         1.7495606017        1.3097899120       11.2143108642
 Pt         4.1622723581        1.4269837647        9.7794142060
 Pt        -0.1200828221        6.4912166252       11.8589569277
 Pt         6.5596358712        2.5073055255        9.7050906899
 Pt         0.6159555613        3.9277494059       12.1220076219
 Pt         5.5075914447        0.5695258651       11.6925837251
 Pt         2.2727029771        6.0355557253       12.8652761092
 Pt         5.1565706524        3.0873946389       11.7974200089
 Pt         0.0804014963        5.1945881708       14.2245011944
 Pt         1.1621530950        2.1670082353       13.9254319139
 Pt         4.7918118313        5.4522582980       12.6501102895
 Pt         3.4725270154        1.0636985570       13.1512546351
 Pt         3.2469816157        3.5982384838       13.6043464951
     166
 i =       82, time =       82.000, E =     -6045.8867645835
  O         0.0000000000        0.0000000000        0.0000000000
  O         3.8260000000        0.0000000000        0.0000000000
  O         7.6520000000        0.0000000000        0.0000000000
  O        11.4780000000        0.0000000000        0.0000000000
  O        -1.9130000000        3.3140000000        0.0000000000
  O         1.9130000000        3.3140000000        0.0000000000
  O         5.7390000000        3.3140000000        0.0000000000
  O         9.5650000000        3.3140000000        0.0000000000
  O        -3.8260000000        6.6270000000        0.0000000000
  O         0.0000000000        6.6270000000        0.0000000000
  O         3.8260000000        6.6270000000        0.0000000000
  O         7.6520000000        6.6270000000        0.0000000000
  O        -5.7390000000        9.9410000000        0.0000000000
  O        -1.9130000000        9.9410000000        0.0000000000
  O         1.9130000000        9.9410000000        0.0000000000
  O         5.7390000000        9.9410000000        0.0000000000
  O         1.9130000000        1.1050000000        1.5620000000
  O         5.7390000000        1.1050000000        1.5620000000
  O         9.5650000000        1.1050000000        1.5620000000
  O        13.3920000000        1.1050000000        1.5620000000
  O         0.0000000000        4.4180000000        1.5620000000
  O         3.8260000000        4.4180000000        1.5620000000
  O         7.6520000000        4.4180000000        1.5620000000
  O        11.4780000000        4.4180000000        1.5620000000
  O        -1.9130000000        7.7320000000        1.5620000000
  O         1.9130000000        7.7320000000        1.5620000000
  O         5.7390000000        7.7320000000        1.5620000000
  O         9.5650000000        7.7320000000        1.5620000000
  O        -3.8260000000       11.0450000000        1.5620000000
  O         0.0000000000       11.0450000000        1.5620000000
  O         3.8260000000       11.0450000000        1.5620000000
  O         7.6520000000       11.0450000000        1.5620000000
  O         0.0000000000        2.2090000000        3.1240000000
  O         3.8260000000        2.2090000000        3.1240000000
  O         7.6520000000        2.2090000000        3.1240000000
  O        11.4780000000        2.2090000000        3.1240000000
  O        -1.9130000000        5.5230000000        3.1240000000
  O         1.9130000000        5.5230000000        3.1240000000
  O         5.7390000000        5.5230000000        3.1240000000
  O         9.5650000000        5.5230000000        3.1240000000
  O        -3.8260000000        8.8360000000        3.1240000000
  O         0.0000000000        8.8360000000        3.1240000000
  O         3.8260000000        8.8360000000        3.1240000000
  O         7.6520000000        8.8360000000        3.1240000000
  O        -5.7390000000       12.1500000000        3.1240000000
  O        -1.9130000000       12.1500000000        3.1240000000
  O         1.9130000000       12.1500000000        3.1240000000
  O         5.7390000000       12.1500000000        3.1240000000
  O         0.1371745609       -0.0855341693        4.8094941904
  O         3.9555464639        0.0009799657        4.9062146361
  O         7.4555603230        0.0870820450        4.7958905113
  O        11.4813700339       -0.0050247888        4.7478779708
  O        -1.8139171117        3.3891078110        4.5993393949
  O         2.0594514449        3.2024308714        4.6571256489
  O         5.6937332415        3.3924784040        4.7372004665
  O         9.5394622828        3.1321194941        4.8188903209
  O        -4.0881517408        6.4937937239        4.6653723240
  O        -0.0063225629        6.7358588309        4.7413649377
  O         3.8620366329        6.5004265730        4.7586652354
  O         7.6242090820        6.6523298861        4.8906450133
  O        -5.8084111240       10.0383426155        4.6824006633
  O        -1.8640894722        9.9344111826        4.5732695231
  O         1.9508822055       10.0271555945        4.7484716405
  O         5.7804474424        9.7808833157        4.6309148507
  O         1.8292671057        1.0638575470        6.3714551691
  O         5.8000059136        1.1778618345        6.4524959529
  O         9.6522579149        0.8397704290        6.6002298833
  O        13.4173308347        1.1699091421        6.2012526031
  O         0.1948790375        4.4000053382        6.3621443777
  O         3.8524975733        4.3988182122        6.4349854069
  O         7.5949217244        4.2974376658        6.4093526358
  O        11.3947126709        4.2331757876        6.2873993567
  O        -1.9717112554        7.7655995021        6.3670083592
  O         2.0062692204        7.7815931138        6.3763089548
  O         5.6135013383        7.6315739351        6.3387668183
  O         9.4550523805        7.8026612963        6.2872051417
  O        -3.8379249028       10.9173675973        6.1963710504
  O        -0.0155896900       11.2127831102        6.2953679442
  O         3.9800178457       11.1318574277        6.4117983518
  O         7.5977099069       10.9904783698        6.4313832481
  O         0.1233527964        2.2685314300        7.8466330724
  O         3.8102029457        2.0739527693        7.8530036652
  O         7.8404702366        2.2079560627        8.1603221595
  O        11.1358115077        2.1940278009        8.2176052068
  O        -1.9938754469        5.6060632044        7.6611244716
  O         1.9168751749        5.6894852793        7.9632432628
  O         5.7125602107        5.4384075108        8.0554817232
  O         9.4668604512        5.6165715769        7.9321062531
  O        -4.1395321782        8.9314164150        8.1296213210
  O         0.2500697529        9.1355911075        8.1335563402
  O         3.8040392221        8.9244393199        7.9035551197
  O         7.4938144314        8.8352178119        8.0198119413
  O        -5.8432579648       12.0153483929        8.0061555844
  O        -1.8049580529       12.1781027789        7.9761973915
  O         1.8720495847       11.9828974271        8.1099548289
  O         5.8682698665       12.1371762893        8.2995270528
 Ce         0.0000000000        2.2090000000        0.7810000000
 Ce         3.8260000000        2.2090000000        0.7810000000
 Ce         7.6520000000        2.2090000000        0.7810000000
 Ce        11.4780000000        2.2090000000        0.7810000000
 Ce        -1.9130000000        5.5230000000        0.7810000000
 Ce         1.9130000000        5.5230000000        0.7810000000
 Ce         5.7390000000        5.5230000000        0.7810000000
 Ce         9.5650000000        5.5230000000        0.7810000000
 Ce        -3.8260000000        8.8360000000        0.7810000000
 Ce         0.0000000000        8.8360000000        0.7810000000
 Ce         3.8260000000        8.8360000000        0.7810000000
 Ce         7.6520000000        8.8360000000        0.7810000000
 Ce        -5.7390000000       12.1500000000        0.7810000000
 Ce        -1.9130000000       12.1500000000        0.7810000000
 Ce         1.9130000000       12.1500000000        0.7810000000
 Ce         5.7390000000       12.1500000000        0.7810000000
 Ce         1.9851912585        1.0245189679        4.0306946219
 Ce         5.8083973275        1.0631085808        3.9028586116
 Ce         9.7198026497        1.0436610875        3.9949610511
 Ce        13.5135805036        1.1818880293        3.9745714069
 Ce         0.0757848623        4.4123180314        3.8623368464
 Ce         3.7066843876        4.3492433369        3.8190186519
 Ce         7.6004380526        4.3507122223        3.8944929572
 Ce        11.4200636969        4.4511856431        3.8347345566
 Ce        -1.7872253981        7.7665992926        3.8915596876
 Ce         1.9937714117        7.7506000674        4.0558216063
 Ce         5.8097656547        7.6181622509        3.9610931652
 Ce         9.4466356621        7.7277981883        3.9548056912
 Ce        -3.8261014928       10.9535445723        3.9167563988
 Ce         0.0843584243       11.1078973964        3.8728053491
 Ce         3.9734749962       10.9600304890        3.9813935427
 Ce         7.5812933686       11.1597572767        3.8308969380
 Ce         0.0678477875       -0.0840613708        7.4311735118
 Ce         3.7330028926       -0.1024501163        7.1938065561
 Ce         7.7818106092        0.0132973551        7.2737449885
 Ce        11.6396965343        0.0922691061        7.2261173088
 Ce        -1.8195833809        3.4963207080        6.9366436637
 Ce         2.0079945783        3.3251379494        7.3355620032
 Ce         5.7269702702        3.1829581403        6.9233466554
 Ce         9.6397885527        3.3193512411        7.1041246497
 Ce        -3.9597947039        6.7178061487        7.0294899383
 Ce        -0.1605861362        6.6606656749        7.1115931925
 Ce         3.7501098135        6.5658611419        7.0374305967
 Ce         7.4683658255        6.5080482711        7.2944239146
 Ce        -5.9062210386        9.9524557987        6.9953892958
 Ce        -1.8198110764       10.0773731838        7.0529582028
 Ce         1.9960662237       10.1233500748        7.1459045485
 Ce         5.6689415902        9.8568251236        7.4222924976
 Pt        12.8270160722        1.9218045674        9.3338129170
 Pt         0.9864613955        5.4451729925        9.7728592900
 Pt        -0.0789500810        8.0659755392        9.9194925580
 Pt         7.1483210714       13.6171175018       10.0473999984
 Pt        -0.0222874531        2.9538476873        9.8642519580
 Pt        -2.4767452482        8.5525425939        9.2526023504
 Pt         2.8328505448        3.7080199894       10.6044130052
 Pt         3.4438789534        6.4590545759       10.5616009424
 Pt         5.2492199263        4.8334895951        9.8622735863
 Pt         1.7495569949        1.3090343017       11.2144831027
 Pt         4.1625155517        1.4258188079        9.7798904353
 Pt        -0.1202133079        6.4905638715       11.8609806721
 Pt         6.5608598805        2.5081385783        9.7034307488
 Pt         0.6165899805        3.9257277289       12.1219251902
 Pt         5.5097752898        0.5696524440       11.6921552858
 Pt         2.2710695983        6.0346760854       12.8625129137
 Pt         5.1577048172        3.0858200752       11.7982313659
 Pt         0.0811137286        5.1975135225       14.2242431560
 Pt         1.1627852190        2.1645252103       13.9248817858
 Pt         4.7916996589        5.4525796627       12.6497072995
 Pt         3.4709836203        1.0628109068       13.1493272537
 Pt         3.2461284150        3.5972729652       13.6029888921
     166
 i =       83, time =       83.000, E =     -6045.8869360182
  O         0.0000000000        0.0000000000        0.0000000000
  O         3.8260000000        0.0000000000        0.0000000000
  O         7.6520000000        0.0000000000        0.0000000000
  O        11.4780000000        0.0000000000        0.0000000000
  O        -1.9130000000        3.3140000000        0.0000000000
  O         1.9130000000        3.3140000000        0.0000000000
  O         5.7390000000        3.3140000000        0.0000000000
  O         9.5650000000        3.3140000000        0.0000000000
  O        -3.8260000000        6.6270000000        0.0000000000
  O         0.0000000000        6.6270000000        0.0000000000
  O         3.8260000000        6.6270000000        0.0000000000
  O         7.6520000000        6.6270000000        0.0000000000
  O        -5.7390000000        9.9410000000        0.0000000000
  O        -1.9130000000        9.9410000000        0.0000000000
  O         1.9130000000        9.9410000000        0.0000000000
  O         5.7390000000        9.9410000000        0.0000000000
  O         1.9130000000        1.1050000000        1.5620000000
  O         5.7390000000        1.1050000000        1.5620000000
  O         9.5650000000        1.1050000000        1.5620000000
  O        13.3920000000        1.1050000000        1.5620000000
  O         0.0000000000        4.4180000000        1.5620000000
  O         3.8260000000        4.4180000000        1.5620000000
  O         7.6520000000        4.4180000000        1.5620000000
  O        11.4780000000        4.4180000000        1.5620000000
  O        -1.9130000000        7.7320000000        1.5620000000
  O         1.9130000000        7.7320000000        1.5620000000
  O         5.7390000000        7.7320000000        1.5620000000
  O         9.5650000000        7.7320000000        1.5620000000
  O        -3.8260000000       11.0450000000        1.5620000000
  O         0.0000000000       11.0450000000        1.5620000000
  O         3.8260000000       11.0450000000        1.5620000000
  O         7.6520000000       11.0450000000        1.5620000000
  O         0.0000000000        2.2090000000        3.1240000000
  O         3.8260000000        2.2090000000        3.1240000000
  O         7.6520000000        2.2090000000        3.1240000000
  O        11.4780000000        2.2090000000        3.1240000000
  O        -1.9130000000        5.5230000000        3.1240000000
  O         1.9130000000        5.5230000000        3.1240000000
  O         5.7390000000        5.5230000000        3.1240000000
  O         9.5650000000        5.5230000000        3.1240000000
  O        -3.8260000000        8.8360000000        3.1240000000
  O         0.0000000000        8.8360000000        3.1240000000
  O         3.8260000000        8.8360000000        3.1240000000
  O         7.6520000000        8.8360000000        3.1240000000
  O        -5.7390000000       12.1500000000        3.1240000000
  O        -1.9130000000       12.1500000000        3.1240000000
  O         1.9130000000       12.1500000000        3.1240000000
  O         5.7390000000       12.1500000000        3.1240000000
  O         0.1374035114       -0.0924652722        4.8028780317
  O         3.9555753628        0.0008353345        4.9031925939
  O         7.4584253155        0.0902845809        4.7889038837
  O        11.4877552142       -0.0130934001        4.7402290291
  O        -1.8131460486        3.3857021874        4.6116739850
  O         2.0621021031        3.1974118735        4.6554468591
  O         5.6889388947        3.3888089994        4.7266497136
  O         9.5354674953        3.1326012135        4.8072712469
  O        -4.0944888169        6.4889233472        4.6569108734
  O        -0.0065096678        6.7492147849        4.7441294053
  O         3.8616718064        6.4988261422        4.7647515260
  O         7.6234604415        6.6513128908        4.8925311490
  O        -5.8111099713       10.0329399186        4.6835375592
  O        -1.8635907943        9.9338441801        4.5707941224
  O         1.9599420098       10.0324043200        4.7489631432
  O         5.7796744976        9.7681647894        4.6284028751
  O         1.8311092084        1.0663963845        6.3757897217
  O         5.7918595528        1.1652332970        6.4577634610
  O         9.6429739319        0.8392354763        6.5968358962
  O        13.4129915142        1.1659913138        6.2061365811
  O         0.2037917276        4.4007293739        6.3596289503
  O         3.8542030069        4.4004304064        6.4341373671
  O         7.6003983830        4.2979462785        6.4077020383
  O        11.3819903510        4.2389181015        6.2882111160
  O        -1.9745750476        7.7685199102        6.3684511248
  O         2.0096524294        7.7858252937        6.3676867846
  O         5.6156996875        7.6460242438        6.3444213989
  O         9.4575317452        7.7971446014        6.2861225554
  O        -3.8331198799       10.9279465898        6.1981073651
  O        -0.0159165964       11.2177756446        6.2939672707
  O         3.9835993142       11.1296309891        6.4192589453
  O         7.6022112574       10.9947436063        6.4281704969
  O         0.1241129967        2.2532609600        7.8451989999
  O         3.8144661043        2.0695088674        7.8478089682
  O         7.8341278483        2.2027319685        8.1670658674
  O        11.1388775736        2.1840001361        8.2206632867
  O        -1.9910546114        5.6118185115        7.6634195993
  O         1.9179713029        5.6897737530        7.9658788011
  O         5.7108468416        5.4354190275        8.0516678106
  O         9.4688932564        5.6295532185        7.9346499019
  O        -4.1381929610        8.9285088353        8.1302493069
  O         0.2471482033        9.1450187621        8.1304152833
  O         3.8087078533        8.9241853404        7.9105919989
  O         7.4914989978        8.8272302424        8.0107082788
  O        -5.8417296244       12.0121671112        7.9961614437
  O        -1.8034339937       12.1771453599        7.9829509840
  O         1.8709072527       11.9668529644        8.1087696086
  O         5.8668980759       12.1353494867        8.3010969919
 Ce         0.0000000000        2.2090000000        0.7810000000
 Ce         3.8260000000        2.2090000000        0.7810000000
 Ce         7.6520000000        2.2090000000        0.7810000000
 Ce        11.4780000000        2.2090000000        0.7810000000
 Ce        -1.9130000000        5.5230000000        0.7810000000
 Ce         1.9130000000        5.5230000000        0.7810000000
 Ce         5.7390000000        5.5230000000        0.7810000000
 Ce         9.5650000000        5.5230000000        0.7810000000
 Ce        -3.8260000000        8.8360000000        0.7810000000
 Ce         0.0000000000        8.8360000000        0.7810000000
 Ce         3.8260000000        8.8360000000        0.7810000000
 Ce         7.6520000000        8.8360000000        0.7810000000
 Ce        -5.7390000000       12.1500000000        0.7810000000
 Ce        -1.9130000000       12.1500000000        0.7810000000
 Ce         1.9130000000       12.1500000000        0.7810000000
 Ce         5.7390000000       12.1500000000        0.7810000000
 Ce         1.9839039030        1.0249620433        4.0318577024
 Ce         5.8084675338        1.0622488436        3.9027315729
 Ce         9.7194917073        1.0454898974        3.9934851232
 Ce        13.5133800799        1.1794753459        3.9723093173
 Ce         0.0759022733        4.4116828137        3.8615154297
 Ce         3.7081096620        4.3489520441        3.8216825301
 Ce         7.6030393098        4.3515563627        3.8957728698
 Ce        11.4178656720        4.4511099266        3.8357715183
 Ce        -1.7893265936        7.7666494031        3.8876231302
 Ce         1.9928383465        7.7512762271        4.0538818989
 Ce         5.8094282121        7.6182361921        3.9617319464
 Ce         9.4466597062        7.7263150761        3.9522310301
 Ce        -3.8269206293       10.9545123489        3.9164497029
 Ce         0.0855887149       11.1079435919        3.8735086849
 Ce         3.9722177197       10.9608956126        3.9802442697
 Ce         7.5831286269       11.1589627894        3.8342102197
 Ce         0.0683166874       -0.0832649446        7.4321344064
 Ce         3.7334574408       -0.1060955457        7.1935763256
 Ce         7.7805392899        0.0120781121        7.2737342846
 Ce        11.6417869738        0.0938302288        7.2282220228
 Ce        -1.8198377795        3.4979774311        6.9386060111
 Ce         2.0047720407        3.3234934838        7.3355714251
 Ce         5.7281144111        3.1849612899        6.9232512355
 Ce         9.6394354579        3.3237411477        7.1023255781
 Ce        -3.9602725063        6.7157546402        7.0318386054
 Ce        -0.1597637022        6.6613255738        7.1140075598
 Ce         3.7490932227        6.5679733027        7.0370642090
 Ce         7.4693982720        6.5081846557        7.2936323489
 Ce        -5.9077781786        9.9530318610        6.9982090222
 Ce        -1.8196084532       10.0795692384        7.0547565915
 Ce         1.9955508631       10.1206460258        7.1486563700
 Ce         5.6705160045        9.8556045365        7.4247526194
 Pt        12.8272034910        1.9228772440        9.3339942485
 Pt         0.9872477605        5.4470213014        9.7732710427
 Pt        -0.0791696332        8.0660022514        9.9181294662
 Pt         7.1452058000       13.6176861353       10.0467540874
 Pt        -0.0255548473        2.9522969408        9.8669420397
 Pt        -2.4776610068        8.5556568261        9.2514474617
 Pt         2.8314749547        3.7102351963       10.6062271812
 Pt         3.4429874572        6.4613492874       10.5590434428
 Pt         5.2499509459        4.8332651911        9.8630180916
 Pt         1.7495611821        1.3082765707       11.2146753723
 Pt         4.1627307874        1.4246527853        9.7803490627
 Pt        -0.1203469645        6.4899221024       11.8630721255
 Pt         6.5621063012        2.5089578477        9.7017876272
 Pt         0.6172499400        3.9236822404       12.1218115996
 Pt         5.5119715714        0.5697628700       11.6917417558
 Pt         2.2694005404        6.0337693661       12.8597629423
 Pt         5.1588347833        3.0842193924       11.7990838895
 Pt         0.0818456506        5.2004554770       14.2239711021
 Pt         1.1634185910        2.1620336503       13.9243142776
 Pt         4.7916011745        5.4529275578       12.6492890303
 Pt         3.4694041861        1.0619271661       13.1473815333
 Pt         3.2452630216        3.5963470038       13.6016263307
     166
 i =       84, time =       84.000, E =     -6045.8867624303
  O         0.0000000000        0.0000000000        0.0000000000
  O         3.8260000000        0.0000000000        0.0000000000
  O         7.6520000000        0.0000000000        0.0000000000
  O        11.4780000000        0.0000000000        0.0000000000
  O        -1.9130000000        3.3140000000        0.0000000000
  O         1.9130000000        3.3140000000        0.0000000000
  O         5.7390000000        3.3140000000        0.0000000000
  O         9.5650000000        3.3140000000        0.0000000000
  O        -3.8260000000        6.6270000000        0.0000000000
  O         0.0000000000        6.6270000000        0.0000000000
  O         3.8260000000        6.6270000000        0.0000000000
  O         7.6520000000        6.6270000000        0.0000000000
  O        -5.7390000000        9.9410000000        0.0000000000
  O        -1.9130000000        9.9410000000        0.0000000000
  O         1.9130000000        9.9410000000        0.0000000000
  O         5.7390000000        9.9410000000        0.0000000000
  O         1.9130000000        1.1050000000        1.5620000000
  O         5.7390000000        1.1050000000        1.5620000000
  O         9.5650000000        1.1050000000        1.5620000000
  O        13.3920000000        1.1050000000        1.5620000000
  O         0.0000000000        4.4180000000        1.5620000000
  O         3.8260000000        4.4180000000        1.5620000000
  O         7.6520000000        4.4180000000        1.5620000000
  O        11.4780000000        4.4180000000        1.5620000000
  O        -1.9130000000        7.7320000000        1.5620000000
  O         1.9130000000        7.7320000000        1.5620000000
  O         5.7390000000        7.7320000000        1.5620000000
  O         9.5650000000        7.7320000000        1.5620000000
  O        -3.8260000000       11.0450000000        1.5620000000
  O         0.0000000000       11.0450000000        1.5620000000
  O         3.8260000000       11.0450000000        1.5620000000
  O         7.6520000000       11.0450000000        1.5620000000
  O         0.0000000000        2.2090000000        3.1240000000
  O         3.8260000000        2.2090000000        3.1240000000
  O         7.6520000000        2.2090000000        3.1240000000
  O        11.4780000000        2.2090000000        3.1240000000
  O        -1.9130000000        5.5230000000        3.1240000000
  O         1.9130000000        5.5230000000        3.1240000000
  O         5.7390000000        5.5230000000        3.1240000000
  O         9.5650000000        5.5230000000        3.1240000000
  O        -3.8260000000        8.8360000000        3.1240000000
  O         0.0000000000        8.8360000000        3.1240000000
  O         3.8260000000        8.8360000000        3.1240000000
  O         7.6520000000        8.8360000000        3.1240000000
  O        -5.7390000000       12.1500000000        3.1240000000
  O        -1.9130000000       12.1500000000        3.1240000000
  O         1.9130000000       12.1500000000        3.1240000000
  O         5.7390000000       12.1500000000        3.1240000000
  O         0.1370310521       -0.0990387159        4.7959780559
  O         3.9550991879        0.0007274688        4.8998323643
  O         7.4626972361        0.0931728700        4.7819784496
  O        11.4943350636       -0.0210411279        4.7327534788
  O        -1.8125287430        3.3823900159        4.6244882432
  O         2.0639605617        3.1928320881        4.6542117928
  O         5.6843619210        3.3848063217        4.7157010238
  O         9.5313969534        3.1333890894        4.7955900940
  O        -4.0998953419        6.4845448919        4.6493495527
  O        -0.0064174925        6.7620066225        4.7471822619
  O         3.8608239038        6.4975081030        4.7705170368
  O         7.6226292449        6.6496903236        4.8940927189
  O        -5.8138401126       10.0271886624        4.6846378358
  O        -1.8628568804        9.9332460281        4.5689557135
  O         1.9691067190       10.0373523609        4.7495304069
  O         5.7786642019        9.7561588658        4.6261887474
  O         1.8335275903        1.0689219996        6.3803180993
  O         5.7838152859        1.1522565353        6.4626506865
  O         9.6338678016        0.8395768283        6.5923829693
  O        13.4085294602        1.1622246678        6.2114436668
  O         0.2121087654        4.4019365674        6.3566823056
  O         3.8554137125        4.4018311557        6.4331812582
  O         7.6060585996        4.2987679089        6.4055843564
  O        11.3700484328        4.2452006582        6.2889253051
  O        -1.9773849648        7.7718578225        6.3691040144
  O         2.0125219903        7.7899188097        6.3584380351
  O         5.6181922811        7.6603591143        6.3504238415
  O         9.4602660125        7.7915232825        6.2851022428
  O        -3.8281445250       10.9387135865        6.2004043367
  O        -0.0159805716       11.2222366365        6.2922874596
  O         3.9873106595       11.1275814514        6.4265402954
  O         7.6061441103       10.9991871002        6.4247623710
  O         0.1246210535        2.2383626682        7.8439975651
  O         3.8184054553        2.0652090731        7.8429175802
  O         7.8280140027        2.1973289445        8.1734645533
  O        11.1423960055        2.1739225904        8.2239675765
  O        -1.9882958376        5.6169227259        7.6656174037
  O         1.9186832233        5.6895556374        7.9684260665
  O         5.7092453770        5.4328846853        8.0473994715
  O         9.4710787953        5.6423005839        7.9369417246
  O        -4.1368528927        8.9251866324        8.1307062738
  O         0.2437939098        9.1542146589        8.1270647815
  O         3.8134445315        8.9237315417        7.9181335711
  O         7.4892208132        8.8187494385        8.0016733475
  O        -5.8395279233       12.0091907267        7.9861863552
  O        -1.8023219251       12.1759262295        7.9895058611
  O         1.8699855610       11.9513394177        8.1076887003
  O         5.8652582141       12.1334737978        8.3024851019
 Ce         0.0000000000        2.2090000000        0.7810000000
 Ce         3.8260000000        2.2090000000        0.7810000000
 Ce         7.6520000000        2.2090000000        0.7810000000
 Ce        11.4780000000        2.2090000000        0.7810000000
 Ce        -1.9130000000        5.5230000000        0.7810000000
 Ce         1.9130000000        5.5230000000        0.7810000000
 Ce         5.7390000000        5.5230000000        0.7810000000
 Ce         9.5650000000        5.5230000000        0.7810000000
 Ce        -3.8260000000        8.8360000000        0.7810000000
 Ce         0.0000000000        8.8360000000        0.7810000000
 Ce         3.8260000000        8.8360000000        0.7810000000
 Ce         7.6520000000        8.8360000000        0.7810000000
 Ce        -5.7390000000       12.1500000000        0.7810000000
 Ce        -1.9130000000       12.1500000000        0.7810000000
 Ce         1.9130000000       12.1500000000        0.7810000000
 Ce         5.7390000000       12.1500000000        0.7810000000
 Ce         1.9826159261        1.0254011084        4.0330128869
 Ce         5.8084617661        1.0613956885        3.9026294804
 Ce         9.7190945849        1.0473156713        3.9919688966
 Ce        13.5131255408        1.1769970039        3.9700279260
 Ce         0.0759917584        4.4110422486        3.8607192918
 Ce         3.7096556503        4.3486690298        3.8244194994
 Ce         7.6056598120        4.3524117098        3.8970865714
 Ce        11.4156908961        4.4510025507        3.8368436330
 Ce        -1.7915350983        7.7667235959        3.8836758875
 Ce         1.9918884897        7.7519966112        4.0518854322
 Ce         5.8090424794        7.6183978920        3.9623759025
 Ce         9.4467287805        7.7248790479        3.9496445290
 Ce        -3.8277342396       10.9555264651        3.9161478416
 Ce         0.0867366832       11.1079760185        3.8742579354
 Ce         3.9709015943       10.9617757753        3.9790983647
 Ce         7.5850557125       11.1580487428        3.8376359184
 Ce         0.0687509727       -0.0824721855        7.4330003553
 Ce         3.7339900313       -0.1097678980        7.1933089036
 Ce         7.7791371183        0.0107925847        7.2737401357
 Ce        11.6438709718        0.0953084137        7.2303326965
 Ce        -1.8200687696        3.4995522593        6.9406327877
 Ce         2.0015201867        3.3218284248        7.3355415495
 Ce         5.7292629282        3.1870109660        6.9232619168
 Ce         9.6389599502        3.3281409392        7.1005919601
 Ce        -3.9607832226        6.7137224395        7.0342451896
 Ce        -0.1588693065        6.6620370349        7.1164461506
 Ce         3.7481315535        6.5701722222        7.0367570720
 Ce         7.4705649635        6.5084110809        7.2927689554
 Ce        -5.9093018695        9.9535774078        7.0010833523
 Ce        -1.8194359884       10.0818106134        7.0565894303
 Ce         1.9950426923       10.1178769455        7.1514081779
 Ce         5.6721497572        9.8544292082        7.4271359964
 Pt        12.8274205306        1.9239686415        9.3341785041
 Pt         0.9880411744        5.4489344895        9.7736909158
 Pt        -0.0793722884        8.0659700302        9.9167465687
 Pt         7.1420922814       13.6182526036       10.0461398770
 Pt        -0.0288265801        2.9507289950        9.8696131796
 Pt        -2.4785748566        8.5587484153        9.2502989185
 Pt         2.8300734273        3.7124956627       10.6080269755
 Pt         3.4420508340        6.4636316389       10.5565074220
 Pt         5.2506851754        4.8330168569        9.8638161160
 Pt         1.7495734733        1.3075176662       11.2148865699
 Pt         4.1629178533        1.4234874697        9.7807884254
 Pt        -0.1204846566        6.4892918517       11.8652284783
 Pt         6.5633705044        2.5097636983        9.7001649631
 Pt         0.6179337746        3.9216159859       12.1216690375
 Pt         5.5141787584        0.5698574398       11.6913442886
 Pt         2.2676982894        6.0328359564       12.8570252625
 Pt         5.1599601148        3.0825960891       11.7999768638
 Pt         0.0825970528        5.2034130099       14.2236848702
 Pt         1.1640527421        2.1595325007       13.9237298597
 Pt         4.7915162209        5.4533006142       12.6488543956
 Pt         3.4677899459        1.0610457726       13.1454170002
 Pt         3.2443860539        3.5954610540       13.6002586997
     166
 i =       85, time =       85.000, E =     -6045.8866708801
  O         0.0000000000        0.0000000000        0.0000000000
  O         3.8260000000        0.0000000000        0.0000000000
  O         7.6520000000        0.0000000000        0.0000000000
  O        11.4780000000        0.0000000000        0.0000000000
  O        -1.9130000000        3.3140000000        0.0000000000
  O         1.9130000000        3.3140000000        0.0000000000
  O         5.7390000000        3.3140000000        0.0000000000
  O         9.5650000000        3.3140000000        0.0000000000
  O        -3.8260000000        6.6270000000        0.0000000000
  O         0.0000000000        6.6270000000        0.0000000000
  O         3.8260000000        6.6270000000        0.0000000000
  O         7.6520000000        6.6270000000        0.0000000000
  O        -5.7390000000        9.9410000000        0.0000000000
  O        -1.9130000000        9.9410000000        0.0000000000
  O         1.9130000000        9.9410000000        0.0000000000
  O         5.7390000000        9.9410000000        0.0000000000
  O         1.9130000000        1.1050000000        1.5620000000
  O         5.7390000000        1.1050000000        1.5620000000
  O         9.5650000000        1.1050000000        1.5620000000
  O        13.3920000000        1.1050000000        1.5620000000
  O         0.0000000000        4.4180000000        1.5620000000
  O         3.8260000000        4.4180000000        1.5620000000
  O         7.6520000000        4.4180000000        1.5620000000
  O        11.4780000000        4.4180000000        1.5620000000
  O        -1.9130000000        7.7320000000        1.5620000000
  O         1.9130000000        7.7320000000        1.5620000000
  O         5.7390000000        7.7320000000        1.5620000000
  O         9.5650000000        7.7320000000        1.5620000000
  O        -3.8260000000       11.0450000000        1.5620000000
  O         0.0000000000       11.0450000000        1.5620000000
  O         3.8260000000       11.0450000000        1.5620000000
  O         7.6520000000       11.0450000000        1.5620000000
  O         0.0000000000        2.2090000000        3.1240000000
  O         3.8260000000        2.2090000000        3.1240000000
  O         7.6520000000        2.2090000000        3.1240000000
  O        11.4780000000        2.2090000000        3.1240000000
  O        -1.9130000000        5.5230000000        3.1240000000
  O         1.9130000000        5.5230000000        3.1240000000
  O         5.7390000000        5.5230000000        3.1240000000
  O         9.5650000000        5.5230000000        3.1240000000
  O        -3.8260000000        8.8360000000        3.1240000000
  O         0.0000000000        8.8360000000        3.1240000000
  O         3.8260000000        8.8360000000        3.1240000000
  O         7.6520000000        8.8360000000        3.1240000000
  O        -5.7390000000       12.1500000000        3.1240000000
  O        -1.9130000000       12.1500000000        3.1240000000
  O         1.9130000000       12.1500000000        3.1240000000
  O         5.7390000000       12.1500000000        3.1240000000
  O         0.1360619949       -0.1051986953        4.7888319437
  O         3.9541020192        0.0006564164        4.8961472500
  O         7.4683649012        0.0957413414        4.7751002602
  O        11.5010758291       -0.0288277223        4.7255049206
  O        -1.8120651888        3.3791989300        4.6377597810
  O         2.0650042973        3.1887266178        4.6534316175
  O         5.6800486793        3.3804830530        4.7044385910
  O         9.5272908220        3.1345022472        4.7839175997
  O        -4.1043237288        6.4806758933        4.6427214504
  O        -0.0060629544        6.7741437581        4.7505038776
  O         3.8595098291        6.4964745535        4.7759496560
  O         7.6217148082        6.6474552907        4.8953242885
  O        -5.8165684086       10.0211038870        4.6857124848
  O        -1.8619010137        9.9326266356        4.5677490470
  O         1.9783364140       10.0420160749        4.7501610057
  O         5.7774247488        9.7449723343        4.6242690545
  O         1.8365022644        1.0714218083        6.3849832455
  O         5.7759337851        1.1390775974        6.4671348493
  O         9.6250307321        0.8408040394        6.5869198980
  O        13.4039596392        1.1586274766        6.2171520706
  O         0.2197699658        4.4036157130        6.3533259464
  O         3.8561346795        4.4029946120        6.4321254785
  O         7.6118908473        4.2998640918        6.4030079399
  O        11.3589723610        4.2519899933        6.2895596893
  O        -1.9801405230        7.7755932212        6.3689740313
  O         2.0148743475        7.7938442231        6.3486407123
  O         5.6209677404        7.6745057256        6.3567838015
  O         9.4632494948        7.7858494738        6.2841479145
  O        -3.8230417343       10.9496041157        6.2032656653
  O        -0.0158055485       11.2261557310        6.2903248528
  O         3.9911593745       11.1257250616        6.4336518853
  O         7.6094876089       11.0037773731        6.4211649004
  O         0.1248905813        2.2239039805        7.8430372695
  O         3.8219936607        2.0610969962        7.8383686144
  O         7.8221793129        2.1917776167        8.1794357690
  O        11.1462996282        2.1638222569        8.2274511424
  O        -1.9856084370        5.6213320668        7.6677139122
  O         1.9190146979        5.6888450958        7.9708734287
  O         5.7077657115        5.4307863191        8.0426774230
  O         9.4734241283        5.6547462070        7.9389870263
  O        -4.1355539470        8.9214659607        8.1309767329
  O         0.2399966639        9.1631088588        8.1235272102
  O         3.8182167347        8.9230660782        7.9261846937
  O         7.4870269981        8.8097999326        7.9927924125
  O        -5.8366558417       12.0064205432        7.9762796079
  O        -1.8016123004       12.1744267237        7.9958781573
  O         1.8692711580       11.9365030453        8.1067489374
  O         5.8633689562       12.1315702394        8.3036929780
 Ce         0.0000000000        2.2090000000        0.7810000000
 Ce         3.8260000000        2.2090000000        0.7810000000
 Ce         7.6520000000        2.2090000000        0.7810000000
 Ce        11.4780000000        2.2090000000        0.7810000000
 Ce        -1.9130000000        5.5230000000        0.7810000000
 Ce         1.9130000000        5.5230000000        0.7810000000
 Ce         5.7390000000        5.5230000000        0.7810000000
 Ce         9.5650000000        5.5230000000        0.7810000000
 Ce        -3.8260000000        8.8360000000        0.7810000000
 Ce         0.0000000000        8.8360000000        0.7810000000
 Ce         3.8260000000        8.8360000000        0.7810000000
 Ce         7.6520000000        8.8360000000        0.7810000000
 Ce        -5.7390000000       12.1500000000        0.7810000000
 Ce        -1.9130000000       12.1500000000        0.7810000000
 Ce         1.9130000000       12.1500000000        0.7810000000
 Ce         5.7390000000       12.1500000000        0.7810000000
 Ce         1.9813317962        1.0258345606        4.0341580046
 Ce         5.8083782722        1.0605494956        3.9025507312
 Ce         9.7186104809        1.0491322013        3.9904112214
 Ce        13.5128154604        1.1744509036        3.9677293436
 Ce         0.0760545252        4.4103973348        3.8599484289
 Ce         3.7113220243        4.3483938649        3.8272258738
 Ce         7.6082957804        4.3532773493        3.8984282277
 Ce        11.4135394287        4.4508636646        3.8379461643
 Ce        -1.7938489483        7.7668243674        3.8797223565
 Ce         1.9909237772        7.7527632179        4.0498326065
 Ce         5.8086079828        7.6186472657        3.9630249175
 Ce         9.4468407069        7.7234919892        3.9470482208
 Ce        -3.8285408378       10.9565869885        3.9158510608
 Ce         0.0878027835       11.1079950802        3.8750526591
 Ce         3.9695288129       10.9626685037        3.9779577055
 Ce         7.5870710668       11.1570110257        3.8411688883
 Ce         0.0691495297       -0.0816859102        7.4337701615
 Ce         3.7346037158       -0.1134639300        7.1930024021
 Ce         7.7776004976        0.0094377846        7.2737618433
 Ce        11.6459474912        0.0966963698        7.2324453231
 Ce        -1.8202730348        3.5010434222        6.9427238351
 Ce         1.9982451740        3.3201399369        7.3354734796
 Ce         5.7304111359        3.1890953821        6.9233709845
 Ce         9.6383601220        3.3325426049        7.0989257509
 Ce        -3.9613271791        6.7117165606        7.0367066007
 Ce        -0.1579033338        6.6628052562        7.1189054005
 Ce         3.7472274488        6.5724603789        7.0365092081
 Ce         7.4718632590        6.5087334419        7.2918327596
 Ce        -5.9107900782        9.9540874634        7.0040066624
 Ce        -1.8192912485       10.0840966330        7.0584543829
 Ce         1.9945478980       10.1150397885        7.1541543420
 Ce         5.6738359785        9.8532990654        7.4294410361
 Pt        12.8276689908        1.9250796768        9.3343674355
 Pt         0.9888410758        5.4509108018        9.7741200143
 Pt        -0.0795591294        8.0658789980        9.9153437552
 Pt         7.1389807082       13.6188154981       10.0455584870
 Pt        -0.0321020245        2.9491435489        9.8722634635
 Pt        -2.4794843445        8.5618162184        9.2491589673
 Pt         2.8286473340        3.7147995435       10.6098117069
 Pt         3.4410694144        6.4659018884       10.5539933812
 Pt         5.2514223463        4.8327456729        9.8646671980
 Pt         1.7495934727        1.3067590990       11.2151146876
 Pt         4.1630762941        1.4223243257        9.7812069371
 Pt        -0.1206268933        6.4886741714       11.8674469562
 Pt         6.5646476703        2.5105567040        9.6985667429
 Pt         0.6186401575        3.9195319087       12.1214996969
 Pt         5.5163960231        0.5699358669       11.6909637468
 Pt         2.2659651633        6.0318753112       12.8542992617
 Pt         5.1610808569        3.0809532927       11.8009093471
 Pt         0.0833679608        5.2063852479       14.2233838905
 Pt         1.1646872133        2.1570209332       13.9231287260
 Pt         4.7914444702        5.4536974317       12.6484030483
 Pt         3.4661422628        1.0601656064       13.1434336340
 Pt         3.2434981914        3.5946153469       13.5988863788
     166
 i =       86, time =       86.000, E =     -6045.8866998539
  O         0.0000000000        0.0000000000        0.0000000000
  O         3.8260000000        0.0000000000        0.0000000000
  O         7.6520000000        0.0000000000        0.0000000000
  O        11.4780000000        0.0000000000        0.0000000000
  O        -1.9130000000        3.3140000000        0.0000000000
  O         1.9130000000        3.3140000000        0.0000000000
  O         5.7390000000        3.3140000000        0.0000000000
  O         9.5650000000        3.3140000000        0.0000000000
  O        -3.8260000000        6.6270000000        0.0000000000
  O         0.0000000000        6.6270000000        0.0000000000
  O         3.8260000000        6.6270000000        0.0000000000
  O         7.6520000000        6.6270000000        0.0000000000
  O        -5.7390000000        9.9410000000        0.0000000000
  O        -1.9130000000        9.9410000000        0.0000000000
  O         1.9130000000        9.9410000000        0.0000000000
  O         5.7390000000        9.9410000000        0.0000000000
  O         1.9130000000        1.1050000000        1.5620000000
  O         5.7390000000        1.1050000000        1.5620000000
  O         9.5650000000        1.1050000000        1.5620000000
  O        13.3920000000        1.1050000000        1.5620000000
  O         0.0000000000        4.4180000000        1.5620000000
  O         3.8260000000        4.4180000000        1.5620000000
  O         7.6520000000        4.4180000000        1.5620000000
  O        11.4780000000        4.4180000000        1.5620000000
  O        -1.9130000000        7.7320000000        1.5620000000
  O         1.9130000000        7.7320000000        1.5620000000
  O         5.7390000000        7.7320000000        1.5620000000
  O         9.5650000000        7.7320000000        1.5620000000
  O        -3.8260000000       11.0450000000        1.5620000000
  O         0.0000000000       11.0450000000        1.5620000000
  O         3.8260000000       11.0450000000        1.5620000000
  O         7.6520000000       11.0450000000        1.5620000000
  O         0.0000000000        2.2090000000        3.1240000000
  O         3.8260000000        2.2090000000        3.1240000000
  O         7.6520000000        2.2090000000        3.1240000000
  O        11.4780000000        2.2090000000        3.1240000000
  O        -1.9130000000        5.5230000000        3.1240000000
  O         1.9130000000        5.5230000000        3.1240000000
  O         5.7390000000        5.5230000000        3.1240000000
  O         9.5650000000        5.5230000000        3.1240000000
  O        -3.8260000000        8.8360000000        3.1240000000
  O         0.0000000000        8.8360000000        3.1240000000
  O         3.8260000000        8.8360000000        3.1240000000
  O         7.6520000000        8.8360000000        3.1240000000
  O        -5.7390000000       12.1500000000        3.1240000000
  O        -1.9130000000       12.1500000000        3.1240000000
  O         1.9130000000       12.1500000000        3.1240000000
  O         5.7390000000       12.1500000000        3.1240000000
  O         0.1345055856       -0.1108816107        4.7814586022
  O         3.9525710145        0.0006215357        4.8921546234
  O         7.4754093290        0.0979869864        4.7682540562
  O        11.5079527153       -0.0364260300        4.7185127351
  O        -1.8117548816        3.3761545739        4.6515162592
  O         2.0652197561        3.1851266621        4.6531137441
  O         5.6760372382        3.3758532841        4.6929178166
  O         9.5231899820        3.1359594928        4.7722747351
  O        -4.1077329373        6.4773281516        4.6370318892
  O        -0.0054698658        6.7855784216        4.7540732567
  O         3.8577495599        6.4957263683        4.7810525746
  O         7.6207167441        6.6446048086        4.8962222024
  O        -5.8192655676       10.0147032738        4.6867745441
  O        -1.8607395975        9.9319978053        4.5671680088
  O         1.9875832617       10.0464073657        4.7508435318
  O         5.7759710378        9.7347037052        4.6226423712
  O         1.8400086183        1.0738834059        6.3897288934
  O         5.7682787047        1.1258040480        6.4712014555
  O         9.6165478148        0.8429130688        6.5804969599
  O        13.3992929493        1.1552116118        6.2232233488
  O         0.2267194730        4.4057459924        6.3495780647
  O         3.8563741652        4.4038978408        6.4309787224
  O         7.6178885875        4.3011951780        6.3999833757
  O        11.3488187909        4.2592714187        6.2901297759
  O        -1.9828417828        7.7797033829        6.3680777521
  O         2.0167103106        7.7975724551        6.3383374224
  O         5.6239939655        7.6883553240        6.3634953417
  O         9.4664734246        7.7801754006        6.2832606572
  O        -3.8178458682       10.9605784864        6.2066903528
  O        -0.0154126810       11.2295235233        6.2880788852
  O         3.9951475830       11.1240759875        6.4405852152
  O         7.6122256969       11.0084854080        6.4173816492
  O         0.1249367876        2.2099579788        7.8423245828
  O         3.8252096782        2.0572140935        7.8341920214
  O         7.8166774863        2.1861040879        8.1849124143
  O        11.1505168650        2.1537343418        8.2310407443
  O        -1.9830048935        5.6250083176        7.6697066576
  O         1.9189741132        5.6876588631        7.9732105016
  O         5.7064142429        5.4291022812        8.0375059165
  O         9.4759209363        5.6668120413        7.9407948299
  O        -4.1343366472        8.9173636909        8.1310462060
  O         0.2357390309        9.1716561000        8.1198218733
  O         3.8229912186        8.9221736513        7.9347193632
  O         7.4849640150        8.8003967477        7.9841276107
  O        -5.8331234788       12.0038568252        7.9664487108
  O        -1.8012924858       12.1726315257        8.0020646378
  O         1.8687395288       11.9224418576        8.1059866628
  O         5.8612513776       12.1296560716        8.3047224794
 Ce         0.0000000000        2.2090000000        0.7810000000
 Ce         3.8260000000        2.2090000000        0.7810000000
 Ce         7.6520000000        2.2090000000        0.7810000000
 Ce        11.4780000000        2.2090000000        0.7810000000
 Ce        -1.9130000000        5.5230000000        0.7810000000
 Ce         1.9130000000        5.5230000000        0.7810000000
 Ce         5.7390000000        5.5230000000        0.7810000000
 Ce         9.5650000000        5.5230000000        0.7810000000
 Ce        -3.8260000000        8.8360000000        0.7810000000
 Ce         0.0000000000        8.8360000000        0.7810000000
 Ce         3.8260000000        8.8360000000        0.7810000000
 Ce         7.6520000000        8.8360000000        0.7810000000
 Ce        -5.7390000000       12.1500000000        0.7810000000
 Ce        -1.9130000000       12.1500000000        0.7810000000
 Ce         1.9130000000       12.1500000000        0.7810000000
 Ce         5.7390000000       12.1500000000        0.7810000000
 Ce         1.9800557259        1.0262610803        4.0352908648
 Ce         5.8082160983        1.0597102855        3.9024938404
 Ce         9.7180385460        1.0509332741        3.9888112723
 Ce        13.5124483824        1.1718350355        3.9654157083
 Ce         0.0760917947        4.4097491178        3.8592030868
 Ce         3.7131078283        4.3481261428        3.8300978896
 Ce         7.6109436004        4.3541524489        3.8997920265
 Ce        11.4114114455        4.4506936410        3.8390747242
 Ce        -1.7962659544        7.7669539583        3.8757673722
 Ce         1.9899458787        7.7535778302        4.0477235602
 Ce         5.8081243074        7.6189840096        3.9636786703
 Ce         9.4469935697        7.7221553894        3.9444442550
 Ce        -3.8293387456       10.9576938369        3.9155597145
 Ce         0.0887877287       11.1080011998        3.8758924654
 Ce         3.9681016056       10.9635715614        3.9768239162
 Ce         7.5891707504       11.1558457007        3.8448037066
 Ce         0.0695111027       -0.0809090022        7.4344425667
 Ce         3.7353013515       -0.1171803023        7.1926552504
 Ce         7.7759266870        0.0080110886        7.2737984341
 Ce        11.6480152246        0.0979873671        7.2345562912
 Ce        -1.8204476474        3.5024494616        6.9448792315
 Ce         1.9949528239        3.3184252066        7.3353679840
 Ce         5.7315543591        3.1912036648        6.9235712824
 Ce         9.6376345712        3.3369381896        7.0973286158
 Ce        -3.9619044030        6.7097434518        7.0392196053
 Ce        -0.1568667612        6.6636350729        7.1213810495
 Ce         3.7463834155        6.5748400461        7.0363203409
 Ce         7.4732904324        6.5091572027        7.2908228651
 Ce        -5.9122408917        9.9545569671        7.0069732922
 Ce        -1.8191717553       10.0864265366        7.0603487746
 Ce         1.9940727331       10.1121314052        7.1568890256
 Ce         5.6755679582        9.8522143401        7.4316664216
 Pt        12.8279500942        1.9262109875        9.3345628771
 Pt         0.9896459502        5.4529487375        9.7745595047
 Pt        -0.0797305225        8.0657295502        9.9139204865
 Pt         7.1358717905       13.6193731932       10.0450112703
 Pt        -0.0353799533        2.9475408350        9.8748915143
 Pt        -2.4803877688        8.5648589413        9.2480296640
 Pt         2.8271991642        3.7171455453       10.6115807683
 Pt         3.4400449711        6.4681595758       10.5515013804
 Pt         5.2521615177        4.8324528405        9.8655696711
 Pt         1.7496204737        1.3060016395       11.2153580058
 Pt         4.1632054974        1.4211645868        9.7816030216
 Pt        -0.1207739533        6.4880707034       11.8697251469
 Pt         6.5659329059        2.5113381146        9.6969979280
 Pt         0.6193678873        3.9174310468       12.1213052807
 Pt         5.5186228390        0.5699976755       11.6906003840
 Pt         2.2642023811        6.0308868868       12.8515860270
 Pt         5.1621968126        3.0792918692       11.8018805176
 Pt         0.0841585631        5.2093713798       14.2230681653
 Pt         1.1653221066        2.1544991278       13.9225107830
 Pt         4.7913851168        5.4541171558       12.6479343093
 Pt         3.4644629974        1.0592872963       13.1414312066
 Pt         3.2425994457        3.5938100157       13.5975095350
     166
 i =       87, time =       87.000, E =     -6045.8868855315
  O         0.0000000000        0.0000000000        0.0000000000
  O         3.8260000000        0.0000000000        0.0000000000
  O         7.6520000000        0.0000000000        0.0000000000
  O        11.4780000000        0.0000000000        0.0000000000
  O        -1.9130000000        3.3140000000        0.0000000000
  O         1.9130000000        3.3140000000        0.0000000000
  O         5.7390000000        3.3140000000        0.0000000000
  O         9.5650000000        3.3140000000        0.0000000000
  O        -3.8260000000        6.6270000000        0.0000000000
  O         0.0000000000        6.6270000000        0.0000000000
  O         3.8260000000        6.6270000000        0.0000000000
  O         7.6520000000        6.6270000000        0.0000000000
  O        -5.7390000000        9.9410000000        0.0000000000
  O        -1.9130000000        9.9410000000        0.0000000000
  O         1.9130000000        9.9410000000        0.0000000000
  O         5.7390000000        9.9410000000        0.0000000000
  O         1.9130000000        1.1050000000        1.5620000000
  O         5.7390000000        1.1050000000        1.5620000000
  O         9.5650000000        1.1050000000        1.5620000000
  O        13.3920000000        1.1050000000        1.5620000000
  O         0.0000000000        4.4180000000        1.5620000000
  O         3.8260000000        4.4180000000        1.5620000000
  O         7.6520000000        4.4180000000        1.5620000000
  O        11.4780000000        4.4180000000        1.5620000000
  O        -1.9130000000        7.7320000000        1.5620000000
  O         1.9130000000        7.7320000000        1.5620000000
  O         5.7390000000        7.7320000000        1.5620000000
  O         9.5650000000        7.7320000000        1.5620000000
  O        -3.8260000000       11.0450000000        1.5620000000
  O         0.0000000000       11.0450000000        1.5620000000
  O         3.8260000000       11.0450000000        1.5620000000
  O         7.6520000000       11.0450000000        1.5620000000
  O         0.0000000000        2.2090000000        3.1240000000
  O         3.8260000000        2.2090000000        3.1240000000
  O         7.6520000000        2.2090000000        3.1240000000
  O        11.4780000000        2.2090000000        3.1240000000
  O        -1.9130000000        5.5230000000        3.1240000000
  O         1.9130000000        5.5230000000        3.1240000000
  O         5.7390000000        5.5230000000        3.1240000000
  O         9.5650000000        5.5230000000        3.1240000000
  O        -3.8260000000        8.8360000000        3.1240000000
  O         0.0000000000        8.8360000000        3.1240000000
  O         3.8260000000        8.8360000000        3.1240000000
  O         7.6520000000        8.8360000000        3.1240000000
  O        -5.7390000000       12.1500000000        3.1240000000
  O        -1.9130000000       12.1500000000        3.1240000000
  O         1.9130000000       12.1500000000        3.1240000000
  O         5.7390000000       12.1500000000        3.1240000000
  O         0.1323753283       -0.1160168345        4.7738661757
  O         3.9504949356        0.0006211815        4.8878742376
  O         7.4838055683        0.0999132755        4.7614340612
  O        11.5149371023       -0.0438097525        4.7117805515
  O        -1.8115963634        3.3732802204        4.6657658341
  O         2.0646020619        3.1820581399        4.6532617364
  O         5.6723572238        3.3709318466        4.6812147995
  O         9.5191349981        3.1377788562        4.7606761708
  O        -4.1100921752        6.4745085557        4.6322709284
  O        -0.0046643740        6.7962855464        4.7578683278
  O         3.8555654481        6.4952639801        4.7858388152
  O         7.6196347120        6.6411410529        4.8967855465
  O        -5.8219053240       10.0080116416        4.6878391359
  O        -1.8593916549        9.9313733057        4.5672055792
  O         1.9967848031       10.0505252759        4.7515680956
  O         5.7743197072        9.7254196526        4.6213085603
  O         1.8440172795        1.0762929139        6.3945042959
  O         5.7608882059        1.1125133171        6.4748409788
  O         9.6084866748        0.8458932282        6.5731560704
  O        13.3945390022        1.1519841472        6.2296012097
  O         0.2329117489        4.4083024868        6.3454539858
  O         3.8561432197        4.4045224428        6.4297481569
  O         7.6240463451        4.3027212570        6.3965253709
  O        11.3396112261        4.2670452774        6.2906523747
  O        -1.9854912246        7.7841622525        6.3664409014
  O         2.0180362145        7.8010759958        6.3275504107
  O         5.6272204938        7.7018089341        6.3705277849
  O         9.4699275646        7.7745456856        6.2824416298
  O        -3.8125761909       10.9716111385        6.2106701541
  O        -0.0148216253       11.2323322990        6.2855521606
  O         3.9992724722       11.1226433986        6.4473128955
  O         7.6143509949       11.0132851262        6.4134151323
  O         0.1247653752        2.1966362713        7.8418686119
  O         3.8280398717        2.0535956267        7.8304088411
  O         7.8115688134        2.1803292787        8.1898390505
  O        11.1549706952        2.1437203983        8.2346613884
  O        -1.9804984958        5.6279212745        7.6715963038
  O         1.9185723414        5.6860186399        7.9754251384
  O         5.7051945068        5.4278114228        8.0318930699
  O         9.4785493725        5.6784408591        7.9423777085
  O        -4.1332340503        8.9128986493        8.1309082402
  O         0.2309978180        9.1798316215        8.1159683269
  O         3.8277339814        8.9210355593        7.9436866044
  O         7.4830796301        8.7905542444        7.9757056190
  O        -5.8289493422       12.0014982378        7.9566803429
  O        -1.8013477414       12.1705233278        8.0080441294
  O         1.8683642973       11.9092365728        8.1054369240
  O         5.8589299004       12.1277471681        8.3055786546
 Ce         0.0000000000        2.2090000000        0.7810000000
 Ce         3.8260000000        2.2090000000        0.7810000000
 Ce         7.6520000000        2.2090000000        0.7810000000
 Ce        11.4780000000        2.2090000000        0.7810000000
 Ce        -1.9130000000        5.5230000000        0.7810000000
 Ce         1.9130000000        5.5230000000        0.7810000000
 Ce         5.7390000000        5.5230000000        0.7810000000
 Ce         9.5650000000        5.5230000000        0.7810000000
 Ce        -3.8260000000        8.8360000000        0.7810000000
 Ce         0.0000000000        8.8360000000        0.7810000000
 Ce         3.8260000000        8.8360000000        0.7810000000
 Ce         7.6520000000        8.8360000000        0.7810000000
 Ce        -5.7390000000       12.1500000000        0.7810000000
 Ce        -1.9130000000       12.1500000000        0.7810000000
 Ce         1.9130000000       12.1500000000        0.7810000000
 Ce         5.7390000000       12.1500000000        0.7810000000
 Ce         1.9787916015        1.0266797966        4.0364094089
 Ce         5.8079752118        1.0588777716        3.9024576994
 Ce         9.7173779385        1.0527128665        3.9871687158
 Ce        13.5120227264        1.1691476349        3.9630894814
 Ce         0.0761046984        4.4090985888        3.8584838752
 Ce         3.7150114922        4.3478653633        3.8330319092
 Ce         7.6135997832        4.3550361082        3.9011722776
 Ce        11.4093073457        4.4504929239        3.8402254257
 Ce        -1.7987835080        7.7671139892        3.8718159921
 Ce         1.9889561751        7.7544418877        4.0455581584
 Ce         5.8075910235        7.6194076732        3.9643366588
 Ce         9.4471858068        7.7208702400        3.9418348498
 Ce        -3.8301262159       10.9588468653        3.9152741887
 Ce         0.0896926182       11.1079949209        3.8767769256
 Ce         3.9666222161       10.9644831218        3.9756984055
 Ce         7.5913504765       11.1545492213        3.8485347945
 Ce         0.0698344354       -0.0801441350        7.4350164807
 Ce         3.7360857863       -0.1209132548        7.1922663999
 Ce         7.7741140413        0.0065107406        7.2738485523
 Ce        11.6500727206        0.0991754584        7.2366624261
 Ce        -1.8205899414        3.5037685957        6.9470992305
 Ce         1.9916484050        3.3166815925        7.3352257534
 Ce         5.7326878834        3.1933258375        6.9238565524
 Ce         9.6367826753        3.3413196390        7.0958019224
 Ce        -3.9625145663        6.7078087885        7.0417805914
 Ce        -0.1557607983        6.6645304179        7.1238682384
 Ce         3.7456015253        6.5773127159        7.0361898833
 Ce         7.4748437037        6.5096871955        7.2897383579
 Ce        -5.9136528395        9.9549812424        7.0099774061
 Ce        -1.8190748238       10.0888000370        7.0622695468
 Ce         1.9936234400       10.1091490999        7.1596062316
 Ce         5.6773391805        9.8511756191        7.4338110367
 Pt        12.8282648028        1.9273630174        9.3347666079
 Pt         0.9904529447        5.4550469064        9.7750109648
 Pt        -0.0798873502        8.0655219786        9.9124761832
 Pt         7.1327666781       13.6199242281       10.0444993597
 Pt        -0.0386583844        2.9459216593        9.8774963319
 Pt        -2.4812836610        8.5678748968        9.2469131833
 Pt         2.8257323415        3.7195328671       10.6133335597
 Pt         3.4389802646        6.4704042326       10.5490314303
 Pt         5.2529017970        4.8321392241        9.8665201385
 Pt         1.7496527391        1.3052449460       11.2156149594
 Pt         4.1633046272        1.4200100129        9.7819753295
 Pt        -0.1209255918        6.4874834206       11.8720606783
 Pt         6.5672216244        2.5121096237        9.6954634932
 Pt         0.6201152996        3.9153128383       12.1210864880
 Pt         5.5208598922        0.5700409654       11.6902538810
 Pt         2.2624105099        6.0298701696       12.8488880411
 Pt         5.1633077805        3.0776111815       11.8028893063
 Pt         0.0849691157        5.2123707414       14.2227373562
 Pt         1.1659572445        2.1519682931       13.9218758259
 Pt         4.7913364643        5.4545602245       12.6474475196
 Pt         3.4627542829        1.0584119769       13.1394101567
 Pt         3.2416889231        3.5930457245       13.5961282273
     166
 i =       88, time =       88.000, E =     -6045.8871233413
  O         0.0000000000        0.0000000000        0.0000000000
  O         3.8260000000        0.0000000000        0.0000000000
  O         7.6520000000        0.0000000000        0.0000000000
  O        11.4780000000        0.0000000000        0.0000000000
  O        -1.9130000000        3.3140000000        0.0000000000
  O         1.9130000000        3.3140000000        0.0000000000
  O         5.7390000000        3.3140000000        0.0000000000
  O         9.5650000000        3.3140000000        0.0000000000
  O        -3.8260000000        6.6270000000        0.0000000000
  O         0.0000000000        6.6270000000        0.0000000000
  O         3.8260000000        6.6270000000        0.0000000000
  O         7.6520000000        6.6270000000        0.0000000000
  O        -5.7390000000        9.9410000000        0.0000000000
  O        -1.9130000000        9.9410000000        0.0000000000
  O         1.9130000000        9.9410000000        0.0000000000
  O         5.7390000000        9.9410000000        0.0000000000
  O         1.9130000000        1.1050000000        1.5620000000
  O         5.7390000000        1.1050000000        1.5620000000
  O         9.5650000000        1.1050000000        1.5620000000
  O        13.3920000000        1.1050000000        1.5620000000
  O         0.0000000000        4.4180000000        1.5620000000
  O         3.8260000000        4.4180000000        1.5620000000
  O         7.6520000000        4.4180000000        1.5620000000
  O        11.4780000000        4.4180000000        1.5620000000
  O        -1.9130000000        7.7320000000        1.5620000000
  O         1.9130000000        7.7320000000        1.5620000000
  O         5.7390000000        7.7320000000        1.5620000000
  O         9.5650000000        7.7320000000        1.5620000000
  O        -3.8260000000       11.0450000000        1.5620000000
  O         0.0000000000       11.0450000000        1.5620000000
  O         3.8260000000       11.0450000000        1.5620000000
  O         7.6520000000       11.0450000000        1.5620000000
  O         0.0000000000        2.2090000000        3.1240000000
  O         3.8260000000        2.2090000000        3.1240000000
  O         7.6520000000        2.2090000000        3.1240000000
  O        11.4780000000        2.2090000000        3.1240000000
  O        -1.9130000000        5.5230000000        3.1240000000
  O         1.9130000000        5.5230000000        3.1240000000
  O         5.7390000000        5.5230000000        3.1240000000
  O         9.5650000000        5.5230000000        3.1240000000
  O        -3.8260000000        8.8360000000        3.1240000000
  O         0.0000000000        8.8360000000        3.1240000000
  O         3.8260000000        8.8360000000        3.1240000000
  O         7.6520000000        8.8360000000        3.1240000000
  O        -5.7390000000       12.1500000000        3.1240000000
  O        -1.9130000000       12.1500000000        3.1240000000
  O         1.9130000000       12.1500000000        3.1240000000
  O         5.7390000000       12.1500000000        3.1240000000
  O         0.1296885300       -0.1205292947        4.7660659343
  O         3.9478654392        0.0006533003        4.8833243174
  O         7.4935219265        0.1015340681        4.7546528784
  O        11.5219861845       -0.0509383409        4.7052950892
  O        -1.8115849164        3.3705991684        4.6804299891
  O         2.0631537826        3.1795426722        4.6538773299
  O         5.6690330375        3.3657332004        4.6694652260
  O         9.5151643547        3.1399799546        4.7491785909
  O        -4.1113788884        6.4722214400        4.6284272456
  O        -0.0036716335        6.8062371533        4.7618688718
  O         3.8529828354        6.4950866913        4.7903246871
  O         7.6184680953        6.6370705839        4.8970164286
  O        -5.8244607424       10.0010624963        4.6889222908
  O        -1.8578790930        9.9307679253        4.5678554980
  O         2.0058749912       10.0543544622        4.7523268360
  O         5.7724858001        9.7171616425        4.6202685467
  O         1.8484924462        1.0786364505        6.3992683912
  O         5.7537880606        1.0992975498        6.4780503141
  O         9.6008929621        0.8497349276        6.5649206274
  O        13.3897110421        1.1489507126        6.2362166048
  O         0.2383169009        4.4112596143        6.3409663818
  O         3.8554553045        4.4048500594        6.4284410076
  O         7.6303535357        4.3044005740        6.3926563396
  O        11.3313685438        4.2753103345        6.2911441366
  O        -1.9880933422        7.7889376761        6.3640947175
  O         2.0188617862        7.8043294489        6.3163147485
  O         5.6305952365        7.7148015213        6.3778246044
  O         9.4736048567        7.7689938714        6.2816885465
  O        -3.8072455770       10.9826654595        6.2151850393
  O        -0.0140492618       11.2345793488        6.2827491047
  O         4.0035255919       11.1214303293        6.4537919180
  O         7.6158627301       11.0181546077        6.4092671999
  O         0.1243659740        2.1840490133        7.8416788717
  O         3.8304794782        2.0502757156        7.8270342693
  O         7.8069144993        2.1744700919        8.1941723901
  O        11.1595624062        2.1338732710        8.2382377318
  O        -1.9781001671        5.6300463564        7.6733852238
  O         1.9178205600        5.6839443708        7.9775081256
  O         5.7041031835        5.4268905297        8.0258613161
  O         9.4812812281        5.6895939420        7.9437509254
  O        -4.1322913663        8.9080939781        8.1305444588
  O         0.2257469056        9.1876147342        8.1119823051
  O         3.8324127245        8.9196298426        7.9530314753
  O         7.4814247297        8.7802998181        7.9675257135
  O        -5.8241597244       11.9993451971        7.9469817856
  O        -1.8017596716       12.1680900065        8.0137870716
  O         1.8681211514       11.8969908032        8.1051342997
  O         5.8564324920       12.1258578412        8.3062726595
 Ce         0.0000000000        2.2090000000        0.7810000000
 Ce         3.8260000000        2.2090000000        0.7810000000
 Ce         7.6520000000        2.2090000000        0.7810000000
 Ce        11.4780000000        2.2090000000        0.7810000000
 Ce        -1.9130000000        5.5230000000        0.7810000000
 Ce         1.9130000000        5.5230000000        0.7810000000
 Ce         5.7390000000        5.5230000000        0.7810000000
 Ce         9.5650000000        5.5230000000        0.7810000000
 Ce        -3.8260000000        8.8360000000        0.7810000000
 Ce         0.0000000000        8.8360000000        0.7810000000
 Ce         3.8260000000        8.8360000000        0.7810000000
 Ce         7.6520000000        8.8360000000        0.7810000000
 Ce        -5.7390000000       12.1500000000        0.7810000000
 Ce        -1.9130000000       12.1500000000        0.7810000000
 Ce         1.9130000000       12.1500000000        0.7810000000
 Ce         5.7390000000       12.1500000000        0.7810000000
 Ce         1.9775429489        1.0270900474        4.0375114612
 Ce         5.8076564075        1.0580512398        3.9024410985
 Ce         9.7166279310        1.0544648818        3.9854835954
 Ce        13.5115368153        1.1663869263        3.9607532463
 Ce         0.0760943259        4.4084467217        3.8577914897
 Ce         3.7170308098        4.3476110888        3.8360240321
 Ce         7.6162610817        4.3559274861        3.9025630986
 Ce        11.4072276262        4.4502620475        3.8413947095
 Ce        -1.8013987858        7.7673059342        3.8678735372
 Ce         1.9879558158        7.7553567103        4.0433359172
 Ce         5.8070077268        7.6199178269        3.9649980693
 Ce         9.4474161094        7.7196372191        3.9392222671
 Ce        -3.8309013655       10.9600458447        3.9149949068
 Ce         0.0905188480       11.1079768407        3.8777055951
 Ce         3.9650929379       10.9654017291        3.9745824859
 Ce         7.5936055718       11.1531183122        3.8523563423
 Ce         0.0701180795       -0.0793941888        7.4354910978
 Ce         3.7369595059       -0.1246594326        7.1918349372
 Ce         7.7721622291        0.0049348436        7.2739101460
 Ce        11.6521185190        0.1002549511        7.2387606203
 Ce        -1.8206981672        3.5049990917        6.9493837339
 Ce         1.9883366518        3.3149066704        7.3350468253
 Ce         5.7338070684        3.1954525340        6.9242204099
 Ce         9.6358047585        3.3456789723        7.0943464091
 Ce        -3.9631566801        6.7059183609        7.0443860828
 Ce        -0.1545877180        6.6654952783        7.1263616502
 Ce         3.7448832654        6.5798800201        7.0361173163
 Ce         7.4765208796        6.5103282749        7.2885780804
 Ce        -5.9150240943        9.9553554989        7.0130136324
 Ce        -1.8189983999       10.0912158175        7.0642140532
 Ce         1.9932061638       10.1060903947        7.1623000579
 Ce         5.6791429770        9.8501838125        7.4358738568
 Pt        12.8286141464        1.9285359578        9.3349803161
 Pt         0.9912600214        5.4572047819        9.7754753424
 Pt        -0.0800292724        8.0652560159        9.9110116197
 Pt         7.1296661873       13.6204663657       10.0440235764
 Pt        -0.0419354036        2.9442874829        9.8800761825
 Pt        -2.4821701384        8.5708629733        9.2458114868
 Pt         2.8242491527        3.7219611021       10.6150693138
 Pt         3.4378771208        6.4726347579       10.5465838861
 Pt         5.2536427169        4.8318051606        9.8675156195
 Pt         1.7496900962        1.3044881626       11.2158847853
 Pt         4.1633736993        1.4188622008        9.7823231295
 Pt        -0.1210818384        6.4869135398       11.8744502932
 Pt         6.5685090197        2.5128730043        9.6939682072
 Pt         0.6208807284        3.9131784480       12.1208445453
 Pt         5.5231062410        0.5700653486       11.6899244154
 Pt         2.2605911227        6.0288257728       12.8462061438
 Pt         5.1644134788        3.0759116489       11.8039341977
 Pt         0.0857995383        5.2153825934       14.2223915708
 Pt         1.1665923164        2.1494284880       13.9212243578
 Pt         4.7912971954        5.4550267693       12.6469421602
 Pt         3.4610186692        1.0575391960       13.1373701585
 Pt         3.2407663541        3.5923227660       13.5947428225
     166
 i =       89, time =       89.000, E =     -6045.8871701454
  O         0.0000000000        0.0000000000        0.0000000000
  O         3.8260000000        0.0000000000        0.0000000000
  O         7.6520000000        0.0000000000        0.0000000000
  O        11.4780000000        0.0000000000        0.0000000000
  O        -1.9130000000        3.3140000000        0.0000000000
  O         1.9130000000        3.3140000000        0.0000000000
  O         5.7390000000        3.3140000000        0.0000000000
  O         9.5650000000        3.3140000000        0.0000000000
  O        -3.8260000000        6.6270000000        0.0000000000
  O         0.0000000000        6.6270000000        0.0000000000
  O         3.8260000000        6.6270000000        0.0000000000
  O         7.6520000000        6.6270000000        0.0000000000
  O        -5.7390000000        9.9410000000        0.0000000000
  O        -1.9130000000        9.9410000000        0.0000000000
  O         1.9130000000        9.9410000000        0.0000000000
  O         5.7390000000        9.9410000000        0.0000000000
  O         1.9130000000        1.1050000000        1.5620000000
  O         5.7390000000        1.1050000000        1.5620000000
  O         9.5650000000        1.1050000000        1.5620000000
  O        13.3920000000        1.1050000000        1.5620000000
  O         0.0000000000        4.4180000000        1.5620000000
  O         3.8260000000        4.4180000000        1.5620000000
  O         7.6520000000        4.4180000000        1.5620000000
  O        11.4780000000        4.4180000000        1.5620000000
  O        -1.9130000000        7.7320000000        1.5620000000
  O         1.9130000000        7.7320000000        1.5620000000
  O         5.7390000000        7.7320000000        1.5620000000
  O         9.5650000000        7.7320000000        1.5620000000
  O        -3.8260000000       11.0450000000        1.5620000000
  O         0.0000000000       11.0450000000        1.5620000000
  O         3.8260000000       11.0450000000        1.5620000000
  O         7.6520000000       11.0450000000        1.5620000000
  O         0.0000000000        2.2090000000        3.1240000000
  O         3.8260000000        2.2090000000        3.1240000000
  O         7.6520000000        2.2090000000        3.1240000000
  O        11.4780000000        2.2090000000        3.1240000000
  O        -1.9130000000        5.5230000000        3.1240000000
  O         1.9130000000        5.5230000000        3.1240000000
  O         5.7390000000        5.5230000000        3.1240000000
  O         9.5650000000        5.5230000000        3.1240000000
  O        -3.8260000000        8.8360000000        3.1240000000
  O         0.0000000000        8.8360000000        3.1240000000
  O         3.8260000000        8.8360000000        3.1240000000
  O         7.6520000000        8.8360000000        3.1240000000
  O        -5.7390000000       12.1500000000        3.1240000000
  O        -1.9130000000       12.1500000000        3.1240000000
  O         1.9130000000       12.1500000000        3.1240000000
  O         5.7390000000       12.1500000000        3.1240000000
  O         0.1264643306       -0.1243463063        4.7580863555
  O         3.9446763335        0.0007160088        4.8785184610
  O         7.5045137096        0.1028745416        4.7479409814
  O        11.5290478481       -0.0577551097        4.6990407038
  O        -1.8117193924        3.3681296151        4.6953634025
  O         2.0608855265        3.1775966711        4.6549582984
  O         5.6660862177        3.3602716616        4.6578452430
  O         9.5113132477        3.1425822110        4.7378934042
  O        -4.1115811009        6.4704683728        4.6254857360
  O        -0.0025145873        6.8153962154        4.7660565224
  O         3.8500307520        6.4951926093        4.7945245201
  O         7.6172154806        6.6324067325        4.8969199826
  O        -5.8269032347        9.9938990527        4.6900407846
  O        -1.8562260230        9.9301989891        4.5691081816
  O         2.0148043774       10.0578787251        4.7531139272
  O         5.7704817662        9.7099613352        4.6195238481
  O         1.8533931431        1.0808963247        6.4039902505
  O         5.7470214739        1.0862755422        6.4808280475
  O         9.5937957276        0.8544290388        6.5557936580
  O        13.3848234359        1.1461144971        6.2430006325
  O         0.2429187902        4.4145925343        6.3361255990
  O         3.8543276431        4.4048647172        6.4270618074
  O         7.6367911556        4.3061888247        6.3884072715
  O        11.3241159904        4.2840437556        6.2916217069
  O        -1.9906523693        7.7939898281        6.3610742472
  O         2.0192027802        7.8073108939        6.3047170683
  O         5.6340769579        7.7272746010        6.3853092311
  O         9.4774984259        7.7635434349        6.2809968143
  O        -3.8018760453       10.9936806625        6.2202014102
  O        -0.0131085736       11.2362689346        6.2796744244
  O         4.0078925649       11.1204412883        6.4599745562
  O         7.6167675649       11.0230739616        6.4049410255
  O         0.1237189495        2.1722672085        7.8417591489
  O         3.8325315600        2.0472843090        7.8240807998
  O         7.8027745259        2.1685422561        8.1978725389
  O        11.1641862662        2.1242697960        8.2417042974
  O        -1.9758181251        5.6313650852        7.6750790057
  O         1.9167313919        5.6814537205        7.9794456936
  O         5.7031341192        5.4263129953        8.0194499820
  O         9.4840894114        5.7002286407        7.9449333036
  O        -4.1315543647        8.9029782394        8.1299421596
  O         0.2199694654        9.1949766882        8.1078778644
  O         3.8369982401        8.9179351908        7.9627203935
  O         7.4800551062        8.7696896427        7.9595814799
  O        -5.8187885212       11.9973975852        7.9374000125
  O        -1.8025081295       12.1653244508        8.0192633763
  O         1.8679973900       11.8858139374        8.1051097039
  O         5.8537852832       12.1240029172        8.3068167823
 Ce         0.0000000000        2.2090000000        0.7810000000
 Ce         3.8260000000        2.2090000000        0.7810000000
 Ce         7.6520000000        2.2090000000        0.7810000000
 Ce        11.4780000000        2.2090000000        0.7810000000
 Ce        -1.9130000000        5.5230000000        0.7810000000
 Ce         1.9130000000        5.5230000000        0.7810000000
 Ce         5.7390000000        5.5230000000        0.7810000000
 Ce         9.5650000000        5.5230000000        0.7810000000
 Ce        -3.8260000000        8.8360000000        0.7810000000
 Ce         0.0000000000        8.8360000000        0.7810000000
 Ce         3.8260000000        8.8360000000        0.7810000000
 Ce         7.6520000000        8.8360000000        0.7810000000
 Ce        -5.7390000000       12.1500000000        0.7810000000
 Ce        -1.9130000000       12.1500000000        0.7810000000
 Ce         1.9130000000       12.1500000000        0.7810000000
 Ce         5.7390000000       12.1500000000        0.7810000000
 Ce         1.9763129766        1.0274915675        4.0385950658
 Ce         5.8072612523        1.0572295641        3.9024430472
 Ce         9.7157877170        1.0561834750        3.9837562533
 Ce        13.5109890355        1.1635514123        3.9584095709
 Ce         0.0760617131        4.4077946466        3.8571270408
 Ce         3.7191628785        4.3473629644        3.8390704938
 Ce         7.6189243960        4.3568258296        3.9039587294
 Ce        11.4051730455        4.4500018612        3.8425795628
 Ce        -1.8041085934        7.7675308240        3.8639460722
 Ce         1.9869455547        7.7563232494        4.0410562793
 Ce         5.8063740002        7.6205139584        3.9656619947
 Ce         9.4476836705        7.7184565679        3.9366090206
 Ce        -3.8316621280       10.9612903513        3.9147225282
 Ce         0.0912679970       11.1079474186        3.8786781013
 Ce         3.9635160725       10.9663261531        3.9734771963
 Ce         7.5959311294       11.1515501230        3.8562623757
 Ce         0.0703609389       -0.0786616384        7.4358662179
 Ce         3.7379249175       -0.1284153274        7.1913604667
 Ce         7.7700716557        0.0032818625        7.2739808921
 Ce        11.6541512681        0.1012201672        7.2408475015
 Ce        -1.8207704881        3.5061394946        6.9517325960
 Ce         1.9850213417        3.3130982978        7.3348312789
 Ce         5.7349074152        3.1975749501        6.9246569883
 Ce         9.6347017845        3.3500090002        7.0929623187
 Ce        -3.9638288663        6.7040779305        7.0470323866
 Ce        -0.1533503942        6.6665332895        7.1288560132
 Ce         3.7442293568        6.5825430614        7.0361023540
 Ce         7.4783200941        6.5110847438        7.2873410078
 Ce        -5.9163525639        9.9556751331        7.0160769055
 Ce        -1.8189406894       10.0936715317        7.0661798934
 Ce         1.9928263175       10.1029527422        7.1649649202
 Ce         5.6809728255        9.8492398087        7.4378541695
 Pt        12.8290001102        1.9297302913        9.3352061950
 Pt         0.9920654550        5.4594225026        9.7759532610
 Pt        -0.0801569632        8.0649314391        9.9095276587
 Pt         7.1265710082       13.6209975666       10.0435844490
 Pt        -0.0452095790        2.9426392854        9.8826295608
 Pt        -2.4830445093        8.5738224100        9.2447264645
 Pt         2.8227502862        3.7244285744       10.6167873638
 Pt         3.4367361842        6.4748502401       10.5441597980
 Pt         5.2543848295        4.8314514413        9.8685536310
 Pt         1.7497325529        1.3037314309       11.2161662983
 Pt         4.1634127062        1.4177228169        9.7826454609
 Pt        -0.1212434641        6.4863613669       11.8768907820
 Pt         6.5697909491        2.5136294072        9.6925155966
 Pt         0.6216621833        3.9110304310       12.1205815809
 Pt         5.5253610801        0.5700702725       11.6896126522
 Pt         2.2587470475        6.0277543496       12.8435397347
 Pt         5.1655137239        3.0741962797       11.8050142086
 Pt         0.0866500696        5.2184058723       14.2220305255
 Pt         1.1672269639        2.1468794669       13.9205565547
 Pt         4.7912661078        5.4555156048       12.6464175812
 Pt         3.4592578607        1.0566671268       13.1353115171
 Pt         3.2398319375        3.5916420562       13.5933534359
     166
 i =       90, time =       90.000, E =     -6045.8873480366
  O         0.0000000000        0.0000000000        0.0000000000
  O         3.8260000000        0.0000000000        0.0000000000
  O         7.6520000000        0.0000000000        0.0000000000
  O        11.4780000000        0.0000000000        0.0000000000
  O        -1.9130000000        3.3140000000        0.0000000000
  O         1.9130000000        3.3140000000        0.0000000000
  O         5.7390000000        3.3140000000        0.0000000000
  O         9.5650000000        3.3140000000        0.0000000000
  O        -3.8260000000        6.6270000000        0.0000000000
  O         0.0000000000        6.6270000000        0.0000000000
  O         3.8260000000        6.6270000000        0.0000000000
  O         7.6520000000        6.6270000000        0.0000000000
  O        -5.7390000000        9.9410000000        0.0000000000
  O        -1.9130000000        9.9410000000        0.0000000000
  O         1.9130000000        9.9410000000        0.0000000000
  O         5.7390000000        9.9410000000        0.0000000000
  O         1.9130000000        1.1050000000        1.5620000000
  O         5.7390000000        1.1050000000        1.5620000000
  O         9.5650000000        1.1050000000        1.5620000000
  O        13.3920000000        1.1050000000        1.5620000000
  O         0.0000000000        4.4180000000        1.5620000000
  O         3.8260000000        4.4180000000        1.5620000000
  O         7.6520000000        4.4180000000        1.5620000000
  O        11.4780000000        4.4180000000        1.5620000000
  O        -1.9130000000        7.7320000000        1.5620000000
  O         1.9130000000        7.7320000000        1.5620000000
  O         5.7390000000        7.7320000000        1.5620000000
  O         9.5650000000        7.7320000000        1.5620000000
  O        -3.8260000000       11.0450000000        1.5620000000
  O         0.0000000000       11.0450000000        1.5620000000
  O         3.8260000000       11.0450000000        1.5620000000
  O         7.6520000000       11.0450000000        1.5620000000
  O         0.0000000000        2.2090000000        3.1240000000
  O         3.8260000000        2.2090000000        3.1240000000
  O         7.6520000000        2.2090000000        3.1240000000
  O        11.4780000000        2.2090000000        3.1240000000
  O        -1.9130000000        5.5230000000        3.1240000000
  O         1.9130000000        5.5230000000        3.1240000000
  O         5.7390000000        5.5230000000        3.1240000000
  O         9.5650000000        5.5230000000        3.1240000000
  O        -3.8260000000        8.8360000000        3.1240000000
  O         0.0000000000        8.8360000000        3.1240000000
  O         3.8260000000        8.8360000000        3.1240000000
  O         7.6520000000        8.8360000000        3.1240000000
  O        -5.7390000000       12.1500000000        3.1240000000
  O        -1.9130000000       12.1500000000        3.1240000000
  O         1.9130000000       12.1500000000        3.1240000000
  O         5.7390000000       12.1500000000        3.1240000000
  O         0.1227215637       -0.1274010180        4.7499830276
  O         3.9409232589        0.0008059929        4.8734622343
  O         7.5167146687        0.1039628248        4.7413396776
  O        11.5360756221       -0.0641974412        4.6930098494
  O        -1.8120005437        3.3658822781        4.7104897832
  O         2.0578146446        3.1762317501        4.6564978909
  O         5.6635387354        3.3545598079        4.6465112695
  O         9.5076112768        3.1456073267        4.7269431538
  O        -4.1106931136        6.4692512456        4.6234310627
  O        -0.0012151145        6.8237253539        4.7704174625
  O         3.8467419414        6.4955793209        4.7984483044
  O         7.6158749684        6.6271700470        4.8965026322
  O        -5.8291988065        9.9865682068        4.6912124012
  O        -1.8544591793        9.9296854224        4.5709548831
  O         2.0235423873       10.0610887355        4.7539257422
  O         5.7683179712        9.7038506470        4.6190765883
  O         1.8586739594        1.0830504640        6.4086492390
  O         5.7406528954        1.0735527919        6.4831731169
  O         9.5872185072        0.8599627058        6.5457741756
  O        13.3798907785        1.1434761016        6.2498981597
  O         0.2467105257        4.4182764920        6.3309401060
  O         3.8527801203        4.4045537525        6.4256129429
  O         7.6433312033        4.3080378048        6.3838187179
  O        11.3178756390        4.2931992620        6.2921019797
  O        -1.9931742272        7.7992767922        6.3574181342
  O         2.0190791919        7.8100050092        6.2929078648
  O         5.6376346695        7.7391544748        6.3929010050
  O         9.4816014889        7.7582123458        6.2803608215
  O        -3.7965044716       11.0045771062        6.2256710202
  O        -0.0120119805       11.2374097625        6.2763336950
  O         4.0123543277       11.1196865871        6.4658223274
  O         7.6170781379       11.0280227588        6.4004439215
  O         0.1228031501        2.1613349093        7.8421016217
  O         3.8342054437        2.0446495513        7.8215586812
  O         7.7992003833        2.1625594206        8.2009052621
  O        11.1687512433        2.1149500146        8.2450030618
  O        -1.9736622120        5.6318670203        7.6766832304
  O         1.9153218736        5.6785652238        7.9812175417
  O         5.7022801252        5.4260488868        8.0127165985
  O         9.4869560122        5.7102867230        7.9459458930
  O        -4.1310567524        8.8975881300        8.1290927906
  O         0.2136700556        9.2018767226        8.1036673389
  O         3.8414618128        8.9159313514        7.9727565900
  O         7.4790311248        8.7587992644        7.9518752671
  O        -5.8128747940       11.9956523885        7.9280154814
  O        -1.8035710400       12.1622221843        8.0244516843
  O         1.8679893088       11.8757931252        8.1053897042
  O         5.8510095710       12.1221981243        8.3072184780
 Ce         0.0000000000        2.2090000000        0.7810000000
 Ce         3.8260000000        2.2090000000        0.7810000000
 Ce         7.6520000000        2.2090000000        0.7810000000
 Ce        11.4780000000        2.2090000000        0.7810000000
 Ce        -1.9130000000        5.5230000000        0.7810000000
 Ce         1.9130000000        5.5230000000        0.7810000000
 Ce         5.7390000000        5.5230000000        0.7810000000
 Ce         9.5650000000        5.5230000000        0.7810000000
 Ce        -3.8260000000        8.8360000000        0.7810000000
 Ce         0.0000000000        8.8360000000        0.7810000000
 Ce         3.8260000000        8.8360000000        0.7810000000
 Ce         7.6520000000        8.8360000000        0.7810000000
 Ce        -5.7390000000       12.1500000000        0.7810000000
 Ce        -1.9130000000       12.1500000000        0.7810000000
 Ce         1.9130000000       12.1500000000        0.7810000000
 Ce         5.7390000000       12.1500000000        0.7810000000
 Ce         1.9751045435        1.0278845366        4.0396583611
 Ce         5.8067919932        1.0564114262        3.9024626711
 Ce         9.7148564332        1.0578630319        3.9819871120
 Ce        13.5103779207        1.1606398008        3.9560607922
 Ce         0.0760079904        4.4071436306        3.8564919930
 Ce         3.7214042215        4.3471206797        3.8421676539
 Ce         7.6215866552        4.3577304953        3.9053535342
 Ce        11.4031445496        4.4497134331        3.8437772131
 Ce        -1.8069094521        7.7677892305        3.8600399231
 Ce         1.9859258599        7.7573420162        4.0387184415
 Ce         5.8056894289        7.6211954001        3.9663274008
 Ce         9.4479879160        7.7173280716        3.9339976924
 Ce        -3.8324064003       10.9625799072        3.9144576360
 Ce         0.0919418886       11.1079071290        3.8796939128
 Ce         3.9618940152       10.9672553015        3.9723831062
 Ce         7.5983219969       11.1498422081        3.8602468096
 Ce         0.0705622187       -0.0779485961        7.4361418900
 Ce         3.7389840928       -0.1321769351        7.1908428744
 Ce         7.7678434997        0.0015508377        7.2740579764
 Ce        11.6561694702        0.1020652638        7.2429191169
 Ce        -1.8208048869        3.5071888426        6.9541454347
 Ce         1.9817056374        3.3112548251        7.3345790855
 Ce         5.7359844132        3.1996853174        6.9251611421
 Ce         9.6334750000        3.3543033474        7.0916492563
 Ce        -3.9645289384        6.7022925583        7.0497155753
 Ce        -0.1520514296        6.6676473967        7.1313458054
 Ce         3.7436402185        6.5853023677        7.0361446237
 Ce         7.4802392859        6.5119603660        7.2860262636
 Ce        -5.9176365429        9.9559357874        7.0191622126
 Ce        -1.8188995875       10.0961649493        7.0681638737
 Ce         1.9924891089       10.0997337133        7.1675955374
 Ce         5.6828226086        9.8483444479        7.4397516937
 Pt        12.8294247551        1.9309468393        9.3354470768
 Pt         0.9928679984        5.4616993361        9.7764461054
 Pt        -0.0802712259        8.0645499924        9.9080241628
 Pt         7.1234815841       13.6215157333       10.0431827177
 Pt        -0.0484795527        2.9409769501        9.8851552671
 Pt        -2.4839058623        8.5767521269        9.2436605021
 Pt         2.8212370262        3.7269332914       10.6184878693
 Pt         3.4355578743        6.4770500686       10.5417601052
 Pt         5.2551291386        4.8310788394        9.8696316900
 Pt         1.7497802154        1.3029762235       11.2164580306
 Pt         4.1634219942        1.4165931209        9.7829412688
 Pt        -0.1214117398        6.4858268536       11.8793799948
 Pt         6.5710636882        2.5143793534        9.6911085536
 Pt         0.6224577655        3.9088715949       12.1203002557
 Pt         5.5276229593        0.5700562416       11.6893193139
 Pt         2.2568806764        6.0266566687       12.8408878422
 Pt         5.1666082919        3.0724680474       11.8061278911
 Pt         0.0875208352        5.2214396122       14.2216543235
 Pt         1.1678602788        2.1443205579       13.9198729614
 Pt         4.7912432199        5.4560256574       12.6458730068
 Pt         3.4574736439        1.0557943343       13.1332340066
 Pt         3.2388861765        3.5910035417       13.5919601788
     166
 i =       91, time =       91.000, E =     -6045.8877917347
  O         0.0000000000        0.0000000000        0.0000000000
  O         3.8260000000        0.0000000000        0.0000000000
  O         7.6520000000        0.0000000000        0.0000000000
  O        11.4780000000        0.0000000000        0.0000000000
  O        -1.9130000000        3.3140000000        0.0000000000
  O         1.9130000000        3.3140000000        0.0000000000
  O         5.7390000000        3.3140000000        0.0000000000
  O         9.5650000000        3.3140000000        0.0000000000
  O        -3.8260000000        6.6270000000        0.0000000000
  O         0.0000000000        6.6270000000        0.0000000000
  O         3.8260000000        6.6270000000        0.0000000000
  O         7.6520000000        6.6270000000        0.0000000000
  O        -5.7390000000        9.9410000000        0.0000000000
  O        -1.9130000000        9.9410000000        0.0000000000
  O         1.9130000000        9.9410000000        0.0000000000
  O         5.7390000000        9.9410000000        0.0000000000
  O         1.9130000000        1.1050000000        1.5620000000
  O         5.7390000000        1.1050000000        1.5620000000
  O         9.5650000000        1.1050000000        1.5620000000
  O        13.3920000000        1.1050000000        1.5620000000
  O         0.0000000000        4.4180000000        1.5620000000
  O         3.8260000000        4.4180000000        1.5620000000
  O         7.6520000000        4.4180000000        1.5620000000
  O        11.4780000000        4.4180000000        1.5620000000
  O        -1.9130000000        7.7320000000        1.5620000000
  O         1.9130000000        7.7320000000        1.5620000000
  O         5.7390000000        7.7320000000        1.5620000000
  O         9.5650000000        7.7320000000        1.5620000000
  O        -3.8260000000       11.0450000000        1.5620000000
  O         0.0000000000       11.0450000000        1.5620000000
  O         3.8260000000       11.0450000000        1.5620000000
  O         7.6520000000       11.0450000000        1.5620000000
  O         0.0000000000        2.2090000000        3.1240000000
  O         3.8260000000        2.2090000000        3.1240000000
  O         7.6520000000        2.2090000000        3.1240000000
  O        11.4780000000        2.2090000000        3.1240000000
  O        -1.9130000000        5.5230000000        3.1240000000
  O         1.9130000000        5.5230000000        3.1240000000
  O         5.7390000000        5.5230000000        3.1240000000
  O         9.5650000000        5.5230000000        3.1240000000
  O        -3.8260000000        8.8360000000        3.1240000000
  O         0.0000000000        8.8360000000        3.1240000000
  O         3.8260000000        8.8360000000        3.1240000000
  O         7.6520000000        8.8360000000        3.1240000000
  O        -5.7390000000       12.1500000000        3.1240000000
  O        -1.9130000000       12.1500000000        3.1240000000
  O         1.9130000000       12.1500000000        3.1240000000
  O         5.7390000000       12.1500000000        3.1240000000
  O         0.1184758593       -0.1296344694        4.7418387029
  O         3.9366029636        0.0009195804        4.8681512590
  O         7.5300349197        0.1048141307        4.7348915950
  O        11.5430409433       -0.0702099029        4.6872092501
  O        -1.8124266754        3.3638651079        4.7258143274
  O         2.0539651412        3.1754549349        4.6584854938
  O         5.6614128659        3.3486077629        4.6355565730
  O         9.5040866082        3.1490767425        4.7164080174
  O        -4.1087150169        6.4685700590        4.6222450656
  O         0.0002049063        6.8311965293        4.7749430269
  O         3.8431520769        6.4962435246        4.8021013328
  O         7.6144441689        6.6213876404        4.8957722875
  O        -5.8313094616        9.9791140249        4.6924547459
  O        -1.8526069763        9.9292481202        4.5733848690
  O         2.0320683374       10.0639806580        4.7547615722
  O         5.7660042663        9.6988606473        4.6189292451
  O         1.8642866745        1.0850745321        6.4132345355
  O         5.7347394588        1.0611917124        6.4850819093
  O         9.5811888293        0.8663142245        6.5348876251
  O        13.3749317484        1.1410358248        6.2568773846
  O         0.2496883788        4.4222847275        6.3254242182
  O         3.8508337365        4.4039100005        6.4240958430
  O         7.6499362629        4.3098983096        6.3789400257
  O        11.3126476814        4.3027137412        6.2926035022
  O        -1.9956590817        7.8047557653        6.3531591603
  O         2.0185166058        7.8124057380        6.2810503192
  O         5.6412375849        7.7503625389        6.4005317475
  O         9.4859001932        7.7530183759        6.2797704337
  O        -3.7911784080       11.0152918083        6.2315264729
  O        -0.0107684083       11.2380158476        6.2727314022
  O         4.0168908092       11.1191782335        6.4713145625
  O         7.6168104995       11.0329788910        6.3957912706
  O         0.1216039387        2.1513104101        7.8427010079
  O         3.8355114449        2.0423986273        7.8194818090
  O         7.7962340956        2.1565358823        8.2032327704
  O        11.1731851818        2.1059340739        8.2480837086
  O        -1.9716349186        5.6315415224        7.6782032373
  O         1.9136123323        5.6752966847        7.9828026536
  O         5.7015307786        5.4260685295        8.0057296473
  O         9.4898712014        5.7197032145        7.9468115915
  O        -4.1308365896        8.8919642469        8.1279827260
  O         0.2068797416        9.2082621693        8.0993694016
  O         3.8457734704        8.9135992222        7.9831725678
  O         7.4784124932        8.7476988748        7.9444325975
  O        -5.8064635540       11.9941058936        7.9189156683
  O        -1.8049241396       12.1587841988        8.0293417800
  O         1.8680974740       11.8669904542        8.1059963191
  O         5.8481265078       12.1204569066        8.3074832433
 Ce         0.0000000000        2.2090000000        0.7810000000
 Ce         3.8260000000        2.2090000000        0.7810000000
 Ce         7.6520000000        2.2090000000        0.7810000000
 Ce        11.4780000000        2.2090000000        0.7810000000
 Ce        -1.9130000000        5.5230000000        0.7810000000
 Ce         1.9130000000        5.5230000000        0.7810000000
 Ce         5.7390000000        5.5230000000        0.7810000000
 Ce         9.5650000000        5.5230000000        0.7810000000
 Ce        -3.8260000000        8.8360000000        0.7810000000
 Ce         0.0000000000        8.8360000000        0.7810000000
 Ce         3.8260000000        8.8360000000        0.7810000000
 Ce         7.6520000000        8.8360000000        0.7810000000
 Ce        -5.7390000000       12.1500000000        0.7810000000
 Ce        -1.9130000000       12.1500000000        0.7810000000
 Ce         1.9130000000       12.1500000000        0.7810000000
 Ce         5.7390000000       12.1500000000        0.7810000000
 Ce         1.9739201692        1.0282695911        4.0406994653
 Ce         5.8062515012        1.0555953985        3.9024990919
 Ce         9.7138331609        1.0594983172        3.9801767775
 Ce        13.5097021221        1.1576510281        3.9537088789
 Ce         0.0759343061        4.4064950992        3.8558880591
 Ce         3.7237508203        4.3468839280        3.8453119547
 Ce         7.6242448723        4.3586409117        3.9067420768
 Ce        11.4011431939        4.4493983692        3.8449853199
 Ce        -1.8097977231        7.7680813036        3.8561619979
 Ce         1.9848968093        7.7584131304        4.0363213097
 Ce         5.8049536619        7.6219614212        3.9669930855
 Ce         9.4483288458        7.7162509961        3.9313911539
 Ce        -3.8331320037       10.9639138106        3.9142007630
 Ce         0.0925424701       11.1078563610        3.8807523607
 Ce         3.9602292367       10.9681882631        3.9713003358
 Ce         7.6007728561       11.1479925092        3.8643034516
 Ce         0.0707214985       -0.0772572848        7.4363177199
 Ce         3.7401388927       -0.1359399366        7.1902825231
 Ce         7.7654797690       -0.0002587230        7.2741384672
 Ce        11.6581711961        0.1027844068        7.2449712840
 Ce        -1.8207994260        3.5081474913        6.9566215501
 Ce         1.9783926367        3.3093749084        7.3342895677
 Ce         5.7370338479        3.2017770581        6.9257287693
 Ce         9.6321261101        3.3585566848        7.0904061142
 Ce        -3.9652536780        6.7005677669        7.0524320939
 Ce        -0.1506946174        6.6688405414        7.1338255484
 Ce         3.7431159912        6.5881578569        7.0362434751
 Ce         7.4822767159        6.5129580203        7.2846332768
 Ce        -5.9188738139        9.9561326839        7.0222649780
 Ce        -1.8188732581       10.0986926707        7.0701634325
 Ce         1.9921988394       10.0964311591        7.1701870499
 Ce         5.6846865861        9.8474985872        7.4415663013
 Pt        12.8298905541        1.9321865730        9.3357065160
 Pt         0.9936658837        5.4640341660        9.7769562755
 Pt        -0.0803721073        8.0641120978        9.9065008792
 Pt         7.1203988435       13.6220197439       10.0428194793
 Pt        -0.0517437802        2.9392998646        9.8876530867
 Pt        -2.4847533209        8.5796505651        9.2426158652
 Pt         2.8197113582        3.7294736679       10.6201707024
 Pt         3.4343429888        6.4792337063       10.5393860628
 Pt         5.2558760412        4.8306888099        9.8707466432
 Pt         1.7498320312        1.3022244866       11.2167579288
 Pt         4.1634011257        1.4154745587        9.7832095645
 Pt        -0.1215865818        6.4853104766       11.8819150450
 Pt         6.5723240813        2.5151230782        9.6897498606
 Pt         0.6232652745        3.9067037436       12.1200020474
 Pt         5.5298915029        0.5700225955       11.6890446470
 Pt         2.2549933175        6.0255327038       12.8382503387
 Pt         5.1676967481        3.0707290247       11.8072743928
 Pt         0.0884118720        5.2244829337       14.2212631668
 Pt         1.1684910847        2.1417516156       13.9191735814
 Pt         4.7912280354        5.4565568681       12.6453072547
 Pt         3.4556675293        1.0549205191       13.1311378984
 Pt         3.2379297136        3.5904072700       13.5905628294
     166
 i =       92, time =       92.000, E =     -6045.8884458451
  O         0.0000000000        0.0000000000        0.0000000000
  O         3.8260000000        0.0000000000        0.0000000000
  O         7.6520000000        0.0000000000        0.0000000000
  O        11.4780000000        0.0000000000        0.0000000000
  O        -1.9130000000        3.3140000000        0.0000000000
  O         1.9130000000        3.3140000000        0.0000000000
  O         5.7390000000        3.3140000000        0.0000000000
  O         9.5650000000        3.3140000000        0.0000000000
  O        -3.8260000000        6.6270000000        0.0000000000
  O         0.0000000000        6.6270000000        0.0000000000
  O         3.8260000000        6.6270000000        0.0000000000
  O         7.6520000000        6.6270000000        0.0000000000
  O        -5.7390000000        9.9410000000        0.0000000000
  O        -1.9130000000        9.9410000000        0.0000000000
  O         1.9130000000        9.9410000000        0.0000000000
  O         5.7390000000        9.9410000000        0.0000000000
  O         1.9130000000        1.1050000000        1.5620000000
  O         5.7390000000        1.1050000000        1.5620000000
  O         9.5650000000        1.1050000000        1.5620000000
  O        13.3920000000        1.1050000000        1.5620000000
  O         0.0000000000        4.4180000000        1.5620000000
  O         3.8260000000        4.4180000000        1.5620000000
  O         7.6520000000        4.4180000000        1.5620000000
  O        11.4780000000        4.4180000000        1.5620000000
  O        -1.9130000000        7.7320000000        1.5620000000
  O         1.9130000000        7.7320000000        1.5620000000
  O         5.7390000000        7.7320000000        1.5620000000
  O         9.5650000000        7.7320000000        1.5620000000
  O        -3.8260000000       11.0450000000        1.5620000000
  O         0.0000000000       11.0450000000        1.5620000000
  O         3.8260000000       11.0450000000        1.5620000000
  O         7.6520000000       11.0450000000        1.5620000000
  O         0.0000000000        2.2090000000        3.1240000000
  O         3.8260000000        2.2090000000        3.1240000000
  O         7.6520000000        2.2090000000        3.1240000000
  O        11.4780000000        2.2090000000        3.1240000000
  O        -1.9130000000        5.5230000000        3.1240000000
  O         1.9130000000        5.5230000000        3.1240000000
  O         5.7390000000        5.5230000000        3.1240000000
  O         9.5650000000        5.5230000000        3.1240000000
  O        -3.8260000000        8.8360000000        3.1240000000
  O         0.0000000000        8.8360000000        3.1240000000
  O         3.8260000000        8.8360000000        3.1240000000
  O         7.6520000000        8.8360000000        3.1240000000
  O        -5.7390000000       12.1500000000        3.1240000000
  O        -1.9130000000       12.1500000000        3.1240000000
  O         1.9130000000       12.1500000000        3.1240000000
  O         5.7390000000       12.1500000000        3.1240000000
  O         0.1137397608       -0.1309987428        4.7337446888
  O         3.9317121988        0.0010525863        4.8625701666
  O         7.5443851145        0.1054272953        4.7286269678
  O        11.5499305279       -0.0757491328        4.6816603621
  O        -1.8129957187        3.3620815752        4.7413284760
  O         2.0493678440        3.1752676531        4.6609051606
  O         5.6597319058        3.3424234154        4.6250222409
  O         9.5007663552        3.1530113021        4.7063123665
  O        -4.1056536109        6.4684238111        4.6219052075
  O         0.0017214966        6.8377955135        4.7796305677
  O         3.8393011851        6.4971803282        4.8054847076
  O         7.6129210210        6.6150920962        4.8947390750
  O        -5.8331962528        9.9715726451        4.6937862114
  O        -1.8506994292        9.9289087508        4.5763846775
  O         2.0403578398       10.0665509946        4.7556226203
  O         5.7635525646        9.6950172635        4.6190833406
  O         1.8701826831        1.0869439304        6.4177409129
  O         5.7293165683        1.0492366116        6.4865500663
  O         9.5757362497        0.8734509300        6.5232132123
  O        13.3699706443        1.1387942685        6.2639294766
  O         0.2518534182        4.4265890874        6.3196023488
  O         3.8485113224        4.4029306766        6.4225100829
  O         7.6565606066        4.3117254907        6.3738312028
  O        11.3084098760        4.3125256832        6.2931439682
  O        -1.9981021162        7.8103828443        6.3483263910
  O         2.0175437141        7.8145106065        6.2692580187
  O         5.6448453590        7.7608332258        6.4081585202
  O         9.4903731925        7.7479837696        6.2792136187
  O        -3.7859353364       11.0257847813        6.2376912180
  O        -0.0093846950       11.2381052569        6.2688705305
  O         4.0214828145       11.1189229784        6.4764480857
  O         7.6159838944       11.0379173415        6.3910098674
  O         0.1201161416        2.1422675308        7.8435533435
  O         3.8364621762        2.0405591616        7.8178603754
  O         7.7939021490        2.1504898549        8.2048238066
  O        11.1774261452        2.0972399533        8.2509053203
  O        -1.9697354768        5.6303873749        7.6796427599
  O         1.9116281864        5.6716684620        7.9841758708
  O         5.7008774209        5.4263430755        7.9985665647
  O         9.4928258617        5.7284244813        7.9475563036
  O        -4.1309209982        8.8861474640        8.1266061578
  O         0.1996395588        9.2140854072        8.0950074623
  O         3.8499027177        8.9109239252        7.9939948849
  O         7.4782563198        8.7364358787        7.9373057247
  O        -5.7996031944       11.9927469595        7.9101636105
  O        -1.8065430075       12.1550170735        8.0339374257
  O         1.8683209278       11.8594558375        8.1069462336
  O         5.8451612001       12.1187912779        8.3076185536
 Ce         0.0000000000        2.2090000000        0.7810000000
 Ce         3.8260000000        2.2090000000        0.7810000000
 Ce         7.6520000000        2.2090000000        0.7810000000
 Ce        11.4780000000        2.2090000000        0.7810000000
 Ce        -1.9130000000        5.5230000000        0.7810000000
 Ce         1.9130000000        5.5230000000        0.7810000000
 Ce         5.7390000000        5.5230000000        0.7810000000
 Ce         9.5650000000        5.5230000000        0.7810000000
 Ce        -3.8260000000        8.8360000000        0.7810000000
 Ce         0.0000000000        8.8360000000        0.7810000000
 Ce         3.8260000000        8.8360000000        0.7810000000
 Ce         7.6520000000        8.8360000000        0.7810000000
 Ce        -5.7390000000       12.1500000000        0.7810000000
 Ce        -1.9130000000       12.1500000000        0.7810000000
 Ce         1.9130000000       12.1500000000        0.7810000000
 Ce         5.7390000000       12.1500000000        0.7810000000
 Ce         1.9727620237        1.0286476968        4.0417165911
 Ce         5.8056432880        1.0547797651        3.9025515949
 Ce         9.7127170766        1.0610844990        3.9783262933
 Ce        13.5089603019        1.1545843410        3.9513558094
 Ce         0.0758416749        4.4058505575        3.8553172125
 Ce         3.7261982616        4.3466524081        3.8484999411
 Ce         7.6268962350        4.3595564573        3.9081191675
 Ce        11.3991701722        4.4490585432        3.8462021522
 Ce        -1.8127695863        7.7684070190        3.8523197378
 Ce         1.9838581154        7.7595364434        4.0338636325
 Ce         5.8041664321        7.6228113716        3.9676578187
 Ce         9.4487069156        7.7152241801        3.9287924629
 Ce        -3.8338365690       10.9652912474        3.9139526177
 Ce         0.0930717431       11.1077954683        3.8818528677
 Ce         3.9585242407       10.9691244596        3.9702289376
 Ce         7.6032782170       11.1459994945        3.8684261042
 Ce         0.0708386943       -0.0765899883        7.4363931017
 Ce         3.7413910745       -0.1396995774        7.1896799488
 Ce         7.7629836185       -0.0021469172        7.2742187405
 Ce        11.6601541516        0.1033723232        7.2469998643
 Ce        -1.8207526094        3.5090166627        6.9591604499
 Ce         1.9750855433        3.3074577777        7.3339617554
 Ce         5.7380515854        3.2038444366        6.9263564231
 Ce         9.6306575055        3.3627639638        7.0892311840
 Ce        -3.9659992047        6.6989086046        7.0551782894
 Ce        -0.1492842509        6.6701151462        7.1362898254
 Ce         3.7426564614        6.5911090514        7.0363981077
 Ce         7.4844307702        6.5140798143        7.2831612230
 Ce        -5.9200621307        9.9562611116        7.0253805927
 Ce        -1.8188598356       10.1012509607        7.0721753494
 Ce         1.9919592216       10.0930438021        7.1727351471
 Ce         5.6865591298        9.8467031270        7.4432979438
 Pt        12.8303990292        1.9334502243        9.3359876983
 Pt         0.9944576747        5.4664249539        9.7774858117
 Pt        -0.0804605914        8.0636183933        9.9049576367
 Pt         7.1173235441       13.6225081129       10.0424957927
 Pt        -0.0550012428        2.9376081039        9.8901227643
 Pt        -2.4855862306        8.5825162138        9.2415942264
 Pt         2.8181766853        3.7320489305       10.6218352957
 Pt         3.4330933426        6.4814006515       10.5370383259
 Pt         5.2566249574        4.8302829237        9.8718946417
 Pt         1.7498866064        1.3014768249       11.2170640940
 Pt         4.1633498369        1.4143686379        9.7834499741
 Pt        -0.1217677919        6.4848138049       11.8844929437
 Pt         6.5735688301        2.5158612600        9.6884428286
 Pt         0.6240830332        3.9045279372       12.1196889215
 Pt         5.5321666257        0.5699686638       11.6887886459
 Pt         2.2530857405        6.0243817624       12.8356286786
 Pt         5.1687785527        3.0689798246       11.8084526928
 Pt         0.0893230895        5.2275348152       14.2208572295
 Pt         1.1691187274        2.1391729862       13.9184587286
 Pt         4.7912197675        5.4571091397       12.6447190072
 Pt         3.4538417626        1.0540460674       13.1290234814
 Pt         3.2369629288        3.5898535222       13.5891605764
     166
 i =       93, time =       93.000, E =     -6045.8895000881
  O         0.0000000000        0.0000000000        0.0000000000
  O         3.8260000000        0.0000000000        0.0000000000
  O         7.6520000000        0.0000000000        0.0000000000
  O        11.4780000000        0.0000000000        0.0000000000
  O        -1.9130000000        3.3140000000        0.0000000000
  O         1.9130000000        3.3140000000        0.0000000000
  O         5.7390000000        3.3140000000        0.0000000000
  O         9.5650000000        3.3140000000        0.0000000000
  O        -3.8260000000        6.6270000000        0.0000000000
  O         0.0000000000        6.6270000000        0.0000000000
  O         3.8260000000        6.6270000000        0.0000000000
  O         7.6520000000        6.6270000000        0.0000000000
  O        -5.7390000000        9.9410000000        0.0000000000
  O        -1.9130000000        9.9410000000        0.0000000000
  O         1.9130000000        9.9410000000        0.0000000000
  O         5.7390000000        9.9410000000        0.0000000000
  O         1.9130000000        1.1050000000        1.5620000000
  O         5.7390000000        1.1050000000        1.5620000000
  O         9.5650000000        1.1050000000        1.5620000000
  O        13.3920000000        1.1050000000        1.5620000000
  O         0.0000000000        4.4180000000        1.5620000000
  O         3.8260000000        4.4180000000        1.5620000000
  O         7.6520000000        4.4180000000        1.5620000000
  O        11.4780000000        4.4180000000        1.5620000000
  O        -1.9130000000        7.7320000000        1.5620000000
  O         1.9130000000        7.7320000000        1.5620000000
  O         5.7390000000        7.7320000000        1.5620000000
  O         9.5650000000        7.7320000000        1.5620000000
  O        -3.8260000000       11.0450000000        1.5620000000
  O         0.0000000000       11.0450000000        1.5620000000
  O         3.8260000000       11.0450000000        1.5620000000
  O         7.6520000000       11.0450000000        1.5620000000
  O         0.0000000000        2.2090000000        3.1240000000
  O         3.8260000000        2.2090000000        3.1240000000
  O         7.6520000000        2.2090000000        3.1240000000
  O        11.4780000000        2.2090000000        3.1240000000
  O        -1.9130000000        5.5230000000        3.1240000000
  O         1.9130000000        5.5230000000        3.1240000000
  O         5.7390000000        5.5230000000        3.1240000000
  O         9.5650000000        5.5230000000        3.1240000000
  O        -3.8260000000        8.8360000000        3.1240000000
  O         0.0000000000        8.8360000000        3.1240000000
  O         3.8260000000        8.8360000000        3.1240000000
  O         7.6520000000        8.8360000000        3.1240000000
  O        -5.7390000000       12.1500000000        3.1240000000
  O        -1.9130000000       12.1500000000        3.1240000000
  O         1.9130000000       12.1500000000        3.1240000000
  O         5.7390000000       12.1500000000        3.1240000000
  O         0.1085258719       -0.1314561281        4.7257778327
  O         3.9262483729        0.0011988126        4.8566941710
  O         7.5596918132        0.1058050320        4.7225581566
  O        11.5567342227       -0.0807806084        4.6763954056
  O        -1.8137045965        3.3605340460        4.7569196567
  O         2.0440599997        3.1756643520        4.6637343156
  O         5.6585193476        3.3360143769        4.6149434568
  O         9.4976764565        3.1574324499        4.6966492797
  O        -4.1015216794        6.4688122979        4.6223872853
  O         0.0033059766        6.8435195862        4.7844831653
  O         3.8352341480        6.4983834937        4.8085953039
  O         7.6113060105        6.6083185611        4.8934161055
  O        -5.8348213316        9.9639727325        4.6952273205
  O        -1.8487682902        9.9286893493        4.5799391094
  O         2.0483715644       10.0687927923        4.7565116733
  O         5.7609785693        9.6923372979        4.6195396750
  O         1.8763186067        1.0886356528        6.4221655031
  O         5.7244078717        1.0377438841        6.4875712381
  O         9.5708892687        0.8813362748        6.5108778051
  O        13.3650385229        1.1367531472        6.2710591794
  O         0.2532098025        4.4311631709        6.3135151230
  O         3.8458393433        4.4016162080        6.4208533476
  O         7.6631566934        4.3134853540        6.3685570859
  O        11.3051289159        4.3225892264        6.2937404237
  O        -2.0004976605        7.8161177040        6.3429479111
  O         2.0161899512        7.8163207248        6.2575890237
  O         5.6484078353        7.7705179755        6.4157635097
  O         9.4949927090        7.7431371904        6.2786783751
  O        -3.7807953143       11.0360175629        6.2440879484
  O        -0.0078683476       11.2376967553        6.2647536713
  O         4.0261125996       11.1189174068        6.4812337676
  O         7.6146223512       11.0428084987        6.3861389543
  O         0.1183481509        2.1342819294        7.8446540873
  O         3.8370732984        2.0391566918        7.8167031954
  O         7.7922152444        2.1444430185        8.2056536884
  O        11.1814114402        2.0889035580        8.2534355286
  O        -1.9679604040        5.6284197099        7.6810074896
  O         1.9093966921        5.6677024684        7.9853107020
  O         5.7003110843        5.4268448502        7.9912987170
  O         9.4958097275        5.7364155620        7.9482062893
  O        -4.1313269096        8.8801740152        8.1249591883
  O         0.1919798554        9.2193152266        8.0906103091
  O         3.8538182817        8.9078962766        8.0052080995
  O         7.4786171240        8.7250487068        7.9305612137
  O        -5.7923437483       11.9915535686        7.9017823362
  O        -1.8084042331       12.1509297043        8.0382509294
  O         1.8686531473       11.8532335334        8.1082483002
  O         5.8421439367       12.1172091549        8.3076336526
 Ce         0.0000000000        2.2090000000        0.7810000000
 Ce         3.8260000000        2.2090000000        0.7810000000
 Ce         7.6520000000        2.2090000000        0.7810000000
 Ce        11.4780000000        2.2090000000        0.7810000000
 Ce        -1.9130000000        5.5230000000        0.7810000000
 Ce         1.9130000000        5.5230000000        0.7810000000
 Ce         5.7390000000        5.5230000000        0.7810000000
 Ce         9.5650000000        5.5230000000        0.7810000000
 Ce        -3.8260000000        8.8360000000        0.7810000000
 Ce         0.0000000000        8.8360000000        0.7810000000
 Ce         3.8260000000        8.8360000000        0.7810000000
 Ce         7.6520000000        8.8360000000        0.7810000000
 Ce        -5.7390000000       12.1500000000        0.7810000000
 Ce        -1.9130000000       12.1500000000        0.7810000000
 Ce         1.9130000000       12.1500000000        0.7810000000
 Ce         5.7390000000       12.1500000000        0.7810000000
 Ce         1.9716316304        1.0290203579        4.0427079100
 Ce         5.8049715682        1.0539627780        3.9026194131
 Ce         9.7115076404        1.0626171542        3.9764371599
 Ce        13.5081510613        1.1514392253        3.9490038232
 Ce         0.0757310005        4.4052114481        3.8547817624
 Ce         3.7287415820        4.3464258646        3.8517282515
 Ce         7.6295381987        4.3604763921        3.9094797000
 Ce        11.3972269300        4.4486957453        3.8474266125
 Ce        -1.8158210230        7.7687658018        3.8485205092
 Ce         1.9828093135        7.7607114471        4.0313438925
 Ce         5.8033274009        7.6237447151        3.9683201771
 Ce         9.4491229157        7.7142459746        3.9262045036
 Ce        -3.8345177486       10.9667113485        3.9137135084
 Ce         0.0935321328       11.1077249348        3.8829945788
 Ce         3.9567816161       10.9700638699        3.9691689054
 Ce         7.6058321786       11.1438624504        3.8726084901
 Ce         0.0709132064       -0.0759483268        7.4363681089
 Ce         3.7427421891       -0.1434503368        7.1890363965
 Ce         7.7603597428       -0.0041131535        7.2742948186
 Ce        11.6621162043        0.1038248911        7.2490016137
 Ce        -1.8206634406        3.5097972072        6.9617620334
 Ce         1.9717870614        3.3055032092        7.3335945964
 Ce         5.7390337219        3.2058826429        6.9270410680
 Ce         9.6290726346        3.3669199455        7.0881223939
 Ce        -3.9667616124        6.6973183872        7.0579497059
 Ce        -0.1478241746        6.6714721282        7.1387324140
 Ce         3.7422608639        6.5941549632        7.0366081812
 Ce         7.4866997944        6.5153270069        7.2816093465
 Ce        -5.9212001208        9.9563171410        7.0285043005
 Ce        -1.8188572098       10.1038370156        7.0741952992
 Ce         1.9917740773       10.0895717462        7.1752362442
 Ce         5.6884343863        9.8459593492        7.4449468624
 Pt        12.8309511935        1.9347380944        9.3362931594
 Pt         0.9952420068        5.4688692400        9.7780366710
 Pt        -0.0805383745        8.0630690583        9.9033954154
 Pt         7.1142565271       13.6229791304       10.0422123596
 Pt        -0.0582507211        2.9359030100        9.8925641810
 Pt        -2.4864035793        8.5853476374        9.2405976982
 Pt         2.8166365362        3.7346586202       10.6234804853
 Pt         3.4318107822        6.4835505621       10.5347168030
 Pt         5.2573750709        4.8298626581        9.8730710404
 Pt         1.7499426175        1.3007328291       11.2173749199
 Pt         4.1632679340        1.4132768865        9.7836625204
 Pt        -0.1219549753        6.4843385575       11.8871106753
 Pt         6.5747948427        2.5165949006        9.6871905798
 Pt         0.6249096889        3.9023450469       12.1193625830
 Pt         5.5344482873        0.5698935163       11.6885512912
 Pt         2.2511587181        6.0232033960       12.8330247586
 Pt         5.1698537764        3.0672200167       11.8096612831
 Pt         0.0902540623        5.2305942628       14.2204360641
 Pt         1.1697430878        2.1365852043       13.9177286139
 Pt         4.7912178303        5.4576830120       12.6441079427
 Pt         3.4519987389        1.0531710068       13.1268911637
 Pt         3.2359853612        3.5893426293       13.5877532231
     166
 i =       94, time =       94.000, E =     -6045.8907342452
  O         0.0000000000        0.0000000000        0.0000000000
  O         3.8260000000        0.0000000000        0.0000000000
  O         7.6520000000        0.0000000000        0.0000000000
  O        11.4780000000        0.0000000000        0.0000000000
  O        -1.9130000000        3.3140000000        0.0000000000
  O         1.9130000000        3.3140000000        0.0000000000
  O         5.7390000000        3.3140000000        0.0000000000
  O         9.5650000000        3.3140000000        0.0000000000
  O        -3.8260000000        6.6270000000        0.0000000000
  O         0.0000000000        6.6270000000        0.0000000000
  O         3.8260000000        6.6270000000        0.0000000000
  O         7.6520000000        6.6270000000        0.0000000000
  O        -5.7390000000        9.9410000000        0.0000000000
  O        -1.9130000000        9.9410000000        0.0000000000
  O         1.9130000000        9.9410000000        0.0000000000
  O         5.7390000000        9.9410000000        0.0000000000
  O         1.9130000000        1.1050000000        1.5620000000
  O         5.7390000000        1.1050000000        1.5620000000
  O         9.5650000000        1.1050000000        1.5620000000
  O        13.3920000000        1.1050000000        1.5620000000
  O         0.0000000000        4.4180000000        1.5620000000
  O         3.8260000000        4.4180000000        1.5620000000
  O         7.6520000000        4.4180000000        1.5620000000
  O        11.4780000000        4.4180000000        1.5620000000
  O        -1.9130000000        7.7320000000        1.5620000000
  O         1.9130000000        7.7320000000        1.5620000000
  O         5.7390000000        7.7320000000        1.5620000000
  O         9.5650000000        7.7320000000        1.5620000000
  O        -3.8260000000       11.0450000000        1.5620000000
  O         0.0000000000       11.0450000000        1.5620000000
  O         3.8260000000       11.0450000000        1.5620000000
  O         7.6520000000       11.0450000000        1.5620000000
  O         0.0000000000        2.2090000000        3.1240000000
  O         3.8260000000        2.2090000000        3.1240000000
  O         7.6520000000        2.2090000000        3.1240000000
  O        11.4780000000        2.2090000000        3.1240000000
  O        -1.9130000000        5.5230000000        3.1240000000
  O         1.9130000000        5.5230000000        3.1240000000
  O         5.7390000000        5.5230000000        3.1240000000
  O         9.5650000000        5.5230000000        3.1240000000
  O        -3.8260000000        8.8360000000        3.1240000000
  O         0.0000000000        8.8360000000        3.1240000000
  O         3.8260000000        8.8360000000        3.1240000000
  O         7.6520000000        8.8360000000        3.1240000000
  O        -5.7390000000       12.1500000000        3.1240000000
  O        -1.9130000000       12.1500000000        3.1240000000
  O         1.9130000000       12.1500000000        3.1240000000
  O         5.7390000000       12.1500000000        3.1240000000
  O         0.1028460333       -0.1309751702        4.7179863237
  O         3.9202112512        0.0013523629        4.8504924620
  O         7.5758805796        0.1059723737        4.7166777008
  O        11.5634355597       -0.0852723419        4.6714530205
  O        -1.8145514113        3.3592175591        4.7724237973
  O         2.0380823924        3.1766333598        4.6669449142
  O         5.6577965914        3.3293921432        4.6053893616
  O         9.4948441473        3.1623607993        4.6874189964
  O        -4.0963380217        6.4697325037        4.6236629138
  O         0.0049275048        6.8483689767        4.7895062668
  O         3.8310004082        6.4998447485        4.8114287753
  O         7.6096018902        6.6011004710        4.8918193994
  O        -5.8361518399        9.9563421999        4.6967979783
  O        -1.8468453564        9.9286121412        4.5840242862
  O         2.0560541175       10.0706959876        4.7574331088
  O         5.7583006555        9.6908285511        4.6202986929
  O         1.8826561528        1.0901330881        6.4265049091
  O         5.7200449001        1.0267857071        6.4881359561
  O         9.5666700796        0.8899447028        6.4979957704
  O        13.3601701357        1.1349119487        6.2782749903
  O         0.2537648427        4.4359828695        6.3072218501
  O         3.8428462741        4.3999694098        6.4191232632
  O         7.6696802270        4.3151540657        6.3631797690
  O        11.3027725061        4.3328717259        6.2944078740
  O        -2.0028347754        7.8219213514        6.3370422554
  O         2.0144853397        7.8178396433        6.2460913517
  O         5.6518694422        7.7793707157        6.4233416504
  O         9.4997189436        7.7385128351        6.2781490261
  O        -3.7757718940       11.0459420580        6.2506462990
  O        -0.0062219360       11.2368128265        6.2603830056
  O         4.0307662319       11.1191491876        6.4856934543
  O         7.6127490391       11.0476209010        6.3812295030
  O         0.1163206924        2.1274153504        7.8460005990
  O         3.8373625366        2.0382146117        7.8160223963
  O         7.7911766097        2.1384181825        8.2057023418
  O        11.1850765976        2.0809792637        8.2556500378
  O        -1.9662986511        5.6256621045        7.6823041045
  O         1.9069449126        5.6634192766        7.9861892069
  O         5.6998179614        5.4275462761        7.9839850803
  O         9.4988023273        5.7436509472        7.9487875106
  O        -4.1320760575        8.8740736923        8.1230346037
  O         0.1839208807        9.2239328159        8.0862156971
  O         3.8574891959        8.9045102910        8.0167452588
  O         7.4795435219        8.7135885761        7.9242680015
  O        -5.7847399945       11.9905000523        7.8937654757
  O        -1.8104843300       12.1465380819        8.0423031084
  O         1.8690828909       11.8483632327        8.1099049957
  O         5.8391095810       12.1157188855        8.3075423951
 Ce         0.0000000000        2.2090000000        0.7810000000
 Ce         3.8260000000        2.2090000000        0.7810000000
 Ce         7.6520000000        2.2090000000        0.7810000000
 Ce        11.4780000000        2.2090000000        0.7810000000
 Ce        -1.9130000000        5.5230000000        0.7810000000
 Ce         1.9130000000        5.5230000000        0.7810000000
 Ce         5.7390000000        5.5230000000        0.7810000000
 Ce         9.5650000000        5.5230000000        0.7810000000
 Ce        -3.8260000000        8.8360000000        0.7810000000
 Ce         0.0000000000        8.8360000000        0.7810000000
 Ce         3.8260000000        8.8360000000        0.7810000000
 Ce         7.6520000000        8.8360000000        0.7810000000
 Ce        -5.7390000000       12.1500000000        0.7810000000
 Ce        -1.9130000000       12.1500000000        0.7810000000
 Ce         1.9130000000       12.1500000000        0.7810000000
 Ce         5.7390000000       12.1500000000        0.7810000000
 Ce         1.9705300780        1.0293892625        4.0436716655
 Ce         5.8042409504        1.0531425737        3.9027016984
 Ce         9.7102045860        1.0640922655        3.9745113104
 Ce        13.5072729760        1.1482154330        3.9466554024
 Ce         0.0756029593        4.4045792249        3.8542843063
 Ce         3.7313754724        4.3462040204        3.8549934754
 Ce         7.6321684920        4.3613998892        3.9108186797
 Ce        11.3953150518        4.4483118724        3.8486582484
 Ce        -1.8189479879        7.7691567463        3.8447720795
 Ce         1.9817495726        7.7619373979        4.0287603249
 Ce         5.8024362919        7.6247610515        3.9689785581
 Ce         9.4495781511        7.7133143723        3.9236303839
 Ce        -3.8351731779       10.9681731764        3.9134838466
 Ce         0.0939261389       11.1076452416        3.8841766351
 Ce         3.9550040296       10.9710068946        3.9681201463
 Ce         7.6084287966       11.1415812950        3.8768444778
 Ce         0.0709444720       -0.0753334664        7.4362429622
 Ce         3.7441937010       -0.1471868670        7.1883531708
 Ce         7.7576139270       -0.0061566717        7.2743623869
 Ce        11.6640549668        0.1041389253        7.2509737377
 Ce        -1.8205317492        3.5104898943        6.9644263448
 Ce         1.9684992098        3.3035109862        7.3331865722
 Ce         5.7399766708        3.2078869935        6.9277795497
 Ce         9.6273758907        3.3710193325        7.0870774570
 Ce        -3.9675363525        6.6958004021        7.0607422225
 Ce        -0.1463195612        6.6729122108        7.1411464876
 Ce         3.7419282641        6.5972943759        7.0368731396
 Ce         7.4890831356        6.5167003808        7.2799767624
 Ce        -5.9222854419        9.9562966589        7.0316319641
 Ce        -1.8188644302       10.1064466174        7.0762201213
 Ce         1.9916464722       10.0860163346        7.1776875023
 Ce         5.6903066522        9.8452688264        7.4465132248
 Pt        12.8315477704        1.9360502881        9.3366253045
 Pt         0.9960167561        5.4713664525        9.7786103204
 Pt        -0.0806058983        8.0624641243        9.9018154863
 Pt         7.1111987023       13.6234306305       10.0419692987
 Pt        -0.0614902746        2.9341864036        9.8949761073
 Pt        -2.4872039094        8.5881441735        9.2396272114
 Pt         2.8150929756        3.7373012685       10.6251052502
 Pt         3.4304965127        6.4856824272       10.5324217184
 Pt         5.2581263490        4.8294294234        9.8742721439
 Pt         1.7499999771        1.2999926000       11.2176891916
 Pt         4.1631554556        1.4122006148        9.7838471292
 Pt        -0.1221488251        6.4838859070       11.8897646307
 Pt         6.5759997302        2.5173248590        9.6859949769
 Pt         0.6257434973        3.9001562376       12.1190248166
 Pt         5.5367354482        0.5697968025       11.6883329308
 Pt         2.2492148770        6.0219984674       12.8304390280
 Pt         5.1709226196        3.0654505109       11.8108987453
 Pt         0.0912045538        5.2336602537       14.2200001848
 Pt         1.1703640942        2.1339882656       13.9169835457
 Pt         4.7912213148        5.4582779072       12.6434735965
 Pt         3.4501405317        1.0522942985       13.1247409228
 Pt         3.2349966727        3.5888751024       13.5863411772
     166
 i =       95, time =       95.000, E =     -6045.8922331360
  O         0.0000000000        0.0000000000        0.0000000000
  O         3.8260000000        0.0000000000        0.0000000000
  O         7.6520000000        0.0000000000        0.0000000000
  O        11.4780000000        0.0000000000        0.0000000000
  O        -1.9130000000        3.3140000000        0.0000000000
  O         1.9130000000        3.3140000000        0.0000000000
  O         5.7390000000        3.3140000000        0.0000000000
  O         9.5650000000        3.3140000000        0.0000000000
  O        -3.8260000000        6.6270000000        0.0000000000
  O         0.0000000000        6.6270000000        0.0000000000
  O         3.8260000000        6.6270000000        0.0000000000
  O         7.6520000000        6.6270000000        0.0000000000
  O        -5.7390000000        9.9410000000        0.0000000000
  O        -1.9130000000        9.9410000000        0.0000000000
  O         1.9130000000        9.9410000000        0.0000000000
  O         5.7390000000        9.9410000000        0.0000000000
  O         1.9130000000        1.1050000000        1.5620000000
  O         5.7390000000        1.1050000000        1.5620000000
  O         9.5650000000        1.1050000000        1.5620000000
  O        13.3920000000        1.1050000000        1.5620000000
  O         0.0000000000        4.4180000000        1.5620000000
  O         3.8260000000        4.4180000000        1.5620000000
  O         7.6520000000        4.4180000000        1.5620000000
  O        11.4780000000        4.4180000000        1.5620000000
  O        -1.9130000000        7.7320000000        1.5620000000
  O         1.9130000000        7.7320000000        1.5620000000
  O         5.7390000000        7.7320000000        1.5620000000
  O         9.5650000000        7.7320000000        1.5620000000
  O        -3.8260000000       11.0450000000        1.5620000000
  O         0.0000000000       11.0450000000        1.5620000000
  O         3.8260000000       11.0450000000        1.5620000000
  O         7.6520000000       11.0450000000        1.5620000000
  O         0.0000000000        2.2090000000        3.1240000000
  O         3.8260000000        2.2090000000        3.1240000000
  O         7.6520000000        2.2090000000        3.1240000000
  O        11.4780000000        2.2090000000        3.1240000000
  O        -1.9130000000        5.5230000000        3.1240000000
  O         1.9130000000        5.5230000000        3.1240000000
  O         5.7390000000        5.5230000000        3.1240000000
  O         9.5650000000        5.5230000000        3.1240000000
  O        -3.8260000000        8.8360000000        3.1240000000
  O         0.0000000000        8.8360000000        3.1240000000
  O         3.8260000000        8.8360000000        3.1240000000
  O         7.6520000000        8.8360000000        3.1240000000
  O        -5.7390000000       12.1500000000        3.1240000000
  O        -1.9130000000       12.1500000000        3.1240000000
  O         1.9130000000       12.1500000000        3.1240000000
  O         5.7390000000       12.1500000000        3.1240000000
  O         0.0967130917       -0.1295338661        4.7103873809
  O         3.9136095550        0.0015058785        4.8439374000
  O         7.5928354121        0.1059637397        4.7109626722
  O        11.5700103882       -0.0891942759        4.6668728491
  O        -1.8155342614        3.3581241908        4.7877571205
  O         2.0314774561        3.1781549710        4.6705018841
  O         5.6575804251        3.3225751904        4.5964638521
  O         9.4922994384        3.1678128058        4.6786505548
  O        -4.0901311594        6.4711766825        4.6256978820
  O         0.0065533927        6.8523460254        4.7947012286
  O         3.8266556105        6.5015524723        4.8139794802
  O         7.6078157028        6.5934701537        4.8899671139
  O        -5.8371614644        9.9487145260        4.6985179647
  O        -1.8449627811        9.9286996157        4.5886054937
  O         2.0633429629       10.0722540160        4.7583949196
  O         5.7555403547        9.6904862054        4.6213601798
  O         1.8891599678        1.0914254840        6.4307522927
  O         5.7162693937        1.0164196162        6.4882330081
  O         9.5630851893        0.8992568730        6.4846186703
  O        13.3553984513        1.1332654003        6.2855779141
  O         0.2535294356        4.4410273026        6.3007987741
  O         3.8395649320        4.3979968233        6.4173160223
  O         7.6760912411        4.3167144595        6.3577527844
  O        11.3013090716        4.3433415066        6.2951601678
  O        -2.0050996071        7.8277569315        6.3306259031
  O         2.0124614153        7.8190760312        6.2348542535
  O         5.6551788476        7.7873418574        6.4308811610
  O         9.5045045257        7.7341491416        6.2776087661
  O        -3.7708829144       11.0554936686        6.2573123795
  O        -0.0044453930       11.2354794155        6.2557650415
  O         4.0354323257       11.1196013157        6.4898577305
  O         7.6103895086       11.0523232672        6.3763406730
  O         0.1140578347        2.1217035769        7.8475810101
  O         3.8373522149        2.0377512539        7.8158289092
  O         7.7907836484        2.1324376143        8.2049585507
  O        11.1883550488        2.0735244885        8.2575329270
  O        -1.9647340784        5.6221472511        7.6835430088
  O         1.9043028142        5.6588412020        7.9867944578
  O         5.6993835910        5.4284187140        7.9766643384
  O         9.5017753947        5.7501069824        7.9493261592
  O        -4.1331877925        8.8678690555        8.1208258792
  O         0.1754806441        9.2279292549        8.0818609232
  O         3.8608822957        8.9007716017        8.0285120883
  O         7.4810774040        8.7021273452        7.9184832606
  O        -5.7768557070       11.9895590503        7.8860938299
  O        -1.8127586465       12.1418655017        8.0461204051
  O         1.8695966660       11.8448710826        8.1119120216
  O         5.8360924025       12.1143283745        8.3073592611
 Ce         0.0000000000        2.2090000000        0.7810000000
 Ce         3.8260000000        2.2090000000        0.7810000000
 Ce         7.6520000000        2.2090000000        0.7810000000
 Ce        11.4780000000        2.2090000000        0.7810000000
 Ce        -1.9130000000        5.5230000000        0.7810000000
 Ce         1.9130000000        5.5230000000        0.7810000000
 Ce         5.7390000000        5.5230000000        0.7810000000
 Ce         9.5650000000        5.5230000000        0.7810000000
 Ce        -3.8260000000        8.8360000000        0.7810000000
 Ce         0.0000000000        8.8360000000        0.7810000000
 Ce         3.8260000000        8.8360000000        0.7810000000
 Ce         7.6520000000        8.8360000000        0.7810000000
 Ce        -5.7390000000       12.1500000000        0.7810000000
 Ce        -1.9130000000       12.1500000000        0.7810000000
 Ce         1.9130000000       12.1500000000        0.7810000000
 Ce         5.7390000000       12.1500000000        0.7810000000
 Ce         1.9694578120        1.0297565436        4.0446061312
 Ce         5.8034565481        1.0523173216        3.9027975297
 Ce         9.7088079619        1.0655064883        3.9725510512
 Ce        13.5063246784        1.1449131400        3.9443130889
 Ce         0.0754580249        4.4039553961        3.8538276154
 Ce         3.7340942059        4.3459866744        3.8582922699
 Ce         7.6347851279        4.3623260280        3.9121313662
 Ce        11.3934363581        4.4479089779        3.8498972148
 Ce        -1.8221463859        7.7695785561        3.8410825053
 Ce         1.9806777233        7.7632131629        4.0261110768
 Ce         5.8014928907        7.6258600659        3.9696313217
 Ce         9.4500743753        7.7124269961        3.9210733246
 Ce        -3.8358005010       10.9696756000        3.9132640227
 Ce         0.0942564456       11.1075568074        3.8853980643
 Ce         3.9531941682       10.9719544728        3.9670824239
 Ce         7.6110619376       11.1391569014        3.8811280302
 Ce         0.0709317774       -0.0747458158        7.4360182774
 Ce         3.7457466723       -0.1509035466        7.1876317732
 Ce         7.7547533150       -0.0082760220        7.2744167946
 Ce        11.6659678179        0.1043118530        7.2529134488
 Ce        -1.8203578309        3.5110953662        6.9671532017
 Ce         1.9652233902        3.3014814699        7.3327359014
 Ce         5.7408774122        3.2098536483        6.9285690348
 Ce         9.6255723374        3.3750573036        7.0860937513
 Ce        -3.9683185916        6.6943573064        7.0635514667
 Ce        -0.1447760371        6.6744357184        7.1435251671
 Ce         3.7416573772        6.6005253839        7.0371924046
 Ce         7.4915803296        6.5181997359        7.2782628720
 Ce        -5.9233156946        9.9561956994        7.0347598218
 Ce        -1.8188809784       10.1090745267        7.0782466239
 Ce         1.9915787306       10.0823801217        7.1800869737
 Ce         5.6921706057        9.8446329422        7.4479974321
 Pt        12.8321891287        1.9373870397        9.3369864414
 Pt         0.9967792404        5.4739171327        9.7792078486
 Pt        -0.0806635634        8.0618035055        9.9002196022
 Pt         7.1081514241       13.6238604246       10.0417668445
 Pt        -0.0647175620        2.9324599348        9.8973578160
 Pt        -2.4879855690        8.5909054806        9.2386836491
 Pt         2.8135469821        3.7399743929       10.6267091420
 Pt         3.4291511124        6.4877953551       10.5301536257
 Pt         5.2588796261        4.8289840844        9.8754952651
 Pt         1.7500591729        1.2992569820       11.2180060443
 Pt         4.1630125360        1.4111411617        9.7840033965
 Pt        -0.1223504360        6.4834558001       11.8924515093
 Pt         6.5771821034        2.5180515653        9.6848564068
 Pt         0.6265823855        3.8979633761       12.1186778421
 Pt         5.5390269697        0.5696782735       11.6881342770
 Pt         2.2472574701        6.0207683279       12.8278708636
 Pt         5.1719849974        3.0636739462       11.8121636757
 Pt         0.0921748700        5.2367317109       14.2195497622
 Pt         1.1709815955        2.1313822613       13.9162233566
 Pt         4.7912293226        5.4588923553       12.6428155365
 Pt         3.4482684557        1.0514149202       13.1225727642
 Pt         3.2339969789        3.5884511351       13.5849249158
     166
 i =       96, time =       96.000, E =     -6045.8940619216
  O         0.0000000000        0.0000000000        0.0000000000
  O         3.8260000000        0.0000000000        0.0000000000
  O         7.6520000000        0.0000000000        0.0000000000
  O        11.4780000000        0.0000000000        0.0000000000
  O        -1.9130000000        3.3140000000        0.0000000000
  O         1.9130000000        3.3140000000        0.0000000000
  O         5.7390000000        3.3140000000        0.0000000000
  O         9.5650000000        3.3140000000        0.0000000000
  O        -3.8260000000        6.6270000000        0.0000000000
  O         0.0000000000        6.6270000000        0.0000000000
  O         3.8260000000        6.6270000000        0.0000000000
  O         7.6520000000        6.6270000000        0.0000000000
  O        -5.7390000000        9.9410000000        0.0000000000
  O        -1.9130000000        9.9410000000        0.0000000000
  O         1.9130000000        9.9410000000        0.0000000000
  O         5.7390000000        9.9410000000        0.0000000000
  O         1.9130000000        1.1050000000        1.5620000000
  O         5.7390000000        1.1050000000        1.5620000000
  O         9.5650000000        1.1050000000        1.5620000000
  O        13.3920000000        1.1050000000        1.5620000000
  O         0.0000000000        4.4180000000        1.5620000000
  O         3.8260000000        4.4180000000        1.5620000000
  O         7.6520000000        4.4180000000        1.5620000000
  O        11.4780000000        4.4180000000        1.5620000000
  O        -1.9130000000        7.7320000000        1.5620000000
  O         1.9130000000        7.7320000000        1.5620000000
  O         5.7390000000        7.7320000000        1.5620000000
  O         9.5650000000        7.7320000000        1.5620000000
  O        -3.8260000000       11.0450000000        1.5620000000
  O         0.0000000000       11.0450000000        1.5620000000
  O         3.8260000000       11.0450000000        1.5620000000
  O         7.6520000000       11.0450000000        1.5620000000
  O         0.0000000000        2.2090000000        3.1240000000
  O         3.8260000000        2.2090000000        3.1240000000
  O         7.6520000000        2.2090000000        3.1240000000
  O        11.4780000000        2.2090000000        3.1240000000
  O        -1.9130000000        5.5230000000        3.1240000000
  O         1.9130000000        5.5230000000        3.1240000000
  O         5.7390000000        5.5230000000        3.1240000000
  O         9.5650000000        5.5230000000        3.1240000000
  O        -3.8260000000        8.8360000000        3.1240000000
  O         0.0000000000        8.8360000000        3.1240000000
  O         3.8260000000        8.8360000000        3.1240000000
  O         7.6520000000        8.8360000000        3.1240000000
  O        -5.7390000000       12.1500000000        3.1240000000
  O        -1.9130000000       12.1500000000        3.1240000000
  O         1.9130000000       12.1500000000        3.1240000000
  O         5.7390000000       12.1500000000        3.1240000000
  O         0.0901412189       -0.1271184601        4.7029788064
  O         3.9064642949        0.0016503122        4.8370122141
  O         7.6104161031        0.1057886964        4.7053836388
  O        11.5764312410       -0.0925183273        4.6626933733
  O        -1.8166529208        3.3572426403        4.8029125522
  O         2.0242838003        3.1802047052        4.6743627262
  O         5.6578837316        3.3155922349        4.5882839305
  O         9.4900764818        3.1737997035        4.6704052249
  O        -4.0829393307        6.4731318609        4.6284542471
  O         0.0081512004        6.8554535729        4.8000603993
  O         3.8222615523        6.5034919634        4.8162395275
  O         7.6059586860        6.5854613156        4.8878777439
  O        -5.8378316586        9.9411328683        4.7004065314
  O        -1.8431519273        9.9289757496        4.5936359280
  O         2.0701838501       10.0734680001        4.7594092274
  O         5.7527212677        9.6912966573        4.6227241316
  O         1.8957899604        1.0925035514        6.4348944297
  O         5.7131291229        1.0066763573        6.4878499667
  O         9.5601322679        0.9092590784        6.4707468465
  O        13.3507497306        1.1318016957        6.2929537038
  O         0.2525134301        4.4462780023        6.2943258891
  O         3.8360321615        4.3957089917        6.4154235237
  O         7.6823578076        4.3181508092        6.3523167587
  O        11.3007011712        4.3539449752        6.2960110862
  O        -2.0072779112        7.8335919360        6.3237180025
  O         2.0101497719        7.8200447020        6.2240245631
  O         5.6582947085        7.7943820823        6.4383496732
  O         9.5092979986        7.7300842933        6.2770401854
  O        -3.7661574594       11.0645989847        6.2640531245
  O        -0.0025358831       11.2337253767        6.2509142983
  O         4.0400995306       11.1202579999        6.4937599441
  O         7.6075701724       11.0568873712        6.3715345638
  O         0.1115786170        2.1171611408        7.8493741742
  O         3.8370641119        2.0377814339        7.8161322360
  O         7.7910316956        2.1265158609        8.2034163085
  O        11.1911803546        2.0665804215        8.2590748297
  O        -1.9632522284        5.6179056463        7.6847314653
  O         1.9015072455        5.6539999576        7.9871013395
  O         5.6989980091        5.4294344029        7.9693500945
  O         9.5046955119        5.7557513485        7.9498480678
  O        -4.1346727914        8.8615843551        8.1183318336
  O         0.1666927956        9.2312980895        8.0775845667
  O         3.8639632878        8.8967000352        8.0404510410
  O         7.4832529325        8.6907439310        7.9132474006
  O        -5.7687659854       11.9887084992        7.8787603971
  O        -1.8151996506       12.1369369798        8.0497329384
  O         1.8701798170       11.8427705790        8.1142594431
  O         5.8331219515       12.1130440498        8.3070933594
 Ce         0.0000000000        2.2090000000        0.7810000000
 Ce         3.8260000000        2.2090000000        0.7810000000
 Ce         7.6520000000        2.2090000000        0.7810000000
 Ce        11.4780000000        2.2090000000        0.7810000000
 Ce        -1.9130000000        5.5230000000        0.7810000000
 Ce         1.9130000000        5.5230000000        0.7810000000
 Ce         5.7390000000        5.5230000000        0.7810000000
 Ce         9.5650000000        5.5230000000        0.7810000000
 Ce        -3.8260000000        8.8360000000        0.7810000000
 Ce         0.0000000000        8.8360000000        0.7810000000
 Ce         3.8260000000        8.8360000000        0.7810000000
 Ce         7.6520000000        8.8360000000        0.7810000000
 Ce        -5.7390000000       12.1500000000        0.7810000000
 Ce        -1.9130000000       12.1500000000        0.7810000000
 Ce         1.9130000000       12.1500000000        0.7810000000
 Ce         5.7390000000       12.1500000000        0.7810000000
 Ce         1.9684149590        1.0301246924        4.0455097570
 Ce         5.8026234379        1.0514854056        3.9029059875
 Ce         9.7073179058        1.0668570570        3.9705586096
 Ce        13.5053051665        1.1415329051        3.9419789477
 Ce         0.0752967784        4.4033417226        3.8534147535
 Ce         3.7368918520        4.3457737066        3.8616216385
 Ce         7.6373859794        4.3632539447        3.9134134119
 Ce        11.3915928500        4.4474894319        3.8511438787
 Ce        -1.8254121602        7.7700296048        3.8374603293
 Ce         1.9795923106        7.7645371050        4.0233943792
 Ce         5.8004969987        7.6270412139        3.9702769165
 Ce         9.4506136828        7.7115812083        3.9185366929
 Ce        -3.8363973526       10.9712173741        3.9130544748
 Ce         0.0945256184       11.1074598706        3.8866577188
 Ce         3.9513547959       10.9729075788        3.9660551173
 Ce         7.6137255510       11.1365907485        3.8854531756
 Ce         0.0708752743       -0.0741854353        7.4356944740
 Ce         3.7474020544       -0.1545936148        7.1868741960
 Ce         7.7517849830       -0.0104693666        7.2744530945
 Ce        11.6678517685        0.1043408429        7.2548172706
 Ce        -1.8201412394        3.5116160164        6.9699425232
 Ce         1.9619613355        3.2994158302        7.3322409749
 Ce         5.7417329074        3.2117796335        6.9294074224
 Ce         9.6236667777        3.3790299237        7.0851682157
 Ce        -3.9691025903        6.6929918769        7.0663732938
 Ce        -0.1431990370        6.6760424710        7.1458623745
 Ce         3.7414466895        6.6038452413        7.0375657652
 Ce         7.4941904404        6.5198239407        7.2764672347
 Ce        -5.9242881785        9.9560102912        7.0378844787
 Ce        -1.8189062390       10.1117150786        7.0802710114
 Ce         1.9915724291       10.0786662215        7.1824334482
 Ce         5.6940214308        9.8440524602        7.4494001477
 Pt        12.8328753257        1.9387488919        9.3373791035
 Pt         0.9975281517        5.4765203013        9.7798304082
 Pt        -0.0807114274        8.0610887031        9.8986078395
 Pt         7.1051159086       13.6242665726       10.0416057765
 Pt        -0.0679314035        2.9307239381        9.8997094480
 Pt        -2.4887490135        8.5936303068        9.2377682552
 Pt         2.8120003344        3.7426768368       10.6282923147
 Pt         3.4277758404        6.4898897176       10.5279128841
 Pt         5.2596355993        4.8285268791        9.8767379357
 Pt         1.7501205053        1.2985268855       11.2183243532
 Pt         4.1628396823        1.4100992187        9.7841312874
 Pt        -0.1225608739        6.4830487097       11.8951684112
 Pt         6.5783410740        2.5187744204        9.6837756785
 Pt         0.6274249305        3.8957680045       12.1183240448
 Pt         5.5413202843        0.5695393565       11.6879555363
 Pt         2.2452883014        6.0195131980       12.8253201348
 Pt         5.1730398853        3.0618924292       11.8134547551
 Pt         0.0931650150        5.2398075605       14.2190862197
 Pt         1.1715951187        2.1287668287       13.9154485094
 Pt         4.7912412621        5.4595252645       12.6421330218
 Pt         3.4463848074        1.0505338411       13.1203857994
 Pt         3.2329877398        3.5880691065       13.5835038430
     166
 i =       97, time =       97.000, E =     -6045.8958976656
  O         0.0000000000        0.0000000000        0.0000000000
  O         3.8260000000        0.0000000000        0.0000000000
  O         7.6520000000        0.0000000000        0.0000000000
  O        11.4780000000        0.0000000000        0.0000000000
  O        -1.9130000000        3.3140000000        0.0000000000
  O         1.9130000000        3.3140000000        0.0000000000
  O         5.7390000000        3.3140000000        0.0000000000
  O         9.5650000000        3.3140000000        0.0000000000
  O        -3.8260000000        6.6270000000        0.0000000000
  O         0.0000000000        6.6270000000        0.0000000000
  O         3.8260000000        6.6270000000        0.0000000000
  O         7.6520000000        6.6270000000        0.0000000000
  O        -5.7390000000        9.9410000000        0.0000000000
  O        -1.9130000000        9.9410000000        0.0000000000
  O         1.9130000000        9.9410000000        0.0000000000
  O         5.7390000000        9.9410000000        0.0000000000
  O         1.9130000000        1.1050000000        1.5620000000
  O         5.7390000000        1.1050000000        1.5620000000
  O         9.5650000000        1.1050000000        1.5620000000
  O        13.3920000000        1.1050000000        1.5620000000
  O         0.0000000000        4.4180000000        1.5620000000
  O         3.8260000000        4.4180000000        1.5620000000
  O         7.6520000000        4.4180000000        1.5620000000
  O        11.4780000000        4.4180000000        1.5620000000
  O        -1.9130000000        7.7320000000        1.5620000000
  O         1.9130000000        7.7320000000        1.5620000000
  O         5.7390000000        7.7320000000        1.5620000000
  O         9.5650000000        7.7320000000        1.5620000000
  O        -3.8260000000       11.0450000000        1.5620000000
  O         0.0000000000       11.0450000000        1.5620000000
  O         3.8260000000       11.0450000000        1.5620000000
  O         7.6520000000       11.0450000000        1.5620000000
  O         0.0000000000        2.2090000000        3.1240000000
  O         3.8260000000        2.2090000000        3.1240000000
  O         7.6520000000        2.2090000000        3.1240000000
  O        11.4780000000        2.2090000000        3.1240000000
  O        -1.9130000000        5.5230000000        3.1240000000
  O         1.9130000000        5.5230000000        3.1240000000
  O         5.7390000000        5.5230000000        3.1240000000
  O         9.5650000000        5.5230000000        3.1240000000
  O        -3.8260000000        8.8360000000        3.1240000000
  O         0.0000000000        8.8360000000        3.1240000000
  O         3.8260000000        8.8360000000        3.1240000000
  O         7.6520000000        8.8360000000        3.1240000000
  O        -5.7390000000       12.1500000000        3.1240000000
  O        -1.9130000000       12.1500000000        3.1240000000
  O         1.9130000000       12.1500000000        3.1240000000
  O         5.7390000000       12.1500000000        3.1240000000
  O         0.0831521660       -0.1237249919        4.6957550375
  O         3.8988106799        0.0017759598        4.8297199145
  O         7.6285141703        0.1054383961        4.6999090006
  O        11.5826719960       -0.0952209526        4.6589471143
  O        -1.8179071562        3.3565593024        4.8178468361
  O         2.0165338353        3.1827580675        4.6784820688
  O         5.6587090720        3.3084857383        4.5809543965
  O         9.4882129650        3.1803255146        4.6627592442
  O        -4.0748053121        6.4755825407        4.6318963582
  O         0.0096888472        6.8576935691        4.8055658221
  O         3.8178820441        6.5056446712        4.8182015331
  O         7.6040444062        6.5771152529        4.8855707352
  O        -5.8381489593        9.9336469207        4.7024851773
  O        -1.8414447837        9.9294637290        4.5990580602
  O         2.0765364501       10.0743427904        4.7604902068
  O         5.7498685440        9.6932357889        4.6243913859
  O         1.9024988985        1.0933605416        6.4389113881
  O         5.7106635434        0.9975704677        6.4869685957
  O         9.5578003868        0.9199297755        6.4564101193
  O        13.3462471096        1.1305052934        6.3003678852
  O         0.2507258524        4.4517194459        6.2878841406
  O         3.8322855363        4.3931199246        6.4134375554
  O         7.6884542496        4.3194468960        6.3468980849
  O        11.3008970741        4.3645917139        6.2969812899
  O        -2.0093570294        7.8393939082        6.3163533100
  O         2.0075835347        7.8207616571        6.2137745507
  O         5.6611840609        7.8004472113        6.4456901949
  O         9.5140535475        7.7263548352        6.2764244300
  O        -3.7616321857       11.0731922501        6.2708469246
  O        -0.0004889140       11.2315795719        6.2458556653
  O         4.0447567127       11.1210985783        6.4974342707
  O         7.6043212592       11.0612864240        6.3668719684
  O         0.1089009011        2.1138031164        7.8513641269
  O         3.8365166328        2.0383172703        7.8169381033
  O         7.7919141962        2.1206666285        8.2010694747
  O        11.1935020843        2.0601781131        8.2602735041
  O        -1.9618316745        5.6129633152        7.6858770310
  O         1.8985953655        5.6489327978        7.9870888026
  O         5.6986492287        5.4305698933        7.9620500828
  O         9.5075269800        5.7605418648        7.9503768638
  O        -4.1365307348        8.8552378264        8.1155521441
  O         0.1576081260        9.2340250866        8.0734130593
  O         3.8667023067        8.8923147246        8.0525621386
  O         7.4860915380        8.6795054103        7.9085845705
  O        -5.7605547952       11.9879353703        7.8717784995
  O        -1.8177779430       12.1317779424        8.0531630851
  O         1.8708216251       11.8420575683        8.1169303103
  O         5.8302291756       12.1118745364        8.3067550148
 Ce         0.0000000000        2.2090000000        0.7810000000
 Ce         3.8260000000        2.2090000000        0.7810000000
 Ce         7.6520000000        2.2090000000        0.7810000000
 Ce        11.4780000000        2.2090000000        0.7810000000
 Ce        -1.9130000000        5.5230000000        0.7810000000
 Ce         1.9130000000        5.5230000000        0.7810000000
 Ce         5.7390000000        5.5230000000        0.7810000000
 Ce         9.5650000000        5.5230000000        0.7810000000
 Ce        -3.8260000000        8.8360000000        0.7810000000
 Ce         0.0000000000        8.8360000000        0.7810000000
 Ce         3.8260000000        8.8360000000        0.7810000000
 Ce         7.6520000000        8.8360000000        0.7810000000
 Ce        -5.7390000000       12.1500000000        0.7810000000
 Ce        -1.9130000000       12.1500000000        0.7810000000
 Ce         1.9130000000       12.1500000000        0.7810000000
 Ce         5.7390000000       12.1500000000        0.7810000000
 Ce         1.9674012500        1.0304965344        4.0463808693
 Ce         5.8017468586        1.0506452447        3.9030260346
 Ce         9.7057348338        1.0681416112        3.9685361899
 Ce        13.5042134219        1.1380755635        3.9396548150
 Ce         0.0751196182        4.4027399847        3.8530488608
 Ce         3.7397623623        4.3455648669        3.8649785900
 Ce         7.6399688600        4.3641826492        3.9146604389
 Ce        11.3897867000        4.4470562459        3.8523987458
 Ce        -1.8287411198        7.7705082451        3.8339143616
 Ce         1.9784914610        7.7659074039        4.0206084218
 Ce         5.7994484279        7.6283043055        3.9709136444
 Ce         9.4511986715        7.7107740876        3.9160239654
 Ce        -3.8369612376       10.9727971746        3.9128554751
 Ce         0.0947361352       11.1073546477        3.8879543255
 Ce         3.9494885708       10.9738674572        3.9650374133
 Ce         7.6164136661       11.1338850494        3.8898141123
 Ce         0.0707754631       -0.0736520831        7.4352719597
 Ce         3.7491608922       -0.1582499667        7.1860829719
 Ce         7.7487163707       -0.0127346643        7.2744669198
 Ce        11.6697039467        0.1042232247        7.2566816436
 Ce        -1.8198814413        3.5120544584        6.9727939464
 Ce         1.9587150000        3.2973153665        7.3316997038
 Ce         5.7425402626        3.2136622372        6.9302935397
 Ce         9.6216647463        3.3829339766        7.0842973412
 Ce        -3.9698819848        6.6917068937        7.0692032810
 Ce        -0.1415946444        6.6777319617        7.1481514512
 Ce         3.7412943163        6.6072508028        7.0379926344
 Ce         7.4969128111        6.5215710382        7.2745895780
 Ce        -5.9252000263        9.9557364738        7.0410027117
 Ce        -1.8189393346       10.1143625716        7.0822890988
 Ce         1.9916282376       10.0748788973        7.1847265832
 Ce         5.6958543703        9.8435281023        7.4507219761
 Pt        12.8336070139        1.9401365719        9.3378064288
 Pt         0.9982624805        5.4791740718        9.7804796033
 Pt        -0.0807498433        8.0603204835        9.8969803320
 Pt         7.1020929237       13.6246485085       10.0414863065
 Pt        -0.0711306597        2.9289783557        9.9020320797
 Pt        -2.4894956235        8.5963171556        9.2368822250
 Pt         2.8104553259        3.7454080921       10.6298545781
 Pt         3.4263721206        6.4919648481       10.5257003999
 Pt         5.2603937004        4.8280595862        9.8779967687
 Pt         1.7501813541        1.2978034541       11.2186413309
 Pt         4.1626365471        1.4090762911        9.7842309035
 Pt        -0.1227799249        6.4826650168       11.8979125369
 Pt         6.5794767128        2.5194929428        9.6827526369
 Pt         0.6282691621        3.8935709845       12.1179646570
 Pt         5.5436164780        0.5693782725       11.6877963734
 Pt         2.2433084394        6.0182326165       12.8227872202
 Pt         5.1740867312        3.0601078128       11.8147706769
 Pt         0.0941749060        5.2428867396       14.2186099788
 Pt         1.1722030315        2.1261422581       13.9146590529
 Pt         4.7912565301        5.4601773288       12.6414248833
 Pt         3.4444916106        1.0496505640       13.1181816753
 Pt         3.2319697878        3.5877291692       13.5820774938
     166
 i =       98, time =       98.000, E =     -6045.8978348454
  O         0.0000000000        0.0000000000        0.0000000000
  O         3.8260000000        0.0000000000        0.0000000000
  O         7.6520000000        0.0000000000        0.0000000000
  O        11.4780000000        0.0000000000        0.0000000000
  O        -1.9130000000        3.3140000000        0.0000000000
  O         1.9130000000        3.3140000000        0.0000000000
  O         5.7390000000        3.3140000000        0.0000000000
  O         9.5650000000        3.3140000000        0.0000000000
  O        -3.8260000000        6.6270000000        0.0000000000
  O         0.0000000000        6.6270000000        0.0000000000
  O         3.8260000000        6.6270000000        0.0000000000
  O         7.6520000000        6.6270000000        0.0000000000
  O        -5.7390000000        9.9410000000        0.0000000000
  O        -1.9130000000        9.9410000000        0.0000000000
  O         1.9130000000        9.9410000000        0.0000000000
  O         5.7390000000        9.9410000000        0.0000000000
  O         1.9130000000        1.1050000000        1.5620000000
  O         5.7390000000        1.1050000000        1.5620000000
  O         9.5650000000        1.1050000000        1.5620000000
  O        13.3920000000        1.1050000000        1.5620000000
  O         0.0000000000        4.4180000000        1.5620000000
  O         3.8260000000        4.4180000000        1.5620000000
  O         7.6520000000        4.4180000000        1.5620000000
  O        11.4780000000        4.4180000000        1.5620000000
  O        -1.9130000000        7.7320000000        1.5620000000
  O         1.9130000000        7.7320000000        1.5620000000
  O         5.7390000000        7.7320000000        1.5620000000
  O         9.5650000000        7.7320000000        1.5620000000
  O        -3.8260000000       11.0450000000        1.5620000000
  O         0.0000000000       11.0450000000        1.5620000000
  O         3.8260000000       11.0450000000        1.5620000000
  O         7.6520000000       11.0450000000        1.5620000000
  O         0.0000000000        2.2090000000        3.1240000000
  O         3.8260000000        2.2090000000        3.1240000000
  O         7.6520000000        2.2090000000        3.1240000000
  O        11.4780000000        2.2090000000        3.1240000000
  O        -1.9130000000        5.5230000000        3.1240000000
  O         1.9130000000        5.5230000000        3.1240000000
  O         5.7390000000        5.5230000000        3.1240000000
  O         9.5650000000        5.5230000000        3.1240000000
  O        -3.8260000000        8.8360000000        3.1240000000
  O         0.0000000000        8.8360000000        3.1240000000
  O         3.8260000000        8.8360000000        3.1240000000
  O         7.6520000000        8.8360000000        3.1240000000
  O        -5.7390000000       12.1500000000        3.1240000000
  O        -1.9130000000       12.1500000000        3.1240000000
  O         1.9130000000       12.1500000000        3.1240000000
  O         5.7390000000       12.1500000000        3.1240000000
  O         0.0757824624       -0.1193673164        4.6887200204
  O         3.8907020805        0.0018703679        4.8220883507
  O         7.6470403378        0.1049262780        4.6945137400
  O        11.5887118417       -0.0972878726        4.6556564969
  O        -1.8192974164        3.3560594449        4.8324135270
  O         2.0082563465        3.1857904905        4.6828125568
  O         5.6600486057        3.3013016834        4.5745448809
  O         9.4867463260        3.1873803064        4.6557791880
  O        -4.0657775146        6.4785179495        4.6359880923
  O         0.0111360005        6.8590735432        4.8111827554
  O         3.8135770634        6.5079912357        4.8198586046
  O         7.6020876033        6.5684898319        4.8830667644
  O        -5.8381070540        9.9263059929        4.7047745968
  O        -1.8398725195        9.9301848387        4.6048023974
  O         2.0823737516       10.0748854432        4.7616519945
  O         5.7470104932        9.6962663895        4.6263632456
  O         1.9092302867        1.0939911382        6.4427781157
  O         5.7089001396        0.9891146109        6.4855706914
  O         9.5560736572        0.9312327587        6.4417292567
  O        13.3419143923        1.1293574275        6.3077642161
  O         0.2481849447        4.4573379747        6.2815385318
  O         3.8283650126        4.3902449012        6.4113470810
  O         7.6943578148        4.3205833693        6.3415127363
  O        11.3018326631        4.3751783495        6.2980821600
  O        -2.0113290989        7.8451277859        6.3085932267
  O         2.0047959452        7.8212472773        6.2042477367
  O         5.6638211320        7.8055068194        6.4528235231
  O         9.5187297539        7.7229877971        6.2757421436
  O        -3.7573415076       11.0812241972        6.2776722953
  O         0.0017017849       11.2290727583        6.2406291636
  O         4.0493899010       11.1220947133        6.5009114104
  O         7.6006787407       11.0654957929        6.3624064773
  O         0.1060381089        2.1116298937        7.8535298259
  O         3.8357320463        2.0393653142        7.8182484321
  O         7.7934164192        2.1148966820        8.1979184888
  O        11.1952751233        2.0543369247        8.2611278729
  O        -1.9604539844        5.6073590153        7.6869894472
  O         1.8956025444        5.6436826855        7.9867339711
  O         5.6983288730        5.4318025083        7.9547736517
  O         9.5102350916        5.7644355020        7.9509342278
  O        -4.1387622937        8.8488498090        8.1124897388
  O         0.1482855901        9.2360965736        8.0693692743
  O         3.8690754693        8.8876383063        8.0648706846
  O         7.4895999927        8.6684704477        7.9045057652
  O        -5.7523049717       11.9872309239        7.8651828215
  O        -1.8204594359       12.1264140667        8.0564327013
  O         1.8715092860       11.8427063919        8.1199014336
  O         5.8274438687       12.1108240122        8.3063540101
 Ce         0.0000000000        2.2090000000        0.7810000000
 Ce         3.8260000000        2.2090000000        0.7810000000
 Ce         7.6520000000        2.2090000000        0.7810000000
 Ce        11.4780000000        2.2090000000        0.7810000000
 Ce        -1.9130000000        5.5230000000        0.7810000000
 Ce         1.9130000000        5.5230000000        0.7810000000
 Ce         5.7390000000        5.5230000000        0.7810000000
 Ce         9.5650000000        5.5230000000        0.7810000000
 Ce        -3.8260000000        8.8360000000        0.7810000000
 Ce         0.0000000000        8.8360000000        0.7810000000
 Ce         3.8260000000        8.8360000000        0.7810000000
 Ce         7.6520000000        8.8360000000        0.7810000000
 Ce        -5.7390000000       12.1500000000        0.7810000000
 Ce        -1.9130000000       12.1500000000        0.7810000000
 Ce         1.9130000000       12.1500000000        0.7810000000
 Ce         5.7390000000       12.1500000000        0.7810000000
 Ce         1.9664157210        1.0308752698        4.0472178922
 Ce         5.8008320888        1.0497956032        3.9031565177
 Ce         9.7040596921        1.0693583858        3.9664862584
 Ce        13.5030485778        1.1345424135        3.9373427371
 Ce         0.0749268405        4.4021519126        3.8527333765
 Ce         3.7426994548        4.3453599771        3.8683603741
 Ce         7.6425316191        4.3651110118        3.9158683197
 Ce        11.3880204594        4.4466121091        3.8536626311
 Ce        -1.8321290494        7.7710122739        3.8304533391
 Ce         1.9773731592        7.7673218128        4.0177515599
 Ce         5.7983469628        7.6296490772        3.9715398250
 Ce         9.4518320539        7.7100025484        3.9135385361
 Ce        -3.8374898904       10.9744137178        3.9126671209
 Ce         0.0948907234       11.1072413489        3.8892864073
 Ce         3.9475981977       10.9748358672        3.9640285636
 Ce         7.6191201668       11.1310430492        3.8942052349
 Ce         0.0706325283       -0.0731448312        7.4347516921
 Ce         3.7510238091       -0.1618647931        7.1852611244
 Ce         7.7455556134       -0.0150693720        7.2744538609
 Ce        11.6715214725        0.1039572506        7.2585035772
 Ce        -1.8195782690        3.5124129200        6.9757074765
 Ce         1.9554859604        3.2951821395        7.3311100610
 Ce         5.7432968605        3.2154994971        6.9312264879
 Ce         9.6195723029        3.3867665498        7.0834774350
 Ce        -3.9706504960        6.6905042674        7.0720372817
 Ce        -0.1399682480        6.6795027549        7.1503860159
 Ce         3.7411981894        6.6107383607        7.0384726141
 Ce         7.4997465781        6.5234381887        7.2726297464
 Ce        -5.9260487919        9.9553708350        7.0441114990
 Ce        -1.8189796650       10.1170114647        7.0842966769
 Ce         1.9917464054       10.0710237682        7.1869669511
 Ce         5.6976648681        9.8430607149        7.4519637071
 Pt        12.8343836506        1.9415503253        9.3382709693
 Pt         0.9989809476        5.4818763608        9.7811570235
 Pt        -0.0807799368        8.0594995523        9.8953381500
 Pt         7.0990830521       13.6250046619       10.0414084839
 Pt        -0.0743142768        2.9272242848        9.9043260252
 Pt        -2.4902258340        8.5989648011        9.2360262417
 Pt         2.8089150631        3.7481671067       10.6313950231
 Pt         3.4249415596        6.4940204567       10.5235166421
 Pt         5.2611532534        4.8275844203        9.8792684946
 Pt         1.7502400224        1.2970872470       11.2189550468
 Pt         4.1624034478        1.4080730550        9.7843026866
 Pt        -0.1230077993        6.4823061597       11.9006809959
 Pt         6.5805892143        2.5202068821        9.6817868778
 Pt         0.6291131578        3.8913733601       12.1176022889
 Pt         5.5459152338        0.5691945721       11.6876567816
 Pt         2.2413197156        6.0169259678       12.8202733903
 Pt         5.1751256680        3.0583208647       11.8161104683
 Pt         0.0952043674        5.2459681646       14.2181208912
 Pt         1.1728049787        2.1235086788       13.9138553091
 Pt         4.7912742030        5.4608482789       12.6406899055
 Pt         3.4425911944        1.0487641120       13.1159612617
 Pt         3.2309432931        3.5874322322       13.5806450481
     166
 i =       99, time =       99.000, E =     -6045.8996027600
  O         0.0000000000        0.0000000000        0.0000000000
  O         3.8260000000        0.0000000000        0.0000000000
  O         7.6520000000        0.0000000000        0.0000000000
  O        11.4780000000        0.0000000000        0.0000000000
  O        -1.9130000000        3.3140000000        0.0000000000
  O         1.9130000000        3.3140000000        0.0000000000
  O         5.7390000000        3.3140000000        0.0000000000
  O         9.5650000000        3.3140000000        0.0000000000
  O        -3.8260000000        6.6270000000        0.0000000000
  O         0.0000000000        6.6270000000        0.0000000000
  O         3.8260000000        6.6270000000        0.0000000000
  O         7.6520000000        6.6270000000        0.0000000000
  O        -5.7390000000        9.9410000000        0.0000000000
  O        -1.9130000000        9.9410000000        0.0000000000
  O         1.9130000000        9.9410000000        0.0000000000
  O         5.7390000000        9.9410000000        0.0000000000
  O         1.9130000000        1.1050000000        1.5620000000
  O         5.7390000000        1.1050000000        1.5620000000
  O         9.5650000000        1.1050000000        1.5620000000
  O        13.3920000000        1.1050000000        1.5620000000
  O         0.0000000000        4.4180000000        1.5620000000
  O         3.8260000000        4.4180000000        1.5620000000
  O         7.6520000000        4.4180000000        1.5620000000
  O        11.4780000000        4.4180000000        1.5620000000
  O        -1.9130000000        7.7320000000        1.5620000000
  O         1.9130000000        7.7320000000        1.5620000000
  O         5.7390000000        7.7320000000        1.5620000000
  O         9.5650000000        7.7320000000        1.5620000000
  O        -3.8260000000       11.0450000000        1.5620000000
  O         0.0000000000       11.0450000000        1.5620000000
  O         3.8260000000       11.0450000000        1.5620000000
  O         7.6520000000       11.0450000000        1.5620000000
  O         0.0000000000        2.2090000000        3.1240000000
  O         3.8260000000        2.2090000000        3.1240000000
  O         7.6520000000        2.2090000000        3.1240000000
  O        11.4780000000        2.2090000000        3.1240000000
  O        -1.9130000000        5.5230000000        3.1240000000
  O         1.9130000000        5.5230000000        3.1240000000
  O         5.7390000000        5.5230000000        3.1240000000
  O         9.5650000000        5.5230000000        3.1240000000
  O        -3.8260000000        8.8360000000        3.1240000000
  O         0.0000000000        8.8360000000        3.1240000000
  O         3.8260000000        8.8360000000        3.1240000000
  O         7.6520000000        8.8360000000        3.1240000000
  O        -5.7390000000       12.1500000000        3.1240000000
  O        -1.9130000000       12.1500000000        3.1240000000
  O         1.9130000000       12.1500000000        3.1240000000
  O         5.7390000000       12.1500000000        3.1240000000
  O         0.0680852471       -0.1140760454        4.6818945138
  O         3.8822051069        0.0019222312        4.8141766210
  O         7.6658623001        0.1042809557        4.6891839702
  O        11.5945348265       -0.0987142375        4.6528338619
  O        -1.8208242577        3.3557256618        4.8464423478
  O         1.9994826362        3.1892767817        4.6873106596
  O         5.6618873063        3.2940815791        4.5690984651
  O         9.4857087291        3.1949403252        4.6495037923
  O        -4.0559020032        6.4819379032        4.6406954626
  O         0.0124662741        6.8596039992        4.8168605659
  O         3.8093989436        6.5105142453        4.8212065644
  O         7.6000974518        6.5596589985        4.8803857160
  O        -5.8377048526        9.9191536303        4.7072955668
  O        -1.8384651956        9.9311579929        4.6107968993
  O         2.0876776146       10.0751013216        4.7629089397
  O         5.7441784734        9.7003398510        4.6286423532
  O         1.9159193760        1.0943908677        6.4464666319
  O         5.7078556113        0.9813286139        6.4836366918
  O         9.5549381615        0.9431272802        6.4268602253
  O        13.3377798023        1.1283382413        6.3150779088
  O         0.2449169060        4.4631161033        6.2753366883
  O         3.8243086173        4.3870946028        6.4091411349
  O         7.7000420733        4.3215386561        6.3361700821
  O        11.3034399542        4.3856269710        6.2993204353
  O        -2.0131901950        7.8507546024        6.3005252145
  O         2.0018176983        7.8215237679        6.1955386456
  O         5.6661842319        7.8095436253        6.4596600562
  O         9.5232894578        7.7200020917        6.2749718532
  O        -3.7533116452       11.0886584841        6.2844984957
  O         0.0040448178       11.2262382596        6.2352901290
  O         4.0539821193       11.1232082536        6.5042167227
  O         7.5966815442       11.0694941363        6.3581827191
  O         0.1030065009        2.1106377693        7.8558506137
  O         3.8347326719        2.0409274947        7.8200732305
  O         7.7955098747        2.1092115987        8.1939685396
  O        11.1964618486        2.0490738493        8.2616364733
  O        -1.9590966179        5.6011396538        7.6880795630
  O         1.8925543517        5.6382836859        7.9860219967
  O         5.6980261496        5.4331067079        7.9475493930
  O         9.5127861793        5.7673944160        7.9515403763
  O        -4.1413752528        8.8424456188        8.1091470180
  O         0.1387871995        9.2375001833        8.0654668079
  O         3.8710668723        8.8826950172        8.0773688408
  O         7.4937738836        8.6577100845        7.9010151826
  O        -5.7440923984       11.9865912777        7.8590244331
  O        -1.8232085885       12.1208740670        8.0595608231
  O         1.8722282365       11.8446743474        8.1231440842
  O         5.8247980395       12.1098946943        8.3059034251
 Ce         0.0000000000        2.2090000000        0.7810000000
 Ce         3.8260000000        2.2090000000        0.7810000000
 Ce         7.6520000000        2.2090000000        0.7810000000
 Ce        11.4780000000        2.2090000000        0.7810000000
 Ce        -1.9130000000        5.5230000000        0.7810000000
 Ce         1.9130000000        5.5230000000        0.7810000000
 Ce         5.7390000000        5.5230000000        0.7810000000
 Ce         9.5650000000        5.5230000000        0.7810000000
 Ce        -3.8260000000        8.8360000000        0.7810000000
 Ce         0.0000000000        8.8360000000        0.7810000000
 Ce         3.8260000000        8.8360000000        0.7810000000
 Ce         7.6520000000        8.8360000000        0.7810000000
 Ce        -5.7390000000       12.1500000000        0.7810000000
 Ce        -1.9130000000       12.1500000000        0.7810000000
 Ce         1.9130000000       12.1500000000        0.7810000000
 Ce         5.7390000000       12.1500000000        0.7810000000
 Ce         1.9654568260        1.0312642089        4.0480191994
 Ce         5.7998844910        1.0489352885        3.9032961332
 Ce         9.7022940253        1.0705061482        3.9644116700
 Ce        13.5018096299        1.1309351644        3.9350451705
 Ce         0.0747183213        4.4015792492        3.8524719927
 Ce         3.7456966980        4.3451589265        3.8717642804
 Ce         7.6450724151        4.3660377829        3.9170330984
 Ce        11.3862969119        4.4461598812        3.8549371139
 Ce        -1.8355719735        7.7715393694        3.8270864433
 Ce         1.9762350394        7.7687779485        4.0148223625
 Ce         5.7971924221        7.6310753391        3.9721538009
 Ce         9.4525170709        7.7092633277        3.9110840305
 Ce        -3.8379809530       10.9760654436        3.9124896716
 Ce         0.0949920040       11.1071200544        3.8906525664
 Ce         3.9456863150       10.9758150390        3.9630279896
 Ce         7.6218390026       11.1280686472        3.8986212079
 Ce         0.0704461219       -0.0726621426        7.4341349943
 Ce         3.7529913166       -0.1654306396        7.1844112209
 Ce         7.7423117754       -0.0174708494        7.2744094291
 Ce        11.6733012179        0.1035424660        7.2602809228
 Ce        -1.8192321563        3.5126935499        6.9786835967
 Ce         1.9522751703        3.2930185192        7.3304697479
 Ce         5.7440005217        3.2172896281        6.9322051669
 Ce         9.6173970027        3.3905246968        7.0827050116
 Ce        -3.9714013337        6.6893856860        7.0748711432
 Ce        -0.1383260103        6.6813531561        7.1525593245
 Ce         3.7411560533        6.6143040349        7.0390056776
 Ce         7.5026914559        6.5254220451        7.2705875970
 Ce        -5.9268311431        9.9549096212        7.0472081288
 Ce        -1.8190274265       10.1196549186        7.0862898362
 Ce         1.9919264272       10.0671074983        7.1891559795
 Ce         5.6994485071        9.8426512839        7.4531261016
 Pt        12.8352041629        1.9429902319        9.3387746727
 Pt         0.9996822089        5.4846260340        9.7818638796
 Pt        -0.0808026560        8.0586262417        9.8936831177
 Pt         7.0960877335       13.6253330494       10.0413722480
 Pt        -0.0774804664        2.9254635685        9.9065911459
 Pt        -2.4909397980        8.6015731448        9.2352002266
 Pt         2.8073817932        3.7509521349       10.6329124740
 Pt         3.4234851281        6.4960558056       10.5213615215
 Pt         5.2619142635        4.8271027191        9.8805498710
 Pt         1.7502963144        1.2963791158       11.2192641530
 Pt         4.1621402693        1.4070906259        9.7843468553
 Pt        -0.1232455127        6.4819727787       11.9034705266
 Pt         6.5816792423        2.5209163069        9.6808771293
 Pt         0.6299550868        3.8891763973       12.1172391633
 Pt         5.5482156618        0.5689881102       11.6875371769
 Pt         2.2393246927        6.0155939039       12.8177794952
 Pt         5.1761567478        3.0565326797       11.8174723013
 Pt         0.0962531136        5.2490505200       14.2176192261
 Pt         1.1734011631        2.1208665220       13.9130370772
 Pt         4.7912940057        5.4615372250       12.6399278454
 Pt         3.4406850061        1.0478731319       13.1137247433
 Pt         3.2299078723        3.5871786912       13.5792067749
