     166
 i =     1750, time =     1750.000, E =     -6045.8165570498
  O         0.0000000000        0.0000000000        0.0000000000
  O         3.8260000000        0.0000000000        0.0000000000
  O         7.6520000000        0.0000000000        0.0000000000
  O        11.4780000000        0.0000000000        0.0000000000
  O        -1.9130000000        3.3140000000        0.0000000000
  O         1.9130000000        3.3140000000        0.0000000000
  O         5.7390000000        3.3140000000        0.0000000000
  O         9.5650000000        3.3140000000        0.0000000000
  O        -3.8260000000        6.6270000000        0.0000000000
  O         0.0000000000        6.6270000000        0.0000000000
  O         3.8260000000        6.6270000000        0.0000000000
  O         7.6520000000        6.6270000000        0.0000000000
  O        -5.7390000000        9.9410000000        0.0000000000
  O        -1.9130000000        9.9410000000        0.0000000000
  O         1.9130000000        9.9410000000        0.0000000000
  O         5.7390000000        9.9410000000        0.0000000000
  O         1.9130000000        1.1050000000        1.5620000000
  O         5.7390000000        1.1050000000        1.5620000000
  O         9.5650000000        1.1050000000        1.5620000000
  O        13.3920000000        1.1050000000        1.5620000000
  O         0.0000000000        4.4180000000        1.5620000000
  O         3.8260000000        4.4180000000        1.5620000000
  O         7.6520000000        4.4180000000        1.5620000000
  O        11.4780000000        4.4180000000        1.5620000000
  O        -1.9130000000        7.7320000000        1.5620000000
  O         1.9130000000        7.7320000000        1.5620000000
  O         5.7390000000        7.7320000000        1.5620000000
  O         9.5650000000        7.7320000000        1.5620000000
  O        -3.8260000000       11.0450000000        1.5620000000
  O         0.0000000000       11.0450000000        1.5620000000
  O         3.8260000000       11.0450000000        1.5620000000
  O         7.6520000000       11.0450000000        1.5620000000
  O         0.0000000000        2.2090000000        3.1240000000
  O         3.8260000000        2.2090000000        3.1240000000
  O         7.6520000000        2.2090000000        3.1240000000
  O        11.4780000000        2.2090000000        3.1240000000
  O        -1.9130000000        5.5230000000        3.1240000000
  O         1.9130000000        5.5230000000        3.1240000000
  O         5.7390000000        5.5230000000        3.1240000000
  O         9.5650000000        5.5230000000        3.1240000000
  O        -3.8260000000        8.8360000000        3.1240000000
  O         0.0000000000        8.8360000000        3.1240000000
  O         3.8260000000        8.8360000000        3.1240000000
  O         7.6520000000        8.8360000000        3.1240000000
  O        -5.7390000000       12.1500000000        3.1240000000
  O        -1.9130000000       12.1500000000        3.1240000000
  O         1.9130000000       12.1500000000        3.1240000000
  O         5.7390000000       12.1500000000        3.1240000000
  O        -0.0244009296        0.0785990661        4.8134880134
  O         3.8631796295       -0.0081773513        4.6863083249
  O         7.5751814411        0.1940897459        4.8474833702
  O        11.4734879918       -0.0478804603        4.7611097325
  O        -1.7716361727        3.3243415920        4.5281070375
  O         2.0183214831        3.3850177245        4.7888108485
  O         5.5040867717        3.0657640138        4.8364825646
  O         9.6335549458        3.2912724591        4.6160053267
  O        -3.6566034025        6.5860087562        4.8934230940
  O         0.0060062981        6.6958573886        4.7377503720
  O         3.9476551529        6.7119712477        4.7446799225
  O         7.7931324905        6.4956914681        4.7652444468
  O        -5.7761893503        9.8399389250        4.6016191009
  O        -1.9376070005       10.0022905285        4.6183648155
  O         2.0259171607        9.9559304266        4.7661120995
  O         5.8611641561        9.8461428327        4.9150893822
  O         1.9070965522        1.1835429652        6.0761779841
  O         5.7414331209        1.0247712769        6.4530224933
  O         9.4268569251        1.1159878308        6.3729211424
  O        13.3765058145        0.9384832103        6.2269409415
  O         0.0467333827        4.5129622234        6.4143001218
  O         4.0404466922        4.6681643569        6.4064969274
  O         7.5621120581        4.3719141727        6.3951215190
  O        11.4784114864        4.5072699290        6.2474730557
  O        -1.9114855642        7.8830867759        6.2786808162
  O         1.9885172231        7.7898720097        6.2708250951
  O         5.9240260011        7.5113404060        6.4111151742
  O         9.6590986674        7.8517609366        6.3634236662
  O        -3.9996819057       10.7880907511        6.2182287408
  O         0.0645101167       10.9103276314        6.2918659356
  O         3.9200776034       11.1477480753        6.2586785021
  O         7.6712700317       11.1113897459        6.5544853640
  O        -0.1332092187        2.3026612031        7.8288707263
  O         3.8380919859        2.1404390138        7.6483687650
  O         7.7362412053        2.0409097640        8.3403628631
  O        11.3776976557        2.3538450370        8.0474210629
  O        -1.9896090844        5.3493880196        7.9655385638
  O         1.8268457456        5.7081297157        8.0425309652
  O         5.9608617237        5.6625544126        8.2483350150
  O         9.5165453033        5.3555796323        8.0036929985
  O        -3.8987056521        8.8507007999        8.0127048312
  O         0.3626315552        9.0247772546        8.1187874981
  O         3.9383853997        8.7053464165        7.9439139311
  O         7.9581134739        8.8756198316        8.2626726979
  O        -5.5989394025       12.3681680047        8.3252039894
  O        -2.0165261088       12.0528297676        8.0117893501
  O         2.0647844830       12.1457194671        7.8583128687
  O         5.7358268974       11.8790173531        7.9807832617
 Ce         0.0000000000        2.2090000000        0.7810000000
 Ce         3.8260000000        2.2090000000        0.7810000000
 Ce         7.6520000000        2.2090000000        0.7810000000
 Ce        11.4780000000        2.2090000000        0.7810000000
 Ce        -1.9130000000        5.5230000000        0.7810000000
 Ce         1.9130000000        5.5230000000        0.7810000000
 Ce         5.7390000000        5.5230000000        0.7810000000
 Ce         9.5650000000        5.5230000000        0.7810000000
 Ce        -3.8260000000        8.8360000000        0.7810000000
 Ce         0.0000000000        8.8360000000        0.7810000000
 Ce         3.8260000000        8.8360000000        0.7810000000
 Ce         7.6520000000        8.8360000000        0.7810000000
 Ce        -5.7390000000       12.1500000000        0.7810000000
 Ce        -1.9130000000       12.1500000000        0.7810000000
 Ce         1.9130000000       12.1500000000        0.7810000000
 Ce         5.7390000000       12.1500000000        0.7810000000
 Ce         1.8343965396        1.1082549735        3.9394746485
 Ce         5.6924522200        1.0756089084        3.9064775947
 Ce         9.5509254880        1.0762279782        3.9278995007
 Ce        13.4875890114        1.0931239207        3.9800985735
 Ce         0.1161366676        4.4221035404        3.9853667209
 Ce         3.8613826937        4.3481843432        3.8799193721
 Ce         7.6500317739        4.4808988925        3.8384130262
 Ce        11.4834938446        4.4847101306        3.9154516418
 Ce        -2.0109989413        7.7332414386        4.0364251828
 Ce         1.9804889855        7.7239819759        3.9841519347
 Ce         5.7132863004        7.6921548848        3.9775624328
 Ce         9.7055341882        7.6319169333        3.9668892410
 Ce        -3.8639684137       11.0253089102        3.8298012288
 Ce         0.0752866148       11.0103935631        3.8683233792
 Ce         3.8696645629       11.0685862345        3.8609794366
 Ce         7.7451750013       10.9910225357        3.9691197139
 Ce        -0.1600540111       -0.0260524190        7.1636113908
 Ce         3.8249074920       -0.1627973292        7.1300007672
 Ce         7.4976667272       -0.0140816161        7.2609849981
 Ce        11.4340421984       -0.1296452451        7.0582179202
 Ce        -1.8677076584        3.3284121734        7.2683145771
 Ce         1.9948794493        3.2676720819        7.2394444044
 Ce         5.7637086135        3.3510420823        7.1278082054
 Ce         9.6998375569        3.3140120949        6.9985343308
 Ce        -3.8518527826        6.6328684342        7.2585971907
 Ce         0.0238516407        6.7329022866        7.1258414993
 Ce         4.0233064355        6.6124245113        7.3791166655
 Ce         7.8261829037        6.5184871402        7.2214813045
 Ce        -5.7319597361        9.7830871695        7.1368046782
 Ce        -1.9411227341       10.1186421249        6.9684011044
 Ce         2.0617236947        9.9752501462        7.1868215667
 Ce         5.8648198790        9.9750768087        7.2798333735
 Pt        12.7640381266        1.8464374494        9.7241239441
 Pt         1.0545303637        5.5463249659        9.9638711842
 Pt         0.1182147326        8.1502202376        9.8775656772
 Pt         7.1779248834       14.2030604053       10.5550546191
 Pt        -0.4802303888        3.4021153381        9.9074703352
 Pt        -2.3301765710        8.4537318907        9.2959760868
 Pt         2.2042861311        3.3085207556        9.9042206423
 Pt         3.5223111914        5.2489850708       10.7829207345
 Pt         5.7252331477        4.3347771809        9.8964270942
 Pt         2.0129545590        0.6693870882        9.6445804749
 Pt         4.3647574969        1.4920717606        9.5009620480
 Pt        -0.1397246439        7.1420771150       12.1972608603
 Pt         6.7117847983        1.9474984175       10.0591493490
 Pt        -0.1291387706        4.4716192357       12.3286520094
 Pt         5.3101971233        0.4706242810       11.7408297754
 Pt         2.4949556335        6.7479431582       12.6204344770
 Pt         5.1542918744        3.0631565742       12.0642058807
 Pt         1.0602022850        5.6409624631       14.5091541587
 Pt         0.5397945656        2.2047329533       12.4620463350
 Pt         4.6723676074        5.7093325052       13.1455058877
 Pt         2.9352856293        1.5664715092       11.9329013547
 Pt         2.5268791791        3.8639494065       12.9530362253
     166
 i =     1751, time =     1751.000, E =     -6045.8189106638
  O         0.0000000000        0.0000000000        0.0000000000
  O         3.8260000000        0.0000000000        0.0000000000
  O         7.6520000000        0.0000000000        0.0000000000
  O        11.4780000000        0.0000000000        0.0000000000
  O        -1.9130000000        3.3140000000        0.0000000000
  O         1.9130000000        3.3140000000        0.0000000000
  O         5.7390000000        3.3140000000        0.0000000000
  O         9.5650000000        3.3140000000        0.0000000000
  O        -3.8260000000        6.6270000000        0.0000000000
  O         0.0000000000        6.6270000000        0.0000000000
  O         3.8260000000        6.6270000000        0.0000000000
  O         7.6520000000        6.6270000000        0.0000000000
  O        -5.7390000000        9.9410000000        0.0000000000
  O        -1.9130000000        9.9410000000        0.0000000000
  O         1.9130000000        9.9410000000        0.0000000000
  O         5.7390000000        9.9410000000        0.0000000000
  O         1.9130000000        1.1050000000        1.5620000000
  O         5.7390000000        1.1050000000        1.5620000000
  O         9.5650000000        1.1050000000        1.5620000000
  O        13.3920000000        1.1050000000        1.5620000000
  O         0.0000000000        4.4180000000        1.5620000000
  O         3.8260000000        4.4180000000        1.5620000000
  O         7.6520000000        4.4180000000        1.5620000000
  O        11.4780000000        4.4180000000        1.5620000000
  O        -1.9130000000        7.7320000000        1.5620000000
  O         1.9130000000        7.7320000000        1.5620000000
  O         5.7390000000        7.7320000000        1.5620000000
  O         9.5650000000        7.7320000000        1.5620000000
  O        -3.8260000000       11.0450000000        1.5620000000
  O         0.0000000000       11.0450000000        1.5620000000
  O         3.8260000000       11.0450000000        1.5620000000
  O         7.6520000000       11.0450000000        1.5620000000
  O         0.0000000000        2.2090000000        3.1240000000
  O         3.8260000000        2.2090000000        3.1240000000
  O         7.6520000000        2.2090000000        3.1240000000
  O        11.4780000000        2.2090000000        3.1240000000
  O        -1.9130000000        5.5230000000        3.1240000000
  O         1.9130000000        5.5230000000        3.1240000000
  O         5.7390000000        5.5230000000        3.1240000000
  O         9.5650000000        5.5230000000        3.1240000000
  O        -3.8260000000        8.8360000000        3.1240000000
  O         0.0000000000        8.8360000000        3.1240000000
  O         3.8260000000        8.8360000000        3.1240000000
  O         7.6520000000        8.8360000000        3.1240000000
  O        -5.7390000000       12.1500000000        3.1240000000
  O        -1.9130000000       12.1500000000        3.1240000000
  O         1.9130000000       12.1500000000        3.1240000000
  O         5.7390000000       12.1500000000        3.1240000000
  O        -0.0362814653        0.0711237662        4.8160458291
  O         3.8718476921       -0.0061439334        4.6843295527
  O         7.5711763199        0.1958533381        4.8311308705
  O        11.4743173760       -0.0536379029        4.7608253105
  O        -1.7728852542        3.3255875609        4.5285194511
  O         2.0253938144        3.3719833478        4.7843583393
  O         5.5069157383        3.0803942473        4.8443462365
  O         9.6293497497        3.2922000150        4.6188638054
  O        -3.6617199318        6.5906272109        4.8865958204
  O         0.0046112067        6.6890382459        4.7317832368
  O         3.9497372445        6.7120524299        4.7399531227
  O         7.7927293725        6.4990294789        4.7564407821
  O        -5.7737731071        9.8311912749        4.6003526943
  O        -1.9335115445        9.9959349306        4.6166750868
  O         2.0278782774        9.9582497744        4.7662925278
  O         5.8736645654        9.8421183808        4.9136342748
  O         1.9070118900        1.1920685787        6.0901921713
  O         5.7449892137        1.0186025593        6.4428552004
  O         9.4305152543        1.1171490223        6.3668628352
  O        13.3732870974        0.9367107921        6.2296115817
  O         0.0384170503        4.5128849126        6.4016477792
  O         4.0484969086        4.6615845979        6.4105409634
  O         7.5640370019        4.3726680295        6.3946846482
  O        11.4785862807        4.4968520930        6.2483557047
  O        -1.9094608657        7.8732107647        6.2847607211
  O         1.9914025003        7.7847233240        6.2734180898
  O         5.9240487291        7.5120752489        6.4095577235
  O         9.6547992427        7.8624508051        6.3587527666
  O        -3.9975485124       10.7842354755        6.2116332507
  O         0.0577779217       10.9144171403        6.2866909846
  O         3.9269621025       11.1443734040        6.2594582349
  O         7.6711713478       11.1080079684        6.5618519565
  O        -0.1313117289        2.2988580971        7.8295755528
  O         3.8438971805        2.1365934066        7.6508666535
  O         7.7354398774        2.0457147131        8.3350981795
  O        11.3818632597        2.3640203396        8.0471200910
  O        -1.9810583880        5.3478451400        7.9689579306
  O         1.8185028390        5.7030932703        8.0281994016
  O         5.9684945949        5.6597303893        8.2514615305
  O         9.5087844321        5.3557170764        8.0016781308
  O        -3.8941016186        8.8519800629        8.0161215450
  O         0.3655201154        9.0320736034        8.1190066856
  O         3.9398408755        8.7021127898        7.9427158862
  O         7.9549874396        8.8699398255        8.2606266681
  O        -5.5998321372       12.3599735932        8.3198499878
  O        -2.0125837442       12.0550215568        8.0055634891
  O         2.0719104137       12.1432496654        7.8589741620
  O         5.7365978255       11.8864039533        7.9775154160
 Ce         0.0000000000        2.2090000000        0.7810000000
 Ce         3.8260000000        2.2090000000        0.7810000000
 Ce         7.6520000000        2.2090000000        0.7810000000
 Ce        11.4780000000        2.2090000000        0.7810000000
 Ce        -1.9130000000        5.5230000000        0.7810000000
 Ce         1.9130000000        5.5230000000        0.7810000000
 Ce         5.7390000000        5.5230000000        0.7810000000
 Ce         9.5650000000        5.5230000000        0.7810000000
 Ce        -3.8260000000        8.8360000000        0.7810000000
 Ce         0.0000000000        8.8360000000        0.7810000000
 Ce         3.8260000000        8.8360000000        0.7810000000
 Ce         7.6520000000        8.8360000000        0.7810000000
 Ce        -5.7390000000       12.1500000000        0.7810000000
 Ce        -1.9130000000       12.1500000000        0.7810000000
 Ce         1.9130000000       12.1500000000        0.7810000000
 Ce         5.7390000000       12.1500000000        0.7810000000
 Ce         1.8349878927        1.1068524448        3.9396158789
 Ce         5.6942556600        1.0773213922        3.9051494674
 Ce         9.5504872411        1.0749035796        3.9271013432
 Ce        13.4916069856        1.0915958680        3.9783714680
 Ce         0.1211110658        4.4220059614        3.9842063808
 Ce         3.8603381077        4.3505944341        3.8830260753
 Ce         7.6496377998        4.4851940686        3.8390875768
 Ce        11.4838751250        4.4833247246        3.9164228096
 Ce        -2.0095384363        7.7298975810        4.0385381421
 Ce         1.9828108735        7.7249762614        3.9826784607
 Ce         5.7137950393        7.6928392952        3.9757807687
 Ce         9.7036358482        7.6320487051        3.9650373519
 Ce        -3.8653642120       11.0288353763        3.8280112445
 Ce         0.0793080804       11.0126143814        3.8720378293
 Ce         3.8730666814       11.0658259345        3.8606747384
 Ce         7.7438485416       10.9891345681        3.9699140020
 Ce        -0.1595960849       -0.0227666260        7.1612573219
 Ce         3.8280126796       -0.1610752294        7.1332338919
 Ce         7.4918042569       -0.0138843274        7.2594901359
 Ce        11.4341649064       -0.1280209689        7.0568496917
 Ce        -1.8677920207        3.3252030081        7.2696242690
 Ce         1.9956199893        3.2632255850        7.2368227680
 Ce         5.7649226822        3.3490248185        7.1243438679
 Ce         9.6997501289        3.3147281131        6.9982090353
 Ce        -3.8528955126        6.6342245295        7.2549107397
 Ce         0.0243008316        6.7318369103        7.1263064375
 Ce         4.0232158578        6.6155933215        7.3762800495
 Ce         7.8260290341        6.5223730749        7.2209445789
 Ce        -5.7311322115        9.7801985415        7.1361792550
 Ce        -1.9431758006       10.1194403499        6.9634769181
 Ce         2.0608523914        9.9784500245        7.1885360177
 Ce         5.8649200925        9.9723650029        7.2761533811
 Pt        12.7599182994        1.8467786292        9.7227825785
 Pt         1.0560933423        5.5449221199        9.9624874113
 Pt         0.1199316632        8.1489564996        9.8757393739
 Pt         7.1756780995       14.2019736673       10.5532444512
 Pt        -0.4817440189        3.4030180194        9.9080880393
 Pt        -2.3309054591        8.4533793805        9.2980647307
 Pt         2.2048177719        3.3094964987        9.9043765295
 Pt         3.5267318432        5.2472493392       10.7839679642
 Pt         5.7249595901        4.3355917830        9.8956526651
 Pt         2.0152331459        0.6701985318        9.6452299096
 Pt         4.3662847253        1.4917729858        9.5007633724
 Pt        -0.1414900991        7.1413722483       12.1969273651
 Pt         6.7148513463        1.9498363279       10.0553370638
 Pt        -0.1300955371        4.4704029769       12.3272000932
 Pt         5.3131063907        0.4704168820       11.7380525380
 Pt         2.4952703294        6.7493173317       12.6185305183
 Pt         5.1498356641        3.0634696295       12.0633415934
 Pt         1.0607478578        5.6425417695       14.5062186237
 Pt         0.5399941005        2.2053990752       12.4619367320
 Pt         4.6715010201        5.7090753543       13.1472427613
 Pt         2.9353249237        1.5644020642       11.9339012445
 Pt         2.5281753997        3.8644135880       12.9548816586
     166
 i =     1752, time =     1752.000, E =     -6045.8214287409
  O         0.0000000000        0.0000000000        0.0000000000
  O         3.8260000000        0.0000000000        0.0000000000
  O         7.6520000000        0.0000000000        0.0000000000
  O        11.4780000000        0.0000000000        0.0000000000
  O        -1.9130000000        3.3140000000        0.0000000000
  O         1.9130000000        3.3140000000        0.0000000000
  O         5.7390000000        3.3140000000        0.0000000000
  O         9.5650000000        3.3140000000        0.0000000000
  O        -3.8260000000        6.6270000000        0.0000000000
  O         0.0000000000        6.6270000000        0.0000000000
  O         3.8260000000        6.6270000000        0.0000000000
  O         7.6520000000        6.6270000000        0.0000000000
  O        -5.7390000000        9.9410000000        0.0000000000
  O        -1.9130000000        9.9410000000        0.0000000000
  O         1.9130000000        9.9410000000        0.0000000000
  O         5.7390000000        9.9410000000        0.0000000000
  O         1.9130000000        1.1050000000        1.5620000000
  O         5.7390000000        1.1050000000        1.5620000000
  O         9.5650000000        1.1050000000        1.5620000000
  O        13.3920000000        1.1050000000        1.5620000000
  O         0.0000000000        4.4180000000        1.5620000000
  O         3.8260000000        4.4180000000        1.5620000000
  O         7.6520000000        4.4180000000        1.5620000000
  O        11.4780000000        4.4180000000        1.5620000000
  O        -1.9130000000        7.7320000000        1.5620000000
  O         1.9130000000        7.7320000000        1.5620000000
  O         5.7390000000        7.7320000000        1.5620000000
  O         9.5650000000        7.7320000000        1.5620000000
  O        -3.8260000000       11.0450000000        1.5620000000
  O         0.0000000000       11.0450000000        1.5620000000
  O         3.8260000000       11.0450000000        1.5620000000
  O         7.6520000000       11.0450000000        1.5620000000
  O         0.0000000000        2.2090000000        3.1240000000
  O         3.8260000000        2.2090000000        3.1240000000
  O         7.6520000000        2.2090000000        3.1240000000
  O        11.4780000000        2.2090000000        3.1240000000
  O        -1.9130000000        5.5230000000        3.1240000000
  O         1.9130000000        5.5230000000        3.1240000000
  O         5.7390000000        5.5230000000        3.1240000000
  O         9.5650000000        5.5230000000        3.1240000000
  O        -3.8260000000        8.8360000000        3.1240000000
  O         0.0000000000        8.8360000000        3.1240000000
  O         3.8260000000        8.8360000000        3.1240000000
  O         7.6520000000        8.8360000000        3.1240000000
  O        -5.7390000000       12.1500000000        3.1240000000
  O        -1.9130000000       12.1500000000        3.1240000000
  O         1.9130000000       12.1500000000        3.1240000000
  O         5.7390000000       12.1500000000        3.1240000000
  O        -0.0478220016        0.0627325410        4.8185443937
  O         3.8802712206       -0.0046143851        4.6827288299
  O         7.5674952915        0.1966703362        4.8146193107
  O        11.4748243169       -0.0590925857        4.7603450128
  O        -1.7745874844        3.3266896183        4.5298175128
  O         2.0323625508        3.3591327521        4.7799625128
  O         5.5104000634        3.0959852000        4.8521085698
  O         9.6247695737        3.2934784820        4.6223154017
  O        -3.6680179428        6.5954996517        4.8795887911
  O         0.0032808470        6.6820641770        4.7262104314
  O         3.9514669680        6.7118085988        4.7352706850
  O         7.7924129443        6.5027065558        4.7477589244
  O        -5.7714724252        9.8227133135        4.5994930212
  O        -1.9294576425        9.9897067754        4.6152762684
  O         2.0297099961        9.9607398910        4.7662791943
  O         5.8861245702        9.8382997985        4.9119864926
  O         1.9067541254        1.2000963039        6.1054544804
  O         5.7487077956        1.0123608397        6.4329207527
  O         9.4346500020        1.1185226714        6.3608658565
  O        13.3698376045        0.9352478220        6.2331494795
  O         0.0303222804        4.5128085603        6.3886738476
  O         4.0561902454        4.6544332541        6.4148145911
  O         7.5663756824        4.3731913833        6.3938109738
  O        11.4784633457        4.4859837512        6.2493947251
  O        -1.9072705766        7.8631213782        6.2912258214
  O         1.9940772697        7.7793117540        6.2764158014
  O         5.9242584254        7.5131406983        6.4081797630
  O         9.6503494021        7.8714898831        6.3537084973
  O        -3.9948980261       10.7815205733        6.2052613288
  O         0.0507528956       10.9191980263        6.2816092605
  O         3.9338832683       11.1401475687        6.2604496428
  O         7.6718132876       11.1044635485        6.5685190968
  O        -0.1285444200        2.2944721174        7.8303084576
  O         3.8499122010        2.1328300918        7.6531944594
  O         7.7347711014        2.0505837525        8.3293114889
  O        11.3861379163        2.3738846710        8.0470478574
  O        -1.9727462363        5.3470811407        7.9721928664
  O         1.8104396497        5.6979904391        8.0140534925
  O         5.9761269348        5.6564513807        8.2547943875
  O         9.5014143293        5.3563762865        7.9994928612
  O        -3.8894660728        8.8530094962        8.0200071728
  O         0.3682266111        9.0393854966        8.1188116312
  O         3.9415079848        8.6995677092        7.9416196867
  O         7.9514490636        8.8640194307        8.2578047395
  O        -5.6010815712       12.3517272435        8.3138912810
  O        -2.0085582157       12.0572445518        7.9989930751
  O         2.0785653526       12.1405747584        7.8600408900
  O         5.7372237553       11.8948654177        7.9747534036
 Ce         0.0000000000        2.2090000000        0.7810000000
 Ce         3.8260000000        2.2090000000        0.7810000000
 Ce         7.6520000000        2.2090000000        0.7810000000
 Ce        11.4780000000        2.2090000000        0.7810000000
 Ce        -1.9130000000        5.5230000000        0.7810000000
 Ce         1.9130000000        5.5230000000        0.7810000000
 Ce         5.7390000000        5.5230000000        0.7810000000
 Ce         9.5650000000        5.5230000000        0.7810000000
 Ce        -3.8260000000        8.8360000000        0.7810000000
 Ce         0.0000000000        8.8360000000        0.7810000000
 Ce         3.8260000000        8.8360000000        0.7810000000
 Ce         7.6520000000        8.8360000000        0.7810000000
 Ce        -5.7390000000       12.1500000000        0.7810000000
 Ce        -1.9130000000       12.1500000000        0.7810000000
 Ce         1.9130000000       12.1500000000        0.7810000000
 Ce         5.7390000000       12.1500000000        0.7810000000
 Ce         1.8356724247        1.1054767414        3.9397418630
 Ce         5.6960912910        1.0790014238        3.9038463226
 Ce         9.5500505745        1.0736282327        3.9263140265
 Ce        13.4955030248        1.0901349411        3.9765576020
 Ce         0.1259772004        4.4219421993        3.9830478631
 Ce         3.8592577338        4.3530454932        3.8861806077
 Ce         7.6492691935        4.4893890574        3.8398086990
 Ce        11.4843786445        4.4817951180        3.9173583018
 Ce        -2.0078744502        7.7265678644        4.0405476799
 Ce         1.9850904427        7.7259947253        3.9812028534
 Ce         5.7143554186        7.6935816721        3.9740103909
 Ce         9.7016100846        7.6322716147        3.9631220028
 Ce        -3.8667035332       11.0323972543        3.8262522906
 Ce         0.0832745120       11.0148151797        3.8757969451
 Ce         3.8764640267       11.0630353090        3.8604375978
 Ce         7.7424284857       10.9872166052        3.9706589808
 Ce        -0.1590698084       -0.0194276737        7.1589154048
 Ce         3.8310918675       -0.1592531089        7.1363940205
 Ce         7.4860417323       -0.0136557989        7.2579291901
 Ce        11.4342842824       -0.1263165098        7.0554704100
 Ce        -1.8679478310        3.3220989845        7.2708073607
 Ce         1.9962455985        3.2588342180        7.2340723906
 Ce         5.7661349538        3.3469599802        7.1208789179
 Ce         9.6996151551        3.3154054423        6.9979050381
 Ce        -3.8537893207        6.6355334681        7.2512350251
 Ce         0.0247151527        6.7307313024        7.1267246047
 Ce         4.0230809201        6.6188198597        7.3733956690
 Ce         7.8257695800        6.5263109135        7.2204027226
 Ce        -5.7303668677        9.7774335030        7.1356555199
 Ce        -1.9451912980       10.1200686524        6.9585923032
 Ce         2.0599958288        9.9816182317        7.1901430379
 Ce         5.8650002678        9.9695185366        7.2724041939
 Pt        12.7556988909        1.8471235726        9.7213750979
 Pt         1.0575778853        5.5436145132        9.9611116621
 Pt         0.1216339908        8.1476321208        9.8739831324
 Pt         7.1734693546       14.2008272505       10.5514923741
 Pt        -0.4832012672        3.4039367595        9.9087287569
 Pt        -2.3316240903        8.4530158484        9.3001407899
 Pt         2.2053357114        3.3103949272        9.9045610399
 Pt         3.5312220602        5.2455524223       10.7850427881
 Pt         5.7246702183        4.3364655713        9.8948498123
 Pt         2.0174420984        0.6709483133        9.6458827236
 Pt         4.3678112399        1.4914790268        9.5006029396
 Pt        -0.1431977183        7.1406313189       12.1965980064
 Pt         6.7180074459        1.9521653477       10.0515491256
 Pt        -0.1310501416        4.4693677974       12.3256977255
 Pt         5.3160057460        0.4702222191       11.7352586717
 Pt         2.4954785880        6.7506739097       12.6166274720
 Pt         5.1453842729        3.0638376267       12.0624906016
 Pt         1.0612937926        5.6441058916       14.5031984991
 Pt         0.5402274770        2.2059509831       12.4618651366
 Pt         4.6706681613        5.7087526375       13.1489589620
 Pt         2.9353739536        1.5622958702       11.9349017424
 Pt         2.5294768318        3.8649212201       12.9567921254
     166
 i =     1753, time =     1753.000, E =     -6045.8240472267
  O         0.0000000000        0.0000000000        0.0000000000
  O         3.8260000000        0.0000000000        0.0000000000
  O         7.6520000000        0.0000000000        0.0000000000
  O        11.4780000000        0.0000000000        0.0000000000
  O        -1.9130000000        3.3140000000        0.0000000000
  O         1.9130000000        3.3140000000        0.0000000000
  O         5.7390000000        3.3140000000        0.0000000000
  O         9.5650000000        3.3140000000        0.0000000000
  O        -3.8260000000        6.6270000000        0.0000000000
  O         0.0000000000        6.6270000000        0.0000000000
  O         3.8260000000        6.6270000000        0.0000000000
  O         7.6520000000        6.6270000000        0.0000000000
  O        -5.7390000000        9.9410000000        0.0000000000
  O        -1.9130000000        9.9410000000        0.0000000000
  O         1.9130000000        9.9410000000        0.0000000000
  O         5.7390000000        9.9410000000        0.0000000000
  O         1.9130000000        1.1050000000        1.5620000000
  O         5.7390000000        1.1050000000        1.5620000000
  O         9.5650000000        1.1050000000        1.5620000000
  O        13.3920000000        1.1050000000        1.5620000000
  O         0.0000000000        4.4180000000        1.5620000000
  O         3.8260000000        4.4180000000        1.5620000000
  O         7.6520000000        4.4180000000        1.5620000000
  O        11.4780000000        4.4180000000        1.5620000000
  O        -1.9130000000        7.7320000000        1.5620000000
  O         1.9130000000        7.7320000000        1.5620000000
  O         5.7390000000        7.7320000000        1.5620000000
  O         9.5650000000        7.7320000000        1.5620000000
  O        -3.8260000000       11.0450000000        1.5620000000
  O         0.0000000000       11.0450000000        1.5620000000
  O         3.8260000000       11.0450000000        1.5620000000
  O         7.6520000000       11.0450000000        1.5620000000
  O         0.0000000000        2.2090000000        3.1240000000
  O         3.8260000000        2.2090000000        3.1240000000
  O         7.6520000000        2.2090000000        3.1240000000
  O        11.4780000000        2.2090000000        3.1240000000
  O        -1.9130000000        5.5230000000        3.1240000000
  O         1.9130000000        5.5230000000        3.1240000000
  O         5.7390000000        5.5230000000        3.1240000000
  O         9.5650000000        5.5230000000        3.1240000000
  O        -3.8260000000        8.8360000000        3.1240000000
  O         0.0000000000        8.8360000000        3.1240000000
  O         3.8260000000        8.8360000000        3.1240000000
  O         7.6520000000        8.8360000000        3.1240000000
  O        -5.7390000000       12.1500000000        3.1240000000
  O        -1.9130000000       12.1500000000        3.1240000000
  O         1.9130000000       12.1500000000        3.1240000000
  O         5.7390000000       12.1500000000        3.1240000000
  O        -0.0588662285        0.0534907878        4.8209629429
  O         3.8883742421       -0.0035793899        4.6815286623
  O         7.5641798258        0.1965155842        4.7980946845
  O        11.4750145997       -0.0642333196        4.7596648759
  O        -1.7767245582        3.3276217906        4.5319717903
  O         2.0391938374        3.3465263732        4.7756094225
  O         5.5145141721        3.1124412505        4.8597191917
  O         9.6198440523        3.2951032984        4.6263434765
  O        -3.6754932507        6.6005968047        4.8724834235
  O         0.0020379475        6.6749864170        4.7210445136
  O         3.9528231451        6.7112268956        4.7306807168
  O         7.7921671295        6.5067169303        4.7392796290
  O        -5.7693098279        9.8145888764        4.5990346152
  O        -1.9254583188        9.9836261143        4.6141837983
  O         2.0314083043        9.9633828877        4.7660903668
  O         5.8984900650        9.8346975362        4.9101521930
  O         1.9063090566        1.2075736382        6.1218171404
  O         5.7525647454        1.0060680492        6.4232582605
  O         9.4392261623        1.1200782829        6.3549621082
  O        13.3661643676        0.9341188447        6.2375034275
  O         0.0224876433        4.5127043225        6.3754121214
  O         4.0634637464        4.6467964205        6.4193354886
  O         7.5691225461        4.3735036049        6.3924949252
  O        11.4780631565        4.4747510178        6.2505810522
  O        -1.9049411792        7.8528547278        6.2980415989
  O         1.9965461243        7.7736638491        6.2798001777
  O         5.9246324160        7.5145343792        6.4069752607
  O         9.6457904234        7.8787717379        6.3483027194
  O        -3.9917366804       10.7799507818        6.1991260639
  O         0.0434792192       10.9246644407        6.2766386048
  O         3.9408331406       11.1350576053        6.2616497966
  O         7.6732011130       11.1007677581        6.5745005810
  O        -0.1249124911        2.2895139705        7.8310639158
  O         3.8561067681        2.1291773956        7.6553138869
  O         7.7342268416        2.0555091692        8.3229896329
  O        11.3904869367        2.3834112797        8.0472239439
  O        -1.9646810884        5.3470853389        7.9752497184
  O         1.8027137062        5.6928209670        8.0001924209
  O         5.9837306343        5.6527572925        8.2583113646
  O         9.4944663787        5.3575810109        7.9971525713
  O        -3.8848410538        8.8537921007        8.0243144711
  O         0.3707293862        9.0466993843        8.1182221009
  O         3.9433845322        8.6977184712        7.9406375066
  O         7.9474927436        8.8578357280        8.2541998147
  O        -5.6026690779       12.3434769572        8.3073812292
  O        -2.0044626647       12.0594938334        7.9921399682
  O         2.0847256426       12.1376956198        7.8615057952
  O         5.7377106496       11.9043239486        7.9724609958
 Ce         0.0000000000        2.2090000000        0.7810000000
 Ce         3.8260000000        2.2090000000        0.7810000000
 Ce         7.6520000000        2.2090000000        0.7810000000
 Ce        11.4780000000        2.2090000000        0.7810000000
 Ce        -1.9130000000        5.5230000000        0.7810000000
 Ce         1.9130000000        5.5230000000        0.7810000000
 Ce         5.7390000000        5.5230000000        0.7810000000
 Ce         9.5650000000        5.5230000000        0.7810000000
 Ce        -3.8260000000        8.8360000000        0.7810000000
 Ce         0.0000000000        8.8360000000        0.7810000000
 Ce         3.8260000000        8.8360000000        0.7810000000
 Ce         7.6520000000        8.8360000000        0.7810000000
 Ce        -5.7390000000       12.1500000000        0.7810000000
 Ce        -1.9130000000       12.1500000000        0.7810000000
 Ce         1.9130000000       12.1500000000        0.7810000000
 Ce         5.7390000000       12.1500000000        0.7810000000
 Ce         1.8364510398        1.1041290062        3.9398568727
 Ce         5.6979593791        1.0806538928        3.9025664769
 Ce         9.5496161589        1.0724050402        3.9255370573
 Ce        13.4992675539        1.0887452641        3.9746593804
 Ce         0.1307272607        4.4219117940        3.9818935696
 Ce         3.8581469122        4.3555358707        3.8893798117
 Ce         7.6489264537        4.4934796054        3.8405770800
 Ce        11.4850031507        4.4801209254        3.9182570893
 Ce        -2.0060083140        7.7232546898        4.0424496555
 Ce         1.9873226945        7.7270367005        3.9797259684
 Ce         5.7149716946        7.6943795710        3.9722490745
 Ce         9.6994599116        7.6325865561        3.9611399433
 Ce        -3.8679811867       11.0359865233        3.8245246831
 Ce         0.0871811698       11.0169949646        3.8795946598
 Ce         3.8798535802       11.0602191491        3.8602683768
 Ce         7.7409181171       10.9852648461        3.9713549817
 Ce        -0.1584775119       -0.0160420598        7.1565911463
 Ce         3.8341393886       -0.1573342939        7.1394811532
 Ce         7.4803849293       -0.0133944154        7.2563014331
 Ce        11.4344054646       -0.1245346308        7.0540787124
 Ce        -1.8681738810        3.3191032873        7.2718613995
 Ce         1.9967575417        3.2544989248        7.2311970059
 Ce         5.7673504279        3.3448518363        7.1174151763
 Ce         9.6994292036        3.3160442053        6.9976201608
 Ce        -3.8545319446        6.6367931167        7.2475716251
 Ce         0.0250908647        6.7295831689        7.1270939567
 Ce         4.0229027537        6.6220973800        7.3704634608
 Ce         7.8254034850        6.5302976522        7.2198563080
 Ce        -5.7296642565        9.7748026282        7.1352361770
 Ce        -1.9471686917       10.1205230804        6.9537466454
 Ce         2.0591569681        9.9847530485        7.1916415262
 Ce         5.8650618601        9.9665492388        7.2685909884
 Pt        12.7513832010        1.8474730055        9.7199030423
 Pt         1.0589844780        5.5424042378        9.9597419506
 Pt         0.1233214227        8.1462486789        9.8722958258
 Pt         7.1712984342       14.1996234563       10.5497991818
 Pt        -0.4846020749        3.4048685881        9.9093923124
 Pt        -2.3323304398        8.4526413132        9.3022047217
 Pt         2.2058401138        3.3112135391        9.9047736336
 Pt         3.5357789520        5.2438940856       10.7861447014
 Pt         5.7243662454        4.3373977593        9.8940191385
 Pt         2.0195805580        0.6716331169        9.6465354744
 Pt         4.3693395598        1.4911892978        9.5004841038
 Pt        -0.1448470958        7.1398542257       12.1962722381
 Pt         6.7212510181        1.9544843455       10.0477857853
 Pt        -0.1320024864        4.4685152496       12.3241459120
 Pt         5.3188951586        0.4700419170       11.7324482804
 Pt         2.4955812317        6.7520124340       12.6147245207
 Pt         5.1409392508        3.0642604119       12.0616524559
 Pt         1.0618391486        5.6456546050       14.5000951279
 Pt         0.5404953048        2.2063868843       12.4618292081
 Pt         4.6698685528        5.7083646559       13.1506549821
 Pt         2.9354319419        1.5601523536       11.9359027566
 Pt         2.5307830128        3.8654731062       12.9587669889
     166
 i =     1754, time =     1754.000, E =     -6045.8269450388
  O         0.0000000000        0.0000000000        0.0000000000
  O         3.8260000000        0.0000000000        0.0000000000
  O         7.6520000000        0.0000000000        0.0000000000
  O        11.4780000000        0.0000000000        0.0000000000
  O        -1.9130000000        3.3140000000        0.0000000000
  O         1.9130000000        3.3140000000        0.0000000000
  O         5.7390000000        3.3140000000        0.0000000000
  O         9.5650000000        3.3140000000        0.0000000000
  O        -3.8260000000        6.6270000000        0.0000000000
  O         0.0000000000        6.6270000000        0.0000000000
  O         3.8260000000        6.6270000000        0.0000000000
  O         7.6520000000        6.6270000000        0.0000000000
  O        -5.7390000000        9.9410000000        0.0000000000
  O        -1.9130000000        9.9410000000        0.0000000000
  O         1.9130000000        9.9410000000        0.0000000000
  O         5.7390000000        9.9410000000        0.0000000000
  O         1.9130000000        1.1050000000        1.5620000000
  O         5.7390000000        1.1050000000        1.5620000000
  O         9.5650000000        1.1050000000        1.5620000000
  O        13.3920000000        1.1050000000        1.5620000000
  O         0.0000000000        4.4180000000        1.5620000000
  O         3.8260000000        4.4180000000        1.5620000000
  O         7.6520000000        4.4180000000        1.5620000000
  O        11.4780000000        4.4180000000        1.5620000000
  O        -1.9130000000        7.7320000000        1.5620000000
  O         1.9130000000        7.7320000000        1.5620000000
  O         5.7390000000        7.7320000000        1.5620000000
  O         9.5650000000        7.7320000000        1.5620000000
  O        -3.8260000000       11.0450000000        1.5620000000
  O         0.0000000000       11.0450000000        1.5620000000
  O         3.8260000000       11.0450000000        1.5620000000
  O         7.6520000000       11.0450000000        1.5620000000
  O         0.0000000000        2.2090000000        3.1240000000
  O         3.8260000000        2.2090000000        3.1240000000
  O         7.6520000000        2.2090000000        3.1240000000
  O        11.4780000000        2.2090000000        3.1240000000
  O        -1.9130000000        5.5230000000        3.1240000000
  O         1.9130000000        5.5230000000        3.1240000000
  O         5.7390000000        5.5230000000        3.1240000000
  O         9.5650000000        5.5230000000        3.1240000000
  O        -3.8260000000        8.8360000000        3.1240000000
  O         0.0000000000        8.8360000000        3.1240000000
  O         3.8260000000        8.8360000000        3.1240000000
  O         7.6520000000        8.8360000000        3.1240000000
  O        -5.7390000000       12.1500000000        3.1240000000
  O        -1.9130000000       12.1500000000        3.1240000000
  O         1.9130000000       12.1500000000        3.1240000000
  O         5.7390000000       12.1500000000        3.1240000000
  O        -0.0693115728        0.0434568812        4.8232822459
  O         3.8960683112       -0.0030245344        4.6807439278
  O         7.5612710951        0.1953710327        4.7816471530
  O        11.4748974396       -0.0690517725        4.7587845749
  O        -1.7792756250        3.3283596545        4.5349448521
  O         2.0458772303        3.3341775199        4.7712870840
  O         5.5192271200        3.1296748675        4.8671353821
  O         9.6146043963        3.2970645443        4.6309322685
  O        -3.6841251195        6.6058916104        4.8653349803
  O         0.0009037188        6.6678527509        4.7162804340
  O         3.9537883118        6.7102963084        4.7262227027
  O         7.7919689842        6.5110455009        4.7310890095
  O        -5.7673052403        9.8069045834        4.5989696609
  O        -1.9215201277        9.9776998307        4.6134100045
  O         2.0329679061        9.9661598833        4.7657450843
  O         5.9107054974        9.8313379339        4.9081404000
  O         1.9056640131        1.2144428632        6.1392111733
  O         5.7565291987        0.9997526361        6.4138575396
  O         9.4442111979        1.1217845873        6.3491653578
  O        13.3622800576        0.9333481904        6.2426089603
  O         0.0149481285        4.5125500748        6.3619594539
  O         4.0702712530        4.6387487261        6.4241216476
  O         7.5722691703        4.3736266916        6.3907355302
  O        11.4774095148        4.4632494741        6.2519031544
  O        -1.9025014471        7.8424673524        6.3051454252
  O         1.9988127410        7.7678052698        6.2835475099
  O         5.9251438832        7.5162536331        6.4059379866
  O         9.6411625231        7.8842288851        6.3425439162
  O        -3.9880789188       10.7795222143        6.1932244923
  O         0.0359905861       10.9308097681        6.2717855355
  O         3.9477947357       11.1291057131        6.2630561728
  O         7.6753277628       11.0969309716        6.5798054714
  O        -0.1204297407        2.2840043753        7.8318364927
  O         3.8624454138        2.1256619796        7.6571877618
  O         7.7337993943        2.0604838980        8.3161365135
  O        11.3948776091        2.3925592294        8.0476676494
  O        -1.9568788785        5.3478341742        7.9781329396
  O         1.7953876530        5.6875713303        7.9867371210
  O         5.9912914823        5.6486881930        8.2619914949
  O         9.4879654854        5.3593458902        7.9946730679
  O        -3.8802718892        8.8543366841        8.0289947096
  O         0.3730005085        9.0540066700        8.1172602555
  O         3.9454676146        8.6965665557        7.9397810344
  O         7.9431161809        8.8513701341        8.2498100063
  O        -5.6045762797       12.3352714893        8.3003853880
  O        -2.0003114267       12.0617623016        7.9850549116
  O         2.0903789930       12.1346150497        7.8633560211
  O         5.7380648271       11.9146756555        7.9705978931
 Ce         0.0000000000        2.2090000000        0.7810000000
 Ce         3.8260000000        2.2090000000        0.7810000000
 Ce         7.6520000000        2.2090000000        0.7810000000
 Ce        11.4780000000        2.2090000000        0.7810000000
 Ce        -1.9130000000        5.5230000000        0.7810000000
 Ce         1.9130000000        5.5230000000        0.7810000000
 Ce         5.7390000000        5.5230000000        0.7810000000
 Ce         9.5650000000        5.5230000000        0.7810000000
 Ce        -3.8260000000        8.8360000000        0.7810000000
 Ce         0.0000000000        8.8360000000        0.7810000000
 Ce         3.8260000000        8.8360000000        0.7810000000
 Ce         7.6520000000        8.8360000000        0.7810000000
 Ce        -5.7390000000       12.1500000000        0.7810000000
 Ce        -1.9130000000       12.1500000000        0.7810000000
 Ce         1.9130000000       12.1500000000        0.7810000000
 Ce         5.7390000000       12.1500000000        0.7810000000
 Ce         1.8373246955        1.1028100261        3.9399649368
 Ce         5.6998601436        1.0822832739        3.9013081217
 Ce         9.5491846021        1.0712370322        3.9247699647
 Ce        13.5028914667        1.0874305815        3.9726797562
 Ce         0.1353535501        4.4219142153        3.9807459302
 Ce         3.8570110864        4.3580641356        3.8926204412
 Ce         7.6486101209        4.4974619366        3.8413936280
 Ce        11.4857467033        4.4783023400        3.9191186516
 Ce        -2.0039424482        7.7199601307        4.0442407412
 Ce         1.9895026648        7.7281014248        3.9782488289
 Ce         5.7156479637        7.6952303305        3.9704946277
 Ce         9.6971884405        7.6329940759        3.9590882670
 Ce        -3.8691923117       11.0395952046        3.8228289347
 Ce         0.0910234031       11.0191529960        3.8834249722
 Ce         3.8832323034       11.0573822732        3.8601673168
 Ce         7.7393210913       10.9832757663        3.9720024159
 Ce        -0.1578212518       -0.0126163464        7.1542901626
 Ce         3.8371494847       -0.1553224126        7.1424958237
 Ce         7.4748396134       -0.0130991861        7.2546066040
 Ce        11.4345331190       -0.1226786528        7.0526736711
 Ce        -1.8684683586        3.3162189859        7.2727844792
 Ce         1.9971575960        3.2502208695        7.2282011358
 Ce         5.7685746424        3.3427045142        7.1139550021
 Ce         9.6991889126        3.3166449005        6.9973526062
 Ce        -3.8551217889        6.6380015543        7.2439222058
 Ce         0.0254244040        6.7283903370        7.1274130299
 Ce         4.0226821427        6.6254191910        7.3674833225
 Ce         7.8249305416        6.5343299146        7.2193058477
 Ce        -5.7290240475        9.7723144651        7.1349227796
 Ce        -1.9491074681       10.1208003021        6.9489397354
 Ce         2.0583384029        9.9878528446        7.1930306972
 Ce         5.8651066057        9.9634695246        7.2647190416
 Pt        12.7469741629        1.8478276765        9.7183678227
 Pt         1.0603136627        5.5412922449        9.9583766364
 Pt         0.1249939974        8.1448078842        9.8706764144
 Pt         7.1691654462       14.1983648040       10.5481659356
 Pt        -0.4859462124        3.4058110455        9.9100785732
 Pt        -2.3330221725        8.4522559477        9.3042572983
 Pt         2.2063311919        3.3119504670        9.9050137707
 Pt         3.5403986616        5.2422739692       10.7872737316
 Pt         5.7240486624        4.3383870061        9.8931620796
 Pt         2.0216477640        0.6722499010        9.6471853366
 Pt         4.3708718867        1.4909030058        9.5004099871
 Pt        -0.1464379527        7.1390408021       12.1959494057
 Pt         6.7245805453        1.9567926876       10.0440468245
 Pt        -0.1329524107        4.4678459777       12.3225454875
 Pt         5.3217742257        0.4698775338       11.7296218946
 Pt         2.4955787998        6.7533328041       12.6128210617
 Pt         5.1365018717        3.0647381815       12.0608265470
 Pt         1.0623834081        5.6471874802       14.4969091065
 Pt         0.5407988142        2.2067065906       12.4618270186
 Pt         4.6691017778        5.7079113264       13.1523313730
 Pt         2.9354983087        1.5579720726       11.9369040980
 Pt         2.5320935757        3.8660686173       12.9608050774
     166
 i =     1755, time =     1755.000, E =     -6045.8301217088
  O         0.0000000000        0.0000000000        0.0000000000
  O         3.8260000000        0.0000000000        0.0000000000
  O         7.6520000000        0.0000000000        0.0000000000
  O        11.4780000000        0.0000000000        0.0000000000
  O        -1.9130000000        3.3140000000        0.0000000000
  O         1.9130000000        3.3140000000        0.0000000000
  O         5.7390000000        3.3140000000        0.0000000000
  O         9.5650000000        3.3140000000        0.0000000000
  O        -3.8260000000        6.6270000000        0.0000000000
  O         0.0000000000        6.6270000000        0.0000000000
  O         3.8260000000        6.6270000000        0.0000000000
  O         7.6520000000        6.6270000000        0.0000000000
  O        -5.7390000000        9.9410000000        0.0000000000
  O        -1.9130000000        9.9410000000        0.0000000000
  O         1.9130000000        9.9410000000        0.0000000000
  O         5.7390000000        9.9410000000        0.0000000000
  O         1.9130000000        1.1050000000        1.5620000000
  O         5.7390000000        1.1050000000        1.5620000000
  O         9.5650000000        1.1050000000        1.5620000000
  O        13.3920000000        1.1050000000        1.5620000000
  O         0.0000000000        4.4180000000        1.5620000000
  O         3.8260000000        4.4180000000        1.5620000000
  O         7.6520000000        4.4180000000        1.5620000000
  O        11.4780000000        4.4180000000        1.5620000000
  O        -1.9130000000        7.7320000000        1.5620000000
  O         1.9130000000        7.7320000000        1.5620000000
  O         5.7390000000        7.7320000000        1.5620000000
  O         9.5650000000        7.7320000000        1.5620000000
  O        -3.8260000000       11.0450000000        1.5620000000
  O         0.0000000000       11.0450000000        1.5620000000
  O         3.8260000000       11.0450000000        1.5620000000
  O         7.6520000000       11.0450000000        1.5620000000
  O         0.0000000000        2.2090000000        3.1240000000
  O         3.8260000000        2.2090000000        3.1240000000
  O         7.6520000000        2.2090000000        3.1240000000
  O        11.4780000000        2.2090000000        3.1240000000
  O        -1.9130000000        5.5230000000        3.1240000000
  O         1.9130000000        5.5230000000        3.1240000000
  O         5.7390000000        5.5230000000        3.1240000000
  O         9.5650000000        5.5230000000        3.1240000000
  O        -3.8260000000        8.8360000000        3.1240000000
  O         0.0000000000        8.8360000000        3.1240000000
  O         3.8260000000        8.8360000000        3.1240000000
  O         7.6520000000        8.8360000000        3.1240000000
  O        -5.7390000000       12.1500000000        3.1240000000
  O        -1.9130000000       12.1500000000        3.1240000000
  O         1.9130000000       12.1500000000        3.1240000000
  O         5.7390000000       12.1500000000        3.1240000000
  O        -0.0790822995        0.0326709340        4.8254862639
  O         3.9032532256       -0.0029341439        4.6803865027
  O         7.5588095307        0.1932217500        4.7652631076
  O        11.4744841487       -0.0735433724        4.7577068246
  O        -1.7822193228        3.3288787545        4.5386976242
  O         2.0523993760        3.3220919462        4.7669887497
  O         5.5245293929        3.1475631192        4.8743055780
  O         9.6090797263        3.2993498879        4.6360704627
  O        -3.6938711215        6.6113500624        4.8581719867
  O        -0.0001011521        6.6607041538        4.7119025053
  O         3.9543465772        6.7090069036        4.7219256122
  O         7.7917918700        6.5156801447        4.7232414358
  O        -5.7654805481        9.7997445984        4.5992911872
  O        -1.9176485988        9.9719258834        4.6129670057
  O         2.0343822526        9.9690522541        4.7652621656
  O         5.9227376788        9.8282454957        4.9059632480
  O         1.9048061435        1.2206346554        6.1575359439
  O         5.7605699314        0.9934505727        6.4046797995
  O         9.4495787745        1.1236109578        6.3434734867
  O        13.3582051605        0.9329601424        6.2484020969
  O         0.0077385026        4.5123255442        6.3483999615
  O         4.0765661259        4.6303524328        6.4291885182
  O         7.5758078149        4.3735828540        6.3885344014
  O        11.4765303397        4.4515629514        6.2533473600
  O        -1.8999681504        7.8320098158        6.3124542507
  O         2.0008786224        7.7617585433        6.2876273362
  O         5.9257625932        7.5182974760        6.4050615179
  O         9.6364985863        7.8878175173        6.3364367786
  O        -3.9839442619       10.7802296912        6.1875474937
  O         0.0283106810       10.9376298756        6.2670480174
  O         3.9547442638       11.1223056582        6.2646671057
  O         7.6781801522       11.0929643816        6.5844334045
  O        -0.1151209283        2.2779737084        7.8326172434
  O         3.8688921644        2.1223034659        7.6587808961
  O         7.7334790657        2.0654980270        8.3087732663
  O        11.3992908525        2.4012791025        8.0484009488
  O        -1.9493672797        5.3492985602        7.9808432740
  O         1.7885075157        5.6822125088        7.9737538580
  O         5.9988018012        5.6442822936        8.2658182902
  O         9.4819397367        5.3616789563        7.9920686791
  O        -3.8758048822        8.8546578372        8.0340048944
  O         0.3750087007        9.0613027276        8.1159473328
  O         3.9477553097        8.6961171609        7.9390603542
  O         7.9383250100        8.8446164926        8.2446378327
  O        -5.6067837810       12.3271693981        8.2929735292
  O        -1.9961206694       12.0640393731        7.9777667828
  O         2.0955171062       12.1313389307        7.8655742109
  O         5.7382965214       11.9258146664        7.9691230729
 Ce         0.0000000000        2.2090000000        0.7810000000
 Ce         3.8260000000        2.2090000000        0.7810000000
 Ce         7.6520000000        2.2090000000        0.7810000000
 Ce        11.4780000000        2.2090000000        0.7810000000
 Ce        -1.9130000000        5.5230000000        0.7810000000
 Ce         1.9130000000        5.5230000000        0.7810000000
 Ce         5.7390000000        5.5230000000        0.7810000000
 Ce         9.5650000000        5.5230000000        0.7810000000
 Ce        -3.8260000000        8.8360000000        0.7810000000
 Ce         0.0000000000        8.8360000000        0.7810000000
 Ce         3.8260000000        8.8360000000        0.7810000000
 Ce         7.6520000000        8.8360000000        0.7810000000
 Ce        -5.7390000000       12.1500000000        0.7810000000
 Ce        -1.9130000000       12.1500000000        0.7810000000
 Ce         1.9130000000       12.1500000000        0.7810000000
 Ce         5.7390000000       12.1500000000        0.7810000000
 Ce         1.8382946131        1.1015206287        3.9400697211
 Ce         5.7017937707        1.0838938312        3.9000693595
 Ce         9.5487563617        1.0701272474        3.9240123002
 Ce        13.5063659161        1.0861945751        3.9706217576
 Ce         0.1398486498        4.4219488526        3.9796073182
 Ce         3.8558556970        4.3606290116        3.8958993711
 Ce         7.6483208233        4.5013324961        3.8422596251
 Ce        11.4866069455        4.4763398684        3.9199427642
 Ce        -2.0016798677        7.7166860010        4.0459178967
 Ce         1.9916255871        7.7291880087        3.9767725419
 Ce         5.7163883013        7.6961310282        3.9687449684
 Ce         9.6947987465        7.6334943629        3.9569643959
 Ce        -3.8703322546       11.0432154464        3.8211655668
 Ce         0.0947966787       11.0212887907        3.8872819608
 Ce         3.8865971316       11.0545294109        3.8601345282
 Ce         7.7376413218       10.9812460040        3.9726016992
 Ce        -0.1571031342       -0.0091567459        7.1520183148
 Ce         3.8401163235       -0.1532212137        7.1454384926
 Ce         7.4694117403       -0.0127693203        7.2528447973
 Ce        11.4346716537       -0.1207521218        7.0512546277
 Ce        -1.8688286045        3.3134489855        7.2735750833
 Ce         1.9974476692        3.2460013946        7.2250899762
 Ce         5.7698134038        3.3405222018        7.1105015170
 Ce         9.6988902893        3.3172084658        6.9971008096
 Ce        -3.8555579841        6.6391565760        7.2402883511
 Ce         0.0257125068        6.7271505158        7.1276807711
 Ce         4.0224195016        6.6287784943        7.3644554286
 Ce         7.8243510197        6.5384039785        7.2187517809
 Ce        -5.7284454657        9.7699761171        7.1347160351
 Ce        -1.9510069053       10.1208975482        6.9441714710
 Ce         2.0575428235        9.9909158818        7.1943100169
 Ce         5.8651361058        9.9602914773        7.2607934917
 Pt        12.7424757571        1.8481880819        9.7167708875
 Pt         1.0615657910        5.5402792220        9.9570141984
 Pt         0.1266515954        8.1433113602        9.8691237019
 Pt         7.1670705018       14.1970540750       10.5465934685
 Pt        -0.4872337357        3.4067618186        9.9107870728
 Pt        -2.3336968521        8.4518599820        9.3062995239
 Pt         2.2068098262        3.3126043604        9.9052812464
 Pt         3.5450769543        5.2406919647       10.7884298210
 Pt         5.7237189326        4.3394313901        9.8922796105
 Pt         2.0236418884        0.6727953998        9.6478294731
 Pt         4.3724100522        1.4906196796        9.5003836328
 Pt        -0.1479702653        7.1381911891       12.1956287737
 Pt         6.7279952695        1.9590902836       10.0403315864
 Pt        -0.1338993968        4.4673600074       12.3208969591
 Pt         5.3246426526        0.4697292516       11.7267803655
 Pt         2.4954714336        6.7546354302       12.6109166941
 Pt         5.1320733437        3.0652710887       12.0600124348
 Pt         1.0629264703        5.6487041169       14.4936407695
 Pt         0.5411380976        2.2069099885       12.4618576358
 Pt         4.6683677383        5.7073931077       13.1539887131
 Pt         2.9355728256        1.5557558338       11.9379054608
 Pt         2.5334075758        3.8667063587       12.9629050871
     166
 i =     1756, time =     1756.000, E =     -6045.8334533918
  O         0.0000000000        0.0000000000        0.0000000000
  O         3.8260000000        0.0000000000        0.0000000000
  O         7.6520000000        0.0000000000        0.0000000000
  O        11.4780000000        0.0000000000        0.0000000000
  O        -1.9130000000        3.3140000000        0.0000000000
  O         1.9130000000        3.3140000000        0.0000000000
  O         5.7390000000        3.3140000000        0.0000000000
  O         9.5650000000        3.3140000000        0.0000000000
  O        -3.8260000000        6.6270000000        0.0000000000
  O         0.0000000000        6.6270000000        0.0000000000
  O         3.8260000000        6.6270000000        0.0000000000
  O         7.6520000000        6.6270000000        0.0000000000
  O        -5.7390000000        9.9410000000        0.0000000000
  O        -1.9130000000        9.9410000000        0.0000000000
  O         1.9130000000        9.9410000000        0.0000000000
  O         5.7390000000        9.9410000000        0.0000000000
  O         1.9130000000        1.1050000000        1.5620000000
  O         5.7390000000        1.1050000000        1.5620000000
  O         9.5650000000        1.1050000000        1.5620000000
  O        13.3920000000        1.1050000000        1.5620000000
  O         0.0000000000        4.4180000000        1.5620000000
  O         3.8260000000        4.4180000000        1.5620000000
  O         7.6520000000        4.4180000000        1.5620000000
  O        11.4780000000        4.4180000000        1.5620000000
  O        -1.9130000000        7.7320000000        1.5620000000
  O         1.9130000000        7.7320000000        1.5620000000
  O         5.7390000000        7.7320000000        1.5620000000
  O         9.5650000000        7.7320000000        1.5620000000
  O        -3.8260000000       11.0450000000        1.5620000000
  O         0.0000000000       11.0450000000        1.5620000000
  O         3.8260000000       11.0450000000        1.5620000000
  O         7.6520000000       11.0450000000        1.5620000000
  O         0.0000000000        2.2090000000        3.1240000000
  O         3.8260000000        2.2090000000        3.1240000000
  O         7.6520000000        2.2090000000        3.1240000000
  O        11.4780000000        2.2090000000        3.1240000000
  O        -1.9130000000        5.5230000000        3.1240000000
  O         1.9130000000        5.5230000000        3.1240000000
  O         5.7390000000        5.5230000000        3.1240000000
  O         9.5650000000        5.5230000000        3.1240000000
  O        -3.8260000000        8.8360000000        3.1240000000
  O         0.0000000000        8.8360000000        3.1240000000
  O         3.8260000000        8.8360000000        3.1240000000
  O         7.6520000000        8.8360000000        3.1240000000
  O        -5.7390000000       12.1500000000        3.1240000000
  O        -1.9130000000       12.1500000000        3.1240000000
  O         1.9130000000       12.1500000000        3.1240000000
  O         5.7390000000       12.1500000000        3.1240000000
  O        -0.0880964669        0.0211750223        4.8275618823
  O         3.9098336928       -0.0032888802        4.6804663779
  O         7.5568325030        0.1900625662        4.7489393795
  O        11.4737891612       -0.0777095665        4.7564381148
  O        -1.7855321831        3.3291566815        4.5431893006
  O         2.0587262278        3.3103073630        4.7627139704
  O         5.5304269689        3.1659900038        4.8811591673
  O         9.6032953874        3.3019449432        4.6417474491
  O        -3.7046577253        6.6169220751        4.8510041401
  O        -0.0009556273        6.6535760653        4.7078884520
  O         3.9544861000        6.7073516921        4.7178079339
  O         7.7916062802        6.5206077788        4.7157580725
  O        -5.7638586890        9.7931824523        4.5999907582
  O        -1.9138514791        9.9662977825        4.6128651443
  O         2.0356442268        9.9720407974        4.7646609928
  O         5.9345699699        9.8254305139        4.9036370517
  O         1.9037278252        1.2260777663        6.1765629833
  O         5.7646588946        0.9872056011        6.3956868929
  O         9.4553068427        1.1255277612        6.3378715915
  O        13.3539683704        0.9329786482        6.2548236229
  O         0.0008933876        4.5120090749        6.3347461579
  O         4.0822878147        4.6216713020        6.4345438361
  O         7.5797291641        4.3733937363        6.3858993196
  O        11.4754607370        4.4397547482        6.2548982194
  O        -1.8973488095        7.8215074549        6.3198861556
  O         2.0027449759        7.7555442509        6.2919998490
  O         5.9264538186        7.5206651452        6.4043380651
  O         9.6318223177        7.8895284815        6.3299924831
  O        -3.9793590696       10.7820617744        6.1820873170
  O         0.0204668854       10.9451167552        6.2624186762
  O         3.9616611547       11.1146844550        6.2664812742
  O         7.6817349736       11.0888803961        6.5883796787
  O        -0.1090316212        2.2714705519        7.8333973832
  O         3.8754149057        2.1191126813        7.6600638632
  O         7.7332501784        2.0705380661        8.3009440247
  O        11.4037195083        2.4095306758        8.0494454824
  O        -1.9421760666        5.3514435976        7.9833784509
  O         1.7821032592        5.6767057503        7.9612548776
  O         6.0062489204        5.6395807558        8.2697792035
  O         9.4764196450        5.3645800072        7.9893528354
  O        -3.8714844790        8.8547768187        8.0393119974
  O         0.3767258796        9.0685800544        8.1143080778
  O         3.9502446083        8.6963728644        7.9384834223
  O         7.9331373541        8.8375853257        8.2386973492
  O        -5.6092639419       12.3192311064        8.2852077111
  O        -1.9919093085       12.0663109105        7.9702839112
  O         2.1001340748       12.1278767966        7.8681377378
  O         5.7384199405       11.9376512059        7.9679933943
 Ce         0.0000000000        2.2090000000        0.7810000000
 Ce         3.8260000000        2.2090000000        0.7810000000
 Ce         7.6520000000        2.2090000000        0.7810000000
 Ce        11.4780000000        2.2090000000        0.7810000000
 Ce        -1.9130000000        5.5230000000        0.7810000000
 Ce         1.9130000000        5.5230000000        0.7810000000
 Ce         5.7390000000        5.5230000000        0.7810000000
 Ce         9.5650000000        5.5230000000        0.7810000000
 Ce        -3.8260000000        8.8360000000        0.7810000000
 Ce         0.0000000000        8.8360000000        0.7810000000
 Ce         3.8260000000        8.8360000000        0.7810000000
 Ce         7.6520000000        8.8360000000        0.7810000000
 Ce        -5.7390000000       12.1500000000        0.7810000000
 Ce        -1.9130000000       12.1500000000        0.7810000000
 Ce         1.9130000000       12.1500000000        0.7810000000
 Ce         5.7390000000       12.1500000000        0.7810000000
 Ce         1.8393619864        1.1002612879        3.9401745046
 Ce         5.7037605151        1.0854892105        3.8988483666
 Ce         9.5483318912        1.0690786365        3.9232638622
 Ce        13.5096827602        1.0850403257        3.9684889013
 Ce         0.1442052450        4.4220149805        3.9784799382
 Ce         3.8546863008        4.3632293327        3.8992135269
 Ce         7.6480593093        4.5050882666        3.8431767154
 Ce        11.4875808475        4.4742344609        3.9207297494
 Ce        -1.9992246765        7.7134337021        4.0474786872
 Ce         1.9936868232        7.7302955029        3.9752983436
 Ce         5.7171964859        7.6970785066        3.9669982308
 Ce         9.6922937847        7.6340873357        3.9547660798
 Ce        -3.8713967679       11.0468395371        3.8195351768
 Ce         0.0984966494       11.0234021008        3.8911597785
 Ce         3.8899450014       11.0516653942        3.8601700862
 Ce         7.7358829800       10.9791725927        3.9731532331
 Ce        -0.1563254542       -0.0056698350        7.1497812632
 Ce         3.8430344411       -0.1510346140        7.1483093339
 Ce         7.4641076998       -0.0124040675        7.2510165867
 Ce        11.4348246262       -0.1187591650        7.0498213968
 Ce        -1.8692516400        3.3107960780        7.2742324246
 Ce         1.9976302178        3.2418418752        7.2218694639
 Ce         5.7710731218        3.3383093935        7.1070583290
 Ce         9.6985291124        3.3177360720        6.9968636757
 Ce        -3.8558404534        6.6402557930        7.2366716176
 Ce         0.0259520494        6.7258613329        7.1278966965
 Ce         4.0221153043        6.6321686117        7.3613804741
 Ce         7.8236655567        6.5425154803        7.2181945401
 Ce        -5.7279271553        9.7677919160        7.1346150916
 Ce        -1.9528660601       10.1208129171        6.9394419162
 Ce         2.0567727346        9.9939406065        7.1954791784
 Ce         5.8651520396        9.9570271543        7.2568193562
 Pt        12.7378920636        1.8485546840        9.7151135502
 Pt         1.0627412678        5.5393659902        9.9556531826
 Pt         0.1282935085        8.1417604220        9.8676362215
 Pt         7.1650135285       14.1956929399       10.5450821033
 Pt        -0.4884648391        3.4077193464        9.9115169717
 Pt        -2.3343517119        8.4514534931        9.3083325624
 Pt         2.2072775686        3.3131747975        9.9055760627
 Pt         3.5498094232        5.2391482859       10.7896126899
 Pt         5.7233787954        4.3405284753        9.8913725708
 Pt         2.0255608175        0.6732662628        9.6484653572
 Pt         4.3739557883        1.4903389087        9.5004079767
 Pt        -0.1494437182        7.1373056577       12.1953090174
 Pt         6.7314944386        1.9613773777       10.0366390426
 Pt        -0.1348426870        4.4670572518       12.3192005887
 Pt         5.3274996847        0.4695975481       11.7239241538
 Pt         2.4952590826        6.7559207127       12.6090108273
 Pt         5.1276551789        3.0658588913       12.0592096296
 Pt         1.0634684177        5.6502043433       14.4902905565
 Pt         0.5415123167        2.2069970312       12.4619213097
 Pt         4.6676665802        5.7068106496       13.1556271113
 Pt         2.9356561565        1.5535048581       11.9389066064
 Pt         2.5347238663        3.8673838737       12.9650658864
     166
 i =     1757, time =     1757.000, E =     -6045.8368249305
  O         0.0000000000        0.0000000000        0.0000000000
  O         3.8260000000        0.0000000000        0.0000000000
  O         7.6520000000        0.0000000000        0.0000000000
  O        11.4780000000        0.0000000000        0.0000000000
  O        -1.9130000000        3.3140000000        0.0000000000
  O         1.9130000000        3.3140000000        0.0000000000
  O         5.7390000000        3.3140000000        0.0000000000
  O         9.5650000000        3.3140000000        0.0000000000
  O        -3.8260000000        6.6270000000        0.0000000000
  O         0.0000000000        6.6270000000        0.0000000000
  O         3.8260000000        6.6270000000        0.0000000000
  O         7.6520000000        6.6270000000        0.0000000000
  O        -5.7390000000        9.9410000000        0.0000000000
  O        -1.9130000000        9.9410000000        0.0000000000
  O         1.9130000000        9.9410000000        0.0000000000
  O         5.7390000000        9.9410000000        0.0000000000
  O         1.9130000000        1.1050000000        1.5620000000
  O         5.7390000000        1.1050000000        1.5620000000
  O         9.5650000000        1.1050000000        1.5620000000
  O        13.3920000000        1.1050000000        1.5620000000
  O         0.0000000000        4.4180000000        1.5620000000
  O         3.8260000000        4.4180000000        1.5620000000
  O         7.6520000000        4.4180000000        1.5620000000
  O        11.4780000000        4.4180000000        1.5620000000
  O        -1.9130000000        7.7320000000        1.5620000000
  O         1.9130000000        7.7320000000        1.5620000000
  O         5.7390000000        7.7320000000        1.5620000000
  O         9.5650000000        7.7320000000        1.5620000000
  O        -3.8260000000       11.0450000000        1.5620000000
  O         0.0000000000       11.0450000000        1.5620000000
  O         3.8260000000       11.0450000000        1.5620000000
  O         7.6520000000       11.0450000000        1.5620000000
  O         0.0000000000        2.2090000000        3.1240000000
  O         3.8260000000        2.2090000000        3.1240000000
  O         7.6520000000        2.2090000000        3.1240000000
  O        11.4780000000        2.2090000000        3.1240000000
  O        -1.9130000000        5.5230000000        3.1240000000
  O         1.9130000000        5.5230000000        3.1240000000
  O         5.7390000000        5.5230000000        3.1240000000
  O         9.5650000000        5.5230000000        3.1240000000
  O        -3.8260000000        8.8360000000        3.1240000000
  O         0.0000000000        8.8360000000        3.1240000000
  O         3.8260000000        8.8360000000        3.1240000000
  O         7.6520000000        8.8360000000        3.1240000000
  O        -5.7390000000       12.1500000000        3.1240000000
  O        -1.9130000000       12.1500000000        3.1240000000
  O         1.9130000000       12.1500000000        3.1240000000
  O         5.7390000000       12.1500000000        3.1240000000
  O        -0.0962622697        0.0090217718        4.8294906369
  O         3.9157319977       -0.0040665484        4.6809889749
  O         7.5553716379        0.1858942197        4.7327738200
  O        11.4728291270       -0.0815567852        4.7549870878
  O        -1.7891915569        3.3291728532        4.5483840181
  O         2.0648094884        3.2988871792        4.7584709917
  O         5.5369100941        3.1848790975        4.8876009348
  O         9.5972716067        3.3048362134        4.6479516638
  O        -3.7164066086        6.6225468287        4.8438367502
  O        -0.0016386543        6.6465042869        4.7042148600
  O         3.9541964843        6.7053247854        4.7138809578
  O         7.7913796092        6.5258170856        4.7086360515
  O        -5.7624619004        9.7872821324        4.6010604996
  O        -1.9101415375        9.9608090041        4.6131131108
  O         2.0367463637        9.9751054602        4.7639612702
  O         5.9461742910        9.8228952612        4.9011801561
  O         1.9024190276        1.2306958173        6.1960901952
  O         5.7687689588        0.9810700996        6.3868596094
  O         9.4613787249        1.1275072724        6.3323388631
  O        13.3495937857        0.9334316305        6.2618251076
  O        -0.0055563547        4.5115746749        6.3209654680
  O         4.0873625341        4.6127828248        6.4401833311
  O         7.5840237656        4.3730809561        6.3828436757
  O        11.4742405967        4.4278833438        6.2565413678
  O        -1.8946484702        7.8109704646        6.3273740777
  O         2.0044152694        7.7491850700        6.2966174235
  O         5.9271794371        7.5233563187        6.4037602402
  O         9.6271516950        7.8893729146        6.3232340946
  O        -3.9743543196       10.7850002631        6.1768454159
  O         0.0125037519       10.9532570062        6.2578887065
  O         3.9685376850       11.1062762616        6.2684972459
  O         7.6859619778       11.0846808444        6.5916354138
  O        -0.1022288330        2.2645641293        7.8341723544
  O         3.8819912436        2.1160897492        7.6610092297
  O         7.7331004613        2.0755913328        8.2927047881
  O        11.4081653540        2.4172877951        8.0508281805
  O        -1.9353307509        5.3542340041        7.9857329418
  O         1.7761980534        5.6710086134        7.9492462854
  O         6.0136059189        5.6346335131        8.2738613893
  O         9.4714400242        5.3680451223        7.9865368307
  O        -3.8673544955        8.8547167362        8.0448884410
  O         0.3781251482        9.0758207041        8.1123678306
  O         3.9529321069        8.6973298495        7.9380563230
  O         7.9275832386        8.8303028424        8.2320187213
  O        -5.6119850797       12.3115061304        8.2771293281
  O        -1.9876982918       12.0685607896        7.9626036269
  O         2.1042238680       12.1242365339        7.8710217898
  O         5.7384447684       11.9501175977        7.9671668784
 Ce         0.0000000000        2.2090000000        0.7810000000
 Ce         3.8260000000        2.2090000000        0.7810000000
 Ce         7.6520000000        2.2090000000        0.7810000000
 Ce        11.4780000000        2.2090000000        0.7810000000
 Ce        -1.9130000000        5.5230000000        0.7810000000
 Ce         1.9130000000        5.5230000000        0.7810000000
 Ce         5.7390000000        5.5230000000        0.7810000000
 Ce         9.5650000000        5.5230000000        0.7810000000
 Ce        -3.8260000000        8.8360000000        0.7810000000
 Ce         0.0000000000        8.8360000000        0.7810000000
 Ce         3.8260000000        8.8360000000        0.7810000000
 Ce         7.6520000000        8.8360000000        0.7810000000
 Ce        -5.7390000000       12.1500000000        0.7810000000
 Ce        -1.9130000000       12.1500000000        0.7810000000
 Ce         1.9130000000       12.1500000000        0.7810000000
 Ce         5.7390000000       12.1500000000        0.7810000000
 Ce         1.8405279227        1.0990320568        3.9402819967
 Ce         5.7057605665        1.0870725918        3.8976433996
 Ce         9.5479115717        1.0680938711        3.9225245348
 Ce        13.5128345204        1.0839704733        3.9662850951
 Ce         0.1484163838        4.4221116656        3.9773657934
 Ce         3.8535084119        4.3658640651        3.9025597171
 Ce         7.6478263245        4.5087264707        3.8441467604
 Ce        11.4886650236        4.4719874520        3.9214800829
 Ce        -1.9965816517        7.7102044692        4.0489209076
 Ce         1.9956819365        7.7314228689        3.9738272712
 Ce         5.7180763288        7.6980695195        3.9652525515
 Ce         9.6896765018        7.6347727276        3.9524914403
 Ce        -3.8723820285       11.0504600233        3.8179384585
 Ce         0.1021191228       11.0254930456        3.8950526889
 Ce         3.8932729786       11.0487950695        3.8602739317
 Ce         7.7340506032       10.9770532067        3.9736577423
 Ce        -0.1554897331       -0.0021624018        7.1475850210
 Ce         3.8458986436       -0.1487668259        7.1511082879
 Ce         7.4589343407       -0.0120036168        7.2491232005
 Ce        11.4349959341       -0.1167037952        7.0483742041
 Ce        -1.8697340249        3.3082623900        7.2747559093
 Ce         1.9977078276        3.2377441314        7.2185457328
 Ce         5.7723604064        3.3360701251        7.1036293613
 Ce         9.6981011829        3.3182290840        6.9966400308
 Ce        -3.8559698547        6.6412968975        7.2330735208
 Ce         0.0261400677        6.7245206668        7.1280605253
 Ce         4.0217698074        6.6355832317        7.3582590708
 Ce         7.8228756667        6.5466601122        7.2176341761
 Ce        -5.7274676665        9.7657648040        7.1346179876
 Ce        -1.9546839832       10.1205454536        6.9347511505
 Ce         2.0560309822        9.9969260792        7.1965380088
 Ce         5.8651563186        9.9536886009        7.2528015454
 Pt        12.7332271226        1.8489276249        9.7133970410
 Pt         1.0638411699        5.5385529311        9.9542922378
 Pt         0.1299193267        8.1401570523        9.8662119787
 Pt         7.1629938222       14.1942826646       10.5436326625
 Pt        -0.4896400158        3.4086820970        9.9122672744
 Pt        -2.3349845346        8.4510365570        9.3103579686
 Pt         2.2077357466        3.3136614556        9.9058981370
 Pt         3.5545913023        5.2376437578       10.7908226060
 Pt         5.7230300863        4.3416757224        9.8904418773
 Pt         2.0274026241        0.6736596055        9.6490909970
 Pt         4.3755109162        1.4900606037        9.5004854985
 Pt        -0.1508579116        7.1363840622       12.1949894622
 Pt         6.7350774763        1.9636538820       10.0329685483
 Pt        -0.1357808753        4.4669369804       12.3174571713
 Pt         5.3303449849        0.4694827972       11.7210543521
 Pt         2.4949427140        6.7571880118       12.6071029437
 Pt         5.1232487852        3.0665013182       12.0584179252
 Pt         1.0640094209        5.6516877674       14.4868580758
 Pt         0.5419196799        2.2069682300       12.4620172337
 Pt         4.6669978218        5.7061643062       13.1572465247
 Pt         2.9357485433        1.5512211078       11.9399075541
 Pt         2.5360417058        3.8680996681       12.9672864138
     166
 i =     1758, time =     1758.000, E =     -6045.8401483329
  O         0.0000000000        0.0000000000        0.0000000000
  O         3.8260000000        0.0000000000        0.0000000000
  O         7.6520000000        0.0000000000        0.0000000000
  O        11.4780000000        0.0000000000        0.0000000000
  O        -1.9130000000        3.3140000000        0.0000000000
  O         1.9130000000        3.3140000000        0.0000000000
  O         5.7390000000        3.3140000000        0.0000000000
  O         9.5650000000        3.3140000000        0.0000000000
  O        -3.8260000000        6.6270000000        0.0000000000
  O         0.0000000000        6.6270000000        0.0000000000
  O         3.8260000000        6.6270000000        0.0000000000
  O         7.6520000000        6.6270000000        0.0000000000
  O        -5.7390000000        9.9410000000        0.0000000000
  O        -1.9130000000        9.9410000000        0.0000000000
  O         1.9130000000        9.9410000000        0.0000000000
  O         5.7390000000        9.9410000000        0.0000000000
  O         1.9130000000        1.1050000000        1.5620000000
  O         5.7390000000        1.1050000000        1.5620000000
  O         9.5650000000        1.1050000000        1.5620000000
  O        13.3920000000        1.1050000000        1.5620000000
  O         0.0000000000        4.4180000000        1.5620000000
  O         3.8260000000        4.4180000000        1.5620000000
  O         7.6520000000        4.4180000000        1.5620000000
  O        11.4780000000        4.4180000000        1.5620000000
  O        -1.9130000000        7.7320000000        1.5620000000
  O         1.9130000000        7.7320000000        1.5620000000
  O         5.7390000000        7.7320000000        1.5620000000
  O         9.5650000000        7.7320000000        1.5620000000
  O        -3.8260000000       11.0450000000        1.5620000000
  O         0.0000000000       11.0450000000        1.5620000000
  O         3.8260000000       11.0450000000        1.5620000000
  O         7.6520000000       11.0450000000        1.5620000000
  O         0.0000000000        2.2090000000        3.1240000000
  O         3.8260000000        2.2090000000        3.1240000000
  O         7.6520000000        2.2090000000        3.1240000000
  O        11.4780000000        2.2090000000        3.1240000000
  O        -1.9130000000        5.5230000000        3.1240000000
  O         1.9130000000        5.5230000000        3.1240000000
  O         5.7390000000        5.5230000000        3.1240000000
  O         9.5650000000        5.5230000000        3.1240000000
  O        -3.8260000000        8.8360000000        3.1240000000
  O         0.0000000000        8.8360000000        3.1240000000
  O         3.8260000000        8.8360000000        3.1240000000
  O         7.6520000000        8.8360000000        3.1240000000
  O        -5.7390000000       12.1500000000        3.1240000000
  O        -1.9130000000       12.1500000000        3.1240000000
  O         1.9130000000       12.1500000000        3.1240000000
  O         5.7390000000       12.1500000000        3.1240000000
  O        -0.1035121140       -0.0037165465        4.8312521066
  O         3.9208904818       -0.0052398644        4.6819548164
  O         7.5544597771        0.1807324067        4.7168909650
  O        11.4716218918       -0.0850963648        4.7533658094
  O        -1.7931748908        3.3289086686        4.5542548261
  O         2.0706147782        3.2878759201        4.7542819212
  O         5.5439410891        3.2041132682        4.8935219085
  O         9.5910254913        3.3080096019        4.6546613324
  O        -3.7290548022        6.6281683467        4.8366833838
  O        -0.0021295977        6.6395323403        4.7008596450
  O         3.9534710480        6.7029235095        4.7101507201
  O         7.7910762327        6.5312984782        4.7018590221
  O        -5.7613099053        9.7820999871        4.6024915925
  O        -1.9065358178        9.9554566474        4.6137172814
  O         2.0376809079        9.9782256887        4.7631837647
  O         5.9574902124        9.8206422446        4.8986107575
  O         1.9008778852        1.2344213216        6.2160525727
  O         5.7728846794        0.9750949763        6.3782143380
  O         9.4677750328        1.1295189401        6.3268598212
  O        13.3451033858        0.9343488157        6.2693686759
  O        -0.0115827772        4.5109909743        6.3070643628
  O         4.0917127895        4.6037804871        6.4460890051
  O         7.5886793576        4.3726630574        6.3793896688
  O        11.4729140886        4.4160302402        6.2582608833
  O        -1.8918714773        7.8004142914        6.3348730918
  O         2.0058955063        7.7427071169        6.3014222990
  O         5.9278970964        7.5263672951        6.4033194091
  O         9.6225042091        7.8873883762        6.3162103879
  O        -3.9689680254       10.7890195994        6.1718382684
  O         0.0044773641       10.9620380581        6.2534534450
  O         3.9753772134       11.0971238931        6.2707135446
  O         7.6908248573       11.0803599182        6.5941935573
  O        -0.0947931708        2.2573330269        7.8349341518
  O         3.8886025259        2.1132286296        7.6615957481
  O         7.7330152380        2.0806361826        8.2841091191
  O        11.4126231941        2.4245363906        8.0525757891
  O        -1.9288440353        5.3576367145        7.9878969508
  O         1.7708177613        5.6650852895        7.9377726871
  O         6.0208342062        5.6294911927        8.2780518506
  O         9.4670351345        5.3720690744        7.9836283561
  O        -3.8634572744        8.8545029947        8.0507166693
  O         0.3791867153        9.0829963567        8.1101585564
  O         3.9558115997        8.6989787429        7.9377835597
  O         7.9216943657        8.8228013162        8.2246563895
  O        -5.6149075801       12.3040383345        8.2687523990
  O        -1.9835050295       12.0707737921        7.9547255593
  O         2.1077786073       12.1204284184        7.8741990265
  O         5.7383801437       11.9631438075        7.9666029668
 Ce         0.0000000000        2.2090000000        0.7810000000
 Ce         3.8260000000        2.2090000000        0.7810000000
 Ce         7.6520000000        2.2090000000        0.7810000000
 Ce        11.4780000000        2.2090000000        0.7810000000
 Ce        -1.9130000000        5.5230000000        0.7810000000
 Ce         1.9130000000        5.5230000000        0.7810000000
 Ce         5.7390000000        5.5230000000        0.7810000000
 Ce         9.5650000000        5.5230000000        0.7810000000
 Ce        -3.8260000000        8.8360000000        0.7810000000
 Ce         0.0000000000        8.8360000000        0.7810000000
 Ce         3.8260000000        8.8360000000        0.7810000000
 Ce         7.6520000000        8.8360000000        0.7810000000
 Ce        -5.7390000000       12.1500000000        0.7810000000
 Ce        -1.9130000000       12.1500000000        0.7810000000
 Ce         1.9130000000       12.1500000000        0.7810000000
 Ce         5.7390000000       12.1500000000        0.7810000000
 Ce         1.8417933906        1.0978325157        3.9403943869
 Ce         5.7077940407        1.0886463275        3.8964525402
 Ce         9.5474959030        1.0671754712        3.9217942210
 Ce        13.5158145696        1.0829869947        3.9640148867
 Ce         0.1524751364        4.4222378082        3.9762667428
 Ce         3.8523275053        4.3685322065        3.9059346342
 Ce         7.6476227683        4.5122448631        3.8451717779
 Ce        11.4898556672        4.4696004307        3.9221945896
 Ce        -1.9937564495        7.7069992564        4.0502427378
 Ce         1.9976066236        7.7325690334        3.9723603653
 Ce         5.7190314016        7.6991007676        3.9635063056
 Ce         9.6869496044        7.6355503282        3.9501388707
 Ce        -3.8732846903       11.0540696617        3.8163761589
 Ce         0.1056600537       11.0275618839        3.8989548671
 Ce         3.8965782667       11.0459234199        3.8604460274
 Ce         7.7321489641       10.9748860226        3.9741160491
 Ce        -0.1545971185        0.0013587794        7.1454358682
 Ce         3.8487037669       -0.1464221461        7.1538351934
 Ce         7.4538984695       -0.0115680174        7.2471657449
 Ce        11.4351892835       -0.1145903929        7.0469137228
 Ce        -1.8702716737        3.3058495866        7.2751456746
 Ce         1.9976829975        3.2337103018        7.2151255316
 Ce         5.7736821648        3.3338085935        7.1002185785
 Ce         9.6976025421        3.3186889896        6.9964291602
 Ce        -3.8559469518        6.6422776435        7.2294957905
 Ce         0.0262736194        6.7231261775        7.1281724399
 Ce         4.0213832527        6.6390165827        7.3550919032
 Ce         7.8219833797        6.5508333748        7.2170705216
 Ce        -5.7270652017        9.7638954989        7.1347213204
 Ce        -1.9564597072       10.1200945406        6.9300995520
 Ce         2.0553202989        9.9998713851        7.1974865629
 Ce         5.8651511711        9.9502878879        7.2487446915
 Pt        12.7284852255        1.8493070011        9.7116225470
 Pt         1.0648663648        5.5378411484        9.9529301886
 Pt         0.1315278940        8.1385031920        9.8648487595
 Pt         7.1610102068       14.1928245093       10.5422458151
 Pt        -0.4907597411        3.4096479776        9.9130373254
 Pt        -2.3355926395        8.4506090603        9.3123774014
 Pt         2.2081846676        3.3140633696        9.9062472011
 Pt         3.5594183126        5.2361792477       10.7920594824
 Pt         5.7226744078        4.3428708094        9.8894882462
 Pt         2.0291660508        0.6739726514        9.6497040648
 Pt         4.3770775325        1.4897845844        9.5006186514
 Pt        -0.1522122700        7.1354265669       12.1946686939
 Pt         6.7387430785        1.9659193081       10.0293191314
 Pt        -0.1367126316        4.4669988730       12.3156673580
 Pt         5.3331789308        0.4693859398       11.7181710982
 Pt         2.4945237320        6.7584363684       12.6051920803
 Pt         5.1188563114        3.0671974452       12.0576373552
 Pt         1.0645488827        5.6531548117       14.4833441906
 Pt         0.5423581009        2.2068233487       12.4621435421
 Pt         4.6663609555        5.7054550867       13.1588474725
 Pt         2.9358498878        1.5489055314       11.9409083787
 Pt         2.5373607949        3.8688534026       12.9695657315
     166
 i =     1759, time =     1759.000, E =     -6045.8432301320
  O         0.0000000000        0.0000000000        0.0000000000
  O         3.8260000000        0.0000000000        0.0000000000
  O         7.6520000000        0.0000000000        0.0000000000
  O        11.4780000000        0.0000000000        0.0000000000
  O        -1.9130000000        3.3140000000        0.0000000000
  O         1.9130000000        3.3140000000        0.0000000000
  O         5.7390000000        3.3140000000        0.0000000000
  O         9.5650000000        3.3140000000        0.0000000000
  O        -3.8260000000        6.6270000000        0.0000000000
  O         0.0000000000        6.6270000000        0.0000000000
  O         3.8260000000        6.6270000000        0.0000000000
  O         7.6520000000        6.6270000000        0.0000000000
  O        -5.7390000000        9.9410000000        0.0000000000
  O        -1.9130000000        9.9410000000        0.0000000000
  O         1.9130000000        9.9410000000        0.0000000000
  O         5.7390000000        9.9410000000        0.0000000000
  O         1.9130000000        1.1050000000        1.5620000000
  O         5.7390000000        1.1050000000        1.5620000000
  O         9.5650000000        1.1050000000        1.5620000000
  O        13.3920000000        1.1050000000        1.5620000000
  O         0.0000000000        4.4180000000        1.5620000000
  O         3.8260000000        4.4180000000        1.5620000000
  O         7.6520000000        4.4180000000        1.5620000000
  O        11.4780000000        4.4180000000        1.5620000000
  O        -1.9130000000        7.7320000000        1.5620000000
  O         1.9130000000        7.7320000000        1.5620000000
  O         5.7390000000        7.7320000000        1.5620000000
  O         9.5650000000        7.7320000000        1.5620000000
  O        -3.8260000000       11.0450000000        1.5620000000
  O         0.0000000000       11.0450000000        1.5620000000
  O         3.8260000000       11.0450000000        1.5620000000
  O         7.6520000000       11.0450000000        1.5620000000
  O         0.0000000000        2.2090000000        3.1240000000
  O         3.8260000000        2.2090000000        3.1240000000
  O         7.6520000000        2.2090000000        3.1240000000
  O        11.4780000000        2.2090000000        3.1240000000
  O        -1.9130000000        5.5230000000        3.1240000000
  O         1.9130000000        5.5230000000        3.1240000000
  O         5.7390000000        5.5230000000        3.1240000000
  O         9.5650000000        5.5230000000        3.1240000000
  O        -3.8260000000        8.8360000000        3.1240000000
  O         0.0000000000        8.8360000000        3.1240000000
  O         3.8260000000        8.8360000000        3.1240000000
  O         7.6520000000        8.8360000000        3.1240000000
  O        -5.7390000000       12.1500000000        3.1240000000
  O        -1.9130000000       12.1500000000        3.1240000000
  O         1.9130000000       12.1500000000        3.1240000000
  O         5.7390000000       12.1500000000        3.1240000000
  O        -0.1098146987       -0.0169582939        4.8328303745
  O         3.9252652493       -0.0067778068        4.6833589845
  O         7.5541249412        0.1746007861        4.7013128713
  O        11.4701890438       -0.0883428974        4.7515900689
  O        -1.7974616675        3.3283458380        4.5607868620
  O         2.0761274817        3.2772779219        4.7501744922
  O         5.5515074958        3.2235507121        4.8988025162
  O         9.5845756011        3.3114492845        4.6618349697
  O        -3.7425447264        6.6337361676        4.8295786374
  O        -0.0024100202        6.6327147115        4.6978027721
  O         3.9523060459        6.7001480794        4.7066209563
  O         7.7906575424        6.5370469566        4.6954100584
  O        -5.7604193478        9.7776893061        4.6042757678
  O        -1.9030546066        9.9502431657        4.6146810240
  O         2.0384412998        9.9813806974        4.7623480616
  O         5.9684297913        9.8186811904        4.8959533610
  O         1.8991037210        1.2371912325        6.2363491151
  O         5.7769983632        0.9693274098        6.3697889646
  O         9.4744712287        1.1315252148        6.3214297931
  O        13.3405186595        0.9357579031        6.2774241357
  O        -0.0171632566        4.5102232666        6.2931331253
  O         4.0952721593        4.5947649562        6.4522251244
  O         7.5936829704        4.3721561395        6.3755655975
  O        11.4715257862        4.4042995451        6.2600419664
  O        -1.8890321990        7.7898761872        6.3423595509
  O         2.0071968687        7.7361418449        6.3063492580
  O         5.9285623973        7.5296938813        6.4030062370
  O         9.6179017301        7.8836287858        6.3090001669
  O        -3.9632468323       10.7940845075        6.1670940022
  O        -0.0035645230       10.9714543936        6.2491145766
  O         3.9821819403       11.0872772023        6.2731274697
  O         7.6962871136       11.0759061824        6.5960503068
  O        -0.0868026058        2.2498434650        7.8356724032
  O         3.8952295243        2.1105245965        7.6618037811
  O         7.7329835467        2.0856449546        8.2751809085
  O        11.4170780918        2.4312639298        8.0547133727
  O        -1.9227181669        5.3616211470        7.9898565978
  O         1.7659957799        5.6589086301        7.9269189281
  O         6.0278938054        5.6242014938        8.2823296687
  O         9.4632385106        5.3766483511        7.9806314115
  O        -3.8598390032        8.8541597847        8.0567761949
  O         0.3798923824        9.0900776403        8.1077017053
  O         3.9588780014        8.7013081427        7.9376662651
  O         7.9154874428        8.8150983128        8.2166648821
  O        -5.6179929711       12.2968557600        8.2600628821
  O        -1.9793423113       12.0729401016        7.9466685493
  O         2.1107899781       12.1164679232        7.8776422643
  O         5.7382391946       11.9766433293        7.9662610001
 Ce         0.0000000000        2.2090000000        0.7810000000
 Ce         3.8260000000        2.2090000000        0.7810000000
 Ce         7.6520000000        2.2090000000        0.7810000000
 Ce        11.4780000000        2.2090000000        0.7810000000
 Ce        -1.9130000000        5.5230000000        0.7810000000
 Ce         1.9130000000        5.5230000000        0.7810000000
 Ce         5.7390000000        5.5230000000        0.7810000000
 Ce         9.5650000000        5.5230000000        0.7810000000
 Ce        -3.8260000000        8.8360000000        0.7810000000
 Ce         0.0000000000        8.8360000000        0.7810000000
 Ce         3.8260000000        8.8360000000        0.7810000000
 Ce         7.6520000000        8.8360000000        0.7810000000
 Ce        -5.7390000000       12.1500000000        0.7810000000
 Ce        -1.9130000000       12.1500000000        0.7810000000
 Ce         1.9130000000       12.1500000000        0.7810000000
 Ce         5.7390000000       12.1500000000        0.7810000000
 Ce         1.8431593916        1.0966620200        3.9405130970
 Ce         5.7098609423        1.0902122367        3.8952736342
 Ce         9.5470853703        1.0663257143        3.9210726871
 Ce        13.5186169922        1.0820914775        3.9616828294
 Ce         0.1563751183        4.4223922952        3.9751843751
 Ce         3.8511488802        4.3712329929        3.9093349835
 Ce         7.6474495351        4.5156416125        3.8462539215
 Ce        11.4911486395        4.4670753948        3.9228741418
 Ce        -1.9907552030        7.7038188662        4.0514425737
 Ce         1.9994567466        7.7337327950        3.9708986607
 Ce         5.7200651248        7.7001687770        3.9617579054
 Ce         9.6841156497        7.6364198467        3.9477069777
 Ce        -3.8741017643       11.0576613555        3.8148490938
 Ce         0.1091156124       11.0296089199        3.9028605693
 Ce         3.8998580309       11.0430552010        3.8606860700
 Ce         7.7301831627       10.9726695350        3.9745289721
 Ce        -0.1536484717        0.0048866325        7.1433402899
 Ce         3.8514441851       -0.1440053960        7.1564904773
 Ce         7.4490068394       -0.0110977722        7.2451455154
 Ce        11.4354082363       -0.1124234614        7.0454409154
 Ce        -1.8708601200        3.3035591698        7.2754022176
 Ce         1.9975585302        3.2297432933        7.2116163891
 Ce         5.7750451492        3.3315291641        7.0968302911
 Ce         9.6970288943        3.3191176910        6.9962306949
 Ce        -3.8557729578        6.6431956128        7.2259400384
 Ce         0.0263501935        6.7216759752        7.1282332341
 Ce         4.0209552799        6.6424631991        7.3518799783
 Ce         7.8209912268        6.5550308893        7.2165032366
 Ce        -5.7267179911        9.7621836340        7.1349210116
 Ce        -1.9581921120       10.1194597935        6.9254877697
 Ce         2.0546434071       10.0027751916        7.1983256779
 Ce         5.8651388877        9.9468362075        7.2446533988
 Pt        12.7236711979        1.8496929716        9.7097916164
 Pt         1.0658175533        5.5372317441        9.9515661058
 Pt         0.1331188832        8.1368010485        9.8635443271
 Pt         7.1590612756       14.1913202944       10.5409221599
 Pt        -0.4918243875        3.4106140131        9.9138268761
 Pt        -2.3361737945        8.4501709661        9.3143925291
 Pt         2.2086237935        3.3143795934        9.9066223331
 Pt         3.5642868646        5.2347544204       10.7933225033
 Pt         5.7223130488        4.3441115789        9.8885127095
 Pt         2.0308507724        0.6742038704        9.6503029433
 Pt         4.3786576909        1.4895104526        9.5008097268
 Pt        -0.1535070575        7.1344335677       12.1943461647
 Pt         6.7424895012        1.9681726970       10.0256904976
 Pt        -0.1376364173        4.4672425839       12.3138316172
 Pt         5.3360013069        0.4693089836       11.7152742097
 Pt         2.4940038876        6.7596654803       12.6032772012
 Pt         5.1144795629        3.0679456487       12.0568679921
 Pt         1.0650857308        5.6546056291       14.4797506935
 Pt         0.5428272501        2.2065617399       12.4622976674
 Pt         4.6657557559        5.7046837508       13.1604310360
 Pt         2.9359596614        1.5465595536       11.9419092194
 Pt         2.5386805110        3.8696443625       12.9719025419
     166
 i =     1760, time =     1760.000, E =     -6045.8460052595
  O         0.0000000000        0.0000000000        0.0000000000
  O         3.8260000000        0.0000000000        0.0000000000
  O         7.6520000000        0.0000000000        0.0000000000
  O        11.4780000000        0.0000000000        0.0000000000
  O        -1.9130000000        3.3140000000        0.0000000000
  O         1.9130000000        3.3140000000        0.0000000000
  O         5.7390000000        3.3140000000        0.0000000000
  O         9.5650000000        3.3140000000        0.0000000000
  O        -3.8260000000        6.6270000000        0.0000000000
  O         0.0000000000        6.6270000000        0.0000000000
  O         3.8260000000        6.6270000000        0.0000000000
  O         7.6520000000        6.6270000000        0.0000000000
  O        -5.7390000000        9.9410000000        0.0000000000
  O        -1.9130000000        9.9410000000        0.0000000000
  O         1.9130000000        9.9410000000        0.0000000000
  O         5.7390000000        9.9410000000        0.0000000000
  O         1.9130000000        1.1050000000        1.5620000000
  O         5.7390000000        1.1050000000        1.5620000000
  O         9.5650000000        1.1050000000        1.5620000000
  O        13.3920000000        1.1050000000        1.5620000000
  O         0.0000000000        4.4180000000        1.5620000000
  O         3.8260000000        4.4180000000        1.5620000000
  O         7.6520000000        4.4180000000        1.5620000000
  O        11.4780000000        4.4180000000        1.5620000000
  O        -1.9130000000        7.7320000000        1.5620000000
  O         1.9130000000        7.7320000000        1.5620000000
  O         5.7390000000        7.7320000000        1.5620000000
  O         9.5650000000        7.7320000000        1.5620000000
  O        -3.8260000000       11.0450000000        1.5620000000
  O         0.0000000000       11.0450000000        1.5620000000
  O         3.8260000000       11.0450000000        1.5620000000
  O         7.6520000000       11.0450000000        1.5620000000
  O         0.0000000000        2.2090000000        3.1240000000
  O         3.8260000000        2.2090000000        3.1240000000
  O         7.6520000000        2.2090000000        3.1240000000
  O        11.4780000000        2.2090000000        3.1240000000
  O        -1.9130000000        5.5230000000        3.1240000000
  O         1.9130000000        5.5230000000        3.1240000000
  O         5.7390000000        5.5230000000        3.1240000000
  O         9.5650000000        5.5230000000        3.1240000000
  O        -3.8260000000        8.8360000000        3.1240000000
  O         0.0000000000        8.8360000000        3.1240000000
  O         3.8260000000        8.8360000000        3.1240000000
  O         7.6520000000        8.8360000000        3.1240000000
  O        -5.7390000000       12.1500000000        3.1240000000
  O        -1.9130000000       12.1500000000        3.1240000000
  O         1.9130000000       12.1500000000        3.1240000000
  O         5.7390000000       12.1500000000        3.1240000000
  O        -0.1151520040       -0.0306271108        4.8342143819
  O         3.9288236986       -0.0086436662        4.6851907671
  O         7.5543888608        0.1675299316        4.6860029046
  O        11.4685550229       -0.0913124557        4.7496791895
  O        -1.8020344879        3.3274662164        4.5679760176
  O         2.0813403214        3.2670819674        4.7461826227
  O         5.5596213712        3.2431267327        4.9033306588
  O         9.5779469647        3.3151348658        4.6694050668
  O        -3.7567793802        6.6391908107        4.8225763163
  O        -0.0024638486        6.6261157476        4.6950269609
  O         3.9507015448        6.6970027751        4.7032944934
  O         7.7900818372        6.5430589263        4.6892810529
  O        -5.7598023526        9.7740991967        4.6064041751
  O        -1.8997170051        9.9451745915        4.6160039759
  O         2.0390222307        9.9845484832        4.7614733425
  O         5.9789274650        9.8170195996        4.8932372879
  O         1.8970983975        1.2389522415        6.2567434822
  O         5.7811032378        0.9638120170        6.3616189781
  O         9.4814392227        1.1334839739        6.3160568195
  O        13.3358621831        0.9376849340        6.2859534143
  O        -0.0222779360        4.5092364802        6.2792893652
  O         4.0979902755        4.5858301782        6.4585460439
  O         7.5990177427        4.3715739525        6.3714063589
  O        11.4701161093        4.3927849294        6.2618699839
  O        -1.8861563426        7.7794116825        6.3498180676
  O         2.0083351124        7.7295251364        6.3113314677
  O         5.9291285966        7.5333302176        6.4028106884
  O         9.6133697932        7.8781669977        6.3017108332
  O        -3.9572474054       10.8001460558        6.1626505931
  O        -0.0115926088       10.9814987306        6.2448827047
  O         3.9889372740       11.0767865550        6.2757355385
  O         7.7023127004       11.0713036693        6.5972082590
  O        -0.0783187878        2.2421431840        7.8363783089
  O         3.9018467927        2.1079810290        7.6616159362
  O         7.7329938998        2.0905907922        8.2659199150
  O        11.4215036826        2.4374545805        8.0572605857
  O        -1.9169477199        5.3661580509        7.9915948902
  O         1.7617697100        5.6524668414        7.9167782146
  O         6.0347557475        5.6187977345        8.2866706491
  O         9.4600766187        5.3817806041        7.9775467268
  O        -3.8565495063        8.8537099512        8.0630382915
  O         0.3802287955        9.0970358290        8.1050227379
  O         3.9621243269        8.7042990354        7.9377041303
  O         7.9089687212        8.8071963356        8.2080880335
  O        -5.6212032927       12.2899745368        8.2510423619
  O        -1.9752193213       12.0750534332        7.9384832333
  O         2.1132534656       12.1123725056        7.8813265495
  O         5.7380373168       11.9905253858        7.9661007967
 Ce         0.0000000000        2.2090000000        0.7810000000
 Ce         3.8260000000        2.2090000000        0.7810000000
 Ce         7.6520000000        2.2090000000        0.7810000000
 Ce        11.4780000000        2.2090000000        0.7810000000
 Ce        -1.9130000000        5.5230000000        0.7810000000
 Ce         1.9130000000        5.5230000000        0.7810000000
 Ce         5.7390000000        5.5230000000        0.7810000000
 Ce         9.5650000000        5.5230000000        0.7810000000
 Ce        -3.8260000000        8.8360000000        0.7810000000
 Ce         0.0000000000        8.8360000000        0.7810000000
 Ce         3.8260000000        8.8360000000        0.7810000000
 Ce         7.6520000000        8.8360000000        0.7810000000
 Ce        -5.7390000000       12.1500000000        0.7810000000
 Ce        -1.9130000000       12.1500000000        0.7810000000
 Ce         1.9130000000       12.1500000000        0.7810000000
 Ce         5.7390000000       12.1500000000        0.7810000000
 Ce         1.8446268973        1.0955194880        3.9406388067
 Ce         5.7119612575        1.0917713516        3.8941045282
 Ce         9.5466804578        1.0655466418        3.9203597997
 Ce        13.5212365694        1.0812851317        3.9592935133
 Ce         0.1601101955        4.4225739330        3.9741200679
 Ce         3.8499777787        4.3739657339        3.9127573539
 Ce         7.6473076330        4.5189152772        3.8473954787
 Ce        11.4925394414        4.4644146889        3.9235198953
 Ce        -1.9875847068        7.7006640226        4.0525192398
 Ce         2.0012282894        7.7349129232        3.9694431937
 Ce         5.7211806556        7.7012699321        3.9600059002
 Ce         9.6811770709        7.6373809978        3.9451947247
 Ce        -3.8748306263       11.0612281994        3.8133583765
 Ce         0.1124820625       11.0316345682        3.9067642143
 Ce         3.9031094557       11.0401951204        3.8609937067
 Ce         7.7281587401       10.9704026473        3.9748973758
 Ce        -0.1526451047        0.0084140512        7.1413044549
 Ce         3.8541141394       -0.1415219515        7.1590748427
 Ce         7.4442660596       -0.0105937174        7.2430639382
 Ce        11.4356556041       -0.1102076413        7.0439571269
 Ce        -1.8714950337        3.3013924022        7.2755265097
 Ce         1.9973373091        3.2258462776        7.2080263777
 Ce         5.7764561115        3.3292360057        7.0934688620
 Ce         9.6963761257        3.3195171932        6.9960448424
 Ce        -3.8554496907        6.6440484210        7.2224077313
 Ce         0.0263674374        6.7201681779        7.1282440326
 Ce         4.0204853039        6.6459180548        7.3486243511
 Ce         7.8199023409        6.5592480710        7.2159317163
 Ce        -5.7264236816        9.7606272189        7.1352120495
 Ce        -1.9598801050       10.1186410787        6.9209168111
 Ce         2.0540025915       10.0056360366        7.1990565529
 Ce         5.8651217050        9.9433436387        7.2405319614
 Pt        12.7187896216        1.8500861460        9.7079059195
 Pt         1.0666955164        5.5367265009        9.9501989250
 Pt         0.1346922039        8.1350525416        9.8622963681
 Pt         7.1571448676       14.1897712445       10.5396617040
 Pt        -0.4928345317        3.4115771164        9.9146356933
 Pt        -2.3367253248        8.4497221058        9.3164050021
 Pt         2.2090527795        3.3146091702        9.9070228140
 Pt         3.5691940758        5.2333685183       10.7946112107
 Pt         5.7219468268        4.3453962255        9.8875165469
 Pt         2.0324570338        0.6743524080        9.6508856398
 Pt         4.3802535072        1.4892379297        9.5010605733
 Pt        -0.1547424716        7.1334056668       12.1940209199
 Pt         6.7463144712        1.9704129692       10.0220821190
 Pt        -0.1385507382        4.4676681124       12.3119505332
 Pt         5.3388126721        0.4692540638       11.7123633984
 Pt         2.4933851750        6.7608744462       12.6013570572
 Pt         5.1101203541        3.0687449225       12.0561095716
 Pt         1.0656189015        5.6560403671       14.4760796092
 Pt         0.5433271253        2.2061829915       12.4624775822
 Pt         4.6651811399        5.7038508834       13.1619975184
 Pt         2.9360773544        1.5441837101       11.9429107481
 Pt         2.5400001189        3.8704725783       12.9742958623
     166
 i =     1761, time =     1761.000, E =     -6045.8485352440
  O         0.0000000000        0.0000000000        0.0000000000
  O         3.8260000000        0.0000000000        0.0000000000
  O         7.6520000000        0.0000000000        0.0000000000
  O        11.4780000000        0.0000000000        0.0000000000
  O        -1.9130000000        3.3140000000        0.0000000000
  O         1.9130000000        3.3140000000        0.0000000000
  O         5.7390000000        3.3140000000        0.0000000000
  O         9.5650000000        3.3140000000        0.0000000000
  O        -3.8260000000        6.6270000000        0.0000000000
  O         0.0000000000        6.6270000000        0.0000000000
  O         3.8260000000        6.6270000000        0.0000000000
  O         7.6520000000        6.6270000000        0.0000000000
  O        -5.7390000000        9.9410000000        0.0000000000
  O        -1.9130000000        9.9410000000        0.0000000000
  O         1.9130000000        9.9410000000        0.0000000000
  O         5.7390000000        9.9410000000        0.0000000000
  O         1.9130000000        1.1050000000        1.5620000000
  O         5.7390000000        1.1050000000        1.5620000000
  O         9.5650000000        1.1050000000        1.5620000000
  O        13.3920000000        1.1050000000        1.5620000000
  O         0.0000000000        4.4180000000        1.5620000000
  O         3.8260000000        4.4180000000        1.5620000000
  O         7.6520000000        4.4180000000        1.5620000000
  O        11.4780000000        4.4180000000        1.5620000000
  O        -1.9130000000        7.7320000000        1.5620000000
  O         1.9130000000        7.7320000000        1.5620000000
  O         5.7390000000        7.7320000000        1.5620000000
  O         9.5650000000        7.7320000000        1.5620000000
  O        -3.8260000000       11.0450000000        1.5620000000
  O         0.0000000000       11.0450000000        1.5620000000
  O         3.8260000000       11.0450000000        1.5620000000
  O         7.6520000000       11.0450000000        1.5620000000
  O         0.0000000000        2.2090000000        3.1240000000
  O         3.8260000000        2.2090000000        3.1240000000
  O         7.6520000000        2.2090000000        3.1240000000
  O        11.4780000000        2.2090000000        3.1240000000
  O        -1.9130000000        5.5230000000        3.1240000000
  O         1.9130000000        5.5230000000        3.1240000000
  O         5.7390000000        5.5230000000        3.1240000000
  O         9.5650000000        5.5230000000        3.1240000000
  O        -3.8260000000        8.8360000000        3.1240000000
  O         0.0000000000        8.8360000000        3.1240000000
  O         3.8260000000        8.8360000000        3.1240000000
  O         7.6520000000        8.8360000000        3.1240000000
  O        -5.7390000000       12.1500000000        3.1240000000
  O        -1.9130000000       12.1500000000        3.1240000000
  O         1.9130000000       12.1500000000        3.1240000000
  O         5.7390000000       12.1500000000        3.1240000000
  O        -0.1194983541       -0.0446591656        4.8353951010
  O         3.9315411121       -0.0107964850        4.6874349256
  O         7.5552693733        0.1595506690        4.6709781983
  O        11.4667466430       -0.0940219999        4.7476558842
  O        -1.8068796546        3.3262516113        4.5758218861
  O         2.0862390560        3.2572882853        4.7423438976
  O         5.5682686430        3.2627608615        4.9070039715
  O         9.5711757870        3.3190388982        4.6772799424
  O        -3.7716059635        6.6444684645        4.8157484419
  O        -0.0022791674        6.6198042020        4.6925181200
  O         3.9486617001        6.6934970029        4.7001748713
  O         7.7893055130        6.5493282767        4.6834787258
  O        -5.7594657716        9.7713740533        4.6088685988
  O        -1.8965383007        9.9402569441        4.6176836743
  O         2.0394198224        9.9877058619        4.7605792372
  O         5.9889458994        9.8156569097        4.8904897108
  O         1.8948648707        1.2396596737        6.2770899175
  O         5.7851857903        0.9585941299        6.3537142570
  O         9.4886505805        1.1353532118        6.3107624390
  O        13.3311525293        0.9401567140        6.2948924282
  O        -0.0269098292        4.5079972096        6.2655888834
  O         4.0998273858        4.5770524050        6.4650045094
  O         7.6046616082        4.3709286939        6.3669503786
  O        11.4687191771        4.3815498428        6.2637313830
  O        -1.8832810264        7.7690706593        6.3572265101
  O         2.0093312193        7.7228948791        6.3163057262
  O         5.9295478335        7.5372674522        6.4027212013
  O         9.6089371808        7.8710896039        6.2944674235
  O        -3.9510283450       10.8071431515        6.1585564738
  O        -0.0195843925       10.9921496946        6.2407765915
  O         3.9956126608       11.0656978838        6.2785317811
  O         7.7088677988       11.0665313473        6.5976763245
  O        -0.0693995173        2.2342712969        7.8370426822
  O         3.9084242574        2.1056100756        7.6610168708
  O         7.7330375289        2.0954484007        8.2563105499
  O        11.4258693609        2.4430862348        8.0602337214
  O        -1.9115294042        5.3712158744        7.9930910167
  O         1.7581700325        5.6457630738        7.9074118582
  O         6.0414066563        5.6133004793        8.2910394049
  O         9.4575723554        5.3874629590        7.9743708139
  O        -3.8536453982        8.8531732726        8.0694546939
  O         0.3801845241        9.1038498570        8.1021447111
  O         3.9655393465        8.7079239679        7.9378945373
  O         7.9021437072        8.7990901472        8.1989441068
  O        -5.6245067237       12.2834105029        8.2416961164
  O        -1.9711458866       12.0771079939        7.9302477596
  O         2.1151707163       12.1081604064        7.8852298848
  O         5.7377911513       12.0047263108        7.9660838451
 Ce         0.0000000000        2.2090000000        0.7810000000
 Ce         3.8260000000        2.2090000000        0.7810000000
 Ce         7.6520000000        2.2090000000        0.7810000000
 Ce        11.4780000000        2.2090000000        0.7810000000
 Ce        -1.9130000000        5.5230000000        0.7810000000
 Ce         1.9130000000        5.5230000000        0.7810000000
 Ce         5.7390000000        5.5230000000        0.7810000000
 Ce         9.5650000000        5.5230000000        0.7810000000
 Ce        -3.8260000000        8.8360000000        0.7810000000
 Ce         0.0000000000        8.8360000000        0.7810000000
 Ce         3.8260000000        8.8360000000        0.7810000000
 Ce         7.6520000000        8.8360000000        0.7810000000
 Ce        -5.7390000000       12.1500000000        0.7810000000
 Ce        -1.9130000000       12.1500000000        0.7810000000
 Ce         1.9130000000       12.1500000000        0.7810000000
 Ce         5.7390000000       12.1500000000        0.7810000000
 Ce         1.8461968663        1.0944032684        3.9407717923
 Ce         5.7140949167        1.0933239177        3.8929431429
 Ce         9.5462814918        1.0648399263        3.9196554610
 Ce        13.5236689053        1.0805684948        3.9568516978
 Ce         0.1636746721        4.4227813988        3.9730748548
 Ce         3.8488193731        4.3767298030        3.9161982358
 Ce         7.6471980102        4.5220648051        3.8485987534
 Ce        11.4940231924        4.4616209326        3.9241330037
 Ce        -1.9842522170        7.6975355318        4.0534717108
 Ce         2.0029174592        7.7361081551        3.9679949450
 Ce         5.7223808696        7.7024005152        3.9582490212
 Ce         9.6781359670        7.6384337110        3.9426011968
 Ce        -3.8754690712       11.0647636637        3.8119053453
 Ce         0.1157558044       11.0336394011        3.9106603661
 Ce         3.9063297931       11.0373478251        3.8613685335
 Ce         7.7260815915       10.9680847742        3.9752222091
 Ce        -0.1515881980        0.0119339210        7.1393343554
 Ce         3.8567078323       -0.1389775027        7.1615889499
 Ce         7.4396830855       -0.0100573371        7.2409225839
 Ce        11.4359338257       -0.1079479294        7.0424639548
 Ce        -1.8721719645        3.2993502896        7.2755197421
 Ce         1.9970225409        3.2220225625        7.2043636353
 Ce         5.7779217554        3.3269330287        7.0901387578
 Ce         9.6956401407        3.3198893641        6.9958722859
 Ce        -3.8549794070        6.6448338148        7.2189003844
 Ce         0.0263233879        6.7186011930        7.1282064956
 Ce         4.0199726658        6.6493765949        7.3453261922
 Ce         7.8187200873        6.5634802714        7.2153552587
 Ce        -5.7261797708        9.7592231244        7.1355886114
 Ce        -1.9615224463       10.1176387110        6.9163883530
 Ce         2.0533998529       10.0084525424        7.1996807470
 Ce         5.8651020852        9.9398197247        7.2363844606
 Pt        12.7138459369        1.8504872062        9.7059673793
 Pt         1.0675011242        5.5363269923        9.9488274669
 Pt         0.1362482658        8.1332593968        9.8611028562
 Pt         7.1552587848       14.1881792135       10.5384645983
 Pt        -0.4937909767        3.4125340653        9.9154638328
 Pt        -2.3372444949        8.4492623343        9.3184164550
 Pt         2.2094716671        3.3147510713        9.9074481105
 Pt         3.5741367860        5.2320208392       10.7959251502
 Pt         5.7215768080        4.3467230600        9.8865010511
 Pt         2.0339848511        0.6744181010        9.6514505483
 Pt         4.3818668308        1.4889670756        9.5013726234
 Pt        -0.1559184995        7.1323430295       12.1936921655
 Pt         6.7502160667        1.9726390355       10.0184930520
 Pt        -0.1394539398        4.4682748698       12.3100245472
 Pt         5.3416136272        0.4692224603       11.7094390292
 Pt         2.4926691269        6.7620621973       12.5994303075
 Pt         5.1057805256        3.0695946146       12.0553619055
 Pt         1.0661472650        5.6574590516       14.4723327065
 Pt         0.5438577205        2.2056870761       12.4626809461
 Pt         4.6646361127        5.7029576049       13.1635474515
 Pt         2.9362016207        1.5417779322       11.9439132737
 Pt         2.5413186230        3.8713381981       12.9767447878
     166
 i =     1762, time =     1762.000, E =     -6045.8507436708
  O         0.0000000000        0.0000000000        0.0000000000
  O         3.8260000000        0.0000000000        0.0000000000
  O         7.6520000000        0.0000000000        0.0000000000
  O        11.4780000000        0.0000000000        0.0000000000
  O        -1.9130000000        3.3140000000        0.0000000000
  O         1.9130000000        3.3140000000        0.0000000000
  O         5.7390000000        3.3140000000        0.0000000000
  O         9.5650000000        3.3140000000        0.0000000000
  O        -3.8260000000        6.6270000000        0.0000000000
  O         0.0000000000        6.6270000000        0.0000000000
  O         3.8260000000        6.6270000000        0.0000000000
  O         7.6520000000        6.6270000000        0.0000000000
  O        -5.7390000000        9.9410000000        0.0000000000
  O        -1.9130000000        9.9410000000        0.0000000000
  O         1.9130000000        9.9410000000        0.0000000000
  O         5.7390000000        9.9410000000        0.0000000000
  O         1.9130000000        1.1050000000        1.5620000000
  O         5.7390000000        1.1050000000        1.5620000000
  O         9.5650000000        1.1050000000        1.5620000000
  O        13.3920000000        1.1050000000        1.5620000000
  O         0.0000000000        4.4180000000        1.5620000000
  O         3.8260000000        4.4180000000        1.5620000000
  O         7.6520000000        4.4180000000        1.5620000000
  O        11.4780000000        4.4180000000        1.5620000000
  O        -1.9130000000        7.7320000000        1.5620000000
  O         1.9130000000        7.7320000000        1.5620000000
  O         5.7390000000        7.7320000000        1.5620000000
  O         9.5650000000        7.7320000000        1.5620000000
  O        -3.8260000000       11.0450000000        1.5620000000
  O         0.0000000000       11.0450000000        1.5620000000
  O         3.8260000000       11.0450000000        1.5620000000
  O         7.6520000000       11.0450000000        1.5620000000
  O         0.0000000000        2.2090000000        3.1240000000
  O         3.8260000000        2.2090000000        3.1240000000
  O         7.6520000000        2.2090000000        3.1240000000
  O        11.4780000000        2.2090000000        3.1240000000
  O        -1.9130000000        5.5230000000        3.1240000000
  O         1.9130000000        5.5230000000        3.1240000000
  O         5.7390000000        5.5230000000        3.1240000000
  O         9.5650000000        5.5230000000        3.1240000000
  O        -3.8260000000        8.8360000000        3.1240000000
  O         0.0000000000        8.8360000000        3.1240000000
  O         3.8260000000        8.8360000000        3.1240000000
  O         7.6520000000        8.8360000000        3.1240000000
  O        -5.7390000000       12.1500000000        3.1240000000
  O        -1.9130000000       12.1500000000        3.1240000000
  O         1.9130000000       12.1500000000        3.1240000000
  O         5.7390000000       12.1500000000        3.1240000000
  O        -0.1228283199       -0.0589811543        4.8363637753
  O         3.9333996548       -0.0131919952        4.6900719672
  O         7.5567810936        0.1506873473        4.6563410208
  O        11.4647934770       -0.0964898729        4.7455450835
  O        -1.8119861356        3.3246841585        4.5843096300
  O         2.0907964002        3.2479217033        4.7386983048
  O         5.5774054495        3.2823105270        4.9097398679
  O         9.5643146984        3.3231265296        4.6853525025
  O        -3.7868797520        6.6495375481        4.8091689959
  O        -0.0018480323        6.6138462238        4.6902647397
  O         3.9461958928        6.6896464720        4.6972672249
  O         7.7882826721        6.5558431053        4.6780234097
  O        -5.7594106612        9.7695511317        4.6116625660
  O        -1.8935277353        9.9354930631        4.6197153303
  O         2.0396322133        9.9908283380        4.7596855093
  O         5.9984600628        9.8145882297        4.8877368670
  O         1.8924116948        1.2392746087        6.2973529501
  O         5.7892242093        0.9537200220        6.3460500318
  O         9.4960774639        1.1370952898        6.3055790275
  O        13.3264032136        0.9431983982        6.3041377688
  O        -0.0310450143        4.5064767064        6.2520172282
  O         4.1007514143        4.5684899886        6.4715604831
  O         7.6105853962        4.3702331140        6.3622366752
  O        11.4673645847        4.3706381914        6.2656141047
  O        -1.8804455287        7.7588826648        6.3645457121
  O         2.0102108899        7.7162873011        6.3212192931
  O         5.9297722173        7.5414932483        6.4027254507
  O         9.6046286332        7.8624984521        6.2873938135
  O        -3.9446350734       10.8150152161        6.1548641477
  O        -0.0275013388       11.0033663789        6.2368217443
  O         4.0021813291       11.0540573136        6.2815065729
  O         7.7159150260       11.0615667743        6.5974712543
  O        -0.0601202079        2.2262737935        7.8376577439
  O         3.9149336038        2.1034299490        7.6599940668
  O         7.7331074748        2.1001957008        8.2463458402
  O        11.4301442262        2.4481342797        8.0636405680
  O        -1.9064651248        5.3767617071        7.9943249153
  O         1.7552178650        5.6388085726        7.8988376539
  O         6.0478438133        5.6077239997        8.2953910719
  O         9.4557430614        5.3936865377        7.9710994120
  O        -3.8511813995        8.8525671765        8.0759613806
  O         0.3797497841        9.1105068497        8.0990954007
  O         3.9691059715        8.7121452051        7.9382332204
  O         7.8950289685        8.7907799799        8.1892220943
  O        -5.6278781867       12.2771780511        8.2320683953
  O        -1.9671336115       12.0790965601        7.9220524639
  O         2.1165484148       12.1038506666        7.8893360440
  O         5.7375170625       12.0191951127        7.9661741249
 Ce         0.0000000000        2.2090000000        0.7810000000
 Ce         3.8260000000        2.2090000000        0.7810000000
 Ce         7.6520000000        2.2090000000        0.7810000000
 Ce        11.4780000000        2.2090000000        0.7810000000
 Ce        -1.9130000000        5.5230000000        0.7810000000
 Ce         1.9130000000        5.5230000000        0.7810000000
 Ce         5.7390000000        5.5230000000        0.7810000000
 Ce         9.5650000000        5.5230000000        0.7810000000
 Ce        -3.8260000000        8.8360000000        0.7810000000
 Ce         0.0000000000        8.8360000000        0.7810000000
 Ce         3.8260000000        8.8360000000        0.7810000000
 Ce         7.6520000000        8.8360000000        0.7810000000
 Ce        -5.7390000000       12.1500000000        0.7810000000
 Ce        -1.9130000000       12.1500000000        0.7810000000
 Ce         1.9130000000       12.1500000000        0.7810000000
 Ce         5.7390000000       12.1500000000        0.7810000000
 Ce         1.8478701104        1.0933113068        3.9409119843
 Ce         5.7162616591        1.0948696200        3.8917874666
 Ce         9.5458888247        1.0642068811        3.9189595358
 Ce        13.5259105165        1.0799416121        3.9543623637
 Ce         0.1670634951        4.4230131764        3.9720495205
 Ce         3.8476786371        4.3795245990        3.9196542029
 Ce         7.6471215170        4.5250895295        3.8498660098
 Ce        11.4955947029        4.4586971992        3.9247148048
 Ce        -1.9807655348        7.6944341131        4.0542992196
 Ce         2.0045206633        7.7373170740        3.9665548121
 Ce         5.7236683690        7.7035566609        3.9564861413
 Ce         9.6749943448        7.6395779196        3.9399258206
 Ce        -3.8760153619       11.0682615629        3.8104914986
 Ce         0.1189334719       11.0356241012        3.9145436945
 Ce         3.9095163707       11.0345178337        3.8618099675
 Ce         7.7239579798       10.9657159332        3.9755044614
 Ce        -0.1504783096        0.0154392425        7.1374358055
 Ce         3.8592194228       -0.1363779055        7.1640333586
 Ce         7.4352650558       -0.0094906440        7.2387233213
 Ce        11.4362450404       -0.1056492804        7.0409633665
 Ce        -1.8728864470        3.2974330756        7.2753835847
 Ce         1.9966175780        3.2182757045        7.2006365654
 Ce         5.7794482396        3.3246239506        7.0868443105
 Ce         9.6948169381        3.3202362926        6.9957138704
 Ce        -3.8543652527        6.6455496971        7.2154192116
 Ce         0.0262168554        6.7169733051        7.1281227209
 Ce         4.0194163098        6.6528344734        7.3419867132
 Ce         7.8174482945        6.5677228730        7.2147728011
 Ce        -5.7259838577        9.7579673041        7.1360440936
 Ce        -1.9631178765       10.1164536885        6.9119043213
 Ce         2.0528369862       10.0112232554        7.2002001161
 Ce         5.8650825715        9.9362730712        7.2322148469
 Pt        12.7088447669        1.8508968244        9.7039781281
 Pt         1.0682356466        5.5360345467        9.9474505410
 Pt         0.1377871982        8.1314235296        9.8599617231
 Pt         7.1534017592       14.1865453506       10.5373311109
 Pt        -0.4946946965        3.4134822912        9.9163110197
 Pt        -2.3377284186        8.4487915364        9.3204284338
 Pt         2.2098809257        3.3148044691        9.9078976838
 Pt         3.5791117097        5.2307106195       10.7972641107
 Pt         5.7212041427        4.3480900565        9.8854680256
 Pt         2.0354344821        0.6744011661        9.6519962982
 Pt         4.3834991128        1.4886979391        9.5017469161
 Pt        -0.1570348247        7.1312457271       12.1933592685
 Pt         6.7541924097        1.9748501153       10.0149224246
 Pt        -0.1403443507        4.4690616529       12.3080549521
 Pt         5.3444043780        0.4692155217       11.7065017758
 Pt         2.4918572232        6.7632273558       12.5974959613
 Pt         5.1014615810        3.0704947164       12.0546246978
 Pt         1.0666700575        5.6588611491       14.4685105908
 Pt         0.5444193120        2.2050753357       12.4629058487
 Pt         4.6641191413        5.7020045760       13.1650810364
 Pt         2.9363311292        1.5393423484       11.9449172100
 Pt         2.5426351618        3.8722412078       12.9792483955
     166
 i =     1763, time =     1763.000, E =     -6045.8525880485
  O         0.0000000000        0.0000000000        0.0000000000
  O         3.8260000000        0.0000000000        0.0000000000
  O         7.6520000000        0.0000000000        0.0000000000
  O        11.4780000000        0.0000000000        0.0000000000
  O        -1.9130000000        3.3140000000        0.0000000000
  O         1.9130000000        3.3140000000        0.0000000000
  O         5.7390000000        3.3140000000        0.0000000000
  O         9.5650000000        3.3140000000        0.0000000000
  O        -3.8260000000        6.6270000000        0.0000000000
  O         0.0000000000        6.6270000000        0.0000000000
  O         3.8260000000        6.6270000000        0.0000000000
  O         7.6520000000        6.6270000000        0.0000000000
  O        -5.7390000000        9.9410000000        0.0000000000
  O        -1.9130000000        9.9410000000        0.0000000000
  O         1.9130000000        9.9410000000        0.0000000000
  O         5.7390000000        9.9410000000        0.0000000000
  O         1.9130000000        1.1050000000        1.5620000000
  O         5.7390000000        1.1050000000        1.5620000000
  O         9.5650000000        1.1050000000        1.5620000000
  O        13.3920000000        1.1050000000        1.5620000000
  O         0.0000000000        4.4180000000        1.5620000000
  O         3.8260000000        4.4180000000        1.5620000000
  O         7.6520000000        4.4180000000        1.5620000000
  O        11.4780000000        4.4180000000        1.5620000000
  O        -1.9130000000        7.7320000000        1.5620000000
  O         1.9130000000        7.7320000000        1.5620000000
  O         5.7390000000        7.7320000000        1.5620000000
  O         9.5650000000        7.7320000000        1.5620000000
  O        -3.8260000000       11.0450000000        1.5620000000
  O         0.0000000000       11.0450000000        1.5620000000
  O         3.8260000000       11.0450000000        1.5620000000
  O         7.6520000000       11.0450000000        1.5620000000
  O         0.0000000000        2.2090000000        3.1240000000
  O         3.8260000000        2.2090000000        3.1240000000
  O         7.6520000000        2.2090000000        3.1240000000
  O        11.4780000000        2.2090000000        3.1240000000
  O        -1.9130000000        5.5230000000        3.1240000000
  O         1.9130000000        5.5230000000        3.1240000000
  O         5.7390000000        5.5230000000        3.1240000000
  O         9.5650000000        5.5230000000        3.1240000000
  O        -3.8260000000        8.8360000000        3.1240000000
  O         0.0000000000        8.8360000000        3.1240000000
  O         3.8260000000        8.8360000000        3.1240000000
  O         7.6520000000        8.8360000000        3.1240000000
  O        -5.7390000000       12.1500000000        3.1240000000
  O        -1.9130000000       12.1500000000        3.1240000000
  O         1.9130000000       12.1500000000        3.1240000000
  O         5.7390000000       12.1500000000        3.1240000000
  O        -0.1251346067       -0.0734839651        4.8371109447
  O         3.9343863478       -0.0157834115        4.6930813598
  O         7.5589361345        0.1409595887        4.6421796893
  O        11.4627264307       -0.0987343135        4.7433734952
  O        -1.8173445398        3.3227453941        4.5933962601
  O         2.0949738804        3.2390270462        4.7352834187
  O         5.5870219204        3.3017162619        4.9114714886
  O         9.5574241536        3.3273673673        4.6935314408
  O        -3.8024834286        6.6543776165        4.8029007347
  O        -0.0011662051        6.6082993783        4.6882587711
  O         3.9433193741        6.6854730228        4.6945786161
  O         7.7869666358        6.5625826330        4.6729441516
  O        -5.7596335671        9.7686596299        4.6147828211
  O        -1.8906892494        9.9308798916        4.6220953299
  O         2.0396589787        9.9938900776        4.7588117431
  O         6.0074402735        9.8138078663        4.8850033667
  O         1.8897509156        1.2377660106        6.3173865405
  O         5.7931917054        0.9492368113        6.3385748584
  O         9.5036967127        1.1386825980        6.3005455078
  O        13.3216254859        0.9468354402        6.3135591649
  O        -0.0346695931        4.5046511863        6.2385672660
  O         4.1007343555        4.5601908736        6.4781918563
  O         7.6167512848        4.3695017558        6.3572993522
  O        11.4660810315        4.3601011351        6.2675077614
  O        -1.8776844185        7.7488613694        6.3717110983
  O         2.0110018211        7.7097315371        6.3260318967
  O         5.9297546975        7.5459901415        6.4028102795
  O         9.6004616120        7.8525117722        6.2805982670
  O        -3.9380976324       10.8237136672        6.1516239647
  O        -0.0352864872       11.0151080867        6.2330498454
  O         4.0086343453       11.0419233464        6.2846448026
  O         7.7234071244       11.0563922633        6.5966172015
  O        -0.0505781963        2.2182208755        7.8382172328
  O         3.9213526533        2.1014623882        7.6585403029
  O         7.7331959193        2.1048141902        8.2360513704
  O        11.4343041088        2.4525757712        8.0674848810
  O        -1.9017648210        5.3827563537        7.9952744229
  O         1.7529220520        5.6316131994        7.8910519205
  O         6.0540631832        5.6020823766        8.2996728814
  O         9.4546051397        5.4004350879        7.9677253636
  O        -3.8492128212        8.8519063025        8.0824725834
  O         0.3789168276        9.1169978462        8.0959037740
  O         3.9728006516        8.7169136281        7.9387140912
  O         7.8876591194        8.7822863788        8.1788993282
  O        -5.6312999395       12.2712936879        8.2222344335
  O        -1.9631991220       12.0810092060        7.9139746346
  O         2.1173984156       12.0994648263        7.8936339269
  O         5.7372303448       12.0338503130        7.9663370368
 Ce         0.0000000000        2.2090000000        0.7810000000
 Ce         3.8260000000        2.2090000000        0.7810000000
 Ce         7.6520000000        2.2090000000        0.7810000000
 Ce        11.4780000000        2.2090000000        0.7810000000
 Ce        -1.9130000000        5.5230000000        0.7810000000
 Ce         1.9130000000        5.5230000000        0.7810000000
 Ce         5.7390000000        5.5230000000        0.7810000000
 Ce         9.5650000000        5.5230000000        0.7810000000
 Ce        -3.8260000000        8.8360000000        0.7810000000
 Ce         0.0000000000        8.8360000000        0.7810000000
 Ce         3.8260000000        8.8360000000        0.7810000000
 Ce         7.6520000000        8.8360000000        0.7810000000
 Ce        -5.7390000000       12.1500000000        0.7810000000
 Ce        -1.9130000000       12.1500000000        0.7810000000
 Ce         1.9130000000       12.1500000000        0.7810000000
 Ce         5.7390000000       12.1500000000        0.7810000000
 Ce         1.8496473928        1.0922410997        3.9410590627
 Ce         5.7184612583        1.0964073619        3.8906356262
 Ce         9.5455027359        1.0636484709        3.9182719608
 Ce        13.5279586986        1.0794039799        3.9518306430
 Ce         0.1702718687        4.4232676784        3.9710446283
 Ce         3.8465604906        4.3823494401        3.9231218322
 Ce         7.6470790114        4.5279890837        3.8511995018
 Ce        11.4972486862        4.4556466347        3.9252666712
 Ce        -1.9771326334        7.6913605291        4.0550009722
 Ce         2.0060344805        7.7385382904        3.9651236503
 Ce         5.7250454337        7.7047344751        3.9547163289
 Ce         9.6717538777        7.6408138916        3.9371681975
 Ce        -3.8764681368       11.0717161113        3.8091184828
 Ce         0.1220119041       11.0375894290        3.9184089874
 Ce         3.9126665184       11.0317096552        3.8623174487
 Ce         7.7217943671       10.9632966483        3.9757450701
 Ce        -0.1493155741        0.0189229538        7.1356142620
 Ce         3.8616433571       -0.1337291118        7.1664082259
 Ce         7.4310193151       -0.0088957751        7.2364682745
 Ce        11.4365912510       -0.1033168408        7.0394575310
 Ce        -1.8736340951        3.2956408007        7.2751196201
 Ce         1.9961257412        3.2146090552        7.1968531849
 Ce         5.7810414206        3.3223125390        7.0835894746
 Ce         9.6939026338        3.3205600139        6.9955706536
 Ce        -3.8536107099        6.6461938770        7.2119654329
 Ce         0.0260473690        6.7152825973        7.1279950726
 Ce         4.0188149966        6.6562877267        7.3386070826
 Ce         7.8160908374        6.5719710861        7.2141831963
 Ce        -5.7258337820        9.7568550610        7.1365714109
 Ce        -1.9646649576       10.1150877489        6.9074668956
 Ce         2.0523157549       10.0139469017        7.2006166973
 Ce         5.8650657416        9.9327117235        7.2280269660
 Pt        12.7037910657        1.8513156622        9.7019402437
 Pt         1.0689007953        5.5358495689        9.9460666597
 Pt         0.1393092075        8.1295471200        9.8588706190
 Pt         7.1515726258       14.1848708571       10.5362613338
 Pt        -0.4955463441        3.4144192177        9.9171767158
 Pt        -2.3381744843        8.4483097173        9.3224425898
 Pt         2.2102808165        3.3147689559        9.9083714681
 Pt         3.5841153918        5.2294366902       10.7986277926
 Pt         5.7208299231        4.3494947819        9.8844194876
 Pt         2.0368059108        0.6743017664        9.6525217153
 Pt         4.3851515493        1.4884306284        9.5021842008
 Pt        -0.1580915408        7.1301143096       12.1930216165
 Pt         6.7582416140        1.9770460970       10.0113689319
 Pt        -0.1412212196        4.4700263032       12.3060428488
 Pt         5.3471848136        0.4692344362       11.7035523256
 Pt         2.4909513476        6.7643693475       12.5955527723
 Pt         5.0971652086        3.0714452787       12.0538973530
 Pt         1.0671864024        5.6602462525       14.4646153128
 Pt         0.5450116606        2.2043492791       12.4631509925
 Pt         4.6636291576        5.7009924365       13.1665985264
 Pt         2.9364650880        1.5368770314       11.9459225798
 Pt         2.5439494799        3.8731812648       12.9818055517
     166
 i =     1764, time =     1764.000, E =     -6045.8538936172
  O         0.0000000000        0.0000000000        0.0000000000
  O         3.8260000000        0.0000000000        0.0000000000
  O         7.6520000000        0.0000000000        0.0000000000
  O        11.4780000000        0.0000000000        0.0000000000
  O        -1.9130000000        3.3140000000        0.0000000000
  O         1.9130000000        3.3140000000        0.0000000000
  O         5.7390000000        3.3140000000        0.0000000000
  O         9.5650000000        3.3140000000        0.0000000000
  O        -3.8260000000        6.6270000000        0.0000000000
  O         0.0000000000        6.6270000000        0.0000000000
  O         3.8260000000        6.6270000000        0.0000000000
  O         7.6520000000        6.6270000000        0.0000000000
  O        -5.7390000000        9.9410000000        0.0000000000
  O        -1.9130000000        9.9410000000        0.0000000000
  O         1.9130000000        9.9410000000        0.0000000000
  O         5.7390000000        9.9410000000        0.0000000000
  O         1.9130000000        1.1050000000        1.5620000000
  O         5.7390000000        1.1050000000        1.5620000000
  O         9.5650000000        1.1050000000        1.5620000000
  O        13.3920000000        1.1050000000        1.5620000000
  O         0.0000000000        4.4180000000        1.5620000000
  O         3.8260000000        4.4180000000        1.5620000000
  O         7.6520000000        4.4180000000        1.5620000000
  O        11.4780000000        4.4180000000        1.5620000000
  O        -1.9130000000        7.7320000000        1.5620000000
  O         1.9130000000        7.7320000000        1.5620000000
  O         5.7390000000        7.7320000000        1.5620000000
  O         9.5650000000        7.7320000000        1.5620000000
  O        -3.8260000000       11.0450000000        1.5620000000
  O         0.0000000000       11.0450000000        1.5620000000
  O         3.8260000000       11.0450000000        1.5620000000
  O         7.6520000000       11.0450000000        1.5620000000
  O         0.0000000000        2.2090000000        3.1240000000
  O         3.8260000000        2.2090000000        3.1240000000
  O         7.6520000000        2.2090000000        3.1240000000
  O        11.4780000000        2.2090000000        3.1240000000
  O        -1.9130000000        5.5230000000        3.1240000000
  O         1.9130000000        5.5230000000        3.1240000000
  O         5.7390000000        5.5230000000        3.1240000000
  O         9.5650000000        5.5230000000        3.1240000000
  O        -3.8260000000        8.8360000000        3.1240000000
  O         0.0000000000        8.8360000000        3.1240000000
  O         3.8260000000        8.8360000000        3.1240000000
  O         7.6520000000        8.8360000000        3.1240000000
  O        -5.7390000000       12.1500000000        3.1240000000
  O        -1.9130000000       12.1500000000        3.1240000000
  O         1.9130000000       12.1500000000        3.1240000000
  O         5.7390000000       12.1500000000        3.1240000000
  O        -0.1264402107       -0.0880529796        4.8376290041
  O         3.9344931229       -0.0185229270        4.6964435091
  O         7.5617448202        0.1303936239        4.6284959560
  O        11.4605775957       -0.1007728987        4.7411694257
  O        -1.8229462248        3.3204172631        4.6030047015
  O         2.0987407273        3.2306287848        4.7321279494
  O         5.5971156492        3.3209320407        4.9121403089
  O         9.5505568986        3.3317363738        4.7017535022
  O        -3.8182848945        6.6589448653        4.7969878689
  O        -0.0002328372        6.6032113098        4.6864938670
  O         3.9400536537        6.6810040824        4.6921166476
  O         7.7853109655        6.5695185916        4.6682717994
  O        -5.7601252584        9.7687193407        4.6182307715
  O        -1.8880226759        9.9264087871        4.6248214898
  O         2.0395013385        9.9968652104        4.7579769896
  O         6.0158392843        9.8133105694        4.8823116962
  O         1.8868986102        1.2351084240        6.3369724141
  O         5.7970609801        0.9451918393        6.3312246305
  O         9.5114907066        1.1400961000        6.2957018412
  O        13.3168345921        0.9510912217        6.3230282988
  O        -0.0377710896        4.5025005891        6.2253061910
  O         4.0997538191        4.5521991651        6.4848905984
  O         7.6231169953        4.3687520527        6.3521626516
  O        11.4649029887        4.3500055466        6.2694028638
  O        -1.8750255107        7.7390249683        6.3786352728
  O         2.0117313249        7.7032501700        6.3307156443
  O         5.9294510279        7.5507389258        6.4029594994
  O         9.5964467757        7.8412637276        6.2741657501
  O        -3.9314418910       10.8332010898        6.1488823985
  O        -0.0428912113       11.0273589868        6.2294963110
  O         4.0149716451       11.0293717117        6.2879254214
  O         7.7312799457       11.0510037077        6.5951455024
  O        -0.0408677276        2.2101942796        7.8387138990
  O         3.9276675668        2.0997246700        7.6566510488
  O         7.7332967310        2.1092868191        8.2254884569
  O        11.4383309151        2.4563930648        8.0717660460
  O        -1.8974426688        5.3891536507        7.9959195825
  O         1.7512814898        5.6241798766        7.8840402013
  O         6.0600523365        5.5964005888        8.3038222304
  O         9.4541783173        5.4076838604        7.9642433282
  O        -3.8477904123        8.8512057692        8.0888953617
  O         0.3776804474        9.1233158666        8.0925996861
  O         3.9765989369        8.7221805524        7.9393336125
  O         7.8800767975        8.7736514009        8.1679703835
  O        -5.6347563080       12.2657739043        8.2122733765
  O        -1.9593644820       12.0828325777        7.9060640999
  O         2.1177359860       12.0950297633        7.8981175103
  O         5.7369424432       12.0485837724        7.9665404149
 Ce         0.0000000000        2.2090000000        0.7810000000
 Ce         3.8260000000        2.2090000000        0.7810000000
 Ce         7.6520000000        2.2090000000        0.7810000000
 Ce        11.4780000000        2.2090000000        0.7810000000
 Ce        -1.9130000000        5.5230000000        0.7810000000
 Ce         1.9130000000        5.5230000000        0.7810000000
 Ce         5.7390000000        5.5230000000        0.7810000000
 Ce         9.5650000000        5.5230000000        0.7810000000
 Ce        -3.8260000000        8.8360000000        0.7810000000
 Ce         0.0000000000        8.8360000000        0.7810000000
 Ce         3.8260000000        8.8360000000        0.7810000000
 Ce         7.6520000000        8.8360000000        0.7810000000
 Ce        -5.7390000000       12.1500000000        0.7810000000
 Ce        -1.9130000000       12.1500000000        0.7810000000
 Ce         1.9130000000       12.1500000000        0.7810000000
 Ce         5.7390000000       12.1500000000        0.7810000000
 Ce         1.8515293013        1.0911896894        3.9412125045
 Ce         5.7206932723        1.0979358420        3.8894856816
 Ce         9.5451235257        1.0631653515        3.9175925924
 Ce        13.5298114334        1.0789546666        3.9492615442
 Ce         0.1732957483        4.4235431342        3.9700603767
 Ce         3.8454696813        4.3852037315        3.9265979532
 Ce         7.6470711210        4.5307633913        3.8526014364
 Ce        11.4989795851        4.4524726907        3.9257899955
 Ce        -1.9733617111        7.6883154662        4.0555761570
 Ce         2.0074557938        7.7397702262        3.9637023945
 Ce         5.7265140798        7.7059298641        3.9529389279
 Ce         9.6684160220        7.6421418801        3.9343281392
 Ce        -3.8768265820       11.0751219521        3.8077879418
 Ce         0.1249883285       11.0395361896        3.9222510190
 Ce         3.9157776830       11.0289275568        3.8628902623
 Ce         7.7195975706       10.9608280268        3.9759450223
 Ce        -0.1480998066        0.0223780503        7.1338746899
 Ce         3.8639741457       -0.1310371949        7.1687133244
 Ce         7.4269531174       -0.0082749885        7.2341597926
 Ce        11.4369740988       -0.1009559202        7.0379487437
 Ce        -1.8744103865        3.2939731532        7.2747292566
 Ce         1.9955508056        3.2110263350        7.1930216139
 Ce         5.7827067651        3.3200028395        7.0803786554
 Ce         9.6928931985        3.3208628792        6.9954439459
 Ce        -3.8527200662        6.6467642846        7.2085401862
 Ce         0.0258154749        6.7135273172        7.1278263956
 Ce         4.0181673327        6.6597323665        7.3351888816
 Ce         7.8146515541        6.5762199093        7.2135852944
 Ce        -5.7257275786        9.7558814488        7.1371629316
 Ce        -1.9661621411       10.1135431407        6.9030784759
 Ce         2.0518378861       10.0166218647        7.2009329551
 Ce         5.8650538775        9.9291424316        7.2238246639
 Pt        12.6986902993        1.8517440705        9.6998559808
 Pt         1.0694978109        5.5357714061        9.9446754306
 Pt         0.1408136394        8.1276321381        9.8578275199
 Pt         7.1497705025       14.1831582548       10.5352555506
 Pt        -0.4963461079        3.4153422369        9.9180603092
 Pt        -2.3385800270        8.4478167682        9.3244604274
 Pt         2.2106711962        3.3146446325        9.9088693435
 Pt         3.5891430825        5.2281987070       10.8000158385
 Pt         5.7204559065        4.3509336831        9.8833569717
 Pt         2.0380982586        0.6741192373        9.6530261321
 Pt         4.3868251138        1.4881653936        9.5026848589
 Pt        -0.1590883886        7.1289492048       12.1926784426
 Pt         6.7623627644        1.9792274378       10.0078312160
 Pt        -0.1420832333        4.4711658982       12.3039890147
 Pt         5.3499541832        0.4692801072       11.7005912955
 Pt         2.4899527118        6.7654884925       12.5936003630
 Pt         5.0928928507        3.0724455596       12.0531796263
 Pt         1.0676957891        5.6616138596       14.4606477427
 Pt         0.5456341954        2.2035116670       12.4634154555
 Pt         4.6631656596        5.6999219485       13.1681005007
 Pt         2.9366034806        1.5343827279       11.9469291805
 Pt         2.5452604974        3.8741570118       12.9844150815
     166
 i =     1765, time =     1765.000, E =     -6045.8547815878
  O         0.0000000000        0.0000000000        0.0000000000
  O         3.8260000000        0.0000000000        0.0000000000
  O         7.6520000000        0.0000000000        0.0000000000
  O        11.4780000000        0.0000000000        0.0000000000
  O        -1.9130000000        3.3140000000        0.0000000000
  O         1.9130000000        3.3140000000        0.0000000000
  O         5.7390000000        3.3140000000        0.0000000000
  O         9.5650000000        3.3140000000        0.0000000000
  O        -3.8260000000        6.6270000000        0.0000000000
  O         0.0000000000        6.6270000000        0.0000000000
  O         3.8260000000        6.6270000000        0.0000000000
  O         7.6520000000        6.6270000000        0.0000000000
  O        -5.7390000000        9.9410000000        0.0000000000
  O        -1.9130000000        9.9410000000        0.0000000000
  O         1.9130000000        9.9410000000        0.0000000000
  O         5.7390000000        9.9410000000        0.0000000000
  O         1.9130000000        1.1050000000        1.5620000000
  O         5.7390000000        1.1050000000        1.5620000000
  O         9.5650000000        1.1050000000        1.5620000000
  O        13.3920000000        1.1050000000        1.5620000000
  O         0.0000000000        4.4180000000        1.5620000000
  O         3.8260000000        4.4180000000        1.5620000000
  O         7.6520000000        4.4180000000        1.5620000000
  O        11.4780000000        4.4180000000        1.5620000000
  O        -1.9130000000        7.7320000000        1.5620000000
  O         1.9130000000        7.7320000000        1.5620000000
  O         5.7390000000        7.7320000000        1.5620000000
  O         9.5650000000        7.7320000000        1.5620000000
  O        -3.8260000000       11.0450000000        1.5620000000
  O         0.0000000000       11.0450000000        1.5620000000
  O         3.8260000000       11.0450000000        1.5620000000
  O         7.6520000000       11.0450000000        1.5620000000
  O         0.0000000000        2.2090000000        3.1240000000
  O         3.8260000000        2.2090000000        3.1240000000
  O         7.6520000000        2.2090000000        3.1240000000
  O        11.4780000000        2.2090000000        3.1240000000
  O        -1.9130000000        5.5230000000        3.1240000000
  O         1.9130000000        5.5230000000        3.1240000000
  O         5.7390000000        5.5230000000        3.1240000000
  O         9.5650000000        5.5230000000        3.1240000000
  O        -3.8260000000        8.8360000000        3.1240000000
  O         0.0000000000        8.8360000000        3.1240000000
  O         3.8260000000        8.8360000000        3.1240000000
  O         7.6520000000        8.8360000000        3.1240000000
  O        -5.7390000000       12.1500000000        3.1240000000
  O        -1.9130000000       12.1500000000        3.1240000000
  O         1.9130000000       12.1500000000        3.1240000000
  O         5.7390000000       12.1500000000        3.1240000000
  O        -0.1267931176       -0.1026046803        4.8379133231
  O         3.9337184774       -0.0213616901        4.7001417351
  O         7.5652079247        0.1190419526        4.6152444956
  O        11.4583792594       -0.1026234115        4.7389620219
  O        -1.8287795072        3.3176844398        4.6130389091
  O         2.1020796965        3.2227282594        4.7292584220
  O         5.6076363115        3.3398408534        4.9117023549
  O         9.5437551145        3.3362148639        4.7099827635
  O        -3.8341300863        6.6631797013        4.7914540023
  O         0.0009509673        6.5986198683        4.6849647811
  O         3.9364277697        6.6762720033        4.6898888465
  O         7.7832727176        6.5766165559        4.6640319819
  O        -5.7608715545        9.7697378417        4.6220128489
  O        -1.8855249583        9.9220651493        4.6278945251
  O         2.0391623147        9.9997279268        4.7572001784
  O         6.0235911040        9.8130885833        4.8796818861
  O         1.8838748890        1.2312864854        6.3560341373
  O         5.8008084911        0.9416302764        6.3239382686
  O         9.5194431073        1.1413248827        6.2910827262
  O        13.3120523630        0.9559836051        6.3324498826
  O        -0.0403367418        4.5000081547        6.2123563721
  O         4.0977956017        4.5445611202        6.4916616354
  O         7.6296379911        4.3680040723        6.3468402432
  O        11.4638722065        4.3404199814        6.2712906549
  O        -1.8724900860        7.7294054506        6.3852205881
  O         2.0124245197        7.6968603083        6.3352546100
  O         5.9288220421        7.5557185051        6.4031542739
  O         9.5925964699        7.8288984803        6.2681599299
  O        -3.9247029166       10.8434418157        6.1466802108
  O        -0.0502939870       11.0401095846        6.2261961144
  O         4.0211793282       11.0164801490        6.2913205136
  O         7.7394586315       11.0454147094        6.5930932538
  O        -0.0310556899        2.2022723955        7.8391416453
  O         3.9338726762        2.0982260520        7.6543290589
  O         7.7334032637        2.1136006441        8.2147325988
  O        11.4422116977        2.4595763097        8.0764729258
  O        -1.8935094771        5.3958986571        7.9962400761
  O         1.7502815287        5.6165017062        7.8777952314
  O         6.0657874323        5.5907186919        8.3077674060
  O         9.4544835165        5.4154037150        7.9606475600
  O        -3.8469599103        8.8504826768        8.0951352452
  O         0.3760396490        9.1294498900        8.0892126068
  O         3.9804811970        8.7279047552        7.9400875810
  O         7.8723127252        8.7649251495        8.1564784178
  O        -5.6382313436       12.2606374499        8.2022349519
  O        -1.9556573202       12.0845522911        7.8983387642
  O         2.1175807769       12.0905767693        7.9027805814
  O         5.7366605388       12.0633194353        7.9667532131
 Ce         0.0000000000        2.2090000000        0.7810000000
 Ce         3.8260000000        2.2090000000        0.7810000000
 Ce         7.6520000000        2.2090000000        0.7810000000
 Ce        11.4780000000        2.2090000000        0.7810000000
 Ce        -1.9130000000        5.5230000000        0.7810000000
 Ce         1.9130000000        5.5230000000        0.7810000000
 Ce         5.7390000000        5.5230000000        0.7810000000
 Ce         9.5650000000        5.5230000000        0.7810000000
 Ce        -3.8260000000        8.8360000000        0.7810000000
 Ce         0.0000000000        8.8360000000        0.7810000000
 Ce         3.8260000000        8.8360000000        0.7810000000
 Ce         7.6520000000        8.8360000000        0.7810000000
 Ce        -5.7390000000       12.1500000000        0.7810000000
 Ce        -1.9130000000       12.1500000000        0.7810000000
 Ce         1.9130000000       12.1500000000        0.7810000000
 Ce         5.7390000000       12.1500000000        0.7810000000
 Ce         1.8535163167        1.0901539015        3.9413713109
 Ce         5.7229573759        1.0994529847        3.8883357762
 Ce         9.5447514813        1.0627578280        3.9169212935
 Ce        13.5314674958        1.0785923116        3.9466599573
 Ce         0.1761315060        4.4238378247        3.9690966180
 Ce         3.8444108567        4.3880868266        3.9300794922
 Ce         7.6470984209        4.5334128441        3.8540739188
 Ce        11.5007817131        4.4491790470        3.9262862787
 Ce        -1.9694611377        7.6852996056        4.0560240403
 Ce         2.0087817459        7.7410112652        3.9622919664
 Ce         5.7280757779        7.7071386127        3.9511536010
 Ce         9.6649819279        7.6435624271        3.9314058945
 Ce        -3.8770903254       11.0784741115        3.8065016007
 Ce         0.1278602441       11.0414650801        3.9260645768
 Ce         3.9188472825       11.0261756650        3.8635275972
 Ce         7.7173745525       10.9583115361        3.9761051829
 Ce        -0.1468310745        0.0257974962        7.1322212555
 Ce         3.8662069244       -0.1283082612        7.1709479869
 Ce         7.4230735958       -0.0076306479        7.2318004450
 Ce        11.4373947939       -0.0985719017        7.0364395010
 Ce        -1.8752112116        3.2924298427        7.2742140371
 Ce         1.9948965996        3.2075309677        7.1891495515
 Ce         5.7844491096        3.3176996149        7.0772156439
 Ce         9.6917849684        3.3211474803        6.9953353955
 Ce        -3.8516980536        6.6472588015        7.2051447096
 Ce         0.0255225347        6.7117055984        7.1276199936
 Ce         4.0174717965        6.6631647514        7.3317341625
 Ce         7.8131341586        6.5804639243        7.2129780723
 Ce        -5.7256634612        9.7550407071        7.1378106442
 Ce        -1.9676077572       10.1118226686        6.8987417088
 Ce         2.0514050164       10.0192463984        7.2011516360
 Ce         5.8650491342        9.9255709462        7.2196116657
 Pt        12.6935476481        1.8521820728        9.6977275535
 Pt         1.0700281860        5.5357984198        9.9432768163
 Pt         0.1422997553        8.1256805137        9.8568303762
 Pt         7.1479943307       14.1814101591       10.5343134889
 Pt        -0.4970938025        3.4162492237        9.9189606875
 Pt        -2.3389428333        8.4473124681        9.3264835163
 Pt         2.2110521337        3.3144319502        9.9093918390
 Pt         3.5941883680        5.2269975270       10.8014280764
 Pt         5.7200844358        4.3524021658        9.8822817329
 Pt         2.0393101536        0.6738520600        9.6535092203
 Pt         4.3885204733        1.4879029306        9.5032488521
 Pt        -0.1600250933        7.1277509241       12.1923288577
 Pt         6.7665558149        1.9813948375       10.0043075844
 Pt        -0.1429292278        4.4724774774       12.3018944395
 Pt         5.3527117450        0.4693529937       11.6976193602
 Pt         2.4888623597        6.7665855422       12.5916389338
 Pt         5.0886456920        3.0734942717       12.0524714085
 Pt         1.0681981089        5.6629638450       14.4566083515
 Pt         0.5462853453        2.2025653204       12.4636993628
 Pt         4.6627287090        5.6987940193       13.1695876522
 Pt         2.9367475727        1.5318605552       11.9479363260
 Pt         2.5465670375        3.8751666846       12.9870756189
     166
 i =     1766, time =     1766.000, E =     -6045.8553954277
  O         0.0000000000        0.0000000000        0.0000000000
  O         3.8260000000        0.0000000000        0.0000000000
  O         7.6520000000        0.0000000000        0.0000000000
  O        11.4780000000        0.0000000000        0.0000000000
  O        -1.9130000000        3.3140000000        0.0000000000
  O         1.9130000000        3.3140000000        0.0000000000
  O         5.7390000000        3.3140000000        0.0000000000
  O         9.5650000000        3.3140000000        0.0000000000
  O        -3.8260000000        6.6270000000        0.0000000000
  O         0.0000000000        6.6270000000        0.0000000000
  O         3.8260000000        6.6270000000        0.0000000000
  O         7.6520000000        6.6270000000        0.0000000000
  O        -5.7390000000        9.9410000000        0.0000000000
  O        -1.9130000000        9.9410000000        0.0000000000
  O         1.9130000000        9.9410000000        0.0000000000
  O         5.7390000000        9.9410000000        0.0000000000
  O         1.9130000000        1.1050000000        1.5620000000
  O         5.7390000000        1.1050000000        1.5620000000
  O         9.5650000000        1.1050000000        1.5620000000
  O        13.3920000000        1.1050000000        1.5620000000
  O         0.0000000000        4.4180000000        1.5620000000
  O         3.8260000000        4.4180000000        1.5620000000
  O         7.6520000000        4.4180000000        1.5620000000
  O        11.4780000000        4.4180000000        1.5620000000
  O        -1.9130000000        7.7320000000        1.5620000000
  O         1.9130000000        7.7320000000        1.5620000000
  O         5.7390000000        7.7320000000        1.5620000000
  O         9.5650000000        7.7320000000        1.5620000000
  O        -3.8260000000       11.0450000000        1.5620000000
  O         0.0000000000       11.0450000000        1.5620000000
  O         3.8260000000       11.0450000000        1.5620000000
  O         7.6520000000       11.0450000000        1.5620000000
  O         0.0000000000        2.2090000000        3.1240000000
  O         3.8260000000        2.2090000000        3.1240000000
  O         7.6520000000        2.2090000000        3.1240000000
  O        11.4780000000        2.2090000000        3.1240000000
  O        -1.9130000000        5.5230000000        3.1240000000
  O         1.9130000000        5.5230000000        3.1240000000
  O         5.7390000000        5.5230000000        3.1240000000
  O         9.5650000000        5.5230000000        3.1240000000
  O        -3.8260000000        8.8360000000        3.1240000000
  O         0.0000000000        8.8360000000        3.1240000000
  O         3.8260000000        8.8360000000        3.1240000000
  O         7.6520000000        8.8360000000        3.1240000000
  O        -5.7390000000       12.1500000000        3.1240000000
  O        -1.9130000000       12.1500000000        3.1240000000
  O         1.9130000000       12.1500000000        3.1240000000
  O         5.7390000000       12.1500000000        3.1240000000
  O        -0.1262505772       -0.1170653352        4.8379609234
  O         3.9320658190       -0.0242506390        4.7041603304
  O         7.5693115178        0.1069850009        4.6024169375
  O        11.4561635795       -0.1043034546        4.7367787429
  O        -1.8348243497        3.3145377722        4.6234176112
  O         2.1049824055        3.2153122330        4.7266982427
  O         5.6185444402        3.3583802934        4.9101259031
  O         9.5370514879        3.3407909524        4.7182011831
  O        -3.8498765085        6.6670466263        4.7863070546
  O         0.0023836628        6.5945574083        4.6836665784
  O         3.9324756152        6.6713093953        4.6879034265
  O         7.7808136349        6.5838428685        4.6602432436
  O        -5.7618539557        9.7717120456        4.6261421279
  O        -1.8831921570        9.9178300023        4.6313158569
  O         2.0386471566       10.0024522070        4.7565000154
  O         6.0306195084        9.8131288921        4.8771284887
  O         1.8806986478        1.2262899523        6.3745421092
  O         5.8044129083        0.9385986415        6.3166686345
  O         9.5275334413        1.1423613701        6.2867148818
  O        13.3073064164        0.9615242670        6.3417689049
  O        -0.0423546484        4.4971629048        6.1998127113
  O         4.0948543791        4.5373267704        6.4985141035
  O         7.6362713457        4.3672805756        6.3413387813
  O        11.4630363804        4.3313991297        6.2731631034
  O        -1.8700980323        7.7200450387        6.3913739098
  O         2.0131056290        7.6905802764        6.3396443278
  O         5.9278329940        7.5609088177        6.4033758460
  O         9.5889352119        7.8155458540        6.2626301004
  O        -3.9179336378       10.8543861982        6.1450513044
  O        -0.0574824717       11.0533262209        6.2231828928
  O         4.0272224412       11.0033116266        6.2947951866
  O         7.7478809715       11.0396405427        6.5904987338
  O        -0.0211936093        2.1945291705        7.8395011868
  O         3.9399701092        2.0969713819        7.6515855474
  O         7.7335084677        2.1177530305        8.2038450233
  O        11.4459311718        2.4621221191        8.0815786265
  O        -1.8899700293        5.4029335938        7.9962169555
  O         1.7499034613        5.6085666414        7.8723216252
  O         6.0712401222        5.5850875431        8.3114423454
  O         9.4555427620        5.4235697155        7.9569359718
  O        -3.8467620433        8.8497536722        8.1011128387
  O         0.3739947202        9.1353784042        8.0857788813
  O         3.9844341023        8.7340524464        7.9409722244
  O         7.8643764217        8.7561471367        8.1445144732
  O        -5.6417092359       12.2558967529        8.1921281343
  O        -1.9521075466       12.0861532758        7.8908008930
  O         2.1169538321       12.0861363842        7.9076193536
  O         5.7363877595       12.0780214409        7.9669453355
 Ce         0.0000000000        2.2090000000        0.7810000000
 Ce         3.8260000000        2.2090000000        0.7810000000
 Ce         7.6520000000        2.2090000000        0.7810000000
 Ce        11.4780000000        2.2090000000        0.7810000000
 Ce        -1.9130000000        5.5230000000        0.7810000000
 Ce         1.9130000000        5.5230000000        0.7810000000
 Ce         5.7390000000        5.5230000000        0.7810000000
 Ce         9.5650000000        5.5230000000        0.7810000000
 Ce        -3.8260000000        8.8360000000        0.7810000000
 Ce         0.0000000000        8.8360000000        0.7810000000
 Ce         3.8260000000        8.8360000000        0.7810000000
 Ce         7.6520000000        8.8360000000        0.7810000000
 Ce        -5.7390000000       12.1500000000        0.7810000000
 Ce        -1.9130000000       12.1500000000        0.7810000000
 Ce         1.9130000000       12.1500000000        0.7810000000
 Ce         5.7390000000       12.1500000000        0.7810000000
 Ce         1.8556086725        1.0891301171        3.9415345221
 Ce         5.7252529904        1.1009565126        3.8871840875
 Ce         9.5443870231        1.0624258390        3.9162578821
 Ce        13.5329261761        1.0783153099        3.9440307670
 Ce         0.1787761052        4.4241498653        3.9681529899
 Ce         3.8433883978        4.3909981651        3.9335634886
 Ce         7.6471613661        4.5359380448        3.8556188800
 Ce        11.5026493281        4.4457696429        3.9267572325
 Ce        -1.9654393245        7.6823136085        4.0563440602
 Ce         2.0100096464        7.7422596404        3.9608933159
 Ce         5.7297317186        7.7083563960        3.9493601932
 Ce         9.6614527856        7.6450760532        3.9284020069
 Ce        -3.8772593607       11.0817680218        3.8052613565
 Ce         0.1306254143       11.0433767299        3.9298445256
 Ce         3.9218728266       11.0234579877        3.8642285694
 Ce         7.7151325781       10.9557492330        3.9762263764
 Ce        -0.1455092864        0.0291744632        7.1306578975
 Ce         3.8683369701       -0.1255486618        7.1731115821
 Ce         7.4193880413       -0.0069657999        7.2293928023
 Ce        11.4378543440       -0.0961697179        7.0349327495
 Ce        -1.8760329974        3.2910102630        7.2735758740
 Ce         1.9941668871        3.2041268686        7.1852440471
 Ce         5.7862725814        3.3154074892        7.0741036609
 Ce         9.6905748300        3.3214165031        6.9952467826
 Ce        -3.8505499559        6.6476752127        7.2017800895
 Ce         0.0251702291        6.7098155412        7.1273793267
 Ce         4.0167267302        6.6665813053        7.3282450478
 Ce         7.8115424716        6.5846975111        7.2123601358
 Ce        -5.7256397653        9.7543270027        7.1385064368
 Ce        -1.9690002121       10.1099295540        6.8944594916
 Ce         2.0510186797       10.0218189893        7.2012754869
 Ce         5.8650535137        9.9220021004        7.2153915464
 Pt        12.6883678033        1.8526293793        9.6955572155
 Pt         1.0704940712        5.5359284439        9.9418706237
 Pt         0.1437669200        8.1236945468        9.8558767202
 Pt         7.1462430831       14.1796288227       10.5334352487
 Pt        -0.4977895019        3.4171385584        9.9198766453
 Pt        -2.3392609287        8.4467966063        9.3285131291
 Pt         2.2114248051        3.3141319170        9.9099395458
 Pt         3.5992444478        5.2258343876       10.8028654154
 Pt         5.7197172650        4.3538958315        9.8811952360
 Pt         2.0404402926        0.6734990792        9.6539708249
 Pt         4.3902381289        1.4876440894        9.5038753587
 Pt        -0.1609018409        7.1265203919       12.1919720039
 Pt         6.7708205203        1.9835487772       10.0007960592
 Pt        -0.1437579493        4.4739572769       12.2997601450
 Pt         5.3554575559        0.4694532277       11.6946375713
 Pt         2.4876826862        6.7676600239       12.5896680081
 Pt         5.0844246693        3.0745914333       12.0517725626
 Pt         1.0686934059        5.6642958871       14.4524978709
 Pt         0.5469630718        2.2015135072       12.4640024371
 Pt         4.6623175379        5.6976092993       13.1710596851
 Pt         2.9368981558        1.5293122516       11.9489437632
 Pt         2.5478685433        3.8762079728       12.9897854697
     166
 i =     1767, time =     1767.000, E =     -6045.8557652144
  O         0.0000000000        0.0000000000        0.0000000000
  O         3.8260000000        0.0000000000        0.0000000000
  O         7.6520000000        0.0000000000        0.0000000000
  O        11.4780000000        0.0000000000        0.0000000000
  O        -1.9130000000        3.3140000000        0.0000000000
  O         1.9130000000        3.3140000000        0.0000000000
  O         5.7390000000        3.3140000000        0.0000000000
  O         9.5650000000        3.3140000000        0.0000000000
  O        -3.8260000000        6.6270000000        0.0000000000
  O         0.0000000000        6.6270000000        0.0000000000
  O         3.8260000000        6.6270000000        0.0000000000
  O         7.6520000000        6.6270000000        0.0000000000
  O        -5.7390000000        9.9410000000        0.0000000000
  O        -1.9130000000        9.9410000000        0.0000000000
  O         1.9130000000        9.9410000000        0.0000000000
  O         5.7390000000        9.9410000000        0.0000000000
  O         1.9130000000        1.1050000000        1.5620000000
  O         5.7390000000        1.1050000000        1.5620000000
  O         9.5650000000        1.1050000000        1.5620000000
  O        13.3920000000        1.1050000000        1.5620000000
  O         0.0000000000        4.4180000000        1.5620000000
  O         3.8260000000        4.4180000000        1.5620000000
  O         7.6520000000        4.4180000000        1.5620000000
  O        11.4780000000        4.4180000000        1.5620000000
  O        -1.9130000000        7.7320000000        1.5620000000
  O         1.9130000000        7.7320000000        1.5620000000
  O         5.7390000000        7.7320000000        1.5620000000
  O         9.5650000000        7.7320000000        1.5620000000
  O        -3.8260000000       11.0450000000        1.5620000000
  O         0.0000000000       11.0450000000        1.5620000000
  O         3.8260000000       11.0450000000        1.5620000000
  O         7.6520000000       11.0450000000        1.5620000000
  O         0.0000000000        2.2090000000        3.1240000000
  O         3.8260000000        2.2090000000        3.1240000000
  O         7.6520000000        2.2090000000        3.1240000000
  O        11.4780000000        2.2090000000        3.1240000000
  O        -1.9130000000        5.5230000000        3.1240000000
  O         1.9130000000        5.5230000000        3.1240000000
  O         5.7390000000        5.5230000000        3.1240000000
  O         9.5650000000        5.5230000000        3.1240000000
  O        -3.8260000000        8.8360000000        3.1240000000
  O         0.0000000000        8.8360000000        3.1240000000
  O         3.8260000000        8.8360000000        3.1240000000
  O         7.6520000000        8.8360000000        3.1240000000
  O        -5.7390000000       12.1500000000        3.1240000000
  O        -1.9130000000       12.1500000000        3.1240000000
  O         1.9130000000       12.1500000000        3.1240000000
  O         5.7390000000       12.1500000000        3.1240000000
  O        -0.1248716879       -0.1313246813        4.8377698304
  O         3.9295471386       -0.0271396868        4.7084858182
  O         7.5740189780        0.0943135395        4.5900743908
  O        11.4539612549       -0.1058310718        4.7346455601
  O        -1.8410499785        3.3109761768        4.6341045012
  O         2.1074470753        3.2083631479        4.7244653758
  O         5.6298282997        3.3765347578        4.9073977227
  O         9.5304766755        3.3454531818        4.7263897192
  O        -3.8653819697        6.6705330733        4.7815437417
  O         0.0040628103        6.5910504986        4.6825941847
  O         3.9282334389        6.6661460535        4.6861680202
  O         7.7779037317        6.5911674194        4.6569135246
  O        -5.7630487271        9.7746253628        4.6306358694
  O        -1.8810197271        9.9136805107        4.6350878454
  O         2.0379629262       10.0050132782        4.7558945334
  O         6.0368547542        9.8134126084        4.8746584916
  O         1.8773903460        1.2201237410        6.3923492756
  O         5.8078637508        0.9361371628        6.3093936339
  O         9.5357337393        1.1431947835        6.2826148719
  O        13.3026292911        0.9677157823        6.3509578823
  O        -0.0438149022        4.4939579351        6.1876987959
  O         4.0909344099        4.5305371488        6.5054510256
  O         7.6429806652        4.3666046444        6.3356603505
  O        11.4624445057        4.3229770235        6.2750131263
  O        -1.8678727132        7.7109831959        6.3970169176
  O         2.0137956670        7.6844322524        6.3438854774
  O         5.9264546362        7.5662900016        6.4036033599
  O         9.5855001261        7.8013330893        6.2576186685
  O        -3.9111889182       10.8659577534        6.1440212196
  O        -0.0644259479       11.0669424360        6.2204865720
  O         4.0330621192       10.9899280004        6.2983070992
  O         7.7565027797       11.0336888546        6.5874043499
  O        -0.0113512371        2.1870412165        7.8397930981
  O         3.9459638609        2.0959609496        7.6484392476
  O         7.7336086428        2.1217457335        8.1928400785
  O        11.4494698605        2.4640334698        8.0870402692
  O        -1.8868191390        5.4102004886        7.9958324106
  O         1.7501170611        5.6003657051        7.8676325441
  O         6.0763962335        5.5795585452        8.3147829990
  O         9.4573760588        5.4321638075        7.9531108319
  O        -3.8472301524        8.8490350486        8.1067671625
  O         0.3715468287        9.1410745570        8.0823325902
  O         3.9884477996        8.7405972360        7.9419822592
  O         7.8562763234        8.7473477221        8.1321718276
  O        -5.6451726486       12.2515607104        8.1819377902
  O        -1.9487423181       12.0876228638        7.8834492292
  O         2.1158789756       12.0817416141        7.9126255998
  O         5.7361270586       12.0926501175        7.9670900710
 Ce         0.0000000000        2.2090000000        0.7810000000
 Ce         3.8260000000        2.2090000000        0.7810000000
 Ce         7.6520000000        2.2090000000        0.7810000000
 Ce        11.4780000000        2.2090000000        0.7810000000
 Ce        -1.9130000000        5.5230000000        0.7810000000
 Ce         1.9130000000        5.5230000000        0.7810000000
 Ce         5.7390000000        5.5230000000        0.7810000000
 Ce         9.5650000000        5.5230000000        0.7810000000
 Ce        -3.8260000000        8.8360000000        0.7810000000
 Ce         0.0000000000        8.8360000000        0.7810000000
 Ce         3.8260000000        8.8360000000        0.7810000000
 Ce         7.6520000000        8.8360000000        0.7810000000
 Ce        -5.7390000000       12.1500000000        0.7810000000
 Ce        -1.9130000000       12.1500000000        0.7810000000
 Ce         1.9130000000       12.1500000000        0.7810000000
 Ce         5.7390000000       12.1500000000        0.7810000000
 Ce         1.8578063570        1.0881144878        3.9417010571
 Ce         5.7275795827        1.1024434680        3.8860288845
 Ce         9.5440306111        1.0621689080        3.9156021476
 Ce        13.5341876046        1.0781215529        3.9413789289
 Ce         0.1812269011        4.4244774657        3.9672290251
 Ce         3.8424064853        4.3939370762        3.9370470397
 Ce         7.6472603195        4.5383401084        3.8572380218
 Ce        11.5045766478        4.4422487057        3.9272047402
 Ce        -1.9613048112        7.6793582934        4.0565359179
 Ce         2.0111370940        7.7435135893        3.9595073894
 Ce         5.7314825291        7.7095789459        3.9475588931
 Ce         9.6578296795        7.6466836544        3.9253178039
 Ce        -3.8773341788       11.0849994440        3.8040695393
 Ce         0.1332818275       11.0452714770        3.9335859165
 Ce         3.9248519241       11.0207783760        3.8649923491
 Ce         7.7128789415       10.9531436041        3.9763095633
 Ce        -0.1441342883        0.0325023279        7.1291880107
 Ce         3.8703592561       -0.1227647505        7.1752038849
 Ce         7.4159027223       -0.0062835178        7.2269394370
 Ce        11.4383537616       -0.0937541807        7.0334317778
 Ce        -1.8768724099        3.2897138055        7.2728169738
 Ce         1.9933653866        3.2008170820        7.1813120550
 Ce         5.7881803184        3.3131314532        7.0710446616
 Ce         9.6892604684        3.3216727715        6.9951803709
 Ce        -3.8492812582        6.6480116113        7.1984473573
 Ce         0.0247607106        6.7078551997        7.1271082631
 Ce         4.0159302173        6.6699788557        7.3247239597
 Ce         7.8098805431        6.5889149932        7.2117299290
 Ce        -5.7256548253        9.7537345835        7.1392422834
 Ce        -1.9703381476       10.1078674483        6.8902351398
 Ce         2.0506799493       10.0243379466        7.2013077198
 Ce         5.8650692001        9.9184402473        7.2111677091
 Pt        12.6831566856        1.8530857115        9.6933477995
 Pt         1.0708972423        5.5361595122        9.9404563114
 Pt         0.1452148430        8.1216764164        9.8549643579
 Pt         7.1445155351       14.1778167845       10.5326211999
 Pt        -0.4984336438        3.4180080702        9.9208073868
 Pt        -2.3395328170        8.4462689791        9.3305502095
 Pt         2.2117902712        3.3137453237        9.9105126714
 Pt         3.6043046296        5.2247101709       10.8043287853
 Pt         5.7193563438        4.3554108193        9.8800987703
 Pt         2.0414878818        0.6730600042        9.6544108324
 Pt         4.3919784441        1.4873895365        9.5045632890
 Pt        -0.1617186799        7.1252582644       12.1916072686
 Pt         6.7751562450        1.9856889180        9.9972949475
 Pt        -0.1445679839        4.4756016705       12.2975870913
 Pt         5.3581919638        0.4695810968       11.6916466874
 Pt         2.4864155935        6.7687114572       12.5876866360
 Pt         5.0802310908        3.0757368849       12.0510830917
 Pt         1.0691812808        5.6656097809       14.4483169742
 Pt         0.5476655163        2.2003591914       12.4643232822
 Pt         4.6619317625        5.6963691116       13.1725172902
 Pt         2.9370549027        1.5267388230       11.9499511905
 Pt         2.5491645112        3.8772786662       12.9925428950
     166
 i =     1768, time =     1768.000, E =     -6045.8558808302
  O         0.0000000000        0.0000000000        0.0000000000
  O         3.8260000000        0.0000000000        0.0000000000
  O         7.6520000000        0.0000000000        0.0000000000
  O        11.4780000000        0.0000000000        0.0000000000
  O        -1.9130000000        3.3140000000        0.0000000000
  O         1.9130000000        3.3140000000        0.0000000000
  O         5.7390000000        3.3140000000        0.0000000000
  O         9.5650000000        3.3140000000        0.0000000000
  O        -3.8260000000        6.6270000000        0.0000000000
  O         0.0000000000        6.6270000000        0.0000000000
  O         3.8260000000        6.6270000000        0.0000000000
  O         7.6520000000        6.6270000000        0.0000000000
  O        -5.7390000000        9.9410000000        0.0000000000
  O        -1.9130000000        9.9410000000        0.0000000000
  O         1.9130000000        9.9410000000        0.0000000000
  O         5.7390000000        9.9410000000        0.0000000000
  O         1.9130000000        1.1050000000        1.5620000000
  O         5.7390000000        1.1050000000        1.5620000000
  O         9.5650000000        1.1050000000        1.5620000000
  O        13.3920000000        1.1050000000        1.5620000000
  O         0.0000000000        4.4180000000        1.5620000000
  O         3.8260000000        4.4180000000        1.5620000000
  O         7.6520000000        4.4180000000        1.5620000000
  O        11.4780000000        4.4180000000        1.5620000000
  O        -1.9130000000        7.7320000000        1.5620000000
  O         1.9130000000        7.7320000000        1.5620000000
  O         5.7390000000        7.7320000000        1.5620000000
  O         9.5650000000        7.7320000000        1.5620000000
  O        -3.8260000000       11.0450000000        1.5620000000
  O         0.0000000000       11.0450000000        1.5620000000
  O         3.8260000000       11.0450000000        1.5620000000
  O         7.6520000000       11.0450000000        1.5620000000
  O         0.0000000000        2.2090000000        3.1240000000
  O         3.8260000000        2.2090000000        3.1240000000
  O         7.6520000000        2.2090000000        3.1240000000
  O        11.4780000000        2.2090000000        3.1240000000
  O        -1.9130000000        5.5230000000        3.1240000000
  O         1.9130000000        5.5230000000        3.1240000000
  O         5.7390000000        5.5230000000        3.1240000000
  O         9.5650000000        5.5230000000        3.1240000000
  O        -3.8260000000        8.8360000000        3.1240000000
  O         0.0000000000        8.8360000000        3.1240000000
  O         3.8260000000        8.8360000000        3.1240000000
  O         7.6520000000        8.8360000000        3.1240000000
  O        -5.7390000000       12.1500000000        3.1240000000
  O        -1.9130000000       12.1500000000        3.1240000000
  O         1.9130000000       12.1500000000        3.1240000000
  O         5.7390000000       12.1500000000        3.1240000000
  O        -0.1227006586       -0.1452553016        4.8373397262
  O         3.9261794851       -0.0299780491        4.7131079614
  O         7.5792835994        0.0810964119        4.5783021205
  O        11.4518020502       -0.1072238675        4.7325864312
  O        -1.8474194162        3.3070044283        4.6451027847
  O         2.1094727801        3.2018708106        4.7225758616
  O         5.6414371221        3.3942221598        4.9035144273
  O         9.5240671857        3.3501846057        4.7345088170
  O        -3.8804778385        6.6736062657        4.7771580343
  O         0.0059867883        6.5881236637        4.6817437122
  O         3.9237337758        6.6608038219        4.6846915070
  O         7.7745187984        6.5985678045        4.6540431328
  O        -5.7644285310        9.7784538651        4.6355170708
  O        -1.8790048650        9.9095934932        4.6392152493
  O         2.0371184851       10.0073869444        4.7554007629
  O         6.0422367922        9.8139181171        4.8722752067
  O         1.8739734758        1.2127988413        6.4092843918
  O         5.8111573809        0.9342841821        6.3021147842
  O         9.5440126789        1.1438079434        6.2787905424
  O        13.2980522319        0.9745533112        6.3599877734
  O        -0.0447079268        4.4903911960        6.1760033809
  O         4.0860411196        4.5242189401        6.5124586982
  O         7.6497382121        4.3659963974        6.3298082165
  O        11.4621447314        4.3151763438        6.2768343230
  O        -1.8658418675        7.7022501385        6.4020893143
  O         2.0145130210        7.6784442528        6.3479807093
  O         5.9246595947        7.5718451537        6.4038159758
  O         9.5823274912        7.7864099923        6.2531669646
  O        -3.9045001375       10.8780749409        6.1436074432
  O        -0.0710750245       11.0809065973        6.2181314415
  O         4.0386750648       10.9764093706        6.3018083642
  O         7.7652900681       11.0275607062        6.5838520055
  O        -0.0016189399        2.1798813259        7.8400194128
  O         3.9518545759        2.0951944951        7.6449141313
  O         7.7336994388        2.1255827766        8.1817001701
  O        11.4528041769        2.4653133010        8.0928087913
  O        -1.8840448943        5.4176501776        7.9950713070
  O         1.7508899187        5.5919011301        7.8637477830
  O         6.0812590525        5.5741697633        8.3177323505
  O         9.4599993733        5.4411716961        7.9491812506
  O        -3.8483897881        8.8483420936        8.1120573154
  O         0.3686903912        9.1465091420        8.0789052213
  O         3.9925163342        8.7475177746        7.9431113302
  O         7.8480339708        8.7385540737        8.1194894299
  O        -5.6486037497       12.2476242668        8.1716547097
  O        -1.9455872247       12.0889520795        7.8762946913
  O         2.1143793686       12.0774262378        7.9177839769
  O         5.7358827522       12.1071438008        7.9671616799
 Ce         0.0000000000        2.2090000000        0.7810000000
 Ce         3.8260000000        2.2090000000        0.7810000000
 Ce         7.6520000000        2.2090000000        0.7810000000
 Ce        11.4780000000        2.2090000000        0.7810000000
 Ce        -1.9130000000        5.5230000000        0.7810000000
 Ce         1.9130000000        5.5230000000        0.7810000000
 Ce         5.7390000000        5.5230000000        0.7810000000
 Ce         9.5650000000        5.5230000000        0.7810000000
 Ce        -3.8260000000        8.8360000000        0.7810000000
 Ce         0.0000000000        8.8360000000        0.7810000000
 Ce         3.8260000000        8.8360000000        0.7810000000
 Ce         7.6520000000        8.8360000000        0.7810000000
 Ce        -5.7390000000       12.1500000000        0.7810000000
 Ce        -1.9130000000       12.1500000000        0.7810000000
 Ce         1.9130000000       12.1500000000        0.7810000000
 Ce         5.7390000000       12.1500000000        0.7810000000
 Ce         1.8601091803        1.0871027753        3.9418698429
 Ce         5.7299364966        1.1039108147        3.8848681438
 Ce         9.5436827575        1.0619862391        3.9149537474
 Ce        13.5352521571        1.0780087495        3.9387091365
 Ce         0.1834817690        4.4248187083        3.9663237659
 Ce         3.8414690833        4.3969028540        3.9405271808
 Ce         7.6473955852        4.5406202557        3.8589326718
 Ce        11.5065578950        4.4386206702        3.9276306278
 Ce        -1.9570659533        7.6764345731        4.0565991537
 Ce         2.0121617517        7.7447713836        3.9581350351
 Ce         5.7333287693        7.7108020294        3.9457498379
 Ce         9.6541138070        7.6483861584        3.9221548375
 Ce        -3.8773155679       11.0881644497        3.8029285754
 Ce         0.1358277251       11.0471494769        3.9372837706
 Ce         3.9277822328       11.0181405223        3.8658179539
 Ce         7.7106211819       10.9504975212        3.9763556171
 Ce        -0.1427058468        0.0357740846        7.1278146513
 Ce         3.8722686856       -0.1199633898        7.1772246042
 Ce         7.4126235831       -0.0055871807        7.2244430262
 Ce        11.4388938908       -0.0913298971        7.0319399167
 Ce        -1.8777264429        3.2885395025        7.2719394524
 Ce         1.9924957268        3.1976047626        7.1773602473
 Ce         5.7901749826        3.3108764683        7.0680401511
 Ce         9.6878397969        3.3219192033        6.9951385050
 Ce        -3.8478981643        6.6482662784        7.1951476226
 Ce         0.0242961670        6.7058229587        7.1268106611
 Ce         4.0150803480        6.6733547414        7.3211733324
 Ce         7.8081528072        6.5931108783        7.2110857437
 Ce        -5.7257070815        9.7532587150        7.1400107133
 Ce        -1.9716203781       10.1056400022        6.8860723177
 Ce         2.0503899618       10.0268015813        7.2012518430
 Ce         5.8650984648        9.9148889710        7.2069437395
 Pt        12.6779204966        1.8535511119        9.6911024028
 Pt         1.0712393889        5.5364906459        9.9390331897
 Pt         0.1466435223        8.1196284690        9.8540908846
 Pt         7.1428097348       14.1759756967       10.5318712827
 Pt        -0.4990274282        3.4188551964        9.9217523793
 Pt        -2.3397574949        8.4457294804        9.3325952693
 Pt         2.2121488693        3.3132727922        9.9111112318
 Pt         3.6093641095        5.2236245743       10.8058187290
 Pt         5.7190030303        4.3569437657        9.8789938555
 Pt         2.0424533373        0.6725353244        9.6548288508
 Pt         4.3937419929        1.4871398252        9.5053114396
 Pt        -0.1624763275        7.1239655713       12.1912343537
 Pt         6.7795608048        1.9878147681        9.9938032967
 Pt        -0.1453577609        4.4774074627       12.2953764122
 Pt         5.3609154020        0.4697381024       11.6886468640
 Pt         2.4850636219        6.7697396367       12.5856936164
 Pt         5.0760667414        3.0769299900       12.0504026416
 Pt         1.0696607129        5.6669054893       14.4440675963
 Pt         0.5483916078        2.1991048001       12.4646600703
 Pt         4.6615705262        5.6950741974       13.1739609612
 Pt         2.9372173732        1.5241408522       11.9509586486
 Pt         2.5504547762        3.8783774483       12.9953462139
     166
 i =     1769, time =     1769.000, E =     -6045.8558987970
  O         0.0000000000        0.0000000000        0.0000000000
  O         3.8260000000        0.0000000000        0.0000000000
  O         7.6520000000        0.0000000000        0.0000000000
  O        11.4780000000        0.0000000000        0.0000000000
  O        -1.9130000000        3.3140000000        0.0000000000
  O         1.9130000000        3.3140000000        0.0000000000
  O         5.7390000000        3.3140000000        0.0000000000
  O         9.5650000000        3.3140000000        0.0000000000
  O        -3.8260000000        6.6270000000        0.0000000000
  O         0.0000000000        6.6270000000        0.0000000000
  O         3.8260000000        6.6270000000        0.0000000000
  O         7.6520000000        6.6270000000        0.0000000000
  O        -5.7390000000        9.9410000000        0.0000000000
  O        -1.9130000000        9.9410000000        0.0000000000
  O         1.9130000000        9.9410000000        0.0000000000
  O         5.7390000000        9.9410000000        0.0000000000
  O         1.9130000000        1.1050000000        1.5620000000
  O         5.7390000000        1.1050000000        1.5620000000
  O         9.5650000000        1.1050000000        1.5620000000
  O        13.3920000000        1.1050000000        1.5620000000
  O         0.0000000000        4.4180000000        1.5620000000
  O         3.8260000000        4.4180000000        1.5620000000
  O         7.6520000000        4.4180000000        1.5620000000
  O        11.4780000000        4.4180000000        1.5620000000
  O        -1.9130000000        7.7320000000        1.5620000000
  O         1.9130000000        7.7320000000        1.5620000000
  O         5.7390000000        7.7320000000        1.5620000000
  O         9.5650000000        7.7320000000        1.5620000000
  O        -3.8260000000       11.0450000000        1.5620000000
  O         0.0000000000       11.0450000000        1.5620000000
  O         3.8260000000       11.0450000000        1.5620000000
  O         7.6520000000       11.0450000000        1.5620000000
  O         0.0000000000        2.2090000000        3.1240000000
  O         3.8260000000        2.2090000000        3.1240000000
  O         7.6520000000        2.2090000000        3.1240000000
  O        11.4780000000        2.2090000000        3.1240000000
  O        -1.9130000000        5.5230000000        3.1240000000
  O         1.9130000000        5.5230000000        3.1240000000
  O         5.7390000000        5.5230000000        3.1240000000
  O         9.5650000000        5.5230000000        3.1240000000
  O        -3.8260000000        8.8360000000        3.1240000000
  O         0.0000000000        8.8360000000        3.1240000000
  O         3.8260000000        8.8360000000        3.1240000000
  O         7.6520000000        8.8360000000        3.1240000000
  O        -5.7390000000       12.1500000000        3.1240000000
  O        -1.9130000000       12.1500000000        3.1240000000
  O         1.9130000000       12.1500000000        3.1240000000
  O         5.7390000000       12.1500000000        3.1240000000
  O        -0.1197706501       -0.1587607070        4.8366713755
  O         3.9219879287       -0.0327126809        4.7180150006
  O         7.5850660949        0.0673989919        4.5671409328
  O        11.4497141708       -0.1084998327        4.7306223090
  O        -1.8538950065        3.3026302021        4.6564195022
  O         2.1110584243        3.1958355370        4.7210428744
  O         5.6533019377        3.4113689293        4.8985038858
  O         9.5178682002        3.3549603332        4.7424890514
  O        -3.8950006617        6.6762097948        4.7731431507
  O         0.0081536234        6.5857979708        4.6811115822
  O         3.9190041156        6.6552983757        4.6834829366
  O         7.7706407092        6.6060246014        4.6516246449
  O        -5.7659621675        9.7831653658        4.6408097546
  O        -1.8771457825        9.9055458217        4.6437010260
  O         2.0361242891       10.0095502092        4.7550343999
  O         6.0467168719        9.8146221804        4.8699780035
  O         1.8704768815        1.2043371716        6.4252957508
  O         5.8142958590        0.9330741600        6.2948446946
  O         9.5523420341        1.1441799892        6.2752401969
  O        13.2935983977        0.9820240739        6.3688049807
  O        -0.0450263290        4.4864662534        6.1647385852
  O         4.0801841512        4.5183823543        6.5195007355
  O         7.6565228717        4.3654731455        6.3237939089
  O        11.4621786908        4.3080185231        6.2786209446
  O        -1.8640354918        7.6938650892        6.4065471725
  O         2.0152737702        7.6726491120        6.3519326357
  O         5.9224214276        7.5775592748        6.4039928288
  O         9.5794347338        7.7709468905        6.2493152348
  O        -3.8978765381       10.8906763411        6.1438196820
  O        -0.0773960669       11.0951955731        6.2161354343
  O         4.0440518971       10.9628442992        6.3052467725
  O         7.7742012249       11.0212579145        6.5798804084
  O         0.0079151707        2.1731091127        7.8401832598
  O         3.9576361768        2.0946712378        7.6410434064
  O         7.7337758699        2.1292689913        8.1704100627
  O        11.4559066019        2.4659691994        8.0988303396
  O        -1.8816319442        5.4252436651        7.9939199432
  O         1.7521834165        5.5831956360        7.8606917588
  O         6.0858414484        5.5689470793        8.3202396176
  O         9.4634187071        5.4505719038        7.9451623957
  O        -3.8502605304        8.8476870078        8.1169562226
  O         0.3654181460        9.1516563291        8.0755250216
  O         3.9966318762        8.7547886539        7.9443536797
  O         7.8396850039        8.7297996395        8.1064547893
  O        -5.6519840476       12.2440794677        8.1613093377
  O        -1.9426666278       12.0901338732        7.8693677466
  O         2.1124817463       12.0732215186        7.9230669756
  O         5.7356623443       12.1214555075        7.9671356913
 Ce         0.0000000000        2.2090000000        0.7810000000
 Ce         3.8260000000        2.2090000000        0.7810000000
 Ce         7.6520000000        2.2090000000        0.7810000000
 Ce        11.4780000000        2.2090000000        0.7810000000
 Ce        -1.9130000000        5.5230000000        0.7810000000
 Ce         1.9130000000        5.5230000000        0.7810000000
 Ce         5.7390000000        5.5230000000        0.7810000000
 Ce         9.5650000000        5.5230000000        0.7810000000
 Ce        -3.8260000000        8.8360000000        0.7810000000
 Ce         0.0000000000        8.8360000000        0.7810000000
 Ce         3.8260000000        8.8360000000        0.7810000000
 Ce         7.6520000000        8.8360000000        0.7810000000
 Ce        -5.7390000000       12.1500000000        0.7810000000
 Ce        -1.9130000000       12.1500000000        0.7810000000
 Ce         1.9130000000       12.1500000000        0.7810000000
 Ce         5.7390000000       12.1500000000        0.7810000000
 Ce         1.8625167214        1.0860905413        3.9420398787
 Ce         5.7323229783        1.1053551167        3.8837000870
 Ce         9.5433440766        1.0618766658        3.9143125242
 Ce        13.5361208004        1.0779742986        3.9360261285
 Ce         0.1855389940        4.4251717057        3.9654360906
 Ce         3.8405799130        4.3998945984        3.9440009612
 Ce         7.6475674621        4.5427800449        3.8607039355
 Ce        11.5085873294        4.4348901351        3.9280369500
 Ce        -1.9527310021        7.6735435327        4.0565334606
 Ce         2.0130814878        7.7460313376        3.9567770663
 Ce         5.7352705819        7.7120214985        3.9439334166
 Ce         9.6503065166        7.6501846881        3.9189155538
 Ce        -3.8772047486       11.0912594858        3.8018414693
 Ce         0.1382615816       11.0490105575        3.9409334014
 Ce         3.9306614798       11.0155480094        3.8667044947
 Ce         7.7083668633       10.9478143030        3.9763656384
 Ce        -0.1412234455        0.0389827433        7.1265404398
 Ce         3.8740601309       -0.1171515821        7.1791737411
 Ce         7.4095558495       -0.0048802780        7.2219066399
 Ce        11.4394754080       -0.0889011627        7.0304607200
 Ce        -1.8785925209        3.2874863136        7.2709454124
 Ce         1.9915614981        3.1944918081        7.1733949354
 Ce         5.7922583932        3.3086474446        7.0650904806
 Ce         9.6863115156        3.3221587177        6.9951236207
 Ce        -3.8464070078        6.6484376896        7.1918821080
 Ce         0.0237788105        6.7037172597        7.1264904220
 Ce         4.0141751801        6.6767070129        7.3175952679
 Ce         7.8063640120        6.5972796671        7.2104256845
 Ce        -5.7257948529        9.7528954103        7.1408047129
 Ce        -1.9728460910       10.1032514568        6.8819752479
 Ce         2.0501493416       10.0292082790        7.2011117515
 Ce         5.8651438216        9.9113514820        7.2027230186
 Pt        12.6726654553        1.8540257172        9.6888246113
 Pt         1.0715222271        5.5369216795        9.9376003031
 Pt         0.1480529034        8.1175528248        9.8532540874
 Pt         7.1411237408       14.1741067203       10.5311850721
 Pt        -0.4995718265        3.4196769990        9.9227112487
 Pt        -2.3399341816        8.4451781139        9.3346486537
 Pt         2.2125000545        3.3127145541        9.9117347961
 Pt         3.6144190629        5.2225765724       10.8073352795
 Pt         5.7186583145        4.3584921337        9.8778816956
 Pt         2.0433378623        0.6719262190        9.6552243023
 Pt         4.3955290899        1.4868957460        9.5061183004
 Pt        -0.1631751166        7.1226433310       12.1908525843
 Pt         6.7840319035        1.9899257699        9.9903203552
 Pt        -0.1461257099        4.4793717589       12.2931291839
 Pt         5.3636282516        0.4699258237       11.6856382209
 Pt         2.4836293652        6.7707439022       12.5836874527
 Pt         5.0719335623        3.0781694718       12.0497309026
 Pt         1.0701304244        5.6681832665       14.4397523864
 Pt         0.5491407005        2.1977521175       12.4650107495
 Pt         4.6612326013        5.6937257653       13.1753914444
 Pt         2.9373847270        1.5215183306       11.9519663033
 Pt         2.5517388366        3.8795042284       12.9981940875
     166
 i =     1770, time =     1770.000, E =     -6045.8556960698
  O         0.0000000000        0.0000000000        0.0000000000
  O         3.8260000000        0.0000000000        0.0000000000
  O         7.6520000000        0.0000000000        0.0000000000
  O        11.4780000000        0.0000000000        0.0000000000
  O        -1.9130000000        3.3140000000        0.0000000000
  O         1.9130000000        3.3140000000        0.0000000000
  O         5.7390000000        3.3140000000        0.0000000000
  O         9.5650000000        3.3140000000        0.0000000000
  O        -3.8260000000        6.6270000000        0.0000000000
  O         0.0000000000        6.6270000000        0.0000000000
  O         3.8260000000        6.6270000000        0.0000000000
  O         7.6520000000        6.6270000000        0.0000000000
  O        -5.7390000000        9.9410000000        0.0000000000
  O        -1.9130000000        9.9410000000        0.0000000000
  O         1.9130000000        9.9410000000        0.0000000000
  O         5.7390000000        9.9410000000        0.0000000000
  O         1.9130000000        1.1050000000        1.5620000000
  O         5.7390000000        1.1050000000        1.5620000000
  O         9.5650000000        1.1050000000        1.5620000000
  O        13.3920000000        1.1050000000        1.5620000000
  O         0.0000000000        4.4180000000        1.5620000000
  O         3.8260000000        4.4180000000        1.5620000000
  O         7.6520000000        4.4180000000        1.5620000000
  O        11.4780000000        4.4180000000        1.5620000000
  O        -1.9130000000        7.7320000000        1.5620000000
  O         1.9130000000        7.7320000000        1.5620000000
  O         5.7390000000        7.7320000000        1.5620000000
  O         9.5650000000        7.7320000000        1.5620000000
  O        -3.8260000000       11.0450000000        1.5620000000
  O         0.0000000000       11.0450000000        1.5620000000
  O         3.8260000000       11.0450000000        1.5620000000
  O         7.6520000000       11.0450000000        1.5620000000
  O         0.0000000000        2.2090000000        3.1240000000
  O         3.8260000000        2.2090000000        3.1240000000
  O         7.6520000000        2.2090000000        3.1240000000
  O        11.4780000000        2.2090000000        3.1240000000
  O        -1.9130000000        5.5230000000        3.1240000000
  O         1.9130000000        5.5230000000        3.1240000000
  O         5.7390000000        5.5230000000        3.1240000000
  O         9.5650000000        5.5230000000        3.1240000000
  O        -3.8260000000        8.8360000000        3.1240000000
  O         0.0000000000        8.8360000000        3.1240000000
  O         3.8260000000        8.8360000000        3.1240000000
  O         7.6520000000        8.8360000000        3.1240000000
  O        -5.7390000000       12.1500000000        3.1240000000
  O        -1.9130000000       12.1500000000        3.1240000000
  O         1.9130000000       12.1500000000        3.1240000000
  O         5.7390000000       12.1500000000        3.1240000000
  O        -0.1161161295       -0.1717707986        4.8357674724
  O         3.9170063745       -0.0352880173        4.7231889120
  O         7.5913418336        0.0533115239        4.5565716064
  O        11.4477246647       -0.1096772546        4.7287706097
  O        -1.8604460622        3.2978602858        4.6680210887
  O         2.1122016574        3.1902653631        4.7198778374
  O         5.6653939931        3.4279750473        4.8924169336
  O         9.5119299622        3.3597482438        4.7502364399
  O        -3.9088309446        6.6782951137        4.7694942564
  O         0.0105606626        6.5840905687        4.6806943237
  O         3.9140677803        6.6496423995        4.6825517364
  O         7.7662538328        6.6135175635        4.6496456000
  O        -5.7676140965        9.7887198787        4.6465353447
  O        -1.8754417841        9.9015164106        4.6485418583
  O         2.0349928714       10.0114813436        4.7548101948
  O         6.0502546627        9.8155007235        4.8677624157
  O         1.8669394481        1.1947651850        6.4403851466
  O         5.8172786518        0.9325404642        6.2875901403
  O         9.5607011530        1.1442917823        6.2719553671
  O        13.2892824474        0.9901090562        6.3773230320
  O        -0.0447644703        4.4821926139        6.1539714941
  O         4.0733826609        4.5130270334        6.5265181467
  O         7.6633153450        4.3650493190        6.3176451521
  O        11.4625805119        4.3015294153        6.2803682610
  O        -1.8624839371        7.6858454056        6.4103594255
  O         2.0160928903        7.6670828008        6.3557440277
  O         5.9197126557        7.5834188584        6.4041129130
  O         9.5768181593        7.7550806186        6.2461005419
  O        -3.8913310200       10.9037202948        6.1446581986
  O        -0.0833784075       11.1097761147        6.2145105901
  O         4.0491743380       10.9493056633        6.3085681780
  O         7.7831755583       11.0147887531        6.5755220140
  O         0.0171859557        2.1667653469        7.8402899274
  O         3.9632940311        2.0943895700        7.6368680902
  O         7.7338330679        2.1328106479        8.1589957172
  O        11.4587448541        2.4660137176        8.1050546529
  O        -1.8795657106        5.4329531429        7.9923685169
  O         1.7539596343        5.5742917559        7.8584871659
  O         6.0901595222        5.5639098912        8.3222585607
  O         9.4676272814        5.4603228510        7.9410765744
  O        -3.8528519732        8.8470753699        8.1214507008
  O         0.3617216948        9.1564970258        8.0722152291
  O         4.0007800546        8.7623712674        7.9457041344
  O         7.8312577960        8.7211249923        8.0930667427
  O        -5.6552969009       12.2409077960        8.1509725865
  O        -1.9400064104       12.0911608070        7.8627218430
  O         2.1102174659       12.0691545176        7.9284342684
  O         5.7354740022       12.1355644971        7.9669891991
 Ce         0.0000000000        2.2090000000        0.7810000000
 Ce         3.8260000000        2.2090000000        0.7810000000
 Ce         7.6520000000        2.2090000000        0.7810000000
 Ce        11.4780000000        2.2090000000        0.7810000000
 Ce        -1.9130000000        5.5230000000        0.7810000000
 Ce         1.9130000000        5.5230000000        0.7810000000
 Ce         5.7390000000        5.5230000000        0.7810000000
 Ce         9.5650000000        5.5230000000        0.7810000000
 Ce        -3.8260000000        8.8360000000        0.7810000000
 Ce         0.0000000000        8.8360000000        0.7810000000
 Ce         3.8260000000        8.8360000000        0.7810000000
 Ce         7.6520000000        8.8360000000        0.7810000000
 Ce        -5.7390000000       12.1500000000        0.7810000000
 Ce        -1.9130000000       12.1500000000        0.7810000000
 Ce         1.9130000000       12.1500000000        0.7810000000
 Ce         5.7390000000       12.1500000000        0.7810000000
 Ce         1.8650282773        1.0850731146        3.9422102449
 Ce         5.7347381124        1.1067727813        3.8825231306
 Ce         9.5430152549        1.0618385864        3.9136783610
 Ce        13.5367950878        1.0780152719        3.9333345736
 Ce         0.1873975488        4.4255344871        3.9645644874
 Ce         3.8397423664        4.4029111905        3.9474654010
 Ce         7.6477760809        4.5448212367        3.8625524123
 Ce        11.5106591819        4.4310619288        3.9284257921
 Ce        -1.9483081163        7.6706863851        4.0563386230
 Ce         2.0138943606        7.7472918224        3.9554341300
 Ce         5.7373076234        7.7132332570        3.9421100716
 Ce         9.6464093926        7.6520803545        3.9156029125
 Ce        -3.8770033467       11.0942815290        3.8008114812
 Ce         0.1405821646       11.0508542619        3.9445303239
 Ce         3.9334874683       11.0130042373        3.8676510136
 Ce         7.7061235838       10.9450978107        3.9763407816
 Ce        -0.1396867708        0.0421212823        7.1253674599
 Ce         3.8757289499       -0.1143365378        7.1810513124
 Ce         7.4067047681       -0.0041666284        7.2193337026
 Ce        11.4400986810       -0.0864718665        7.0289980869
 Ce        -1.8794685863        3.2865526707        7.2698372232
 Ce         1.9905664342        3.1914794235        7.1694221058
 Ce         5.7944316315        3.3064491168        7.0621951932
 Ce         9.6846751478        3.3223939799        6.9951382055
 Ce        -3.8448144746        6.6485247980        7.1886520269
 Ce         0.0232113599        6.7015365112        7.1261515974
 Ce         4.0132126393        6.6800343630        7.3139916426
 Ce         7.8045190124        6.6014157673        7.2097476988
 Ce        -5.7259162871        9.7526411626        7.1416177256
 Ce        -1.9740147527       10.1007069175        6.8779487599
 Ce         2.0499583224       10.0315567353        7.2008915772
 Ce         5.8652079090        9.9078306566        7.1985088765
 Pt        12.6673972853        1.8545094924        9.6865181489
 Pt         1.0717479408        5.5374524691        9.9361567719
 Pt         0.1494426024        8.1154513860        9.8524521626
 Pt         7.1394554325       14.1722106315       10.5305621441
 Pt        -0.5000677676        3.4204711465        9.9236839589
 Pt        -2.3400623660        8.4446150731        9.3367102992
 Pt         2.2128431510        3.3120710993        9.9123825616
 Pt         3.6194661930        5.2215650514       10.8088785788
 Pt         5.7183229240        4.3600534734        9.8767637397
 Pt         2.0441428177        0.6712346472        9.6555966689
 Pt         4.3973399537        1.4866585678        9.5069817774
 Pt        -0.1638149477        7.1212919317       12.1904612742
 Pt         6.7885675026        1.9920215332        9.9868454924
 Pt        -0.1468693986        4.4814913356       12.2908464297
 Pt         5.3663307778        0.4701457013       11.6826215571
 Pt         2.4821157732        6.7717226777       12.5816667632
 Pt         5.0678330702        3.0794542766       12.0490674929
 Pt         1.0705891688        5.6694430168       14.4353729877
 Pt         0.5499124504        2.1963037285       12.4653733079
 Pt         4.6609159579        5.6923248233       13.1768089273
 Pt         2.9375559854        1.5188719256       11.9529748238
 Pt         2.5530160150        3.8806593507       13.0010855684
     166
 i =     1771, time =     1771.000, E =     -6045.8548631746
  O         0.0000000000        0.0000000000        0.0000000000
  O         3.8260000000        0.0000000000        0.0000000000
  O         7.6520000000        0.0000000000        0.0000000000
  O        11.4780000000        0.0000000000        0.0000000000
  O        -1.9130000000        3.3140000000        0.0000000000
  O         1.9130000000        3.3140000000        0.0000000000
  O         5.7390000000        3.3140000000        0.0000000000
  O         9.5650000000        3.3140000000        0.0000000000
  O        -3.8260000000        6.6270000000        0.0000000000
  O         0.0000000000        6.6270000000        0.0000000000
  O         3.8260000000        6.6270000000        0.0000000000
  O         7.6520000000        6.6270000000        0.0000000000
  O        -5.7390000000        9.9410000000        0.0000000000
  O        -1.9130000000        9.9410000000        0.0000000000
  O         1.9130000000        9.9410000000        0.0000000000
  O         5.7390000000        9.9410000000        0.0000000000
  O         1.9130000000        1.1050000000        1.5620000000
  O         5.7390000000        1.1050000000        1.5620000000
  O         9.5650000000        1.1050000000        1.5620000000
  O        13.3920000000        1.1050000000        1.5620000000
  O         0.0000000000        4.4180000000        1.5620000000
  O         3.8260000000        4.4180000000        1.5620000000
  O         7.6520000000        4.4180000000        1.5620000000
  O        11.4780000000        4.4180000000        1.5620000000
  O        -1.9130000000        7.7320000000        1.5620000000
  O         1.9130000000        7.7320000000        1.5620000000
  O         5.7390000000        7.7320000000        1.5620000000
  O         9.5650000000        7.7320000000        1.5620000000
  O        -3.8260000000       11.0450000000        1.5620000000
  O         0.0000000000       11.0450000000        1.5620000000
  O         3.8260000000       11.0450000000        1.5620000000
  O         7.6520000000       11.0450000000        1.5620000000
  O         0.0000000000        2.2090000000        3.1240000000
  O         3.8260000000        2.2090000000        3.1240000000
  O         7.6520000000        2.2090000000        3.1240000000
  O        11.4780000000        2.2090000000        3.1240000000
  O        -1.9130000000        5.5230000000        3.1240000000
  O         1.9130000000        5.5230000000        3.1240000000
  O         5.7390000000        5.5230000000        3.1240000000
  O         9.5650000000        5.5230000000        3.1240000000
  O        -3.8260000000        8.8360000000        3.1240000000
  O         0.0000000000        8.8360000000        3.1240000000
  O         3.8260000000        8.8360000000        3.1240000000
  O         7.6520000000        8.8360000000        3.1240000000
  O        -5.7390000000       12.1500000000        3.1240000000
  O        -1.9130000000       12.1500000000        3.1240000000
  O         1.9130000000       12.1500000000        3.1240000000
  O         5.7390000000       12.1500000000        3.1240000000
  O        -0.1117809347       -0.1841992297        4.8346324045
  O         3.9112726259       -0.0376463099        4.7286027510
  O         7.5980841773        0.0389499763        4.5465502018
  O        11.4458592103       -0.1107743020        4.7270453441
  O        -1.8670548641        3.2926935245        4.6798141620
  O         2.1128994539        3.1851724907        4.7190914696
  O         5.6776596415        3.4440118573        4.8853275222
  O         9.5063001817        3.3645106694        4.7576498597
  O        -3.9218681949        6.6798340057        4.7662112124
  O         0.0132045358        6.5830157486        4.6804879265
  O         3.9089465501        6.6438493425        4.6819069611
  O         7.7613390242        6.6210222923        4.6480904926
  O        -5.7693482870        9.7950751587        4.6527092330
  O        -1.8738942748        9.8974879508        4.6537270697
  O         2.0337378136       10.0131599585        4.7547413939
  O         6.0528156356        9.8165302386        4.8656206490
  O         1.8634121615        1.1841120979        6.4544837703
  O         5.8201027551        0.9327158315        6.2803397122
  O         9.5690774151        1.1441316241        6.2689228204
  O        13.2851131660        0.9987882904        6.3854366415
  O        -0.0439176997        4.4775861784        6.1438101076
  O         4.0656699807        4.5081501329        6.5334378288
  O         7.6700921962        4.3647359068        6.3114088833
  O        11.4633738747        4.2957397203        6.2820717958
  O        -1.8612148435        7.6782165865        6.4134999671
  O         2.0169847324        7.6617808465        6.3594141082
  O         5.9165023022        7.5894104984        6.4041552736
  O         9.5744694495        7.7389137545        6.2435580203
  O        -3.8848951637       10.9171589719        6.1461184146
  O        -0.0890145106       11.1245804050        6.2132630459
  O         4.0540050546       10.9358509283        6.3117191286
  O         7.7921422925       11.0081629939        6.5708016774
  O         0.0261399506        2.1608853204        7.8403451720
  O         3.9688036820        2.0943483210        7.6324366465
  O         7.7338628768        2.1362123726        8.1475283333
  O        11.4612816436        2.4654619659        8.1114402082
  O        -1.8778374688        5.4407561071        7.9904055020
  O         1.7561887055        5.5652295901        7.8571476660
  O         6.0942261964        5.5590720518        8.3237456279
  O         9.4726097551        5.4703605434        7.9369514703
  O        -3.8561707525        8.8465095690        8.1255298335
  O         0.3575928078        9.1610201951        8.0689918695
  O         4.0049376180        8.7702083025        7.9471557005
  O         7.8227592624        8.7125761728        8.0793887627
  O        -5.6585262935       12.2380962070        8.1407352571
  O        -1.9376331675       12.0920269998        7.8564274148
  O         2.1076204571       12.0652467891        7.9338332055
  O         5.7353271098       12.1494366206        7.9666995888
 Ce         0.0000000000        2.2090000000        0.7810000000
 Ce         3.8260000000        2.2090000000        0.7810000000
 Ce         7.6520000000        2.2090000000        0.7810000000
 Ce        11.4780000000        2.2090000000        0.7810000000
 Ce        -1.9130000000        5.5230000000        0.7810000000
 Ce         1.9130000000        5.5230000000        0.7810000000
 Ce         5.7390000000        5.5230000000        0.7810000000
 Ce         9.5650000000        5.5230000000        0.7810000000
 Ce        -3.8260000000        8.8360000000        0.7810000000
 Ce         0.0000000000        8.8360000000        0.7810000000
 Ce         3.8260000000        8.8360000000        0.7810000000
 Ce         7.6520000000        8.8360000000        0.7810000000
 Ce        -5.7390000000       12.1500000000        0.7810000000
 Ce        -1.9130000000       12.1500000000        0.7810000000
 Ce         1.9130000000       12.1500000000        0.7810000000
 Ce         5.7390000000       12.1500000000        0.7810000000
 Ce         1.8676429795        1.0840457526        3.9423802222
 Ce         5.7371809683        1.1081601647        3.8813357665
 Ce         9.5426970864        1.0618701440        3.9130512374
 Ce        13.5372767077        1.0781288141        3.9306390781
 Ce         0.1890565176        4.4259051570        3.9637075244
 Ce         3.8389596198        4.4059513248        3.9509175049
 Ce         7.6480216831        4.5467456946        3.8644783874
 Ce        11.5127679527        4.4271408722        3.9287994482
 Ce        -1.9438051233        7.6678643755        4.0560143874
 Ce         2.0145984455        7.7485512806        3.9541068056
 Ce         5.7394393195        7.7144333103        3.9402802554
 Ce         9.6424244655        7.6540740911        3.9122204556
 Ce        -3.8767131843       11.0972278558        3.7998420510
 Ce         0.1427884703       11.0526797492        3.9480702249
 Ce         3.9362580106       11.0105125859        3.8686565855
 Ce         7.7038988290       10.9423522223        3.9762821106
 Ce        -0.1380958828        0.0451833167        7.1242973679
 Ce         3.8772708273       -0.1115255976        7.1828569663
 Ce         7.4040759082       -0.0034502965        7.2167278556
 Ce        11.4407641382       -0.0840454027        7.0275561151
 Ce        -1.8803528067        3.2857370639        7.2686175667
 Ce         1.9895136452        3.1885681517        7.1654472649
 Ce         5.7966953624        3.3042863841        7.0593532900
 Ce         9.6829311781        3.3226277327        6.9951848156
 Ce        -3.8431270048        6.6485263686        7.1854587429
 Ce         0.0225964642        6.6992790750        7.1257984878
 Ce         4.0121905931        6.6833360282        7.3103642998
 Ce         7.8026229324        6.6055132534        7.2090498121
 Ce        -5.7260695133        9.7524930853        7.1424436260
 Ce        -1.9751256545       10.0980118361        6.8739982410
 Ce         2.0498166220       10.0338459725        7.2005958415
 Ce         5.8652933314        9.9043291755        7.1943046291
 Pt        12.6621217518        1.8550020894        9.6841868192
 Pt         1.0719190937        5.5380824043        9.9347014766
 Pt         0.1508119873        8.1133262634        9.8516832042
 Pt         7.1378029795       14.1702885196       10.5300021011
 Pt        -0.5005159000        3.4212350405        9.9246704870
 Pt        -2.3401419997        8.4440407591        9.3387799066
 Pt         2.2131774582        3.3113425153        9.9130538301
 Pt         3.6245020453        5.2205892843       10.8104483889
 Pt         5.7179981546        4.3616248624        9.8756410702
 Pt         2.0448691779        0.6704627215        9.6559454456
 Pt         4.3991747690        1.4864296067        9.5078997206
 Pt        -0.1643959938        7.1199120919       12.1900595548
 Pt         6.7931656663        1.9941017126        9.9833776445
 Pt        -0.1475869492        4.4837620335       12.2885287711
 Pt         5.3690229209        0.4703989925       11.6795975870
 Pt         2.4805255669        6.7726749695       12.5796302773
 Pt         5.0637670345        3.0807831116       12.0484121491
 Pt         1.0710356050        5.6706846981       14.4309320540
 Pt         0.5507061778        2.1947621472       12.4657458245
 Pt         4.6606195183        5.6908730827       13.1782143635
 Pt         2.9377302847        1.5162019372       11.9539845409
 Pt         2.5542856754        3.8818431146       13.0040193557
     166
 i =     1772, time =     1772.000, E =     -6045.8535677999
  O         0.0000000000        0.0000000000        0.0000000000
  O         3.8260000000        0.0000000000        0.0000000000
  O         7.6520000000        0.0000000000        0.0000000000
  O        11.4780000000        0.0000000000        0.0000000000
  O        -1.9130000000        3.3140000000        0.0000000000
  O         1.9130000000        3.3140000000        0.0000000000
  O         5.7390000000        3.3140000000        0.0000000000
  O         9.5650000000        3.3140000000        0.0000000000
  O        -3.8260000000        6.6270000000        0.0000000000
  O         0.0000000000        6.6270000000        0.0000000000
  O         3.8260000000        6.6270000000        0.0000000000
  O         7.6520000000        6.6270000000        0.0000000000
  O        -5.7390000000        9.9410000000        0.0000000000
  O        -1.9130000000        9.9410000000        0.0000000000
  O         1.9130000000        9.9410000000        0.0000000000
  O         5.7390000000        9.9410000000        0.0000000000
  O         1.9130000000        1.1050000000        1.5620000000
  O         5.7390000000        1.1050000000        1.5620000000
  O         9.5650000000        1.1050000000        1.5620000000
  O        13.3920000000        1.1050000000        1.5620000000
  O         0.0000000000        4.4180000000        1.5620000000
  O         3.8260000000        4.4180000000        1.5620000000
  O         7.6520000000        4.4180000000        1.5620000000
  O        11.4780000000        4.4180000000        1.5620000000
  O        -1.9130000000        7.7320000000        1.5620000000
  O         1.9130000000        7.7320000000        1.5620000000
  O         5.7390000000        7.7320000000        1.5620000000
  O         9.5650000000        7.7320000000        1.5620000000
  O        -3.8260000000       11.0450000000        1.5620000000
  O         0.0000000000       11.0450000000        1.5620000000
  O         3.8260000000       11.0450000000        1.5620000000
  O         7.6520000000       11.0450000000        1.5620000000
  O         0.0000000000        2.2090000000        3.1240000000
  O         3.8260000000        2.2090000000        3.1240000000
  O         7.6520000000        2.2090000000        3.1240000000
  O        11.4780000000        2.2090000000        3.1240000000
  O        -1.9130000000        5.5230000000        3.1240000000
  O         1.9130000000        5.5230000000        3.1240000000
  O         5.7390000000        5.5230000000        3.1240000000
  O         9.5650000000        5.5230000000        3.1240000000
  O        -3.8260000000        8.8360000000        3.1240000000
  O         0.0000000000        8.8360000000        3.1240000000
  O         3.8260000000        8.8360000000        3.1240000000
  O         7.6520000000        8.8360000000        3.1240000000
  O        -5.7390000000       12.1500000000        3.1240000000
  O        -1.9130000000       12.1500000000        3.1240000000
  O         1.9130000000       12.1500000000        3.1240000000
  O         5.7390000000       12.1500000000        3.1240000000
  O        -0.1068286037       -0.1959276059        4.8332707422
  O         3.9048270114       -0.0397300317        4.7342150845
  O         7.6052400030        0.0244252190        4.5370508475
  O        11.4441421893       -0.1118081611        4.7254575353
  O        -1.8737128097        3.2871245383        4.6916828386
  O         2.1131488179        3.1805681587        4.7186931172
  O         5.6900067094        3.4593926758        4.8773208272
  O         9.5010185621        3.3692082422        4.7646414503
  O        -3.9339925839        6.6808060065        4.7632957242
  O         0.0160800299        6.5825827180        4.6804879708
  O         3.9036661178        6.6379393923        4.6815548985
  O         7.7558719813        6.6285109811        4.6469419952
  O        -5.7711288581        9.8021823295        4.6593305270
  O        -1.8725054539        9.8934477998        4.6592325217
  O         2.0323738435       10.0145676963        4.7548392664
  O         6.0543690982        9.8176878626        4.8635407662
  O         1.8599528360        1.1724222704        6.4674598736
  O         5.8227657044        0.9336294033        6.2730585425
  O         9.5774609272        1.1436990465        6.2661275768
  O        13.2811000663        1.0080456161        6.3930465348
  O        -0.0424926506        4.4726701851        6.1343509971
  O         4.0570986563        4.5037499807        6.5401862573
  O         7.6768247259        4.3645411266        6.3051511273
  O        11.4645735838        4.2906780156        6.2837281927
  O        -1.8602496073        7.6710131957        6.4159460422
  O         2.0179612436        7.6567749906        6.3629382623
  O         5.9127574737        7.5955191433        6.4040988466
  O         9.5723897701        7.7225783742        6.2417122002
  O        -3.8786092745       10.9309086261        6.1481889339
  O        -0.0942753833       11.1395349026        6.2123953617
  O         4.0584968120       10.9225541943        6.3146486929
  O         7.8010377113       11.0013855780        6.5657352534
  O         0.0347150879        2.1555108146        7.8403582336
  O         3.9741344944        2.0945508499        7.6277997365
  O         7.7338573917        2.1394785590        8.1360856604
  O        11.4634750023        2.4643328881        8.1179577273
  O        -1.8764425440        5.4486281723        7.9880226312
  O         1.7588471258        5.5560341008        7.8566748060
  O         6.0980492600        5.5544450166        8.3246627460
  O         9.4783594952        5.4806199345        7.9328245241
  O        -3.8602127702        8.8459875032        8.1291905610
  O         0.3530253801        9.1652206718        8.0658645250
  O         4.0090721103        8.7782247025        7.9487027622
  O         7.8141848273        8.7042027680        8.0655452202
  O        -5.6616591945       12.2356289229        8.1306651054
  O        -1.9355658825       12.0927298853        7.8505553811
  O         2.1047260893       12.0615173931        7.9392052061
  O         5.7352250106       12.1630020534        7.9662451902
 Ce         0.0000000000        2.2090000000        0.7810000000
 Ce         3.8260000000        2.2090000000        0.7810000000
 Ce         7.6520000000        2.2090000000        0.7810000000
 Ce        11.4780000000        2.2090000000        0.7810000000
 Ce        -1.9130000000        5.5230000000        0.7810000000
 Ce         1.9130000000        5.5230000000        0.7810000000
 Ce         5.7390000000        5.5230000000        0.7810000000
 Ce         9.5650000000        5.5230000000        0.7810000000
 Ce        -3.8260000000        8.8360000000        0.7810000000
 Ce         0.0000000000        8.8360000000        0.7810000000
 Ce         3.8260000000        8.8360000000        0.7810000000
 Ce         7.6520000000        8.8360000000        0.7810000000
 Ce        -5.7390000000       12.1500000000        0.7810000000
 Ce        -1.9130000000       12.1500000000        0.7810000000
 Ce         1.9130000000       12.1500000000        0.7810000000
 Ce         5.7390000000       12.1500000000        0.7810000000
 Ce         1.8703596714        1.0830036180        3.9425494691
 Ce         5.7396503251        1.1095138486        3.8801365759
 Ce         9.5423904435        1.0619691467        3.9124310520
 Ce        13.5375678194        1.0783118812        3.9279440865
 Ce         0.1905157421        4.4262817438        3.9628634588
 Ce         3.8382344955        4.4090135698        3.9543545108
 Ce         7.6483043357        4.5485553969        3.8664816554
 Ce        11.5149082362        4.4231319964        3.9291601986
 Ce        -1.9392295837        7.6650788083        4.0555606209
 Ce         2.0151920899        7.7498081510        3.9527957328
 Ce         5.7416645960        7.7156177180        3.9384445799
 Ce         9.6383542147        7.6561665694        3.9087722404
 Ce        -3.8763364171       11.1000962514        3.7989368053
 Ce         0.1448798218       11.0544857411        3.9515489437
 Ce         3.9389710339       11.0080761430        3.8697202648
 Ce         7.7016999446       10.9395821835        3.9761907706
 Ce        -0.1364507958        0.0481625626        7.1233312739
 Ce         3.8786817111       -0.1087258682        7.1845903907
 Ce         7.4016742891       -0.0027354557        7.2140927897
 Ce        11.4414721274       -0.0816249900        7.0261388114
 Ce        -1.8812437458        3.2850374961        7.2672888793
 Ce         1.9884064846        3.1857579568        7.1614754917
 Ce         5.7990492578        3.3021641036        7.0565633907
 Ce         9.6810805587        3.3228628064        6.9952658371
 Ce        -3.8413513285        6.6484415560        7.1823034374
 Ce         0.0219374141        6.6969436112        7.1254353156
 Ce         4.0111068008        6.6866112551        7.3067150796
 Ce         7.8006806373        6.6095661345        7.2083298937
 Ce        -5.7262525608        9.7524490622        7.1432768375
 Ce        -1.9761783007       10.0951721169        6.8701294954
 Ce         2.0497237747       10.0360750492        7.2002291758
 Ce         5.8654025608        9.9008491445        7.1901135893
 Pt        12.6568443147        1.8555027643        9.6818344900
 Pt         1.0720387623        5.5388104423        9.9332333686
 Pt         0.1521601574        8.1111798528        9.8509451782
 Pt         7.1361649806       14.1683413842       10.5295045122
 Pt        -0.5009172302        3.4219665240        9.9256703636
 Pt        -2.3401737165        8.4434556895        9.3408565473
 Pt         2.2135027528        3.3105289031        9.9137480631
 Pt         3.6295228205        5.2196489488       10.8120448126
 Pt         5.7176854458        4.3632027836        9.8745150473
 Pt         2.0455178101        0.6696124038        9.6562703430
 Pt         4.4010334143        1.4862100368        9.5088696867
 Pt        -0.1649188162        7.1185049333       12.1896468639
 Pt         6.7978242638        1.9961663146        9.9799160210
 Pt        -0.1482768068        4.4861791675       12.2861775416
 Pt         5.3717041742        0.4706871809       11.6765670784
 Pt         2.4788616783        6.7736001098       12.5775772584
 Pt         5.0597370099        3.0821552187       12.0477642708
 Pt         1.0714686872        5.6719080884       14.4264316007
 Pt         0.5515213950        2.1931304396       12.4661270304
 Pt         4.6603422026        5.6893717091       13.1796081045
 Pt         2.9379073374        1.5135091202       11.9549954265
 Pt         2.5555473895        3.8830549002       13.0069941775
     166
 i =     1773, time =     1773.000, E =     -6045.8520661553
  O         0.0000000000        0.0000000000        0.0000000000
  O         3.8260000000        0.0000000000        0.0000000000
  O         7.6520000000        0.0000000000        0.0000000000
  O        11.4780000000        0.0000000000        0.0000000000
  O        -1.9130000000        3.3140000000        0.0000000000
  O         1.9130000000        3.3140000000        0.0000000000
  O         5.7390000000        3.3140000000        0.0000000000
  O         9.5650000000        3.3140000000        0.0000000000
  O        -3.8260000000        6.6270000000        0.0000000000
  O         0.0000000000        6.6270000000        0.0000000000
  O         3.8260000000        6.6270000000        0.0000000000
  O         7.6520000000        6.6270000000        0.0000000000
  O        -5.7390000000        9.9410000000        0.0000000000
  O        -1.9130000000        9.9410000000        0.0000000000
  O         1.9130000000        9.9410000000        0.0000000000
  O         5.7390000000        9.9410000000        0.0000000000
  O         1.9130000000        1.1050000000        1.5620000000
  O         5.7390000000        1.1050000000        1.5620000000
  O         9.5650000000        1.1050000000        1.5620000000
  O        13.3920000000        1.1050000000        1.5620000000
  O         0.0000000000        4.4180000000        1.5620000000
  O         3.8260000000        4.4180000000        1.5620000000
  O         7.6520000000        4.4180000000        1.5620000000
  O        11.4780000000        4.4180000000        1.5620000000
  O        -1.9130000000        7.7320000000        1.5620000000
  O         1.9130000000        7.7320000000        1.5620000000
  O         5.7390000000        7.7320000000        1.5620000000
  O         9.5650000000        7.7320000000        1.5620000000
  O        -3.8260000000       11.0450000000        1.5620000000
  O         0.0000000000       11.0450000000        1.5620000000
  O         3.8260000000       11.0450000000        1.5620000000
  O         7.6520000000       11.0450000000        1.5620000000
  O         0.0000000000        2.2090000000        3.1240000000
  O         3.8260000000        2.2090000000        3.1240000000
  O         7.6520000000        2.2090000000        3.1240000000
  O        11.4780000000        2.2090000000        3.1240000000
  O        -1.9130000000        5.5230000000        3.1240000000
  O         1.9130000000        5.5230000000        3.1240000000
  O         5.7390000000        5.5230000000        3.1240000000
  O         9.5650000000        5.5230000000        3.1240000000
  O        -3.8260000000        8.8360000000        3.1240000000
  O         0.0000000000        8.8360000000        3.1240000000
  O         3.8260000000        8.8360000000        3.1240000000
  O         7.6520000000        8.8360000000        3.1240000000
  O        -5.7390000000       12.1500000000        3.1240000000
  O        -1.9130000000       12.1500000000        3.1240000000
  O         1.9130000000       12.1500000000        3.1240000000
  O         5.7390000000       12.1500000000        3.1240000000
  O        -0.1013357892       -0.2068361865        4.8316928540
  O         3.8977087924       -0.0414844946        4.7399696604
  O         7.6127417221        0.0098358406        4.5280894829
  O        11.4425964209       -0.1127950538        4.7240174008
  O        -1.8804102048        3.2811480378        4.7035487672
  O         2.1129468087        3.1764601670        4.7186921874
  O         5.7023879734        3.4740910109        4.8684721505
  O         9.4961178341        3.3738019479        4.7711474601
  O        -3.9450631537        6.6811872913        4.7607525941
  O         0.0191787004        6.5827960063        4.6806902053
  O         3.8982606666        6.6319446562        4.6814946466
  O         7.7498277472        6.6359537142        4.6461815247
  O        -5.7729207914        9.8099824430        4.6663750875
  O        -1.8712778123        9.8893881512        4.6650198685
  O         2.0309153038       10.0156890337        4.7551141981
  O         6.0548860617        9.8189528778        4.8615054800
  O         1.8566170702        1.1597717553        6.4792064576
  O         5.8252721098        0.9353004616        6.2656949757
  O         9.5858375313        1.1430030207        6.2635551635
  O        13.2772586596        1.0178708095        6.4000782734
  O        -0.0404990897        4.4674671394        6.1256466883
  O         4.0477333746        4.4998195761        6.5466999785
  O         7.6834768437        4.3644707987        6.2989507097
  O        11.4661862439        4.2863700359        6.2853358428
  O        -1.8596052324        7.6642745851        6.4176742997
  O         2.0190265385        7.6520923662        6.3663056569
  O         5.9084483545        7.6017276404        6.4039186157
  O         9.5706032802        7.7062416290        6.2405808730
  O        -3.8724877192       10.9448748947        6.1508492363
  O        -0.0991213347       11.1545937291        6.2119092562
  O         4.0626124118       10.9095176850        6.3173087257
  O         7.8098144534       10.9944571639        6.5603277820
  O         0.0428323724        2.1506996397        7.8403381007
  O         3.9792587950        2.0950002879        7.6230030610
  O         7.7338110098        2.1426088801        8.1247021048
  O        11.4652786348        2.4626518005        8.1245880641
  O        -1.8753809254        5.4565334908        7.9852088689
  O         1.7619075138        5.5467147338        7.8570619371
  O         6.1016312794        5.5500406201        8.3249715988
  O         9.4848887695        5.4910626949        7.9287312420
  O        -3.8649722119        8.8455051574        8.1324224594
  O         0.3480206589        9.1690960887        8.0628327519
  O         4.0131470456        8.7863495862        7.9503458676
  O         7.8055437093        8.6960631523        8.0516375979
  O        -5.6646852027       12.2334940947        8.1207856425
  O        -1.9338123092       12.0932731759        7.8451621519
  O         2.1015696222       12.0579871093        7.9444901778
  O         5.7351608986       12.1761940047        7.9656048238
 Ce         0.0000000000        2.2090000000        0.7810000000
 Ce         3.8260000000        2.2090000000        0.7810000000
 Ce         7.6520000000        2.2090000000        0.7810000000
 Ce        11.4780000000        2.2090000000        0.7810000000
 Ce        -1.9130000000        5.5230000000        0.7810000000
 Ce         1.9130000000        5.5230000000        0.7810000000
 Ce         5.7390000000        5.5230000000        0.7810000000
 Ce         9.5650000000        5.5230000000        0.7810000000
 Ce        -3.8260000000        8.8360000000        0.7810000000
 Ce         0.0000000000        8.8360000000        0.7810000000
 Ce         3.8260000000        8.8360000000        0.7810000000
 Ce         7.6520000000        8.8360000000        0.7810000000
 Ce        -5.7390000000       12.1500000000        0.7810000000
 Ce        -1.9130000000       12.1500000000        0.7810000000
 Ce         1.9130000000       12.1500000000        0.7810000000
 Ce         5.7390000000       12.1500000000        0.7810000000
 Ce         1.8731769793        1.0819419636        3.9427178446
 Ce         5.7421447124        1.1108306876        3.8789239358
 Ce         9.5420963411        1.0621332810        3.9118175038
 Ce        13.5376708788        1.0785613982        3.9252538823
 Ce         0.1917754469        4.4266623596        3.9620304725
 Ce         3.8375695970        4.4120964965        3.9577740230
 Ce         7.6486239753        4.5502525252        3.8685616712
 Ce        11.5170747571        4.4190403136        3.9295103238
 Ce        -1.9345886974        7.6623309944        4.0549771496
 Ce         2.0156740435        7.7510607362        3.9515017642
 Ce         5.7439817887        7.7167824613        3.9366041754
 Ce         9.6342013753        7.6583582260        3.9052628379
 Ce        -3.8758755551       11.1028848673        3.7980994705
 Ce         0.1468558661       11.0562703671        3.9549621648
 Ce         3.9416246039       11.0056976674        3.8708411320
 Ce         7.6995339994       10.9367925463        3.9760681031
 Ce        -0.1347514522        0.0510528544        7.1224698102
 Ce         3.8799577661       -0.1059441547        7.1862509063
 Ce         7.3995034767       -0.0020259212        7.2114320028
 Ce        11.4422232233       -0.0792139871        7.0247497575
 Ce        -1.8821399901        3.2844522232        7.2658531938
 Ce         1.9872485343        3.1830483812        7.1575112626
 Ce         5.8014921452        3.3000880643        7.0538241345
 Ce         9.6791246084        3.3231023119        6.9953837283
 Ce        -3.8394940377        6.6482690673        7.1791869807
 Ce         0.0212381844        6.6945288580        7.1250662962
 Ce         4.0099593899        6.6898587614        7.3030464327
 Ce         7.7986957581        6.6135680577        7.2075861154
 Ce        -5.7264637341        9.7525075047        7.1441124858
 Ce        -1.9771724297       10.0921936670        6.8663484830
 Ce         2.0496794460       10.0382422694        7.1997963307
 Ce         5.8655376447        9.8973916394        7.1859392261
 Pt        12.6515715002        1.8560111930        9.6794652508
 Pt         1.0721089726        5.5396341259        9.9317519507
 Pt         0.1534865666        8.1090136549        9.8502364742
 Pt         7.1345400690       14.1663715379       10.5290687276
 Pt        -0.5012721617        3.4226633695        9.9266831586
 Pt        -2.3401583272        8.4428600325        9.3429393977
 Pt         2.2138188282        3.3096311486        9.9144657444
 Pt         3.6345224034        5.2187446943       10.8136682796
 Pt         5.7173871419        4.3647834630        9.8733861946
 Pt         2.0460889232        0.6686842836        9.6565712918
 Pt         4.4029154810        1.4860012550        9.5098887915
 Pt        -0.1653834869        7.1170712985       12.1892223742
 Pt         6.8025419781        1.9982155952        9.9764594446
 Pt        -0.1489377065        4.4887382398       12.2837936541
 Pt         5.3743746585        0.4710104199       11.6735308528
 Pt         2.4771260576        6.7744979439       12.5755075446
 Pt         5.0557443832        3.0835700559       12.0471237891
 Pt         1.0718881787        5.6731130773       14.4218725706
 Pt         0.5523569238        2.1914130096       12.4665168605
 Pt         4.6600832353        5.6878221013       13.1809905975
 Pt         2.9380873313        1.5107939946       11.9560072530
 Pt         2.5568002277        3.8842931168       13.0100086047
     166
 i =     1774, time =     1774.000, E =     -6045.8504642240
  O         0.0000000000        0.0000000000        0.0000000000
  O         3.8260000000        0.0000000000        0.0000000000
  O         7.6520000000        0.0000000000        0.0000000000
  O        11.4780000000        0.0000000000        0.0000000000
  O        -1.9130000000        3.3140000000        0.0000000000
  O         1.9130000000        3.3140000000        0.0000000000
  O         5.7390000000        3.3140000000        0.0000000000
  O         9.5650000000        3.3140000000        0.0000000000
  O        -3.8260000000        6.6270000000        0.0000000000
  O         0.0000000000        6.6270000000        0.0000000000
  O         3.8260000000        6.6270000000        0.0000000000
  O         7.6520000000        6.6270000000        0.0000000000
  O        -5.7390000000        9.9410000000        0.0000000000
  O        -1.9130000000        9.9410000000        0.0000000000
  O         1.9130000000        9.9410000000        0.0000000000
  O         5.7390000000        9.9410000000        0.0000000000
  O         1.9130000000        1.1050000000        1.5620000000
  O         5.7390000000        1.1050000000        1.5620000000
  O         9.5650000000        1.1050000000        1.5620000000
  O        13.3920000000        1.1050000000        1.5620000000
  O         0.0000000000        4.4180000000        1.5620000000
  O         3.8260000000        4.4180000000        1.5620000000
  O         7.6520000000        4.4180000000        1.5620000000
  O        11.4780000000        4.4180000000        1.5620000000
  O        -1.9130000000        7.7320000000        1.5620000000
  O         1.9130000000        7.7320000000        1.5620000000
  O         5.7390000000        7.7320000000        1.5620000000
  O         9.5650000000        7.7320000000        1.5620000000
  O        -3.8260000000       11.0450000000        1.5620000000
  O         0.0000000000       11.0450000000        1.5620000000
  O         3.8260000000       11.0450000000        1.5620000000
  O         7.6520000000       11.0450000000        1.5620000000
  O         0.0000000000        2.2090000000        3.1240000000
  O         3.8260000000        2.2090000000        3.1240000000
  O         7.6520000000        2.2090000000        3.1240000000
  O        11.4780000000        2.2090000000        3.1240000000
  O        -1.9130000000        5.5230000000        3.1240000000
  O         1.9130000000        5.5230000000        3.1240000000
  O         5.7390000000        5.5230000000        3.1240000000
  O         9.5650000000        5.5230000000        3.1240000000
  O        -3.8260000000        8.8360000000        3.1240000000
  O         0.0000000000        8.8360000000        3.1240000000
  O         3.8260000000        8.8360000000        3.1240000000
  O         7.6520000000        8.8360000000        3.1240000000
  O        -5.7390000000       12.1500000000        3.1240000000
  O        -1.9130000000       12.1500000000        3.1240000000
  O         1.9130000000       12.1500000000        3.1240000000
  O         5.7390000000       12.1500000000        3.1240000000
  O        -0.0953711636       -0.2168447805        4.8299129930
  O         3.8899548241       -0.0428627108        4.7457952248
  O         7.6205395957       -0.0047030984        4.5197153621
  O        11.4412433102       -0.1137492390        4.7227336774
  O        -1.8871293256        3.2747655684        4.7153956057
  O         2.1122928903        3.1728498426        4.7190953555
  O         5.7147538103        3.4881058840        4.8588364924
  O         9.4916251641        3.3782540938        4.7771306641
  O        -3.9549589578        6.6809529435        4.7585903080
  O         0.0224874535        6.5836528542        4.6810889615
  O         3.8927756528        6.6259113336        4.6817164973
  O         7.7431924324        6.6433209887        4.6457895993
  O        -5.7746914423        9.8184020967        4.6737943196
  O        -1.8702144393        9.8853059933        4.6710329018
  O         2.0293764621       10.0165117652        4.7555735849
  O         6.0543429316        9.8203067924        4.8594939255
  O         1.8534455796        1.1462597969        6.4896894203
  O         5.8276318768        0.9377381062        6.2581902825
  O         9.5941846428        1.1420602616        6.2611915671
  O        13.2736115471        1.0282499725        6.4064900569
  O        -0.0379520089        4.4619996288        6.1177097411
  O         4.0376432398        4.4963385147        6.5529333669
  O         7.6900031131        4.3645314551        6.2928922693
  O        11.4682088171        4.2828342922        6.2868951557
  O        -1.8592940613        7.6580352963        6.4186623575
  O         2.0201764840        7.6477549092        6.3695003895
  O         5.9035549742        7.6080160856        6.4035878362
  O         9.5691453892        7.6900198417        6.2401722684
  O        -3.8665201008       10.9589986175        6.1540716560
  O        -0.1035272125       11.1697091235        6.2118041706
  O         4.0663340057       10.8968336381        6.3196560468
  O         7.8184278277       10.9873841505        6.5545799530
  O         0.0504108743        2.1465120097        7.8402936921
  O         3.9841574877        2.0956974091        7.6180876951
  O         7.7337194186        2.1456025022        8.1133630034
  O        11.4666412779        2.4604525248        8.1313055048
  O        -1.8746561656        5.4644267518        7.9819504742
  O         1.7653374214        5.5372785506        7.8582875551
  O         6.1049713890        5.5458674492        8.3246437240
  O         9.4922124353        5.5016710832        7.9247042264
  O        -3.8704349442        8.8450534508        8.1352172442
  O         0.3425879219        9.1726436920        8.0598897709
  O         4.0171354058        8.7945361426        7.9520910833
  O         7.7968680326        8.6882188597        8.0376892956
  O        -5.6675979141       12.2316858546        8.1110943930
  O        -1.9323723297       12.0936649146        7.8402862239
  O         2.0981848780       12.0546765073        7.9496348143
  O         5.7351236144       12.1889859100        7.9647589535
 Ce         0.0000000000        2.2090000000        0.7810000000
 Ce         3.8260000000        2.2090000000        0.7810000000
 Ce         7.6520000000        2.2090000000        0.7810000000
 Ce        11.4780000000        2.2090000000        0.7810000000
 Ce        -1.9130000000        5.5230000000        0.7810000000
 Ce         1.9130000000        5.5230000000        0.7810000000
 Ce         5.7390000000        5.5230000000        0.7810000000
 Ce         9.5650000000        5.5230000000        0.7810000000
 Ce        -3.8260000000        8.8360000000        0.7810000000
 Ce         0.0000000000        8.8360000000        0.7810000000
 Ce         3.8260000000        8.8360000000        0.7810000000
 Ce         7.6520000000        8.8360000000        0.7810000000
 Ce        -5.7390000000       12.1500000000        0.7810000000
 Ce        -1.9130000000       12.1500000000        0.7810000000
 Ce         1.9130000000       12.1500000000        0.7810000000
 Ce         5.7390000000       12.1500000000        0.7810000000
 Ce         1.8760932373        1.0808563811        3.9428854400
 Ce         5.7446623657        1.1121078830        3.8776960876
 Ce         9.5418159639        1.0623599023        3.9112101200
 Ce        13.5375887557        1.0788742356        3.9225724189
 Ce         0.1928365907        4.4270452745        3.9612068099
 Ce         3.8369671209        4.4151987141        3.9611740445
 Ce         7.6489803885        4.5518394918        3.8707173413
 Ce        11.5192625256        4.4148708646        3.9298519688
 Ce        -1.9298891469        7.6596222487        4.0542638402
 Ce         2.0160435719        7.7523072489        3.9502260937
 Ce         5.7463883478        7.7179235307        3.9347605632
 Ce         9.6299692500        7.6606489917        3.9016975135
 Ce        -3.8753334327       11.1055924143        3.7973338270
 Ce         0.1487167574       11.0580310937        3.9583056210
 Ce         3.9442168147       11.0033795273        3.8720182595
 Ce         7.6974075432       10.9339885603        3.9759155052
 Ce        -0.1329974905        0.0538486361        7.1217128034
 Ce         3.8810953142       -0.1031866207        7.1878377765
 Ce         7.3975654390       -0.0013253721        7.2087489410
 Ce        11.4430180211       -0.0768156425        7.0233920124
 Ce        -1.8830403349        3.2839794853        7.2643122704
 Ce         1.9860434132        3.1804384559        7.1535583495
 Ce         5.8040214277        3.2980646299        7.0511336927
 Ce         9.6770650503        3.3233496735        6.9955406433
 Ce        -3.8375611436        6.6480072577        7.1761100245
 Ce         0.0205035716        6.6920339182        7.1246955220
 Ce         4.0087462905        6.6930766443        7.2993613145
 Ce         7.7966709472        6.6175124493        7.2068166491
 Ce        -5.7267014456        9.7526675523        7.1449464326
 Ce        -1.9781079409       10.0890826027        6.8626614950
 Ce         2.0496832860       10.0403453711        7.1993021484
 Ce         5.8656998203        9.8939567000        7.1817848986
 Pt        12.6463101757        1.8565264058        9.6770841435
 Pt         1.0721318931        5.5405499673        9.9302571389
 Pt         0.1547906393        8.1068293100        9.8495551627
 Pt         7.1329279239       14.1643820493       10.5286943400
 Pt        -0.5015806031        3.4233233631        9.9277078432
 Pt        -2.3400974468        8.4422538795        9.3450270171
 Pt         2.2141259356        3.3086511020        9.9152079083
 Pt         3.6394935176        5.2178770785       10.8153195365
 Pt         5.7171056915        4.3663632692        9.8722545191
 Pt         2.0465825122        0.6676779419        9.6568489945
 Pt         4.4048198881        1.4858046121        9.5109537800
 Pt        -0.1657907351        7.1156129133       12.1887852778
 Pt         6.8073181238        2.0002499219        9.9730067967
 Pt        -0.1495688719        4.4914341750       12.2813784509
 Pt         5.3770342516        0.4713684367       11.6704899862
 Pt         2.4753209755        6.7753692512       12.5734208288
 Pt         5.0517899900        3.0850274578       12.0464908241
 Pt         1.0722941760        5.6742992587       14.4172566158
 Pt         0.5532116982        2.1896144374       12.4669155780
 Pt         4.6598423015        5.6862250969       13.1823619874
 Pt         2.9382704107        1.5080575684       11.9570191252
 Pt         2.5580433258        3.8855546681       13.0130606130
