     166
 i =     2825, time =     2825.000, E =     -6045.7616199046
  O         0.0000000000        0.0000000000        0.0000000000
  O         3.8260000000        0.0000000000        0.0000000000
  O         7.6520000000        0.0000000000        0.0000000000
  O        11.4780000000        0.0000000000        0.0000000000
  O        -1.9130000000        3.3140000000        0.0000000000
  O         1.9130000000        3.3140000000        0.0000000000
  O         5.7390000000        3.3140000000        0.0000000000
  O         9.5650000000        3.3140000000        0.0000000000
  O        -3.8260000000        6.6270000000        0.0000000000
  O         0.0000000000        6.6270000000        0.0000000000
  O         3.8260000000        6.6270000000        0.0000000000
  O         7.6520000000        6.6270000000        0.0000000000
  O        -5.7390000000        9.9410000000        0.0000000000
  O        -1.9130000000        9.9410000000        0.0000000000
  O         1.9130000000        9.9410000000        0.0000000000
  O         5.7390000000        9.9410000000        0.0000000000
  O         1.9130000000        1.1050000000        1.5620000000
  O         5.7390000000        1.1050000000        1.5620000000
  O         9.5650000000        1.1050000000        1.5620000000
  O        13.3920000000        1.1050000000        1.5620000000
  O         0.0000000000        4.4180000000        1.5620000000
  O         3.8260000000        4.4180000000        1.5620000000
  O         7.6520000000        4.4180000000        1.5620000000
  O        11.4780000000        4.4180000000        1.5620000000
  O        -1.9130000000        7.7320000000        1.5620000000
  O         1.9130000000        7.7320000000        1.5620000000
  O         5.7390000000        7.7320000000        1.5620000000
  O         9.5650000000        7.7320000000        1.5620000000
  O        -3.8260000000       11.0450000000        1.5620000000
  O         0.0000000000       11.0450000000        1.5620000000
  O         3.8260000000       11.0450000000        1.5620000000
  O         7.6520000000       11.0450000000        1.5620000000
  O         0.0000000000        2.2090000000        3.1240000000
  O         3.8260000000        2.2090000000        3.1240000000
  O         7.6520000000        2.2090000000        3.1240000000
  O        11.4780000000        2.2090000000        3.1240000000
  O        -1.9130000000        5.5230000000        3.1240000000
  O         1.9130000000        5.5230000000        3.1240000000
  O         5.7390000000        5.5230000000        3.1240000000
  O         9.5650000000        5.5230000000        3.1240000000
  O        -3.8260000000        8.8360000000        3.1240000000
  O         0.0000000000        8.8360000000        3.1240000000
  O         3.8260000000        8.8360000000        3.1240000000
  O         7.6520000000        8.8360000000        3.1240000000
  O        -5.7390000000       12.1500000000        3.1240000000
  O        -1.9130000000       12.1500000000        3.1240000000
  O         1.9130000000       12.1500000000        3.1240000000
  O         5.7390000000       12.1500000000        3.1240000000
  O        -0.0898072901       -0.1143482447        4.6630710981
  O         3.7909936572       -0.1733741848        4.9464885341
  O         7.9210272727       -0.0041839567        4.8703792792
  O        11.4098619381       -0.1537941975        4.8505360527
  O        -2.0770597497        3.4841841445        4.6290594284
  O         1.8473396705        3.3749108933        4.5799832767
  O         5.6008728347        3.5125961040        4.7972152796
  O         9.6547543475        3.2980479025        4.7483178911
  O        -3.8668591037        6.7388878450        4.8483233270
  O        -0.0197903747        6.5717016805        4.6555645442
  O         3.5520555422        6.5689054028        4.8769810495
  O         7.6567857876        6.5861053133        4.6898420401
  O        -5.8210463184        9.9331980378        4.6874338652
  O        -1.9663348888        9.8072116122        4.7805922470
  O         1.8495209146        9.8983888188        4.8691261510
  O         5.8298074601       10.0691104995        4.8125109711
  O         1.9226813711        1.2935518792        6.1128366417
  O         5.6815453446        1.1407434863        6.1581378745
  O         9.5309033222        1.1024592217        6.5174184803
  O        13.3192480900        1.3055240325        6.0551052300
  O        -0.1498569928        4.4568318670        6.2397519302
  O         3.8742793299        4.3153497115        6.4839584088
  O         7.7453154268        4.2637132403        6.2314899908
  O        11.4150576590        4.2484749171        6.3633838176
  O        -1.7807036607        7.8417029364        6.1235970400
  O         1.8716372785        7.9765703405        6.4517870205
  O         5.7311971386        7.6923105925        6.1115229778
  O         9.4883522096        7.9068842225        6.3869200152
  O        -3.9828469599       10.8437009031        6.3818392990
  O        -0.0284196996       10.7100095717        6.3009261264
  O         3.8858876571       10.9376593733        6.1486766027
  O         7.7243493863       10.9529690093        6.4090570444
  O         0.0876788541        2.1640110534        7.6497954162
  O         3.9706589903        1.8371562269        7.8625360707
  O         7.7531283748        2.3223049498        8.0904909509
  O        11.4014073583        2.2642204083        8.0447389307
  O        -2.0211680226        5.7072886833        7.6948181104
  O         2.0443124478        5.4729784749        7.8440445168
  O         6.1001185269        5.6398372796        8.1858333161
  O         9.6527952010        5.6050302523        8.0628597811
  O        -4.0739918901        8.8031368651        8.1661700849
  O         0.2322106855        8.6885651489        8.2769421925
  O         3.7010966400        8.5644386942        7.9316601478
  O         7.4524095502        8.7361547529        7.8889964250
  O        -5.7974770983       12.3369088145        8.0495913369
  O        -2.1158810802       11.8775893756        7.8787217964
  O         1.7159921328       12.0392223335        7.9402891147
  O         5.8187701367       12.0609400830        7.6248851781
 Ce         0.0000000000        2.2090000000        0.7810000000
 Ce         3.8260000000        2.2090000000        0.7810000000
 Ce         7.6520000000        2.2090000000        0.7810000000
 Ce        11.4780000000        2.2090000000        0.7810000000
 Ce        -1.9130000000        5.5230000000        0.7810000000
 Ce         1.9130000000        5.5230000000        0.7810000000
 Ce         5.7390000000        5.5230000000        0.7810000000
 Ce         9.5650000000        5.5230000000        0.7810000000
 Ce        -3.8260000000        8.8360000000        0.7810000000
 Ce         0.0000000000        8.8360000000        0.7810000000
 Ce         3.8260000000        8.8360000000        0.7810000000
 Ce         7.6520000000        8.8360000000        0.7810000000
 Ce        -5.7390000000       12.1500000000        0.7810000000
 Ce        -1.9130000000       12.1500000000        0.7810000000
 Ce         1.9130000000       12.1500000000        0.7810000000
 Ce         5.7390000000       12.1500000000        0.7810000000
 Ce         1.8572314671        1.0172168011        3.8395559060
 Ce         5.6278579864        1.0616333974        3.9099174719
 Ce         9.5655857797        1.1797175094        3.9659505159
 Ce        13.3433327539        1.1959903313        3.8570831097
 Ce         0.0680643649        4.5077297145        3.8465511651
 Ce         3.7047811533        4.3102439035        4.0572921217
 Ce         7.5319806997        4.3127994201        3.8661003788
 Ce        11.3850491695        4.4632181555        3.7553867019
 Ce        -2.0151796790        7.7608132747        3.8649580695
 Ce         1.9299668703        7.8187367000        3.9288366322
 Ce         5.7584567812        7.7090936757        3.9710292388
 Ce         9.5157063255        7.6765168465        4.1322133458
 Ce        -3.9832415473       11.0447114221        3.9109596948
 Ce         0.0014897496       10.9743618195        3.9459496368
 Ce         3.7177914136       10.9453199306        3.9065760438
 Ce         7.5975196026       10.9480407203        3.9553565825
 Ce        -0.0449175316       -0.0319668880        7.0127286676
 Ce         3.8432816898       -0.1919877566        7.1595693487
 Ce         7.8427759022       -0.1324197088        7.0589457969
 Ce        11.4995495666       -0.1662898316        6.9892608187
 Ce        -1.9817913459        3.4046820904        6.8911961415
 Ce         1.7661003606        3.3389059368        6.9812188252
 Ce         5.7742751631        3.2502273593        7.0267419145
 Ce         9.6578218717        3.3169586766        7.1710518387
 Ce        -3.9044312708        6.4692051138        7.2160557194
 Ce         0.0496195556        6.5456670603        7.0192797925
 Ce         3.7848998860        6.7063116120        7.2606946079
 Ce         7.6792164219        6.5023720680        7.0160617483
 Ce        -5.8178490002       10.0018373307        7.3209462403
 Ce        -2.1712583902        9.8047100406        7.1157682080
 Ce         1.7833918827        9.8352276663        7.3008155844
 Ce         5.8115272411        9.8438130512        7.0910757627
 Pt        12.5943477279        1.5432136575        9.3887269618
 Pt         0.3531504912        5.0405010781        9.7225822728
 Pt         0.1514323707        7.5240795323        9.8492784029
 Pt         6.6957071340       13.3228735382       10.5647431159
 Pt        -0.3114912942        2.4821301619        9.7377380785
 Pt        -2.5887499450        7.9770113020        9.6427486065
 Pt         2.3526976083        3.2480939898       10.0377197673
 Pt         2.7015096537        5.7547221057       10.4918675797
 Pt         5.1845939061        4.7396244482        9.8345381521
 Pt         1.6305989195        0.3684303463        9.5978964640
 Pt         4.0959821802        1.3260205610        9.8553764596
 Pt        -1.9277720041        5.3338545531       10.5896766036
 Pt         6.6505341813        2.5008222569        9.8049004837
 Pt        -0.3319501001        3.7273193645       11.9865443548
 Pt         5.6445306482        1.7970349566       12.1846916330
 Pt         0.6749959546        6.2328346596       12.0585970654
 Pt         4.0443539688        3.7974858366       11.9499385177
 Pt         0.5660442235        4.5362403741       14.4967645718
 Pt         0.8675613822        1.2969976158       11.9453575100
 Pt         2.6720766159        5.2747433048       13.4182576315
 Pt         3.3653593615        0.5626395130       12.2331167789
 Pt         2.3741777229        2.4824746768       13.5358054964
     166
 i =     2826, time =     2826.000, E =     -6045.7629369635
  O         0.0000000000        0.0000000000        0.0000000000
  O         3.8260000000        0.0000000000        0.0000000000
  O         7.6520000000        0.0000000000        0.0000000000
  O        11.4780000000        0.0000000000        0.0000000000
  O        -1.9130000000        3.3140000000        0.0000000000
  O         1.9130000000        3.3140000000        0.0000000000
  O         5.7390000000        3.3140000000        0.0000000000
  O         9.5650000000        3.3140000000        0.0000000000
  O        -3.8260000000        6.6270000000        0.0000000000
  O         0.0000000000        6.6270000000        0.0000000000
  O         3.8260000000        6.6270000000        0.0000000000
  O         7.6520000000        6.6270000000        0.0000000000
  O        -5.7390000000        9.9410000000        0.0000000000
  O        -1.9130000000        9.9410000000        0.0000000000
  O         1.9130000000        9.9410000000        0.0000000000
  O         5.7390000000        9.9410000000        0.0000000000
  O         1.9130000000        1.1050000000        1.5620000000
  O         5.7390000000        1.1050000000        1.5620000000
  O         9.5650000000        1.1050000000        1.5620000000
  O        13.3920000000        1.1050000000        1.5620000000
  O         0.0000000000        4.4180000000        1.5620000000
  O         3.8260000000        4.4180000000        1.5620000000
  O         7.6520000000        4.4180000000        1.5620000000
  O        11.4780000000        4.4180000000        1.5620000000
  O        -1.9130000000        7.7320000000        1.5620000000
  O         1.9130000000        7.7320000000        1.5620000000
  O         5.7390000000        7.7320000000        1.5620000000
  O         9.5650000000        7.7320000000        1.5620000000
  O        -3.8260000000       11.0450000000        1.5620000000
  O         0.0000000000       11.0450000000        1.5620000000
  O         3.8260000000       11.0450000000        1.5620000000
  O         7.6520000000       11.0450000000        1.5620000000
  O         0.0000000000        2.2090000000        3.1240000000
  O         3.8260000000        2.2090000000        3.1240000000
  O         7.6520000000        2.2090000000        3.1240000000
  O        11.4780000000        2.2090000000        3.1240000000
  O        -1.9130000000        5.5230000000        3.1240000000
  O         1.9130000000        5.5230000000        3.1240000000
  O         5.7390000000        5.5230000000        3.1240000000
  O         9.5650000000        5.5230000000        3.1240000000
  O        -3.8260000000        8.8360000000        3.1240000000
  O         0.0000000000        8.8360000000        3.1240000000
  O         3.8260000000        8.8360000000        3.1240000000
  O         7.6520000000        8.8360000000        3.1240000000
  O        -5.7390000000       12.1500000000        3.1240000000
  O        -1.9130000000       12.1500000000        3.1240000000
  O         1.9130000000       12.1500000000        3.1240000000
  O         5.7390000000       12.1500000000        3.1240000000
  O        -0.0833365623       -0.1278398829        4.6692662474
  O         3.7939566110       -0.1679175142        4.9494354802
  O         7.9178177730       -0.0114097329        4.8648241823
  O        11.4167875175       -0.1502046698        4.8458222119
  O        -2.0727387794        3.4820483077        4.6359935384
  O         1.8440717859        3.3715878496        4.5916888006
  O         5.5967275402        3.5108243147        4.7949877094
  O         9.6574220888        3.2986034426        4.7525383981
  O        -3.8688950434        6.7462651411        4.8584459254
  O        -0.0271468351        6.5653579534        4.6614860384
  O         3.5505901000        6.5730597342        4.8675958279
  O         7.6495469227        6.5816883570        4.6865361225
  O        -5.8248151115        9.9351083899        4.6919598928
  O        -1.9641726612        9.8118624118        4.7821932334
  O         1.8536770006        9.9078969569        4.8711004579
  O         5.8398956863       10.0631078444        4.8115945039
  O         1.9279696412        1.2965791292        6.1126948256
  O         5.6818034254        1.1319156915        6.1605637333
  O         9.5519921834        1.0879958313        6.5239944683
  O        13.3304260083        1.3095256042        6.0638095675
  O        -0.1510273227        4.4664023863        6.2302637130
  O         3.8787356222        4.3155422406        6.4933445303
  O         7.7464777381        4.2697766575        6.2361182432
  O        11.4122529111        4.2306949212        6.3612693503
  O        -1.7874185949        7.8419092239        6.1238780751
  O         1.8741434875        7.9705580064        6.4467621655
  O         5.7200823021        7.6821479060        6.1189461922
  O         9.4865286720        7.9019631027        6.3901518577
  O        -3.9799408628       10.8412888951        6.3800397062
  O        -0.0259342439       10.7011089690        6.2969252780
  O         3.8844858757       10.9323297816        6.1451817561
  O         7.7323731296       10.9549501385        6.4088604437
  O         0.0797961697        2.1546727422        7.6456999336
  O         3.9739731636        1.8324403564        7.8617595112
  O         7.7608745266        2.3241898558        8.0868366748
  O        11.4056354451        2.2696726169        8.0519811465
  O        -2.0269499432        5.7000172217        7.6970505671
  O         2.0400751446        5.4777249442        7.8489776928
  O         6.1001184097        5.6375024613        8.1937226114
  O         9.6596833220        5.6000953321        8.0678288117
  O        -4.0818099916        8.7990738247        8.1693778204
  O         0.2341867711        8.6764700188        8.2837838275
  O         3.7066124014        8.5808350884        7.9423878810
  O         7.4514872036        8.7495283211        7.8981795175
  O        -5.7929279836       12.3299940766        8.0463619670
  O        -2.1286005961       11.8723310041        7.8800422429
  O         1.7104096914       12.0426104862        7.9479795510
  O         5.8179426263       12.0677907730        7.6311171218
 Ce         0.0000000000        2.2090000000        0.7810000000
 Ce         3.8260000000        2.2090000000        0.7810000000
 Ce         7.6520000000        2.2090000000        0.7810000000
 Ce        11.4780000000        2.2090000000        0.7810000000
 Ce        -1.9130000000        5.5230000000        0.7810000000
 Ce         1.9130000000        5.5230000000        0.7810000000
 Ce         5.7390000000        5.5230000000        0.7810000000
 Ce         9.5650000000        5.5230000000        0.7810000000
 Ce        -3.8260000000        8.8360000000        0.7810000000
 Ce         0.0000000000        8.8360000000        0.7810000000
 Ce         3.8260000000        8.8360000000        0.7810000000
 Ce         7.6520000000        8.8360000000        0.7810000000
 Ce        -5.7390000000       12.1500000000        0.7810000000
 Ce        -1.9130000000       12.1500000000        0.7810000000
 Ce         1.9130000000       12.1500000000        0.7810000000
 Ce         5.7390000000       12.1500000000        0.7810000000
 Ce         1.8568087695        1.0143237556        3.8410362410
 Ce         5.6279890162        1.0627262567        3.9136475196
 Ce         9.5667625479        1.1780749405        3.9676244728
 Ce        13.3415039625        1.1949287815        3.8569527564
 Ce         0.0681842025        4.5051124462        3.8487847268
 Ce         3.7045909722        4.3099862188        4.0588463222
 Ce         7.5334624476        4.3103369603        3.8679519281
 Ce        11.3846820599        4.4652818860        3.7538200710
 Ce        -2.0187719177        7.7590974620        3.8636547245
 Ce         1.9262292966        7.8226885681        3.9304691135
 Ce         5.7570992145        7.7080026404        3.9738919515
 Ce         9.5207003797        7.6741989901        4.1356129354
 Ce        -3.9841992606       11.0449524515        3.9106051716
 Ce         0.0046270626       10.9757860873        3.9415056574
 Ce         3.7155563674       10.9427411654        3.9070538549
 Ce         7.5989096907       10.9468869598        3.9535427530
 Ce        -0.0465660535       -0.0344055838        7.0119488787
 Ce         3.8444506798       -0.1913824974        7.1571314847
 Ce         7.8395238521       -0.1385558165        7.0576988463
 Ce        11.5001191637       -0.1636424718        6.9871617078
 Ce        -1.9786979702        3.4040919632        6.8871265974
 Ce         1.7660867430        3.3393600309        6.9785643166
 Ce         5.7768323690        3.2493824200        7.0288475633
 Ce         9.6578701056        3.3183307174        7.1743447321
 Ce        -3.8977855353        6.4713645443        7.2166794791
 Ce         0.0502749851        6.5426976902        7.0200208000
 Ce         3.7876778455        6.7058675938        7.2607609114
 Ce         7.6797265726        6.5010577104        7.0185976917
 Ce        -5.8141876301        9.9979265214        7.3219422552
 Ce        -2.1695845447        9.8027655034        7.1205102739
 Ce         1.7821568207        9.8360252579        7.2984822950
 Ce         5.8125838246        9.8444491446        7.0890592490
 Pt        12.5940100473        1.5408129401        9.3871760643
 Pt         0.3499191681        5.0406829939        9.7237034812
 Pt         0.1528179411        7.5221306566        9.8491171228
 Pt         6.6966559568       13.3246349421       10.5621617156
 Pt        -0.3128742211        2.4832967916        9.7398603904
 Pt        -2.5873831906        7.9752211305        9.6436203416
 Pt         2.3510079849        3.2483495149       10.0373155118
 Pt         2.7000342659        5.7567636488       10.4910311980
 Pt         5.1867578023        4.7358962190        9.8385257371
 Pt         1.6297240786        0.3722799068        9.5978062560
 Pt         4.0964701506        1.3275021534        9.8557584298
 Pt        -1.9309507332        5.3345721004       10.5877336509
 Pt         6.6522544684        2.4998853442        9.8063904314
 Pt        -0.3325455792        3.7301389570       11.9871422320
 Pt         5.6407871430        1.7967301679       12.1842684986
 Pt         0.6684276696        6.2290360256       12.0597814696
 Pt         4.0422424724        3.8022019390       11.9501188167
 Pt         0.5653994425        4.5363209031       14.4944143360
 Pt         0.8668374132        1.2981601897       11.9447991962
 Pt         2.6685972562        5.2755238692       13.4136062618
 Pt         3.3644401726        0.5620565812       12.2327134580
 Pt         2.3731785354        2.4810861720       13.5364914894
     166
 i =     2827, time =     2827.000, E =     -6045.7643439986
  O         0.0000000000        0.0000000000        0.0000000000
  O         3.8260000000        0.0000000000        0.0000000000
  O         7.6520000000        0.0000000000        0.0000000000
  O        11.4780000000        0.0000000000        0.0000000000
  O        -1.9130000000        3.3140000000        0.0000000000
  O         1.9130000000        3.3140000000        0.0000000000
  O         5.7390000000        3.3140000000        0.0000000000
  O         9.5650000000        3.3140000000        0.0000000000
  O        -3.8260000000        6.6270000000        0.0000000000
  O         0.0000000000        6.6270000000        0.0000000000
  O         3.8260000000        6.6270000000        0.0000000000
  O         7.6520000000        6.6270000000        0.0000000000
  O        -5.7390000000        9.9410000000        0.0000000000
  O        -1.9130000000        9.9410000000        0.0000000000
  O         1.9130000000        9.9410000000        0.0000000000
  O         5.7390000000        9.9410000000        0.0000000000
  O         1.9130000000        1.1050000000        1.5620000000
  O         5.7390000000        1.1050000000        1.5620000000
  O         9.5650000000        1.1050000000        1.5620000000
  O        13.3920000000        1.1050000000        1.5620000000
  O         0.0000000000        4.4180000000        1.5620000000
  O         3.8260000000        4.4180000000        1.5620000000
  O         7.6520000000        4.4180000000        1.5620000000
  O        11.4780000000        4.4180000000        1.5620000000
  O        -1.9130000000        7.7320000000        1.5620000000
  O         1.9130000000        7.7320000000        1.5620000000
  O         5.7390000000        7.7320000000        1.5620000000
  O         9.5650000000        7.7320000000        1.5620000000
  O        -3.8260000000       11.0450000000        1.5620000000
  O         0.0000000000       11.0450000000        1.5620000000
  O         3.8260000000       11.0450000000        1.5620000000
  O         7.6520000000       11.0450000000        1.5620000000
  O         0.0000000000        2.2090000000        3.1240000000
  O         3.8260000000        2.2090000000        3.1240000000
  O         7.6520000000        2.2090000000        3.1240000000
  O        11.4780000000        2.2090000000        3.1240000000
  O        -1.9130000000        5.5230000000        3.1240000000
  O         1.9130000000        5.5230000000        3.1240000000
  O         5.7390000000        5.5230000000        3.1240000000
  O         9.5650000000        5.5230000000        3.1240000000
  O        -3.8260000000        8.8360000000        3.1240000000
  O         0.0000000000        8.8360000000        3.1240000000
  O         3.8260000000        8.8360000000        3.1240000000
  O         7.6520000000        8.8360000000        3.1240000000
  O        -5.7390000000       12.1500000000        3.1240000000
  O        -1.9130000000       12.1500000000        3.1240000000
  O         1.9130000000       12.1500000000        3.1240000000
  O         5.7390000000       12.1500000000        3.1240000000
  O        -0.0764116684       -0.1408690704        4.6758936977
  O         3.7969041124       -0.1623784408        4.9511280109
  O         7.9137732041       -0.0189728016        4.8591124032
  O        11.4235241137       -0.1458228355        4.8404961268
  O        -2.0679804149        3.4795909933        4.6427894935
  O         1.8408961772        3.3680590703        4.6039755028
  O         5.5933168810        3.5081329453        4.7923909984
  O         9.6596038684        3.2988485629        4.7564595096
  O        -3.8712573621        6.7528945956        4.8684431398
  O        -0.0339446974        6.5594324541        4.6676551764
  O         3.5497065575        6.5772303799        4.8582255978
  O         7.6423661878        6.5769969614        4.6835308250
  O        -5.8282460489        9.9370261356        4.6965055388
  O        -1.9623654047        9.8177715555        4.7832020053
  O         1.8580787370        9.9176197822        4.8720982317
  O         5.8494971086       10.0561549702        4.8105595604
  O         1.9331359420        1.2988487139        6.1123607005
  O         5.6828736086        1.1228950088        6.1627219763
  O         9.5734479625        1.0735917280        6.5300563594
  O        13.3415184975        1.3128780470        6.0730562154
  O        -0.1514248506        4.4757234853        6.2206422285
  O         3.8830619486        4.3156693347        6.5023298987
  O         7.7473685822        4.2762763820        6.2406935169
  O        11.4093639960        4.2139774977        6.3588699307
  O        -1.7941479501        7.8417389424        6.1251799950
  O         1.8762843335        7.9627113013        6.4408407986
  O         5.7089021922        7.6718331697        6.1269647378
  O         9.4845338407        7.8963093273        6.3931461072
  O        -3.9773867538       10.8389423450        6.3779725197
  O        -0.0238046725       10.6931490323        6.2932475095
  O         3.8827006261       10.9269070659        6.1429171913
  O         7.7407052644       10.9571014710        6.4085627648
  O         0.0711236807        2.1452409788        7.6416245317
  O         3.9774066157        1.8284057973        7.8613034131
  O         7.7684135476        2.3257702643        8.0831954068
  O        11.4094028351        2.2751350666        8.0588547067
  O        -2.0324425039        5.6918570095        7.6992231830
  O         2.0350728558        5.4828156455        7.8534196966
  O         6.0998159251        5.6351717243        8.2011650505
  O         9.6660770149        5.5946357335        8.0723898582
  O        -4.0891055804        8.7948712543        8.1729399414
  O         0.2356337241        8.6649640404        8.2901660044
  O         3.7129199989        8.5985578378        7.9537706170
  O         7.4507946839        8.7629157436        7.9075859674
  O        -5.7883895262       12.3224257757        8.0428614196
  O        -2.1407251353       11.8673956065        7.8812888722
  O         1.7055123743       12.0460557398        7.9557123043
  O         5.8166232349       12.0747223622        7.6376193625
 Ce         0.0000000000        2.2090000000        0.7810000000
 Ce         3.8260000000        2.2090000000        0.7810000000
 Ce         7.6520000000        2.2090000000        0.7810000000
 Ce        11.4780000000        2.2090000000        0.7810000000
 Ce        -1.9130000000        5.5230000000        0.7810000000
 Ce         1.9130000000        5.5230000000        0.7810000000
 Ce         5.7390000000        5.5230000000        0.7810000000
 Ce         9.5650000000        5.5230000000        0.7810000000
 Ce        -3.8260000000        8.8360000000        0.7810000000
 Ce         0.0000000000        8.8360000000        0.7810000000
 Ce         3.8260000000        8.8360000000        0.7810000000
 Ce         7.6520000000        8.8360000000        0.7810000000
 Ce        -5.7390000000       12.1500000000        0.7810000000
 Ce        -1.9130000000       12.1500000000        0.7810000000
 Ce         1.9130000000       12.1500000000        0.7810000000
 Ce         5.7390000000       12.1500000000        0.7810000000
 Ce         1.8563488545        1.0114862839        3.8426243449
 Ce         5.6281621375        1.0637875151        3.9174223465
 Ce         9.5679751264        1.1763638891        3.9692889805
 Ce        13.3397258102        1.1937799854        3.8568546447
 Ce         0.0681804492        4.5024936116        3.8510074293
 Ce         3.7044455308        4.3099123203        4.0603257577
 Ce         7.5350073608        4.3079790933        3.8698319010
 Ce        11.3844018388        4.4673368836        3.7523955486
 Ce        -2.0222868707        7.7573663483        3.8624360371
 Ce         1.9224398245        7.8265393619        3.9321428018
 Ce         5.7557189324        7.7068993744        3.9766675731
 Ce         9.5257378293        7.6719839427        4.1388869394
 Ce        -3.9850511388       11.0450943492        3.9102900054
 Ce         0.0077320956       10.9771939553        3.9371016996
 Ce         3.7134111127       10.9402730156        3.9075685679
 Ce         7.6003108935       10.9458128778        3.9516805059
 Ce        -0.0482275057       -0.0367823930        7.0111569807
 Ce         3.8456461492       -0.1907188945        7.1546873716
 Ce         7.8361220206       -0.1446788998        7.0564862665
 Ce        11.5007311277       -0.1609630319        6.9850976606
 Ce        -1.9755731965        3.4034484825        6.8831515941
 Ce         1.7661939414        3.3397844485        6.9759964408
 Ce         5.7793622517        3.2485246425        7.0310597327
 Ce         9.6578244473        3.3196768371        7.1776719645
 Ce        -3.8911029849        6.4736836282        7.2173051539
 Ce         0.0508513670        6.5398316496        7.0207731509
 Ce         3.7904693022        6.7052901401        7.2607783619
 Ce         7.6802378843        6.4998183861        7.0212182097
 Ce        -5.8105666583        9.9939077470        7.3229103613
 Ce        -2.1677877452        9.8007991293        7.1252497231
 Ce         1.7809767191        9.8368750189        7.2961059525
 Ce         5.8135973110        9.8451110721        7.0870137199
 Pt        12.5937297924        1.5383830481        9.3856761806
 Pt         0.3467109144        5.0407622493        9.7247269802
 Pt         0.1541626451        7.5201963557        9.8490467503
 Pt         6.6976231390       13.3263912545       10.5595691244
 Pt        -0.3142263298        2.4845236341        9.7419553500
 Pt        -2.5860049956        7.9733957146        9.6444669940
 Pt         2.3492496457        3.2485801558       10.0369211919
 Pt         2.6986574182        5.7588129555       10.4902095503
 Pt         5.1888800961        4.7321761329        9.8425200172
 Pt         1.6288347280        0.3761484404        9.5977944054
 Pt         4.0969634650        1.3290058128        9.8561388376
 Pt        -1.9341427677        5.3353397081       10.5858055522
 Pt         6.6539436479        2.4989026873        9.8079171279
 Pt        -0.3331241146        3.7329378257       11.9878146653
 Pt         5.6370542436        1.7964662127       12.1838064528
 Pt         0.6618088088        6.2252379744       12.0610295356
 Pt         4.0401832959        3.8069001833       11.9502568979
 Pt         0.5647489867        4.5363664409       14.4920123699
 Pt         0.8660694880        1.2993243544       11.9442115782
 Pt         2.6651202272        5.2763132717       13.4089465230
 Pt         3.3635368001        0.5614601384       12.2322925840
 Pt         2.3721453840        2.4797727756       13.5372268132
     166
 i =     2828, time =     2828.000, E =     -6045.7657708378
  O         0.0000000000        0.0000000000        0.0000000000
  O         3.8260000000        0.0000000000        0.0000000000
  O         7.6520000000        0.0000000000        0.0000000000
  O        11.4780000000        0.0000000000        0.0000000000
  O        -1.9130000000        3.3140000000        0.0000000000
  O         1.9130000000        3.3140000000        0.0000000000
  O         5.7390000000        3.3140000000        0.0000000000
  O         9.5650000000        3.3140000000        0.0000000000
  O        -3.8260000000        6.6270000000        0.0000000000
  O         0.0000000000        6.6270000000        0.0000000000
  O         3.8260000000        6.6270000000        0.0000000000
  O         7.6520000000        6.6270000000        0.0000000000
  O        -5.7390000000        9.9410000000        0.0000000000
  O        -1.9130000000        9.9410000000        0.0000000000
  O         1.9130000000        9.9410000000        0.0000000000
  O         5.7390000000        9.9410000000        0.0000000000
  O         1.9130000000        1.1050000000        1.5620000000
  O         5.7390000000        1.1050000000        1.5620000000
  O         9.5650000000        1.1050000000        1.5620000000
  O        13.3920000000        1.1050000000        1.5620000000
  O         0.0000000000        4.4180000000        1.5620000000
  O         3.8260000000        4.4180000000        1.5620000000
  O         7.6520000000        4.4180000000        1.5620000000
  O        11.4780000000        4.4180000000        1.5620000000
  O        -1.9130000000        7.7320000000        1.5620000000
  O         1.9130000000        7.7320000000        1.5620000000
  O         5.7390000000        7.7320000000        1.5620000000
  O         9.5650000000        7.7320000000        1.5620000000
  O        -3.8260000000       11.0450000000        1.5620000000
  O         0.0000000000       11.0450000000        1.5620000000
  O         3.8260000000       11.0450000000        1.5620000000
  O         7.6520000000       11.0450000000        1.5620000000
  O         0.0000000000        2.2090000000        3.1240000000
  O         3.8260000000        2.2090000000        3.1240000000
  O         7.6520000000        2.2090000000        3.1240000000
  O        11.4780000000        2.2090000000        3.1240000000
  O        -1.9130000000        5.5230000000        3.1240000000
  O         1.9130000000        5.5230000000        3.1240000000
  O         5.7390000000        5.5230000000        3.1240000000
  O         9.5650000000        5.5230000000        3.1240000000
  O        -3.8260000000        8.8360000000        3.1240000000
  O         0.0000000000        8.8360000000        3.1240000000
  O         3.8260000000        8.8360000000        3.1240000000
  O         7.6520000000        8.8360000000        3.1240000000
  O        -5.7390000000       12.1500000000        3.1240000000
  O        -1.9130000000       12.1500000000        3.1240000000
  O         1.9130000000       12.1500000000        3.1240000000
  O         5.7390000000       12.1500000000        3.1240000000
  O        -0.0690904661       -0.1533360211        4.6828784978
  O         3.7998168529       -0.1567860313        4.9515209399
  O         7.9089235578       -0.0268284111        4.8532673307
  O        11.4300686010       -0.1406664417        4.8345523482
  O        -2.0628154507        3.4768195340        4.6493973012
  O         1.8378413745        3.3643736422        4.6167189463
  O         5.5906584585        3.5045138126        4.7894538222
  O         9.6612676006        3.2987603077        4.7600315814
  O        -3.8739311895        6.7587323568        4.8783088925
  O        -0.0401507144        6.5540024003        4.6739963152
  O         3.5494177134        6.5813859555        4.8488624100
  O         7.6352804506        6.5720611296        4.6808537563
  O        -5.8312908052        9.9389045139        4.7010563142
  O        -1.9609162416        9.8248729329        4.7836068946
  O         1.8626851301        9.9275114995        4.8721145068
  O         5.8585745205       10.0482521903        4.8094345004
  O         1.9381705459        1.3003508803        6.1118407910
  O         5.6847774407        1.1137107348        6.1646172521
  O         9.5951180157        1.0592588913        6.5355340566
  O        13.3524815920        1.3155106780        6.0827210366
  O        -0.1510423198        4.4847127379        6.2110012885
  O         3.8872395686        4.3157533413        6.5109292363
  O         7.7479637053        4.2831956283        6.2451738821
  O        11.4064152612        4.1984053654        6.3561603556
  O        -1.8008926369        7.8411873241        6.1275045094
  O         1.8780880205        7.9531364361        6.4341012564
  O         5.6977124020        7.6614089053        6.1356003173
  O         9.4823520017        7.8899276790        6.3958807457
  O        -3.9751763332       10.8366406450        6.3756412072
  O        -0.0220292030       10.6861399849        6.2899576202
  O         3.8805583856       10.9214479358        6.1418810363
  O         7.7492869664       10.9594283076        6.4081755155
  O         0.0617235567        2.1358224303        7.6375917958
  O         3.9809626000        1.8250955178        7.8611829324
  O         7.7757241990        2.3270268509        8.0796097448
  O        11.4126875074        2.2806138325        8.0653628026
  O        -2.0376046624        5.6828247766        7.7013284760
  O         2.0293548158        5.4882328407        7.8573312246
  O         6.0992225958        5.6328609633        8.2081850655
  O         9.6719775894        5.5886628337        8.0765100045
  O        -4.0958327421        8.7905368418        8.1768488380
  O         0.2366211959        8.6541514876        8.2959574367
  O         3.7199714711        8.6173958914        7.9656636745
  O         7.4503487114        8.7762847276        7.9172266836
  O        -5.7838819831       12.3142916877        8.0391372225
  O        -2.1521841227       11.8627551111        7.8824900706
  O         1.7012837643       12.0495073340        7.9634590898
  O         5.8148161453       12.0816919736        7.6443211170
 Ce         0.0000000000        2.2090000000        0.7810000000
 Ce         3.8260000000        2.2090000000        0.7810000000
 Ce         7.6520000000        2.2090000000        0.7810000000
 Ce        11.4780000000        2.2090000000        0.7810000000
 Ce        -1.9130000000        5.5230000000        0.7810000000
 Ce         1.9130000000        5.5230000000        0.7810000000
 Ce         5.7390000000        5.5230000000        0.7810000000
 Ce         9.5650000000        5.5230000000        0.7810000000
 Ce        -3.8260000000        8.8360000000        0.7810000000
 Ce         0.0000000000        8.8360000000        0.7810000000
 Ce         3.8260000000        8.8360000000        0.7810000000
 Ce         7.6520000000        8.8360000000        0.7810000000
 Ce        -5.7390000000       12.1500000000        0.7810000000
 Ce        -1.9130000000       12.1500000000        0.7810000000
 Ce         1.9130000000       12.1500000000        0.7810000000
 Ce         5.7390000000       12.1500000000        0.7810000000
 Ce         1.8558534100        1.0087062169        3.8443208011
 Ce         5.6283759231        1.0648143765        3.9212376454
 Ce         9.5692238775        1.1745848307        3.9709435404
 Ce        13.3380005944        1.1925427027        3.8567929430
 Ce         0.0680546145        4.4998749978        3.8532174114
 Ce         3.7043416282        4.3100217823        4.0617276400
 Ce         7.5366123543        4.3057294893        3.8717387576
 Ce        11.3842098941        4.4693769199        3.7511165427
 Ce        -2.0257192416        7.7556259349        3.8613066139
 Ce         1.9186015411        7.8302845167        3.9338572355
 Ce         5.7543170646        7.7057831420        3.9793547992
 Ce         9.5308061998        7.6698756824        4.1420356486
 Ce        -3.9857947200       11.0451383098        3.9100182614
 Ce         0.0107984245       10.9785864198        3.9327386347
 Ce         3.7113608053       10.9379181967        3.9081189680
 Ce         7.6017251545       10.9448168684        3.9497712648
 Ce        -0.0498976829       -0.0391006041        7.0103562315
 Ce         3.8468606556       -0.1900011847        7.1522391929
 Ce         7.8325783543       -0.1507846477        7.0553071400
 Ce        11.5013885146       -0.1582535835        6.9830729218
 Ce        -1.9724185238        3.4027508266        6.8792786969
 Ce         1.7664152745        3.3401750708        6.9735217421
 Ce         5.7818646925        3.2476528286        7.0333795182
 Ce         9.6576893168        3.3209950884        7.1810366867
 Ce        -3.8843930126        6.4761577022        7.2179373581
 Ce         0.0513488548        6.5370715867        7.0215378618
 Ce         3.7932694274        6.7045992610        7.2607552543
 Ce         7.6807498976        6.4986526528        7.0239244733
 Ce        -5.8069900371        9.9897876568        7.3238510599
 Ce        -2.1658737782        9.7988105618        7.1299826199
 Ce         1.7798568512        9.8377673837        7.2936902310
 Ce         5.8145671831        9.8458001662        7.0849453654
 Pt        12.5935093125        1.5359236725        9.3842310692
 Pt         0.3435272958        5.0407362628        9.7256502368
 Pt         0.1554651574        7.5182724334        9.8490748788
 Pt         6.6986076496       13.3281399349       10.5569658704
 Pt        -0.3155474243        2.4858107437        9.7440207583
 Pt        -2.5846155044        7.9715352633        9.6452884236
 Pt         2.3474227375        3.2487855435       10.0365371878
 Pt         2.6973781199        5.7608703844       10.4894027786
 Pt         5.1909606361        4.7284650568        9.8465196587
 Pt         1.6279322303        0.3800318290        9.5978556409
 Pt         4.0974616428        1.3305308839        9.8565179943
 Pt        -1.9373484220        5.3361578258       10.5838932875
 Pt         6.6556032779        2.4978739626        9.8094783517
 Pt        -0.3336868922        3.7357143882       11.9885617825
 Pt         5.6333310541        1.7962447659       12.1833048184
 Pt         0.6551400043        6.2214429005       12.0623415158
 Pt         4.0381775430        3.8115764944       11.9503528275
 Pt         0.5640920315        4.5363764884       14.4895596422
 Pt         0.8652585052        1.3004901758       11.9435948595
 Pt         2.6616458107        5.2771129596       13.4042799855
 Pt         3.3626492472        0.5608502021       12.2318540807
 Pt         2.3710794854        2.4785349629       13.5380111028
     166
 i =     2829, time =     2829.000, E =     -6045.7670284823
  O         0.0000000000        0.0000000000        0.0000000000
  O         3.8260000000        0.0000000000        0.0000000000
  O         7.6520000000        0.0000000000        0.0000000000
  O        11.4780000000        0.0000000000        0.0000000000
  O        -1.9130000000        3.3140000000        0.0000000000
  O         1.9130000000        3.3140000000        0.0000000000
  O         5.7390000000        3.3140000000        0.0000000000
  O         9.5650000000        3.3140000000        0.0000000000
  O        -3.8260000000        6.6270000000        0.0000000000
  O         0.0000000000        6.6270000000        0.0000000000
  O         3.8260000000        6.6270000000        0.0000000000
  O         7.6520000000        6.6270000000        0.0000000000
  O        -5.7390000000        9.9410000000        0.0000000000
  O        -1.9130000000        9.9410000000        0.0000000000
  O         1.9130000000        9.9410000000        0.0000000000
  O         5.7390000000        9.9410000000        0.0000000000
  O         1.9130000000        1.1050000000        1.5620000000
  O         5.7390000000        1.1050000000        1.5620000000
  O         9.5650000000        1.1050000000        1.5620000000
  O        13.3920000000        1.1050000000        1.5620000000
  O         0.0000000000        4.4180000000        1.5620000000
  O         3.8260000000        4.4180000000        1.5620000000
  O         7.6520000000        4.4180000000        1.5620000000
  O        11.4780000000        4.4180000000        1.5620000000
  O        -1.9130000000        7.7320000000        1.5620000000
  O         1.9130000000        7.7320000000        1.5620000000
  O         5.7390000000        7.7320000000        1.5620000000
  O         9.5650000000        7.7320000000        1.5620000000
  O        -3.8260000000       11.0450000000        1.5620000000
  O         0.0000000000       11.0450000000        1.5620000000
  O         3.8260000000       11.0450000000        1.5620000000
  O         7.6520000000       11.0450000000        1.5620000000
  O         0.0000000000        2.2090000000        3.1240000000
  O         3.8260000000        2.2090000000        3.1240000000
  O         7.6520000000        2.2090000000        3.1240000000
  O        11.4780000000        2.2090000000        3.1240000000
  O        -1.9130000000        5.5230000000        3.1240000000
  O         1.9130000000        5.5230000000        3.1240000000
  O         5.7390000000        5.5230000000        3.1240000000
  O         9.5650000000        5.5230000000        3.1240000000
  O        -3.8260000000        8.8360000000        3.1240000000
  O         0.0000000000        8.8360000000        3.1240000000
  O         3.8260000000        8.8360000000        3.1240000000
  O         7.6520000000        8.8360000000        3.1240000000
  O        -5.7390000000       12.1500000000        3.1240000000
  O        -1.9130000000       12.1500000000        3.1240000000
  O         1.9130000000       12.1500000000        3.1240000000
  O         5.7390000000       12.1500000000        3.1240000000
  O        -0.0614193588       -0.1651820914        4.6901499955
  O         3.8026800205       -0.1511603987        4.9505857352
  O         7.9033023120       -0.0349425635        4.8473085558
  O        11.4364219446       -0.1347621443        4.8280064395
  O        -2.0572723571        3.4737399541        4.6557567917
  O         1.8349355970        3.3605826615        4.6298208023
  O         5.5887618485        3.4999672633        4.7862048891
  O         9.6623855823        3.2983198850        4.7632146673
  O        -3.8768925523        6.7637413865        4.8880018619
  O        -0.0457407397        6.5491289997        4.6804192129
  O         3.5497354971        6.5854978468        4.8394923783
  O         7.6283288363        6.5669177990        4.6785326319
  O        -5.8339082334        9.9406973565        4.7056047835
  O        -1.9598227199        9.8330880997        4.7833997503
  O         1.8674533381        9.9375126174        4.8711529833
  O         5.8670824273       10.0394093366        4.8082472302
  O         1.9430588897        1.3010806710        6.1111475584
  O         5.6875303419        1.1044094387        6.1662645547
  O         9.6168735621        1.0449821472        6.5403652789
  O        13.3632635093        1.3173607430        6.0926502530
  O        -0.1498733442        4.4932814665        6.2014282800
  O         3.8912507861        4.3158149724        6.5191275485
  O         7.7482409135        4.2905074604        6.2495294205
  O        11.4034414142        4.1840221606        6.3531133621
  O        -1.8076645068        7.8402568384        6.1308457081
  O         1.8795817152        7.9419504947        6.4266190377
  O         5.6865884229        7.6509298813        6.1448494766
  O         9.4799751590        7.8828251221        6.3983423484
  O        -3.9732979852       10.8343626175        6.3730564834
  O        -0.0206034158       10.6800954015        6.2871098831
  O         3.8780832145       10.9160092867        6.1420520001
  O         7.7580534502       10.9619334969        6.4077121717
  O         0.0516641158        2.1265216558        7.6336316020
  O         3.9846456055        1.8225392693        7.8614035388
  O         7.7827814735        2.3279410552        8.0761161062
  O        11.4154722366        2.2861197582        8.0714954399
  O        -2.0424149799        5.6729217124        7.7033573037
  O         2.0229780490        5.4939573973        7.8606709051
  O         6.0983465703        5.6305829799        8.2147961201
  O         9.6773798894        5.5822047906        8.0801531219
  O        -4.1019519488        8.7860818692        8.1810959713
  O         0.2372112329        8.6441608240        8.3010116219
  O         3.7277208932        8.6371814360        7.9779793624
  O         7.4501569688        8.7895838416        7.9270839384
  O        -5.7794303520       12.3056771327        8.0352382433
  O        -2.1629073349       11.8583824924        7.8836746547
  O         1.6976981174       12.0529196389        7.9712149600
  O         5.8125302876       12.0886519390        7.6511493833
 Ce         0.0000000000        2.2090000000        0.7810000000
 Ce         3.8260000000        2.2090000000        0.7810000000
 Ce         7.6520000000        2.2090000000        0.7810000000
 Ce        11.4780000000        2.2090000000        0.7810000000
 Ce        -1.9130000000        5.5230000000        0.7810000000
 Ce         1.9130000000        5.5230000000        0.7810000000
 Ce         5.7390000000        5.5230000000        0.7810000000
 Ce         9.5650000000        5.5230000000        0.7810000000
 Ce        -3.8260000000        8.8360000000        0.7810000000
 Ce         0.0000000000        8.8360000000        0.7810000000
 Ce         3.8260000000        8.8360000000        0.7810000000
 Ce         7.6520000000        8.8360000000        0.7810000000
 Ce        -5.7390000000       12.1500000000        0.7810000000
 Ce        -1.9130000000       12.1500000000        0.7810000000
 Ce         1.9130000000       12.1500000000        0.7810000000
 Ce         5.7390000000       12.1500000000        0.7810000000
 Ce         1.8553245245        1.0059851748        3.8461257062
 Ce         5.6286291924        1.0658040164        3.9250884751
 Ce         9.5705085572        1.1727380451        3.9725874163
 Ce        13.3363303304        1.1912158527        3.8567715071
 Ce         0.0678088090        4.4972584781        3.8554126752
 Ce         3.7042767585        4.3103135933        4.0630492057
 Ce         7.5382743475        4.3035913342        3.8736707351
 Ce        11.3841070606        4.4713956385        3.7499860285
 Ce        -2.0290638822        7.7538824615        3.8602710943
 Ce         1.9147179699        7.8339194902        3.9356117643
 Ce         5.7528946504        7.7046529650        3.9819528254
 Ce         9.5358929857        7.6678778511        4.1450591728
 Ce        -3.9864274701       11.0450858558        3.9097934458
 Ce         0.0138194397       10.9799649746        3.9284170776
 Ce         3.7094104269       10.9356793992        3.9087039584
 Ce         7.6031542582       10.9438969525        3.9478164983
 Ce        -0.0515729042       -0.0413640643        7.0095500188
 Ce         3.8480870205       -0.1892335270        7.1497880349
 Ce         7.8289013105       -0.1568692710        7.0541606477
 Ce        11.5020950289       -0.1555168368        6.9810917764
 Ce        -1.9692359138        3.4019985301        6.8755152112
 Ce         1.7667443637        3.3405277004        6.9711466723
 Ce         5.7843396375        3.2467658924        7.0358069781
 Ce         9.6574694204        3.3222840921        7.1844414608
 Ce        -3.8776647257        6.4787817199        7.2185810252
 Ce         0.0517677818        6.5344201291        7.0223160534
 Ce         3.7960731737        6.7038140335        7.2606997245
 Ce         7.6812623103        6.4975591735        7.0267172307
 Ce        -5.8034620185        9.9855726320        7.3247642370
 Ce        -2.1638482665        9.7967998942        7.1347049938
 Ce         1.7788027289        9.8386919850        7.2912383786
 Ce         5.8154925441        9.8465179379        7.0828608570
 Pt        12.5933508571        1.5334342571        9.3828445020
 Pt         0.3403699011        5.0406013753        9.7264714815
 Pt         0.1567241613        7.5163554323        9.8492090896
 Pt         6.6996090860       13.3298786490       10.5543525401
 Pt        -0.3168375323        2.4871578770        9.7460549478
 Pt        -2.5832148501        7.9696396666        9.6460848297
 Pt         2.3455275029        3.2489659016       10.0361629229
 Pt         2.6961946801        5.7629357422       10.4886116047
 Pt         5.1930000044        4.7247637166        9.8505232129
 Pt         1.6270173169        0.3839262987        9.5979851626
 Pt         4.0979639584        1.3320769054        9.8568956619
 Pt        -1.9405679265        5.3370263834       10.5819976107
 Pt         6.6572355408        2.4967995590        9.8110710947
 Pt        -0.3342350939        3.7384672411       11.9893832473
 Pt         5.6296170900        1.7960663302       12.1827641398
 Pt         0.6484235230        6.2176527511       12.0637175034
 Pt         4.0362252202        3.8162285252       11.9504072148
 Pt         0.5634276707        4.5363503452       14.4870566307
 Pt         0.8644052321        1.3016583804       11.9429485610
 Pt         2.6581738379        5.2779236188       13.3996085602
 Pt         3.3617767240        0.5602262233       12.2313988647
 Pt         2.3699816702        2.4773737308       13.5388443007
     166
 i =     2830, time =     2830.000, E =     -6045.7682479369
  O         0.0000000000        0.0000000000        0.0000000000
  O         3.8260000000        0.0000000000        0.0000000000
  O         7.6520000000        0.0000000000        0.0000000000
  O        11.4780000000        0.0000000000        0.0000000000
  O        -1.9130000000        3.3140000000        0.0000000000
  O         1.9130000000        3.3140000000        0.0000000000
  O         5.7390000000        3.3140000000        0.0000000000
  O         9.5650000000        3.3140000000        0.0000000000
  O        -3.8260000000        6.6270000000        0.0000000000
  O         0.0000000000        6.6270000000        0.0000000000
  O         3.8260000000        6.6270000000        0.0000000000
  O         7.6520000000        6.6270000000        0.0000000000
  O        -5.7390000000        9.9410000000        0.0000000000
  O        -1.9130000000        9.9410000000        0.0000000000
  O         1.9130000000        9.9410000000        0.0000000000
  O         5.7390000000        9.9410000000        0.0000000000
  O         1.9130000000        1.1050000000        1.5620000000
  O         5.7390000000        1.1050000000        1.5620000000
  O         9.5650000000        1.1050000000        1.5620000000
  O        13.3920000000        1.1050000000        1.5620000000
  O         0.0000000000        4.4180000000        1.5620000000
  O         3.8260000000        4.4180000000        1.5620000000
  O         7.6520000000        4.4180000000        1.5620000000
  O        11.4780000000        4.4180000000        1.5620000000
  O        -1.9130000000        7.7320000000        1.5620000000
  O         1.9130000000        7.7320000000        1.5620000000
  O         5.7390000000        7.7320000000        1.5620000000
  O         9.5650000000        7.7320000000        1.5620000000
  O        -3.8260000000       11.0450000000        1.5620000000
  O         0.0000000000       11.0450000000        1.5620000000
  O         3.8260000000       11.0450000000        1.5620000000
  O         7.6520000000       11.0450000000        1.5620000000
  O         0.0000000000        2.2090000000        3.1240000000
  O         3.8260000000        2.2090000000        3.1240000000
  O         7.6520000000        2.2090000000        3.1240000000
  O        11.4780000000        2.2090000000        3.1240000000
  O        -1.9130000000        5.5230000000        3.1240000000
  O         1.9130000000        5.5230000000        3.1240000000
  O         5.7390000000        5.5230000000        3.1240000000
  O         9.5650000000        5.5230000000        3.1240000000
  O        -3.8260000000        8.8360000000        3.1240000000
  O         0.0000000000        8.8360000000        3.1240000000
  O         3.8260000000        8.8360000000        3.1240000000
  O         7.6520000000        8.8360000000        3.1240000000
  O        -5.7390000000       12.1500000000        3.1240000000
  O        -1.9130000000       12.1500000000        3.1240000000
  O         1.9130000000       12.1500000000        3.1240000000
  O         5.7390000000       12.1500000000        3.1240000000
  O        -0.0534220016       -0.1763641694        4.6976520117
  O         3.8054822347       -0.1455178583        4.9483064224
  O         7.8969539223       -0.0432832418        4.8412602915
  O        11.4425932041       -0.1281410568        4.8208918612
  O        -2.0513789395        3.4703587436        4.6617894886
  O         1.8322078094        3.3567371175        4.6432503136
  O         5.5876325405        3.4945023194        4.7826693297
  O         9.6629319150        3.2975123113        4.7659763662
  O        -3.8801101701        6.7678910499        4.8974379861
  O        -0.0507086366        6.5448599306        4.6868391596
  O         3.5506738701        6.5895408225        4.8301245095
  O         7.6215592374        6.5616151687        4.6765949652
  O        -5.8360636438        9.9423583479        4.7101505641
  O        -1.9590772140        9.8423379106        4.7825751020
  O         1.8723500018        9.9475510373        4.8692241428
  O         5.8749573337       10.0296366017        4.8070243507
  O         1.9477845726        1.3010358288        6.1102971728
  O         5.6911512635        1.0950466437        6.1676894959
  O         9.6385251689        1.0308296416        6.5444995116
  O        13.3738140625        1.3183818834        6.1026960048
  O        -0.1479102657        4.5013502291        6.1919693449
  O         3.8950765471        4.3158757760        6.5268801323
  O         7.7481833292        4.2981766607        6.2537437195
  O        11.4004907455        4.1708932768        6.3496958454
  O        -1.8144803094        7.8389570064        6.1351920774
  O         1.8807877207        7.9292705037        6.4184503792
  O         5.6755785636        7.6404182743        6.1546698704
  O         9.4774020509        7.8750099675        6.4005254306
  O        -3.9717401672       10.8320878893        6.3702344470
  O        -0.0195231145       10.6750308145        6.2847520141
  O         3.8752948536       10.9106431770        6.1433995881
  O         7.7669285954       10.9646078834        6.4071844356
  O         0.0410421540        2.1174429992        7.6297792816
  O         3.9884620839        1.8207568345        7.8619672900
  O         7.7895452727        2.3284956689        8.0727544422
  O        11.4177379568        2.2916644388        8.0772303184
  O        -2.0468567170        5.6621388535        7.7053002167
  O         2.0159933151        5.4999735329        7.8634036725
  O         6.0971989268        5.6283490635        8.2209946539
  O         9.6822724515        5.5753048406        8.0832789876
  O        -4.1074343660        8.7815140452        8.1856791206
  O         0.2374526561        8.6351220669        8.3051813893
  O         3.7360876801        8.6577641236        7.9906636459
  O         7.4502187732        8.8027663184        7.9371003278
  O        -5.7750554293       12.2966515288        8.0312151797
  O        -2.1728123240       11.8542672463        7.8848721626
  O         1.6947243496       12.0562505580        7.9789893911
  O         5.8097711819       12.0955494635        7.6580448726
 Ce         0.0000000000        2.2090000000        0.7810000000
 Ce         3.8260000000        2.2090000000        0.7810000000
 Ce         7.6520000000        2.2090000000        0.7810000000
 Ce        11.4780000000        2.2090000000        0.7810000000
 Ce        -1.9130000000        5.5230000000        0.7810000000
 Ce         1.9130000000        5.5230000000        0.7810000000
 Ce         5.7390000000        5.5230000000        0.7810000000
 Ce         9.5650000000        5.5230000000        0.7810000000
 Ce        -3.8260000000        8.8360000000        0.7810000000
 Ce         0.0000000000        8.8360000000        0.7810000000
 Ce         3.8260000000        8.8360000000        0.7810000000
 Ce         7.6520000000        8.8360000000        0.7810000000
 Ce        -5.7390000000       12.1500000000        0.7810000000
 Ce        -1.9130000000       12.1500000000        0.7810000000
 Ce         1.9130000000       12.1500000000        0.7810000000
 Ce         5.7390000000       12.1500000000        0.7810000000
 Ce         1.8547646333        1.0033247425        3.8480389966
 Ce         5.6289209542        1.0667537552        3.9289697953
 Ce         9.5718288136        1.1708238172        3.9742196237
 Ce        13.3347167392        1.1897986525        3.8567939160
 Ce         0.0674453257        4.4946456314        3.8575911852
 Ce         3.7042489470        4.3107862344        4.0642878246
 Ce         7.5399903712        4.3015670849        3.8756260346
 Ce        11.3840937258        4.4733866232        3.7490068780
 Ce        -2.0323156929        7.7521420391        3.8593336848
 Ce         1.9107926922        7.8374396518        3.9374056231
 Ce         5.7514524164        7.7035077687        3.9844606778
 Ce         9.5409858258        7.6659937424        4.1479571960
 Ce        -3.9869465426       11.0449390950        3.9096186379
 Ce         0.0167883533       10.9813316222        3.9241373736
 Ce         3.7075649067       10.9335594526        3.9093223161
 Ce         7.6045997990       10.9430512768        3.9458176787
 Ce        -0.0532493553       -0.0435764342        7.0087416400
 Ce         3.8493180308       -0.1884193683        7.1473341914
 Ce         7.8250983935       -0.1629297320        7.0530460996
 Ce        11.5028551975       -0.1527561624        6.9791586815
 Ce        -1.9660274592        3.4011911304        6.8718685677
 Ce         1.7671750893        3.3408379542        6.9688775190
 Ce         5.7867870652        3.2458626018        7.0383415776
 Ce         9.6571696900        3.3235428769        7.1878885724
 Ce        -3.8709269887        6.4815502983        7.2192412181
 Ce         0.0521084734        6.5318793128        7.0231085123
 Ce         3.7988755877        6.7029516464        7.2606193984
 Ce         7.6817744605        6.4965362964        7.0295972921
 Ce        -5.7999869825        9.9812696381        7.3256494313
 Ce        -2.1617166647        9.7947676008        7.1394126949
 Ce         1.7778204117        9.8396389594        7.2887533769
 Ce         5.8163720064        9.8472663102        7.0807668724
 Pt        12.5932564595        1.5309146077        9.3815197997
 Pt         0.3372413488        5.0403541028        9.7271893461
 Pt         0.1579382977        7.5144424895        9.8494565811
 Pt         6.7006271441       13.3316055652       10.5517294719
 Pt        -0.3180973817        2.4885643535        9.7480555003
 Pt        -2.5818033590        7.9677091660        9.6468563573
 Pt         2.3435642741        3.2491217127       10.0357975717
 Pt         2.6951056487        5.7650082624       10.4878366090
 Pt         5.1949986382        4.7210724919        9.8545295274
 Pt         1.6260913624        0.3878281376        9.5981781205
 Pt         4.0984698268        1.3336436236        9.8572716624
 Pt        -1.9438021085        5.3379451306       10.5801190917
 Pt         6.6588418635        2.4956793856        9.8126931937
 Pt        -0.3347699014        3.7411944601       11.9902783723
 Pt         5.6259116100        1.7959319610       12.1821841867
 Pt         0.6416621347        6.2138701539       12.0651569775
 Pt         4.0343266552        3.8208541314       11.9504203471
 Pt         0.5627542645        4.5362873298       14.4845052407
 Pt         0.8635099735        1.3028294089       11.9422729200
 Pt         2.6547048806        5.2787456228       13.3949342988
 Pt         3.3609184797        0.5595881428       12.2309276028
 Pt         2.3688535231        2.4762898003       13.5397259803
     166
 i =     2831, time =     2831.000, E =     -6045.7695115463
  O         0.0000000000        0.0000000000        0.0000000000
  O         3.8260000000        0.0000000000        0.0000000000
  O         7.6520000000        0.0000000000        0.0000000000
  O        11.4780000000        0.0000000000        0.0000000000
  O        -1.9130000000        3.3140000000        0.0000000000
  O         1.9130000000        3.3140000000        0.0000000000
  O         5.7390000000        3.3140000000        0.0000000000
  O         9.5650000000        3.3140000000        0.0000000000
  O        -3.8260000000        6.6270000000        0.0000000000
  O         0.0000000000        6.6270000000        0.0000000000
  O         3.8260000000        6.6270000000        0.0000000000
  O         7.6520000000        6.6270000000        0.0000000000
  O        -5.7390000000        9.9410000000        0.0000000000
  O        -1.9130000000        9.9410000000        0.0000000000
  O         1.9130000000        9.9410000000        0.0000000000
  O         5.7390000000        9.9410000000        0.0000000000
  O         1.9130000000        1.1050000000        1.5620000000
  O         5.7390000000        1.1050000000        1.5620000000
  O         9.5650000000        1.1050000000        1.5620000000
  O        13.3920000000        1.1050000000        1.5620000000
  O         0.0000000000        4.4180000000        1.5620000000
  O         3.8260000000        4.4180000000        1.5620000000
  O         7.6520000000        4.4180000000        1.5620000000
  O        11.4780000000        4.4180000000        1.5620000000
  O        -1.9130000000        7.7320000000        1.5620000000
  O         1.9130000000        7.7320000000        1.5620000000
  O         5.7390000000        7.7320000000        1.5620000000
  O         9.5650000000        7.7320000000        1.5620000000
  O        -3.8260000000       11.0450000000        1.5620000000
  O         0.0000000000       11.0450000000        1.5620000000
  O         3.8260000000       11.0450000000        1.5620000000
  O         7.6520000000       11.0450000000        1.5620000000
  O         0.0000000000        2.2090000000        3.1240000000
  O         3.8260000000        2.2090000000        3.1240000000
  O         7.6520000000        2.2090000000        3.1240000000
  O        11.4780000000        2.2090000000        3.1240000000
  O        -1.9130000000        5.5230000000        3.1240000000
  O         1.9130000000        5.5230000000        3.1240000000
  O         5.7390000000        5.5230000000        3.1240000000
  O         9.5650000000        5.5230000000        3.1240000000
  O        -3.8260000000        8.8360000000        3.1240000000
  O         0.0000000000        8.8360000000        3.1240000000
  O         3.8260000000        8.8360000000        3.1240000000
  O         7.6520000000        8.8360000000        3.1240000000
  O        -5.7390000000       12.1500000000        3.1240000000
  O        -1.9130000000       12.1500000000        3.1240000000
  O         1.9130000000       12.1500000000        3.1240000000
  O         5.7390000000       12.1500000000        3.1240000000
  O        -0.0451193385       -0.1868263558        4.7053510516
  O         3.8082131423       -0.1398752357        4.9446834646
  O         7.8899437203       -0.0518053997        4.8351582905
  O        11.4486013046       -0.1208396256        4.8132633109
  O        -2.0451669402        3.4666858648        4.6674034854
  O         1.8296879266        3.3528884822        4.6570052738
  O         5.5872702628        3.4881397176        4.7788718027
  O         9.6628847136        3.2963259518        4.7682926828
  O        -3.8835442344        6.7711580524        4.9065122920
  O        -0.0550617503        6.5412341751        4.6931860304
  O         3.5522442399        6.5934922262        4.8208053086
  O         7.6150321681        6.5562136553        4.6750667560
  O        -5.8377290146        9.9438421455        4.7146975368
  O        -1.9586663633        9.8525468836        4.7811319950
  O         1.8773514082        9.9575539194        4.8663464600
  O         5.8821408348       10.0189394172        4.8057917623
  O         1.9523310508        1.3002208339        6.1093094718
  O         5.6956624227        1.0856695213        6.1689297038
  O         9.6599703921        1.0168552041        6.5478995888
  O        13.3840837899        1.3185448284        6.1127488229
  O        -0.1451499448        4.5088567223        6.1826465736
  O         3.8986962993        4.3159586984        6.5341283100
  O         7.7477817650        4.3061603791        6.2578120411
  O        11.3976146040        4.1591044178        6.3458732121
  O        -1.8213537513        7.8373048143        6.1405221353
  O         1.8817226697        7.9152445906        6.4096334232
  O         5.6647141097        7.6298724173        6.1649797248
  O         9.4746372548        7.8664991349        6.4024308980
  O        -3.9704902528       10.8297968675        6.3671953910
  O        -0.0187823830       10.6709547843        6.2829248567
  O         3.8722094154       10.9053968207        6.1458820260
  O         7.7758280289       10.9674274235        6.4065986061
  O         0.0299685231        2.1086807242        7.6260656286
  O         3.9924180994        1.8197579171        7.8628683382
  O         7.7959636099        2.3286743014        8.0695571849
  O        11.4194685802        2.2972600182        8.0825387511
  O        -2.0509115859        5.6504800767        7.7071476835
  O         2.0084373174        5.5062691221        7.8655051558
  O         6.0957927590        5.6261683804        8.2267595048
  O         9.6866622111        5.5680028334        8.0858509787
  O        -4.1122625076        8.7768362112        8.1906047627
  O         0.2373822481        8.6271307689        8.3083376266
  O         3.7449835457        8.6789418314        8.0036350929
  O         7.4505267911        8.8158106961        7.9471897738
  O        -5.7707638560       12.2872741709        8.0271188321
  O        -2.1818214199       11.8504098951        7.8861107489
  O         1.6923269258       12.0594610469        7.9867950819
  O         5.8065390794       12.1023328955        7.6649659687
 Ce         0.0000000000        2.2090000000        0.7810000000
 Ce         3.8260000000        2.2090000000        0.7810000000
 Ce         7.6520000000        2.2090000000        0.7810000000
 Ce        11.4780000000        2.2090000000        0.7810000000
 Ce        -1.9130000000        5.5230000000        0.7810000000
 Ce         1.9130000000        5.5230000000        0.7810000000
 Ce         5.7390000000        5.5230000000        0.7810000000
 Ce         9.5650000000        5.5230000000        0.7810000000
 Ce        -3.8260000000        8.8360000000        0.7810000000
 Ce         0.0000000000        8.8360000000        0.7810000000
 Ce         3.8260000000        8.8360000000        0.7810000000
 Ce         7.6520000000        8.8360000000        0.7810000000
 Ce        -5.7390000000       12.1500000000        0.7810000000
 Ce        -1.9130000000       12.1500000000        0.7810000000
 Ce         1.9130000000       12.1500000000        0.7810000000
 Ce         5.7390000000       12.1500000000        0.7810000000
 Ce         1.8541766139        1.0007263368        3.8500601865
 Ce         5.6292505104        1.0676611165        3.9328759628
 Ce         9.5731836900        1.1688423222        3.9758386767
 Ce        13.3331613387        1.1882905125        3.8568631707
 Ce         0.0669670157        4.4920378705        3.8597505809
 Ce         3.7042571491        4.3114374463        4.0654408829
 Ce         7.5417573820        4.2996585155        3.8776026483
 Ce        11.3841696964        4.4753433232        3.7481814484
 Ce        -2.0354698344        7.7504108344        3.8584981094
 Ce         1.9068297587        7.8408403117        3.9392374775
 Ce         5.7499910476        7.7023461765        3.9868776511
 Ce         9.5460723578        7.6642262386        4.1507291552
 Ce        -3.9873489826       11.0447007521        3.9094962272
 Ce         0.0196981710       10.9826890317        3.9198993920
 Ce         3.7058290842       10.9315612364        3.9099724868
 Ce         7.6060630424       10.9422778069        3.9437764978
 Ce        -0.0549227652       -0.0457412708        7.0079349223
 Ce         3.8505467059       -0.1875616141        7.1448772787
 Ce         7.8211764393       -0.1689633006        7.0519628358
 Ce        11.5036740646       -0.1499757518        6.9772780055
 Ce        -1.9627954173        3.4003280302        6.8683454592
 Ce         1.7677018451        3.3411007274        6.9667205295
 Ce         5.7892071806        3.2449420168        7.0409821439
 Ce         9.6567946055        3.3247712156        7.1913794964
 Ce        -3.8641883956        6.4844576222        7.2199232391
 Ce         0.0523711742        6.5294504496        7.0239152934
 Ce         3.8016724152        6.7020276769        7.2605215925
 Ce         7.6822852908        6.4955819654        7.0325653641
 Ce        -5.7965688075        9.9768856883        7.3265065114
 Ce        -2.1594844969        9.7927148958        7.1441017659
 Ce         1.7769163710        9.8405986223        7.2862376531
 Ce         5.8172041309        9.8480468589        7.0786705663
 Pt        12.5932270703        1.5283656620        9.3802595744
 Pt         0.3341441262        5.0399924960        9.7278028971
 Pt         0.1591061217        7.5125308153        9.8498242169
 Pt         6.7016616254       13.3333190214       10.5490969219
 Pt        -0.3193280508        2.4900293384        9.7500196377
 Pt        -2.5803810916        7.9657435662        9.6476030794
 Pt         2.3415330248        3.2492529411       10.0354404748
 Pt         2.6941096991        5.7670875255       10.4870781257
 Pt         5.1969564559        4.7173924428        9.8585367990
 Pt         1.6251565947        0.3917335364        9.5984292978
 Pt         4.0989785193        1.3352308182        9.8576463051
 Pt        -1.9470504926        5.3389143287       10.5782585279
 Pt         6.6604242967        2.4945127969        9.8143428033
 Pt        -0.3352926418        3.7438942094       11.9912464130
 Pt         5.6222153743        1.7958424873       12.1815652971
 Pt         0.6348574298        6.2100974002       12.0666588525
 Pt         4.0324819806        3.8254507620       11.9503929806
 Pt         0.5620709478        4.5361871326       14.4819068983
 Pt         0.8625728152        1.3040039198       11.9415695234
 Pt         2.6512385946        5.2795800951       13.3902592077
 Pt         3.3600732764        0.5589354722       12.2304403864
 Pt         2.3676962755        2.4752837002       13.5406553679
     166
 i =     2832, time =     2832.000, E =     -6045.7706991108
  O         0.0000000000        0.0000000000        0.0000000000
  O         3.8260000000        0.0000000000        0.0000000000
  O         7.6520000000        0.0000000000        0.0000000000
  O        11.4780000000        0.0000000000        0.0000000000
  O        -1.9130000000        3.3140000000        0.0000000000
  O         1.9130000000        3.3140000000        0.0000000000
  O         5.7390000000        3.3140000000        0.0000000000
  O         9.5650000000        3.3140000000        0.0000000000
  O        -3.8260000000        6.6270000000        0.0000000000
  O         0.0000000000        6.6270000000        0.0000000000
  O         3.8260000000        6.6270000000        0.0000000000
  O         7.6520000000        6.6270000000        0.0000000000
  O        -5.7390000000        9.9410000000        0.0000000000
  O        -1.9130000000        9.9410000000        0.0000000000
  O         1.9130000000        9.9410000000        0.0000000000
  O         5.7390000000        9.9410000000        0.0000000000
  O         1.9130000000        1.1050000000        1.5620000000
  O         5.7390000000        1.1050000000        1.5620000000
  O         9.5650000000        1.1050000000        1.5620000000
  O        13.3920000000        1.1050000000        1.5620000000
  O         0.0000000000        4.4180000000        1.5620000000
  O         3.8260000000        4.4180000000        1.5620000000
  O         7.6520000000        4.4180000000        1.5620000000
  O        11.4780000000        4.4180000000        1.5620000000
  O        -1.9130000000        7.7320000000        1.5620000000
  O         1.9130000000        7.7320000000        1.5620000000
  O         5.7390000000        7.7320000000        1.5620000000
  O         9.5650000000        7.7320000000        1.5620000000
  O        -3.8260000000       11.0450000000        1.5620000000
  O         0.0000000000       11.0450000000        1.5620000000
  O         3.8260000000       11.0450000000        1.5620000000
  O         7.6520000000       11.0450000000        1.5620000000
  O         0.0000000000        2.2090000000        3.1240000000
  O         3.8260000000        2.2090000000        3.1240000000
  O         7.6520000000        2.2090000000        3.1240000000
  O        11.4780000000        2.2090000000        3.1240000000
  O        -1.9130000000        5.5230000000        3.1240000000
  O         1.9130000000        5.5230000000        3.1240000000
  O         5.7390000000        5.5230000000        3.1240000000
  O         9.5650000000        5.5230000000        3.1240000000
  O        -3.8260000000        8.8360000000        3.1240000000
  O         0.0000000000        8.8360000000        3.1240000000
  O         3.8260000000        8.8360000000        3.1240000000
  O         7.6520000000        8.8360000000        3.1240000000
  O        -5.7390000000       12.1500000000        3.1240000000
  O        -1.9130000000       12.1500000000        3.1240000000
  O         1.9130000000       12.1500000000        3.1240000000
  O         5.7390000000       12.1500000000        3.1240000000
  O        -0.0365562280       -0.1964923149        4.7132338953
  O         3.8108608135       -0.1342541076        4.9397259235
  O         7.8823512467       -0.0604468969        4.8290526811
  O        11.4544695899       -0.1129004767        4.8051832359
  O        -2.0386722965        3.4627346140        4.6725007478
  O         1.8274058389        3.3490853916        4.6710310008
  O         5.5876719682        3.4809059746        4.7748357550
  O         9.6622249115        3.2947516665        4.7701453165
  O        -3.8871495835        6.7735239840        4.9151322971
  O        -0.0588150929        6.5382862494        4.6994082832
  O         3.5544570985        6.5973314884        4.8116071184
  O         7.6088111162        6.5507716727        4.6739720809
  O        -5.8388828651        9.9451051784        4.7192494962
  O        -1.9585732481        9.8636429542        4.7790718912
  O         1.8824341105        9.9674603074        4.8625420611
  O         5.8885978523       10.0073230256        4.8045735903
  O         1.9566821268        1.2986449947        6.1082082511
  O         5.7010878022        1.0763043866        6.1700318288
  O         9.6810735122        1.0031156984        6.5505375420
  O        13.3940200375        1.3178233086        6.1227478595
  O        -0.1415978422        4.5157500705        6.1734826002
  O         3.9020897077        4.3160894041        6.5408194795
  O         7.7470331396        4.3144153070        6.2617397417
  O        11.3948563675        4.1487201514        6.3416064682
  O        -1.8282926113        7.8353226875        6.1467978371
  O         1.8824037056        7.9000660359        6.4001981137
  O         5.6540483115        7.6193052595        6.1756904430
  O         9.4716883513        7.8573231590        6.4040636787
  O        -3.9695326331       10.8274726975        6.3639619841
  O        -0.0183719328       10.6678693016        6.2816646875
  O         3.8688401801       10.9003137019        6.1494493810
  O         7.7846696758       10.9703606468        6.4059577900
  O         0.0185296266        2.1003062929        7.6225169164
  O         3.9965201609        1.8195473436        7.8640947296
  O         7.8019846319        2.3284641900        8.0665443801
  O        11.4206509678        2.3029168249        8.0873930350
  O        -2.0545506458        5.6379835934        7.7088939151
  O         2.0003367752        5.5128320630        7.8669663674
  O         6.0941388122        5.6240438359        8.2320658092
  O         9.6905705911        5.5603243907        8.0878398568
  O        -4.1164259718        8.7720501538        8.1958889043
  O         0.2370292971        8.6202533602        8.3103737713
  O         3.7543598171        8.7005831566        8.0167463817
  O         7.4510693222        8.8287044178        7.9572751625
  O        -5.7665504042       12.2776045519        8.0230038311
  O        -2.1898784371       11.8468132319        7.8874163873
  O         1.6904709398       12.0625133663        7.9946298517
  O         5.8028325501       12.1089578392        7.6718946440
 Ce         0.0000000000        2.2090000000        0.7810000000
 Ce         3.8260000000        2.2090000000        0.7810000000
 Ce         7.6520000000        2.2090000000        0.7810000000
 Ce        11.4780000000        2.2090000000        0.7810000000
 Ce        -1.9130000000        5.5230000000        0.7810000000
 Ce         1.9130000000        5.5230000000        0.7810000000
 Ce         5.7390000000        5.5230000000        0.7810000000
 Ce         9.5650000000        5.5230000000        0.7810000000
 Ce        -3.8260000000        8.8360000000        0.7810000000
 Ce         0.0000000000        8.8360000000        0.7810000000
 Ce         3.8260000000        8.8360000000        0.7810000000
 Ce         7.6520000000        8.8360000000        0.7810000000
 Ce        -5.7390000000       12.1500000000        0.7810000000
 Ce        -1.9130000000       12.1500000000        0.7810000000
 Ce         1.9130000000       12.1500000000        0.7810000000
 Ce         5.7390000000       12.1500000000        0.7810000000
 Ce         1.8535638153        0.9981912645        3.8521884880
 Ce         5.6296174770        1.0685238516        3.9368012796
 Ce         9.5745717744        1.1667939125        3.9774428210
 Ce        13.3316654825        1.1866911130        3.8569816472
 Ce         0.0663770241        4.4894364221        3.8618883504
 Ce         3.7043012562        4.3122644506        4.0665059301
 Ce         7.5435723751        4.2978668202        3.8795987308
 Ce        11.3843341705        4.4772592817        3.7475119600
 Ce        -2.0385217076        7.7486949673        3.8577676838
 Ce         1.9028333901        7.8441166439        3.9411058204
 Ce         5.7485111617        7.7011664608        3.9892031305
 Ce         9.5511402583        7.6625779705        4.1533743817
 Ce        -3.9876315571       11.0443739843        3.9094283771
 Ce         0.0225415874       10.9840403224        3.9157028071
 Ce         3.7042077422       10.9296875696        3.9106525878
 Ce         7.6075451387       10.9415743504        3.9416947083
 Ce        -0.0565884427       -0.0478619299        7.0071334880
 Ce         3.8517666307       -0.1866626089        7.1424161838
 Ce         7.8171411086       -0.1749676419        7.0509101776
 Ce        11.5045570502       -0.1471804944        6.9754535450
 Ce        -1.9595422465        3.3994087360        6.8649518779
 Ce         1.7683195779        3.3413107790        6.9646816351
 Ce         5.7916004410        3.2440029904        7.0437271639
 Ce         9.6563477775        3.3259694744        7.1949151986
 Ce        -3.8574578448        6.4874975533        7.2206322317
 Ce         0.0525561667        6.5271344841        7.0247359186
 Ce         3.8044599977        6.7010556571        7.2604125870
 Ce         7.6827937055        6.4946937821        7.0356219200
 Ce        -5.7932111921        9.9724274300        7.3273353193
 Ce        -2.1571572032        9.7906436659        7.1487683256
 Ce         1.7760971958        9.8415621897        7.2836930877
 Ce         5.8179876589        9.8488603457        7.0765792282
 Pt        12.5932628335        1.5257890445        9.3790660662
 Pt         0.3310805679        5.0395165991        9.7283114099
 Pt         0.1602272344        7.5106179240        9.8503179910
 Pt         6.7027125074       13.3350179018       10.5464550767
 Pt        -0.3205307017        2.4915511046        9.7519446304
 Pt        -2.5789485064        7.9637434128        9.6483246387
 Pt         2.3394337726        3.2493591531       10.0350910554
 Pt         2.6932060416        5.7691729936       10.4863363220
 Pt         5.1988731629        4.7137246631        9.8625431461
 Pt         1.6242155230        0.3956386325        9.5987335015
 Pt         4.0994893070        1.3368382804        9.8580209022
 Pt        -1.9503126271        5.3399340211       10.5764171289
 Pt         6.6619845554        2.4932987117        9.8160190535
 Pt        -0.3358044224        3.7465643494       11.9922864232
 Pt         5.6185292306        1.7957998618       12.1809070678
 Pt         0.6280091378        6.2063362880       12.0682221114
 Pt         4.0306916488        3.8300146437       11.9503261498
 Pt         0.5613772840        4.5360497597       14.4792634487
 Pt         0.8615934806        1.3051824811       11.9408405427
 Pt         2.6477752430        5.2804292808       13.3855847241
 Pt         3.3592401689        0.5582680299       12.2299366913
 Pt         2.3665111383        2.4743548367       13.5416309057
     166
 i =     2833, time =     2833.000, E =     -6045.7719302552
  O         0.0000000000        0.0000000000        0.0000000000
  O         3.8260000000        0.0000000000        0.0000000000
  O         7.6520000000        0.0000000000        0.0000000000
  O        11.4780000000        0.0000000000        0.0000000000
  O        -1.9130000000        3.3140000000        0.0000000000
  O         1.9130000000        3.3140000000        0.0000000000
  O         5.7390000000        3.3140000000        0.0000000000
  O         9.5650000000        3.3140000000        0.0000000000
  O        -3.8260000000        6.6270000000        0.0000000000
  O         0.0000000000        6.6270000000        0.0000000000
  O         3.8260000000        6.6270000000        0.0000000000
  O         7.6520000000        6.6270000000        0.0000000000
  O        -5.7390000000        9.9410000000        0.0000000000
  O        -1.9130000000        9.9410000000        0.0000000000
  O         1.9130000000        9.9410000000        0.0000000000
  O         5.7390000000        9.9410000000        0.0000000000
  O         1.9130000000        1.1050000000        1.5620000000
  O         5.7390000000        1.1050000000        1.5620000000
  O         9.5650000000        1.1050000000        1.5620000000
  O        13.3920000000        1.1050000000        1.5620000000
  O         0.0000000000        4.4180000000        1.5620000000
  O         3.8260000000        4.4180000000        1.5620000000
  O         7.6520000000        4.4180000000        1.5620000000
  O        11.4780000000        4.4180000000        1.5620000000
  O        -1.9130000000        7.7320000000        1.5620000000
  O         1.9130000000        7.7320000000        1.5620000000
  O         5.7390000000        7.7320000000        1.5620000000
  O         9.5650000000        7.7320000000        1.5620000000
  O        -3.8260000000       11.0450000000        1.5620000000
  O         0.0000000000       11.0450000000        1.5620000000
  O         3.8260000000       11.0450000000        1.5620000000
  O         7.6520000000       11.0450000000        1.5620000000
  O         0.0000000000        2.2090000000        3.1240000000
  O         3.8260000000        2.2090000000        3.1240000000
  O         7.6520000000        2.2090000000        3.1240000000
  O        11.4780000000        2.2090000000        3.1240000000
  O        -1.9130000000        5.5230000000        3.1240000000
  O         1.9130000000        5.5230000000        3.1240000000
  O         5.7390000000        5.5230000000        3.1240000000
  O         9.5650000000        5.5230000000        3.1240000000
  O        -3.8260000000        8.8360000000        3.1240000000
  O         0.0000000000        8.8360000000        3.1240000000
  O         3.8260000000        8.8360000000        3.1240000000
  O         7.6520000000        8.8360000000        3.1240000000
  O        -5.7390000000       12.1500000000        3.1240000000
  O        -1.9130000000       12.1500000000        3.1240000000
  O         1.9130000000       12.1500000000        3.1240000000
  O         5.7390000000       12.1500000000        3.1240000000
  O        -0.0277951830       -0.2052900846        4.7212954325
  O         3.8134105405       -0.1286820835        4.9334473793
  O         7.8742512939       -0.0691371256        4.8230083843
  O        11.4602146716       -0.1043731151        4.7967034142
  O        -2.0319334082        3.4585212559        4.6769867782
  O         1.8253902232        3.3453747298        4.6851908752
  O         5.5888317988        3.4728263629        4.7705878889
  O         9.6609374821        3.2927829831        4.7715219382
  O        -3.8908769893        6.7749741172        4.9232394763
  O        -0.0619879896        6.5360473645        4.7054731376
  O         3.5573200194        6.6010378469        4.8025996133
  O         7.6029435552        6.5453344739        4.6733290106
  O        -5.8395090129        9.9461066841        4.7238056498
  O        -1.9587801299        9.8755378012        4.7763991346
  O         1.8875612622        9.9772205912        4.8578337556
  O         5.8943142243        9.9948123969        4.8033915106
  O         1.9608225475        1.2963216374        6.1070225966
  O         5.7074396334        1.0669615813        6.1710495254
  O         9.7017018988        0.9896416384        6.5523902177
  O        13.4035682827        1.3161840717        6.1326546330
  O        -0.1372710773        4.5219788028        6.1645304055
  O         3.9052390095        4.3162926734        6.5469201647
  O         7.7459394548        4.3229019481        6.2655394132
  O        11.3922474006        4.1397649125        6.3368540087
  O        -1.8352974614        7.8330367407        6.1539591494
  O         1.8828544778        7.8839306786        6.3901877564
  O         5.6436511245        7.6087635778        6.1867479550
  O         9.4685611068        7.8475277321        6.4054311688
  O        -3.9688486331       10.8251019977        6.3605582823
  O        -0.0182785001       10.6657672767        6.2810028741
  O         3.8651995614       10.8954319250        6.1540369709
  O         7.7933867301       10.9733756936        6.4052640964
  O         0.0067959966        2.0923836188        7.6191588652
  O         4.0007731310        1.8201254352        7.8656273043
  O         7.8075680428        2.3278523449        8.0637237617
  O        11.4212809041        2.3086439006        8.0917761971
  O        -2.0577366528        5.6247218299        7.7105275645
  O         1.9917216040        5.5196412907        7.8677860846
  O         6.0922380368        5.6219712036        8.2368928290
  O         9.6940299480        5.5522829608        8.0892233178
  O        -4.1199152330        8.7671615887        8.2015502811
  O         0.2364168012        8.6145368183        8.3112067820
  O         3.7641473910        8.7225873998        8.0298205229
  O         7.4518369394        8.8414114450        7.9673193098
  O        -5.7624025945       12.2677202899        8.0189342487
  O        -2.1969533511       11.8434773612        7.8888124099
  O         1.6891234938       12.0653690417        8.0024647688
  O         5.7986588287       12.1153887719        7.6788302649
 Ce         0.0000000000        2.2090000000        0.7810000000
 Ce         3.8260000000        2.2090000000        0.7810000000
 Ce         7.6520000000        2.2090000000        0.7810000000
 Ce        11.4780000000        2.2090000000        0.7810000000
 Ce        -1.9130000000        5.5230000000        0.7810000000
 Ce         1.9130000000        5.5230000000        0.7810000000
 Ce         5.7390000000        5.5230000000        0.7810000000
 Ce         9.5650000000        5.5230000000        0.7810000000
 Ce        -3.8260000000        8.8360000000        0.7810000000
 Ce         0.0000000000        8.8360000000        0.7810000000
 Ce         3.8260000000        8.8360000000        0.7810000000
 Ce         7.6520000000        8.8360000000        0.7810000000
 Ce        -5.7390000000       12.1500000000        0.7810000000
 Ce        -1.9130000000       12.1500000000        0.7810000000
 Ce         1.9130000000       12.1500000000        0.7810000000
 Ce         5.7390000000       12.1500000000        0.7810000000
 Ce         1.8529299485        0.9957206623        3.8544225703
 Ce         5.6300218015        1.0693399804        3.9407395128
 Ce         9.5759911138        1.1646789372        3.9790298918
 Ce        13.3302302799        1.1850003633        3.8571509906
 Ce         0.0656787608        4.4868425565        3.8640015982
 Ce         3.7043819523        4.3132641278        4.0674804386
 Ce         7.5454324061        4.2961927150        3.8816122951
 Ce        11.3845858271        4.4791281802        3.7470002075
 Ce        -2.0414669306        7.7470004751        3.8571452167
 Ce         1.8988080178        7.8472638110        3.9430087215
 Ce         5.7470133629        7.6999666355        3.9914365781
 Ce         9.5561772714        7.6610513122        4.1558921884
 Ce        -3.9877909282       11.0439621323        3.9094167803
 Ce         0.0253111630       10.9853890393        3.9115470197
 Ce         3.7027055942       10.9279411092        3.9113604344
 Ce         7.6090470390       10.9409383240        3.9395741358
 Ce        -0.0582418711       -0.0499418653        7.0063407633
 Ce         3.8529722139       -0.1857247454        7.1399490507
 Ce         7.8129973184       -0.1809409734        7.0498875032
 Ce        11.5055101276       -0.1443762189        6.9736889045
 Ce        -1.9562707445        3.3984329387        6.8616930453
 Ce         1.7690238372        3.3414630354        6.9627665268
 Ce         5.7939674189        3.2430445883        7.0465742611
 Ce         9.6558328517        3.3271388800        7.1984959856
 Ce        -3.8507441462        6.4906635955        7.2213732190
 Ce         0.0526636277        6.5249322163        7.0255696953
 Ce         3.8072350369        6.7000473132        7.2602980893
 Ce         7.6832989908        6.4938694112        7.0387671100
 Ce        -5.7899179315        9.9679007439        7.3281355198
 Ce        -2.1547398464        9.7885562723        7.1534088693
 Ce         1.7753695094        9.8425219062        7.2811213206
 Ce         5.8187211939        9.8497070963        7.0745004247
 Pt        12.5933638368        1.5231869076        9.3779413730
 Pt         0.3280524614        5.0389272222        9.7287146907
 Pt         0.1613018689        7.5087017310        9.8509427348
 Pt         6.7037800226       13.3367018192       10.5438037976
 Pt        -0.3217067292        2.4931276690        9.7538278196
 Pt        -2.5775058806        7.9617094324        9.6490205823
 Pt         2.3372656643        3.2494401590       10.0347480102
 Pt         2.6923941266        5.7712635154       10.4856119152
 Pt         5.2007485236        4.7100707889        9.8665466589
 Pt         1.6232702362        0.3995396664        9.5990861706
 Pt         4.1000012300        1.3384656849        9.8583971216
 Pt        -1.9535876868        5.3410038494       10.5745961167
 Pt         6.6635252176        2.4920364362        9.8177208198
 Pt        -0.3363062111        3.7492026642       11.9933971894
 Pt         5.6148551383        1.7958054354       12.1802097706
 Pt         0.6211165017        6.2025881642       12.0698458044
 Pt         4.0289554672        3.8345424963       11.9502216368
 Pt         0.5606735719        4.5358754182       14.4765765493
 Pt         0.8605713132        1.3063656156       11.9400880006
 Pt         2.6443149176        5.2812964492       13.3809112313
 Pt         3.3584178012        0.5575848582       12.2294158325
 Pt         2.3652986573        2.4735020583       13.5426509036
     166
 i =     2834, time =     2834.000, E =     -6045.7743530437
  O         0.0000000000        0.0000000000        0.0000000000
  O         3.8260000000        0.0000000000        0.0000000000
  O         7.6520000000        0.0000000000        0.0000000000
  O        11.4780000000        0.0000000000        0.0000000000
  O        -1.9130000000        3.3140000000        0.0000000000
  O         1.9130000000        3.3140000000        0.0000000000
  O         5.7390000000        3.3140000000        0.0000000000
  O         9.5650000000        3.3140000000        0.0000000000
  O        -3.8260000000        6.6270000000        0.0000000000
  O         0.0000000000        6.6270000000        0.0000000000
  O         3.8260000000        6.6270000000        0.0000000000
  O         7.6520000000        6.6270000000        0.0000000000
  O        -5.7390000000        9.9410000000        0.0000000000
  O        -1.9130000000        9.9410000000        0.0000000000
  O         1.9130000000        9.9410000000        0.0000000000
  O         5.7390000000        9.9410000000        0.0000000000
  O         1.9130000000        1.1050000000        1.5620000000
  O         5.7390000000        1.1050000000        1.5620000000
  O         9.5650000000        1.1050000000        1.5620000000
  O        13.3920000000        1.1050000000        1.5620000000
  O         0.0000000000        4.4180000000        1.5620000000
  O         3.8260000000        4.4180000000        1.5620000000
  O         7.6520000000        4.4180000000        1.5620000000
  O        11.4780000000        4.4180000000        1.5620000000
  O        -1.9130000000        7.7320000000        1.5620000000
  O         1.9130000000        7.7320000000        1.5620000000
  O         5.7390000000        7.7320000000        1.5620000000
  O         9.5650000000        7.7320000000        1.5620000000
  O        -3.8260000000       11.0450000000        1.5620000000
  O         0.0000000000       11.0450000000        1.5620000000
  O         3.8260000000       11.0450000000        1.5620000000
  O         7.6520000000       11.0450000000        1.5620000000
  O         0.0000000000        2.2090000000        3.1240000000
  O         3.8260000000        2.2090000000        3.1240000000
  O         7.6520000000        2.2090000000        3.1240000000
  O        11.4780000000        2.2090000000        3.1240000000
  O        -1.9130000000        5.5230000000        3.1240000000
  O         1.9130000000        5.5230000000        3.1240000000
  O         5.7390000000        5.5230000000        3.1240000000
  O         9.5650000000        5.5230000000        3.1240000000
  O        -3.8260000000        8.8360000000        3.1240000000
  O         0.0000000000        8.8360000000        3.1240000000
  O         3.8260000000        8.8360000000        3.1240000000
  O         7.6520000000        8.8360000000        3.1240000000
  O        -5.7390000000       12.1500000000        3.1240000000
  O        -1.9130000000       12.1500000000        3.1240000000
  O         1.9130000000       12.1500000000        3.1240000000
  O         5.7390000000       12.1500000000        3.1240000000
  O        -0.0188875669       -0.2131797913        4.7295209899
  O         3.8158484770       -0.1231893252        4.9258559070
  O         7.8656950032       -0.0778134795        4.8170764519
  O        11.4658401496       -0.0953108202        4.7878466553
  O        -2.0249851236        3.4540631953        4.6807760973
  O         1.8236694108        3.3418004208        4.6993354865
  O         5.5907406689        3.4639155155        4.7661562364
  O         9.6590106002        3.2904187059        4.7724132654
  O        -3.8946756526        6.7754975187        4.9308081908
  O        -0.0646022102        6.5345466744        4.7113605021
  O         3.5608385295        6.6045882461        4.7938211786
  O         7.5974604211        6.5399368066        4.6731505954
  O        -5.8395958117        9.9468084658        4.7283567963
  O        -1.9592742856        9.8881113098        4.7731191051
  O         1.8926796855        9.9867827195        4.8522420168
  O         5.8992754922        9.9814562101        4.8022640156
  O         1.9647405270        1.2932661260        6.1057844671
  O         5.7147006224        1.0576562344        6.1720237583
  O         9.7217319849        0.9764842851        6.5534313696
  O        13.4126777692        1.3135863434        6.1424157329
  O        -0.1321991079        4.5274875292        6.1558791717
  O         3.9081284713        4.3165919326        6.5524157606
  O         7.7445080043        4.3315894752        6.2692279476
  O        11.3898130025        4.1322421332        6.3315714433
  O        -1.8423642584        7.8304719329        6.1619228622
  O         1.8831059669        7.8669842580        6.3796847056
  O         5.6335713209        7.5983010974        6.1981505283
  O         9.4652561007        7.8371628158        6.4065440652
  O        -3.9684187012       10.8226745231        6.3570080265
  O        -0.0184865181       10.6646228888        6.2809638807
  O         3.8613038207       10.8907828289        6.1595605162
  O         7.8019314483       10.9764439639        6.4045220270
  O        -0.0051321572        2.0849956667        7.6160173948
  O         4.0051819914        1.8214872883        7.8674463153
  O         7.8126821550        2.3268306422        8.0611068575
  O        11.4213602011        2.3144519751        8.0956826083
  O        -2.0604440400        5.6107360512        7.7120371720
  O         1.9826400707        5.5266562623        7.8679704290
  O         6.0900869169        5.6199431091        8.2412225244
  O         9.6970738889        5.5438865746        8.0899852729
  O        -4.1227215781        8.7621816729        8.2076028336
  O         0.2355630652        8.6100135620        8.3107811917
  O         3.7742484024        8.7447779333        8.0427371157
  O         7.4528317182        8.8538776902        7.9773255441
  O        -5.7583099810       12.2577119023        8.0149814215
  O        -2.2030406502       11.8404006969        7.8903232512
  O         1.6882724030       12.0679741273        8.0102528363
  O         5.7940426730       12.1215938141        7.6857817438
 Ce         0.0000000000        2.2090000000        0.7810000000
 Ce         3.8260000000        2.2090000000        0.7810000000
 Ce         7.6520000000        2.2090000000        0.7810000000
 Ce        11.4780000000        2.2090000000        0.7810000000
 Ce        -1.9130000000        5.5230000000        0.7810000000
 Ce         1.9130000000        5.5230000000        0.7810000000
 Ce         5.7390000000        5.5230000000        0.7810000000
 Ce         9.5650000000        5.5230000000        0.7810000000
 Ce        -3.8260000000        8.8360000000        0.7810000000
 Ce         0.0000000000        8.8360000000        0.7810000000
 Ce         3.8260000000        8.8360000000        0.7810000000
 Ce         7.6520000000        8.8360000000        0.7810000000
 Ce        -5.7390000000       12.1500000000        0.7810000000
 Ce        -1.9130000000       12.1500000000        0.7810000000
 Ce         1.9130000000       12.1500000000        0.7810000000
 Ce         5.7390000000       12.1500000000        0.7810000000
 Ce         1.8522785832        0.9933155364        3.8567609622
 Ce         5.6304637122        1.0701074741        3.9446851827
 Ce         9.5774391846        1.1624973884        3.9805984102
 Ce        13.3288564611        1.1832184752        3.8573725506
 Ce         0.0648756516        4.4842575799        3.8660873990
 Ce         3.7045004343        4.3144335487        4.0683622360
 Ce         7.5473348655        4.2946365884        3.8836415741
 Ce        11.3849229176        4.4809436902        3.7466479878
 Ce        -2.0443011968        7.7453332276        3.8566332250
 Ce         1.8947581965        7.8502771260        3.9449442353
 Ce         5.7454980555        7.6987445820        3.9935776005
 Ce         9.5611713384        7.6596483091        4.1582817599
 Ce        -3.9878237335       11.0434683526        3.9094629016
 Ce         0.0279998149       10.9867392748        3.9074322044
 Ce         3.7013271328       10.9263244533        3.9120940008
 Ce         7.6105693542       10.9403668209        3.9374168077
 Ce        -0.0598792682       -0.0519844993        7.0055600626
 Ce         3.8541590861       -0.1847503716        7.1374734588
 Ce         7.8087477538       -0.1868816499        7.0488950842
 Ce        11.5065387291       -0.1415694962        6.9719876814
 Ce        -1.9529843096        3.3974002347        6.8585736598
 Ce         1.7698106274        3.3415527884        6.9609810343
 Ce         5.7963089556        3.2420657025        7.0495204979
 Ce         9.6552535949        3.3282805731        7.2021214731
 Ce        -3.8440556989        6.4939486386        7.2221509261
 Ce         0.0526936817        6.5228444275        7.0264154845
 Ce         3.8099943839        6.6990124437        7.2601829646
 Ce         7.6838004100        6.4931065114        7.0420010158
 Ce        -5.7866932055        9.9633109445        7.3289062522
 Ce        -2.1522365191        9.7864560380        7.1580199636
 Ce         1.7747395756        9.8434729081        7.2785240179
 Ce         5.8194028810        9.8505874885        7.0724420446
 Pt        12.5935297204        1.5205614079        9.3768869695
 Pt         0.3250618970        5.0382245212        9.7290131365
 Pt         0.1623301857        7.5067811878        9.8517015049
 Pt         6.7048643096       13.3383697013       10.5411433332
 Pt        -0.3228576584        2.4947572237        9.7556668013
 Pt        -2.5760535500        7.9596425161        9.6496907738
 Pt         2.3350271865        3.2494961253       10.0344083583
 Pt         2.6916736871        5.7733573983       10.4849059222
 Pt         5.2025833548        4.7064316879        9.8705459225
 Pt         1.6223228554        0.4034339697        9.5994839992
 Pt         4.1005134387        1.3401130308        9.8587763212
 Pt        -1.9568752282        5.3421227590       10.5727963320
 Pt         6.6650482120        2.4907256387        9.8194471392
 Pt        -0.3367986734        3.7518071009       11.9945773605
 Pt         5.6111941072        1.7958601684       12.1794732248
 Pt         0.6141794409        6.1988547425       12.0715289175
 Pt         4.0272730804        3.8390321181       11.9500820315
 Pt         0.5599590940        4.5356638472       14.4738491845
 Pt         0.8595063042        1.3075542750       11.9393135856
 Pt         2.6408582230        5.2821850057       13.3762383389
 Pt         3.3576053441        0.5568855888       12.2288776394
 Pt         2.3640593303        2.4727234953       13.5437125685
     166
 i =     2835, time =     2835.000, E =     -6045.7763415154
  O         0.0000000000        0.0000000000        0.0000000000
  O         3.8260000000        0.0000000000        0.0000000000
  O         7.6520000000        0.0000000000        0.0000000000
  O        11.4780000000        0.0000000000        0.0000000000
  O        -1.9130000000        3.3140000000        0.0000000000
  O         1.9130000000        3.3140000000        0.0000000000
  O         5.7390000000        3.3140000000        0.0000000000
  O         9.5650000000        3.3140000000        0.0000000000
  O        -3.8260000000        6.6270000000        0.0000000000
  O         0.0000000000        6.6270000000        0.0000000000
  O         3.8260000000        6.6270000000        0.0000000000
  O         7.6520000000        6.6270000000        0.0000000000
  O        -5.7390000000        9.9410000000        0.0000000000
  O        -1.9130000000        9.9410000000        0.0000000000
  O         1.9130000000        9.9410000000        0.0000000000
  O         5.7390000000        9.9410000000        0.0000000000
  O         1.9130000000        1.1050000000        1.5620000000
  O         5.7390000000        1.1050000000        1.5620000000
  O         9.5650000000        1.1050000000        1.5620000000
  O        13.3920000000        1.1050000000        1.5620000000
  O         0.0000000000        4.4180000000        1.5620000000
  O         3.8260000000        4.4180000000        1.5620000000
  O         7.6520000000        4.4180000000        1.5620000000
  O        11.4780000000        4.4180000000        1.5620000000
  O        -1.9130000000        7.7320000000        1.5620000000
  O         1.9130000000        7.7320000000        1.5620000000
  O         5.7390000000        7.7320000000        1.5620000000
  O         9.5650000000        7.7320000000        1.5620000000
  O        -3.8260000000       11.0450000000        1.5620000000
  O         0.0000000000       11.0450000000        1.5620000000
  O         3.8260000000       11.0450000000        1.5620000000
  O         7.6520000000       11.0450000000        1.5620000000
  O         0.0000000000        2.2090000000        3.1240000000
  O         3.8260000000        2.2090000000        3.1240000000
  O         7.6520000000        2.2090000000        3.1240000000
  O        11.4780000000        2.2090000000        3.1240000000
  O        -1.9130000000        5.5230000000        3.1240000000
  O         1.9130000000        5.5230000000        3.1240000000
  O         5.7390000000        5.5230000000        3.1240000000
  O         9.5650000000        5.5230000000        3.1240000000
  O        -3.8260000000        8.8360000000        3.1240000000
  O         0.0000000000        8.8360000000        3.1240000000
  O         3.8260000000        8.8360000000        3.1240000000
  O         7.6520000000        8.8360000000        3.1240000000
  O        -5.7390000000       12.1500000000        3.1240000000
  O        -1.9130000000       12.1500000000        3.1240000000
  O         1.9130000000       12.1500000000        3.1240000000
  O         5.7390000000       12.1500000000        3.1240000000
  O        -0.0098610946       -0.2201536947        4.7378704298
  O         3.8181646491       -0.1178014335        4.9169450609
  O         7.8567256688       -0.0864071530        4.8111241609
  O        11.4713540782       -0.0857642071        4.7785896400
  O        -2.0178508495        3.4493787733        4.6838020022
  O         1.8222721968        3.3384016845        4.7133909572
  O         5.5933810294        3.4541800574        4.7615693109
  O         9.6564358402        3.2876849147        4.7728132046
  O        -3.8984981611        6.7750905709        4.9378375051
  O        -0.0666838997        6.5338068029        4.7170618366
  O         3.5650216927        6.6079529154        4.7852746458
  O         7.5923829803        6.5346069786        4.6734614704
  O        -5.8391381123        9.9471704517        4.7328887166
  O        -1.9600686083        9.9012194703        4.7692343578
  O         1.8977405550        9.9960688514        4.8457756645
  O         5.9034623149        9.9672975890        4.8012062027
  O         1.9684276746        1.2895006137        6.1045306831
  O         5.7227385050        1.0484895983        6.1729065206
  O         9.7411154640        0.9638201216        6.5536083592
  O        13.4213110097        1.3100014978        6.1519420268
  O        -0.1264208992        4.5322196574        6.1476454260
  O         3.9107463492        4.3170118280        6.5573085196
  O         7.7427438079        4.3404707534        6.2728293136
  O        11.3875842019        4.1261548675        6.3257203132
  O        -1.8494884322        7.8276369814        6.1705978838
  O         1.8831908919        7.8493398747        6.3688120911
  O         5.6238449552        7.5879480692        6.2099325565
  O         9.4617586536        7.8262571793        6.4074249972
  O        -3.9682385125       10.8201800366        6.3533286706
  O        -0.0189872521       10.6643012060        6.2815396366
  O         3.8571955168       10.8863828771        6.1659110542
  O         7.8102658116       10.9795380243        6.4037334727
  O        -0.0171194281        2.0782452957        7.6131180502
  O         4.0097477969        1.8236327179        7.8695402299
  O         7.8172950733        2.3254539211        8.0587526252
  O        11.4209142311        2.3203499213        8.0991390460
  O        -2.0626662403        5.5960428898        7.7134190943
  O         1.9731618675        5.5338154105        7.8675459351
  O         6.0876935516        5.6179635398        8.2450344834
  O         9.6997213646        5.5351630449        8.0901159662
  O        -4.1248307976        8.7571079176        8.2140656588
  O         0.2344687778        8.6066635574        8.3091085997
  O         3.7846275784        8.7670416309        8.0554496023
  O         7.4540793757        8.8660480949        7.9873137772
  O        -5.7542785561       12.2476586791        8.0112242262
  O        -2.2082225065       11.8375497344        7.8919779044
  O         1.6881192296       12.0701157844        8.0180093956
  O         5.7890410175       12.1275399157        7.6927543162
 Ce         0.0000000000        2.2090000000        0.7810000000
 Ce         3.8260000000        2.2090000000        0.7810000000
 Ce         7.6520000000        2.2090000000        0.7810000000
 Ce        11.4780000000        2.2090000000        0.7810000000
 Ce        -1.9130000000        5.5230000000        0.7810000000
 Ce         1.9130000000        5.5230000000        0.7810000000
 Ce         5.7390000000        5.5230000000        0.7810000000
 Ce         9.5650000000        5.5230000000        0.7810000000
 Ce        -3.8260000000        8.8360000000        0.7810000000
 Ce         0.0000000000        8.8360000000        0.7810000000
 Ce         3.8260000000        8.8360000000        0.7810000000
 Ce         7.6520000000        8.8360000000        0.7810000000
 Ce        -5.7390000000       12.1500000000        0.7810000000
 Ce        -1.9130000000       12.1500000000        0.7810000000
 Ce         1.9130000000       12.1500000000        0.7810000000
 Ce         5.7390000000       12.1500000000        0.7810000000
 Ce         1.8516123757        0.9909762290        3.8592015511
 Ce         5.6309465634        1.0708216480        3.9486397082
 Ce         9.5789096583        1.1602436980        3.9821531144
 Ce        13.3275426958        1.1813452139        3.8576475817
 Ce         0.0639708789        4.4816829339        3.8681421279
 Ce         3.7046580247        4.3157704607        4.0691491586
 Ce         7.5492785415        4.2931971900        3.8856840409
 Ce        11.3853429238        4.4826983198        3.7464568201
 Ce        -2.0470196768        7.7436999961        3.8562335464
 Ce         1.8906880189        7.8531544618        3.9469105240
 Ce         5.7439646882        7.6974990591        3.9956247557
 Ce         9.5661114121        7.6583707307        4.1605404195
 Ce        -3.9877257090       11.0428952227        3.9095679846
 Ce         0.0306028121       10.9880993740        3.9033655819
 Ce         3.7000746808       10.9248414951        3.9128530868
 Ce         7.6121113121       10.9398570230        3.9352248358
 Ce        -0.0614990891       -0.0539942992        7.0047944048
 Ce         3.8553298386       -0.1837439629        7.1349864546
 Ce         7.8043738583       -0.1927889676        7.0479405859
 Ce        11.5076358559       -0.1387683790        6.9703541604
 Ce        -1.9496878401        3.3963087203        6.8555966420
 Ce         1.7706761704        3.3415752147        6.9593304653
 Ce         5.7986267625        3.2410594491        7.0525605935
 Ce         9.6546129720        3.3293894752        7.2057894375
 Ce        -3.8373995050        6.4973446901        7.2229687226
 Ce         0.0526465727        6.5208729473        7.0272695466
 Ce         3.8127338652        6.6979616706        7.2600713608
 Ce         7.6842965401        6.4924030352        7.0453231710
 Ce        -5.7835402422        9.9586650282        7.3296459033
 Ce        -2.1496462962        9.7843539164        7.1625973513
 Ce         1.7742102693        9.8444287200        7.2759037365
 Ce         5.8200274382        9.8515043396        7.0704113501
 Pt        12.5937599150        1.5179160024        9.3759036297
 Pt         0.3221123479        5.0374075732        9.7292075397
 Pt         0.1633113171        7.5048572673        9.8525941714
 Pt         6.7059646261       13.3400195934       10.5384734066
 Pt        -0.3239855861        2.4964370784        9.7574593871
 Pt        -2.5745921888        7.9575424822        9.6503358708
 Pt         2.3327168524        3.2495245073       10.0340673561
 Pt         2.6910449101        5.7754538555       10.4842193810
 Pt         5.2043808225        4.7028046501        9.8745414103
 Pt         1.6213757673        0.4073202893        9.5999230511
 Pt         4.1010259510        1.3417820368        9.8591571551
 Pt        -1.9601754640        5.3432907213       10.5710182421
 Pt         6.6665542970        2.4893690362        9.8211959109
 Pt        -0.3372822500        3.7543771914       11.9958253886
 Pt         5.6075458102        1.7959644514       12.1786972354
 Pt         0.6071988701        6.1951377549       12.0732701617
 Pt         4.0256418657        3.8434862189       11.9499124580
 Pt         0.5592319785        4.5354141769       14.4710859943
 Pt         0.8583981930        1.3087492911       11.9385194244
 Pt         2.6374068936        5.2830975365       13.3715640188
 Pt         3.3568023058        0.5561689704       12.2283245295
 Pt         2.3627957805        2.4720181222       13.5448118143
     166
 i =     2836, time =     2836.000, E =     -6045.7782950956
  O         0.0000000000        0.0000000000        0.0000000000
  O         3.8260000000        0.0000000000        0.0000000000
  O         7.6520000000        0.0000000000        0.0000000000
  O        11.4780000000        0.0000000000        0.0000000000
  O        -1.9130000000        3.3140000000        0.0000000000
  O         1.9130000000        3.3140000000        0.0000000000
  O         5.7390000000        3.3140000000        0.0000000000
  O         9.5650000000        3.3140000000        0.0000000000
  O        -3.8260000000        6.6270000000        0.0000000000
  O         0.0000000000        6.6270000000        0.0000000000
  O         3.8260000000        6.6270000000        0.0000000000
  O         7.6520000000        6.6270000000        0.0000000000
  O        -5.7390000000        9.9410000000        0.0000000000
  O        -1.9130000000        9.9410000000        0.0000000000
  O         1.9130000000        9.9410000000        0.0000000000
  O         5.7390000000        9.9410000000        0.0000000000
  O         1.9130000000        1.1050000000        1.5620000000
  O         5.7390000000        1.1050000000        1.5620000000
  O         9.5650000000        1.1050000000        1.5620000000
  O        13.3920000000        1.1050000000        1.5620000000
  O         0.0000000000        4.4180000000        1.5620000000
  O         3.8260000000        4.4180000000        1.5620000000
  O         7.6520000000        4.4180000000        1.5620000000
  O        11.4780000000        4.4180000000        1.5620000000
  O        -1.9130000000        7.7320000000        1.5620000000
  O         1.9130000000        7.7320000000        1.5620000000
  O         5.7390000000        7.7320000000        1.5620000000
  O         9.5650000000        7.7320000000        1.5620000000
  O        -3.8260000000       11.0450000000        1.5620000000
  O         0.0000000000       11.0450000000        1.5620000000
  O         3.8260000000       11.0450000000        1.5620000000
  O         7.6520000000       11.0450000000        1.5620000000
  O         0.0000000000        2.2090000000        3.1240000000
  O         3.8260000000        2.2090000000        3.1240000000
  O         7.6520000000        2.2090000000        3.1240000000
  O        11.4780000000        2.2090000000        3.1240000000
  O        -1.9130000000        5.5230000000        3.1240000000
  O         1.9130000000        5.5230000000        3.1240000000
  O         5.7390000000        5.5230000000        3.1240000000
  O         9.5650000000        5.5230000000        3.1240000000
  O        -3.8260000000        8.8360000000        3.1240000000
  O         0.0000000000        8.8360000000        3.1240000000
  O         3.8260000000        8.8360000000        3.1240000000
  O         7.6520000000        8.8360000000        3.1240000000
  O        -5.7390000000       12.1500000000        3.1240000000
  O        -1.9130000000       12.1500000000        3.1240000000
  O         1.9130000000       12.1500000000        3.1240000000
  O         5.7390000000       12.1500000000        3.1240000000
  O        -0.0007432574       -0.2262161994        4.7462576890
  O         3.8203608424       -0.1125407189        4.9067309761
  O         7.8473882551       -0.0948711159        4.8051944685
  O        11.4767456307       -0.0757754572        4.7688995957
  O        -2.0105472600        3.4444807811        4.6860015846
  O         1.8212262848        3.3352152878        4.7273329647
  O         5.5967314712        3.4436276385        4.7568638297
  O         9.6532053337        3.2845857008        4.7727173857
  O        -3.9022941413        6.7737547710        4.9443191588
  O        -0.0682612409        6.5338542911        4.7225562255
  O         3.5698752128        6.6111063016        4.7769259695
  O         7.5877276824        6.5293684147        4.6742746468
  O        -5.8381316518        9.9471573275        4.7373710155
  O        -1.9611672525        9.9147553121        4.7647558896
  O         1.9026846956       10.0050039915        4.8384651947
  O         5.9068458724        9.9523655570        4.8002268976
  O         1.9718883497        1.2850373546        6.1032865376
  O         5.7315061814        1.0395140482        6.1737120306
  O         9.7597252846        0.9517146974        6.5528853671
  O        13.4294105833        1.3054024463        6.1611011110
  O        -0.1199797930        4.5361171980        6.1399333683
  O         3.9130958964        4.3175720262        6.5616010223
  O         7.7406565236        4.3495133630        6.2763637122
  O        11.3855782228        4.1215042651        6.3192692103
  O        -1.8566713970        7.8245438390        6.1798957902
  O         1.8831323643        7.8311741076        6.3576986591
  O         5.6145256187        7.5777320057        6.2220888365
  O         9.4580617115        7.8148220002        6.4080912126
  O        -3.9682808755       10.8176193677        6.3495320980
  O        -0.0197622486       10.6647744727        6.2827355522
  O         3.8528983330       10.8822584964        6.1729809826
  O         7.8183391817       10.9826252646        6.4028942361
  O        -0.0290570054        2.0722093101        7.6104712875
  O         4.0144829766        1.8265505454        7.8718691155
  O         7.8213946298        2.3237192955        8.0566704450
  O        11.4199541323        2.3263328622        8.1021628338
  O        -2.0644147768        5.5806724156        7.7146583447
  O         1.9633396062        5.5410759511        7.8665467071
  O         6.0850615627        5.6160264092        8.2483196064
  O         9.7019827729        5.5261447595        8.0896083147
  O        -4.1262326185        8.7519460522        8.2209253618
  O         0.2331460301        8.6044973494        8.3061922861
  O         3.7952338826        8.7893011782        8.0679295230
  O         7.4556051689        8.8779014541        7.9972852712
  O        -5.7503118048       12.2376173515        8.0077244383
  O        -2.2124999256       11.8349290528        7.8937943430
  O         1.6886300240       12.0717501497        8.0256686381
  O         5.7836948608       12.1331877085        7.6997321773
 Ce         0.0000000000        2.2090000000        0.7810000000
 Ce         3.8260000000        2.2090000000        0.7810000000
 Ce         7.6520000000        2.2090000000        0.7810000000
 Ce        11.4780000000        2.2090000000        0.7810000000
 Ce        -1.9130000000        5.5230000000        0.7810000000
 Ce         1.9130000000        5.5230000000        0.7810000000
 Ce         5.7390000000        5.5230000000        0.7810000000
 Ce         9.5650000000        5.5230000000        0.7810000000
 Ce        -3.8260000000        8.8360000000        0.7810000000
 Ce         0.0000000000        8.8360000000        0.7810000000
 Ce         3.8260000000        8.8360000000        0.7810000000
 Ce         7.6520000000        8.8360000000        0.7810000000
 Ce        -5.7390000000       12.1500000000        0.7810000000
 Ce        -1.9130000000       12.1500000000        0.7810000000
 Ce         1.9130000000       12.1500000000        0.7810000000
 Ce         5.7390000000       12.1500000000        0.7810000000
 Ce         1.8509334926        0.9887036473        3.8617433418
 Ce         5.6314697847        1.0714796652        3.9525978441
 Ce         9.5804018245        1.1579181629        3.9836922651
 Ce        13.3262896171        1.1793813604        3.8579776738
 Ce         0.0629679650        4.4791197436        3.8701635639
 Ce         3.7048555160        4.3172726294        4.0698402045
 Ce         7.5512616343        4.2918750060        3.8877373115
 Ce        11.3858443108        4.4843858698        3.7464284775
 Ce        -2.0496182252        7.7421056197        3.8559480883
 Ce         1.8866022397        7.8558910647        3.9489056296
 Ce         5.7424129726        7.6962282772        3.9975776958
 Ce         9.5709866743        7.6572201816        4.1626666910
 Ce        -3.9874944760       11.0422450271        3.9097330515
 Ce         0.0331140977       10.9894721496        3.8993477135
 Ce         3.6989530724       10.9234946330        3.9136361367
 Ce         7.6136725274       10.9394061849        3.9330015215
 Ce        -0.0630982444       -0.0559738382        7.0040495002
 Ce         3.8564793944       -0.1827076521        7.1324873614
 Ce         7.7998846681       -0.1986650249        7.0470265652
 Ce        11.5088095513       -0.1359802439        6.9687942483
 Ce        -1.9463842684        3.3951569512        6.8527671632
 Ce         1.7716162929        3.3415261669        6.9578235130
 Ce         5.8009197484        3.2400248080        7.0556923528
 Ce         9.6539176257        3.3304666558        7.2094991870
 Ce        -3.8307805258        6.5008437670        7.2238317692
 Ce         0.0525221871        6.5190172917        7.0281309115
 Ce         3.8154486056        6.6969012663        7.2599691656
 Ce         7.6847859190        6.4917581274        7.0487337824
 Ce        -5.7804628012        9.9539695131        7.3303548838
 Ce        -2.1469725218        9.7822534276        7.1671395277
 Ce         1.7737881693        9.8453860749        7.2732640722
 Ce         5.8205919043        9.8524593723        7.0684172737
 Pt        12.5940529842        1.5152530747        9.3749915715
 Pt         0.3192055941        5.0364769720        9.7292990667
 Pt         0.1642469706        7.5029314375        9.8536201334
 Pt         6.7070803912       13.3416494575       10.5357935446
 Pt        -0.3250919669        2.4981658611        9.7592027489
 Pt        -2.5731221539        7.9554098268        9.6509557915
 Pt         2.3303330471        3.2495189678       10.0337175573
 Pt         2.6905092141        5.7775547418       10.4835546050
 Pt         5.2061449663        4.6991875950        9.8785330629
 Pt         1.6204311294        0.4111977479        9.6003995237
 Pt         4.1015374805        1.3434743797        9.8595403585
 Pt        -1.9634872291        5.3445059697       10.5692625055
 Pt         6.6680447404        2.4879671723        9.8229659664
 Pt        -0.3377580847        3.7569115273       11.9971390736
 Pt         5.6039099080        1.7961191632       12.1778806410
 Pt         0.6001745427        6.1914372181       12.0750690572
 Pt         4.0240590857        3.8479080942       11.9497198848
 Pt         0.5584890291        4.5351240677       14.4682937257
 Pt         0.8572470385        1.3099527004       11.9377089694
 Pt         2.6339654005        5.2840397286       13.3668812763
 Pt         3.3560066546        0.5554335143       12.2277580909
 Pt         2.3615100758        2.4713838389       13.5459439593
     166
 i =     2837, time =     2837.000, E =     -6045.7797030432
  O         0.0000000000        0.0000000000        0.0000000000
  O         3.8260000000        0.0000000000        0.0000000000
  O         7.6520000000        0.0000000000        0.0000000000
  O        11.4780000000        0.0000000000        0.0000000000
  O        -1.9130000000        3.3140000000        0.0000000000
  O         1.9130000000        3.3140000000        0.0000000000
  O         5.7390000000        3.3140000000        0.0000000000
  O         9.5650000000        3.3140000000        0.0000000000
  O        -3.8260000000        6.6270000000        0.0000000000
  O         0.0000000000        6.6270000000        0.0000000000
  O         3.8260000000        6.6270000000        0.0000000000
  O         7.6520000000        6.6270000000        0.0000000000
  O        -5.7390000000        9.9410000000        0.0000000000
  O        -1.9130000000        9.9410000000        0.0000000000
  O         1.9130000000        9.9410000000        0.0000000000
  O         5.7390000000        9.9410000000        0.0000000000
  O         1.9130000000        1.1050000000        1.5620000000
  O         5.7390000000        1.1050000000        1.5620000000
  O         9.5650000000        1.1050000000        1.5620000000
  O        13.3920000000        1.1050000000        1.5620000000
  O         0.0000000000        4.4180000000        1.5620000000
  O         3.8260000000        4.4180000000        1.5620000000
  O         7.6520000000        4.4180000000        1.5620000000
  O        11.4780000000        4.4180000000        1.5620000000
  O        -1.9130000000        7.7320000000        1.5620000000
  O         1.9130000000        7.7320000000        1.5620000000
  O         5.7390000000        7.7320000000        1.5620000000
  O         9.5650000000        7.7320000000        1.5620000000
  O        -3.8260000000       11.0450000000        1.5620000000
  O         0.0000000000       11.0450000000        1.5620000000
  O         3.8260000000       11.0450000000        1.5620000000
  O         7.6520000000       11.0450000000        1.5620000000
  O         0.0000000000        2.2090000000        3.1240000000
  O         3.8260000000        2.2090000000        3.1240000000
  O         7.6520000000        2.2090000000        3.1240000000
  O        11.4780000000        2.2090000000        3.1240000000
  O        -1.9130000000        5.5230000000        3.1240000000
  O         1.9130000000        5.5230000000        3.1240000000
  O         5.7390000000        5.5230000000        3.1240000000
  O         9.5650000000        5.5230000000        3.1240000000
  O        -3.8260000000        8.8360000000        3.1240000000
  O         0.0000000000        8.8360000000        3.1240000000
  O         3.8260000000        8.8360000000        3.1240000000
  O         7.6520000000        8.8360000000        3.1240000000
  O        -5.7390000000       12.1500000000        3.1240000000
  O        -1.9130000000       12.1500000000        3.1240000000
  O         1.9130000000       12.1500000000        3.1240000000
  O         5.7390000000       12.1500000000        3.1240000000
  O         0.0084221501       -0.2313682352        4.7545752149
  O         3.8224290745       -0.1074343030        4.8952871111
  O         7.8377513003       -0.1031581468        4.7993301342
  O        11.4820159030       -0.0653917024        4.7587624427
  O        -2.0030844142        3.4393807961        4.6873290041
  O         1.8205543213        3.3322754427        4.7411106016
  O         5.6007567450        3.4323035958        4.7520905879
  O         9.6493166437        3.2811291705        4.7721278754
  O        -3.9060125283        6.7714970093        4.9502383443
  O        -0.0693662830        6.5347127121        4.7278146160
  O         3.5754089851        6.6140249338        4.7687354488
  O         7.5835125452        6.5242480654        4.6756045173
  O        -5.8365785412        9.9467342953        4.7417681528
  O        -1.9625794171        9.9286388063        4.7597084207
  O         1.9074658151       10.0135135234        4.8303631640
  O         5.9094130321        9.9367029135        4.7993335436
  O         1.9751314083        1.2798901225        6.1020840257
  O         5.7409757104        1.0307739635        6.1744755324
  O         9.7773991665        0.9402401954        6.5512295911
  O        13.4369092636        1.2997820607        6.1697567545
  O        -0.1129132562        4.5391280223        6.1328235288
  O         3.9151868086        4.3182893281        6.5653017910
  O         7.7382561914        4.3586734434        6.2798518471
  O        11.3838112119        4.1182892425        6.3122082777
  O        -1.8639232225        7.8211995459        6.1897623760
  O         1.8829424282        7.8126394656        6.3464346558
  O         5.6056989344        7.5676787654        6.2345496671
  O         9.4541689944        7.8028704697        6.4085662696
  O        -3.9685188278       10.8149945597        6.3456310692
  O        -0.0207913828       10.6660167781        6.2845562364
  O         3.8484395517       10.8784392111        6.1806747121
  O         7.8260867940       10.9856665373        6.4019983601
  O        -0.0408755653        2.0669376675        7.6080902894
  O         4.0193987873        1.8302254460        7.8743927588
  O         7.8249768389        2.3216302871        8.0548624102
  O        11.4184989254        2.3323878064        8.1047782396
  O        -2.0657015043        5.5646919685        7.7157406211
  O         1.9532003449        5.5484141733        7.8650027924
  O         6.0822118969        5.6141175797        8.2510694521
  O         9.7038586844        5.5168898029        8.0884609827
  O        -4.1269197573        8.7466960207        8.2281474008
  O         0.2316045086        8.6035114204        8.3020635657
  O         3.8059808891        8.8114167831        8.0801091200
  O         7.4574376789        8.8894192902        8.0071995828
  O        -5.7464123674       12.2276312346        8.0045401812
  O        -2.2158704860       11.8325431273        7.8957868783
  O         1.6897622146       12.0728408907        8.0331784833
  O         5.7780428460       12.1384968143        7.7066780876
 Ce         0.0000000000        2.2090000000        0.7810000000
 Ce         3.8260000000        2.2090000000        0.7810000000
 Ce         7.6520000000        2.2090000000        0.7810000000
 Ce        11.4780000000        2.2090000000        0.7810000000
 Ce        -1.9130000000        5.5230000000        0.7810000000
 Ce         1.9130000000        5.5230000000        0.7810000000
 Ce         5.7390000000        5.5230000000        0.7810000000
 Ce         9.5650000000        5.5230000000        0.7810000000
 Ce        -3.8260000000        8.8360000000        0.7810000000
 Ce         0.0000000000        8.8360000000        0.7810000000
 Ce         3.8260000000        8.8360000000        0.7810000000
 Ce         7.6520000000        8.8360000000        0.7810000000
 Ce        -5.7390000000       12.1500000000        0.7810000000
 Ce        -1.9130000000       12.1500000000        0.7810000000
 Ce         1.9130000000       12.1500000000        0.7810000000
 Ce         5.7390000000       12.1500000000        0.7810000000
 Ce         1.8502450376        0.9864987853        3.8643844288
 Ce         5.6320334728        1.0720792037        3.9565533988
 Ce         9.5819143721        1.1555212705        3.9852132444
 Ce        13.3250977661        1.1773280368        3.8583634901
 Ce         0.0618707047        4.4765691467        3.8721492035
 Ce         3.7050945508        4.3189368669        4.0704340168
 Ce         7.5532820798        4.2906691882        3.8897982641
 Ce        11.3864253174        4.4860002318        3.7465641379
 Ce        -2.0520927361        7.7405546918        3.8557778173
 Ce         1.8825056597        7.8584821209        3.9509271099
 Ce         5.7408422696        7.6949301867        3.9994355266
 Ce         9.5757868458        7.6561979312        4.1646582221
 Ce        -3.9871270618       11.0415210554        3.9099582150
 Ce         0.0355271409       10.9908609439        3.8953784397
 Ce         3.6979669198       10.9222861308        3.9144410119
 Ce         7.6152523439       10.9390115536        3.9307500334
 Ce        -0.0646739432       -0.0579257425        7.0033309497
 Ce         3.8576036151       -0.1816431770        7.1299742763
 Ce         7.7952903032       -0.2045121565        7.0461547329
 Ce        11.5100684909       -0.1332131946        6.9673137251
 Ce        -1.9430767941        3.3939433031        6.8500893297
 Ce         1.7726275974        3.3414026265        6.9564681498
 Ce         5.8031865628        3.2389609588        7.0589125210
 Ce         9.6531743660        3.3315134104        7.2132490685
 Ce        -3.8242024845        6.5044372444        7.2247446981
 Ce         0.0523212130        6.5172764771        7.0289991692
 Ce         3.8181328868        6.6958357430        7.2598822408
 Ce         7.6852660124        6.4911700800        7.0522326626
 Ce        -5.7774643500        9.9492312675        7.3310333270
 Ce        -2.1442179314        9.7801587882        7.1716447990
 Ce         1.7734797196        9.8463425887        7.2706089828
 Ce         5.8210928037        9.8534543826        7.0664686797
 Pt        12.5944071926        1.5125751288        9.3741504650
 Pt         0.3163402372        5.0354356863        9.7292887512
 Pt         0.1651398682        7.5010076972        9.8547763292
 Pt         6.7082106923       13.3432571679       10.5331033519
 Pt        -0.3261773683        2.4999430199        9.7608944380
 Pt        -2.5716430105        7.9532445635        9.6515505386
 Pt         2.3278763212        3.2494720792       10.0333522114
 Pt         2.6900674681        5.7796644161       10.4829119324
 Pt         5.2078767075        4.6955809054        9.8825213784
 Pt         1.6194907878        0.4150649692        9.6009099734
 Pt         4.1020464238        1.3451917831        9.8599259972
 Pt        -1.9668083499        5.3457661477       10.5675300907
 Pt         6.6695205037        2.4865200555        9.8247561131
 Pt        -0.3382273012        3.7594069777       11.9985180741
 Pt         5.6002858828        1.7963253636       12.1770226103
 Pt         0.5931045865        6.1877544142       12.0769247805
 Pt         4.0225220788        3.8522983069       11.9495136521
 Pt         0.5577311969        4.5347915949       14.4654752798
 Pt         0.8560538981        1.3111651672       11.9368846631
 Pt         2.6305369959        5.2850166711       13.3621829394
 Pt         3.3552156397        0.5546792346       12.2271798789
 Pt         2.3602036474        2.4708164087       13.5471079576
     166
 i =     2838, time =     2838.000, E =     -6045.7811533115
  O         0.0000000000        0.0000000000        0.0000000000
  O         3.8260000000        0.0000000000        0.0000000000
  O         7.6520000000        0.0000000000        0.0000000000
  O        11.4780000000        0.0000000000        0.0000000000
  O        -1.9130000000        3.3140000000        0.0000000000
  O         1.9130000000        3.3140000000        0.0000000000
  O         5.7390000000        3.3140000000        0.0000000000
  O         9.5650000000        3.3140000000        0.0000000000
  O        -3.8260000000        6.6270000000        0.0000000000
  O         0.0000000000        6.6270000000        0.0000000000
  O         3.8260000000        6.6270000000        0.0000000000
  O         7.6520000000        6.6270000000        0.0000000000
  O        -5.7390000000        9.9410000000        0.0000000000
  O        -1.9130000000        9.9410000000        0.0000000000
  O         1.9130000000        9.9410000000        0.0000000000
  O         5.7390000000        9.9410000000        0.0000000000
  O         1.9130000000        1.1050000000        1.5620000000
  O         5.7390000000        1.1050000000        1.5620000000
  O         9.5650000000        1.1050000000        1.5620000000
  O        13.3920000000        1.1050000000        1.5620000000
  O         0.0000000000        4.4180000000        1.5620000000
  O         3.8260000000        4.4180000000        1.5620000000
  O         7.6520000000        4.4180000000        1.5620000000
  O        11.4780000000        4.4180000000        1.5620000000
  O        -1.9130000000        7.7320000000        1.5620000000
  O         1.9130000000        7.7320000000        1.5620000000
  O         5.7390000000        7.7320000000        1.5620000000
  O         9.5650000000        7.7320000000        1.5620000000
  O        -3.8260000000       11.0450000000        1.5620000000
  O         0.0000000000       11.0450000000        1.5620000000
  O         3.8260000000       11.0450000000        1.5620000000
  O         7.6520000000       11.0450000000        1.5620000000
  O         0.0000000000        2.2090000000        3.1240000000
  O         3.8260000000        2.2090000000        3.1240000000
  O         7.6520000000        2.2090000000        3.1240000000
  O        11.4780000000        2.2090000000        3.1240000000
  O        -1.9130000000        5.5230000000        3.1240000000
  O         1.9130000000        5.5230000000        3.1240000000
  O         5.7390000000        5.5230000000        3.1240000000
  O         9.5650000000        5.5230000000        3.1240000000
  O        -3.8260000000        8.8360000000        3.1240000000
  O         0.0000000000        8.8360000000        3.1240000000
  O         3.8260000000        8.8360000000        3.1240000000
  O         7.6520000000        8.8360000000        3.1240000000
  O        -5.7390000000       12.1500000000        3.1240000000
  O        -1.9130000000       12.1500000000        3.1240000000
  O         1.9130000000       12.1500000000        3.1240000000
  O         5.7390000000       12.1500000000        3.1240000000
  O         0.0175778345       -0.2355985760        4.7627171684
  O         3.8243566022       -0.1025048971        4.8827541824
  O         7.8278821192       -0.1112232703        4.7935628125
  O        11.4871761310       -0.0546743075        4.7482127915
  O        -1.9954754491        3.4340937355        4.6877541738
  O         1.8202749706        3.3296116221        4.7545928790
  O         5.6054049687        3.4202892555        4.7473132883
  O         9.6447734849        3.2773249990        4.7710510362
  O        -3.9095989226        6.7683288662        4.9555680716
  O        -0.0700354455        6.5363998721        4.7327967644
  O         3.5816361530        6.6166881136        4.7606775712
  O         7.5797582983        6.5192797721        4.6774523920
  O        -5.8344857909        9.9458710182        4.7460401149
  O        -1.9643121123        9.9427791105        4.7541343547
  O         1.9120450900       10.0215352710        4.8215562384
  O         5.9111741582        9.9203867719        4.7985323865
  O         1.9781677369        1.2740747923        6.1009630144
  O         5.7511276831        1.0222946259        6.1752418213
  O         9.7939734251        0.9294692104        6.5486087164
  O        13.4437367050        1.2931551491        6.1778023012
  O        -0.1052501442        4.5412087319        6.1263675598
  O         3.9170254062        4.3191770177        6.5684187048
  O         7.7355498670        4.3678887702        6.2833086000
  O        11.3823005070        4.1165012396        6.3045537930
  O        -1.8712595288        7.8176104014        6.2001795793
  O         1.8826308588        7.7938623846        6.3350503989
  O         5.5974424337        7.5578193943        6.2472003450
  O         9.4501085918        7.7904567427        6.4088740174
  O        -3.9689247695       10.8123094963        6.3416391712
  O        -0.0220531210       10.6679991924        6.2870014079
  O         3.8438458082       10.8749581163        6.1889203430
  O         7.8334327294       10.9886207274        6.4010398008
  O        -0.0525130203        2.0624852936        7.6059901120
  O         4.0245008077        1.8346295380        7.8770690939
  O         7.8280404934        2.3191935531        8.0533270753
  O        11.4165796161        2.3384924230        8.1070175997
  O        -2.0665236112        5.5481621809        7.7166569484
  O         1.9427745409        5.5558082783        7.8629424046
  O         6.0791623075        5.6122135854        8.2532850890
  O         9.7053546134        5.5074680102        8.0866845321
  O        -4.1268818799        8.7413526990        8.2356799129
  O         0.2298499783        8.6036832778        8.2967755334
  O         3.8168275924        8.8333498623        8.0918645350
  O         7.4596028587        8.9005776385        8.0169804799
  O        -5.7425746045       12.2177447937        8.0017250876
  O        -2.2183343679       11.8303954719        7.8979646771
  O         1.6914724480       12.0733621645        8.0405111250
  O         5.7721193636       12.1434316894        7.7135373333
 Ce         0.0000000000        2.2090000000        0.7810000000
 Ce         3.8260000000        2.2090000000        0.7810000000
 Ce         7.6520000000        2.2090000000        0.7810000000
 Ce        11.4780000000        2.2090000000        0.7810000000
 Ce        -1.9130000000        5.5230000000        0.7810000000
 Ce         1.9130000000        5.5230000000        0.7810000000
 Ce         5.7390000000        5.5230000000        0.7810000000
 Ce         9.5650000000        5.5230000000        0.7810000000
 Ce        -3.8260000000        8.8360000000        0.7810000000
 Ce         0.0000000000        8.8360000000        0.7810000000
 Ce         3.8260000000        8.8360000000        0.7810000000
 Ce         7.6520000000        8.8360000000        0.7810000000
 Ce        -5.7390000000       12.1500000000        0.7810000000
 Ce        -1.9130000000       12.1500000000        0.7810000000
 Ce         1.9130000000       12.1500000000        0.7810000000
 Ce         5.7390000000       12.1500000000        0.7810000000
 Ce         1.8495505659        0.9843626621        3.8671218666
 Ce         5.6326382628        1.0726184644        3.9604993120
 Ce         9.5834455116        1.1530540629        3.9867129511
 Ce        13.3239675532        1.1751867404        3.8588046838
 Ce         0.0606830616        4.4740324408        3.8740962792
 Ce         3.7053776977        4.3207597173        4.0709292153
 Ce         7.5553378292        4.2895786991        3.8918641999
 Ce        11.3870836390        4.4875356321        3.7468646897
 Ce        -2.0544394040        7.7390513640        3.8557229694
 Ce         1.8784033066        7.8609227348        3.9529721737
 Ce         5.7392521584        7.6936020626        4.0011977624
 Ce         9.5805015521        7.6553045580        4.1665128886
 Ce        -3.9866204013       11.0407268462        3.9102428038
 Ce         0.0378353097       10.9922692930        3.8914570540
 Ce         3.6971207553       10.9212178317        3.9152649599
 Ce         7.6168498455       10.9386698014        3.9284734942
 Ce        -0.0662236567       -0.0598531488        7.0026438418
 Ce         3.8586992680       -0.1805518044        7.1274453300
 Ce         7.7906009524       -0.2103287977        7.0453263373
 Ce        11.5114217867       -0.1304756780        6.9659177867
 Ce        -1.9397694813        3.3926662970        6.8475656797
 Ce         1.7737076011        3.3412027738        6.9552710712
 Ce         5.8054267786        3.2378682390        7.0622178592
 Ce         9.6523890788        3.3325322816        7.2170365132
 Ce        -3.8176696576        6.5081156690        7.2257113814
 Ce         0.0520448382        6.5156498995        7.0298749394
 Ce         3.8207817524        6.6947679130        7.2598156120
 Ce         7.6857342179        6.4906365327        7.0558192344
 Ce        -5.7745487886        9.9444564905        7.3316807828
 Ce        -2.1413847723        9.7780748678        7.1761112876
 Ce         1.7732911351        9.8472963694        7.2679424389
 Ce         5.8215271318        9.8544900643        7.0645743842
 Pt        12.5948207855        1.5098846039        9.3733796082
 Pt         0.3135136952        5.0342861528        9.7291749055
 Pt         0.1659924083        7.4990921766        9.8560582025
 Pt         6.7093549374       13.3448411331       10.5304029750
 Pt        -0.3272413245        2.5017679647        9.7625341894
 Pt        -2.5701542441        7.9510463796        9.6521204633
 Pt         2.3253496400        3.2493795347       10.0329688218
 Pt         2.6897185244        5.7817879767       10.4822898937
 Pt         5.2095747457        4.6919874104        9.8865058094
 Pt         1.6185557660        0.4189198555        9.6014512813
 Pt         4.1025514421        1.3469348086        9.8603137743
 Pt        -1.9701371716        5.3470693045       10.5658222231
 Pt         6.6709824417        2.4850270988        9.8265654059
 Pt        -0.3386913300        3.7618604370       11.9999633256
 Pt         5.5966733861        1.7965839500       12.1761229569
 Pt         0.5859872693        6.1840916908       12.0788359280
 Pt         4.0210300634        3.8566510315       11.9493000413
 Pt         0.5569618669        4.5344153080       14.4626295106
 Pt         0.8548208079        1.3123865205       11.9360472092
 Pt         2.6271216417        5.2860312709       13.3574674482
 Pt         3.3544265235        0.5539075828       12.2265907784
 Pt         2.3588765453        2.4703127683       13.5483050708
     166
 i =     2839, time =     2839.000, E =     -6045.7820955626
  O         0.0000000000        0.0000000000        0.0000000000
  O         3.8260000000        0.0000000000        0.0000000000
  O         7.6520000000        0.0000000000        0.0000000000
  O        11.4780000000        0.0000000000        0.0000000000
  O        -1.9130000000        3.3140000000        0.0000000000
  O         1.9130000000        3.3140000000        0.0000000000
  O         5.7390000000        3.3140000000        0.0000000000
  O         9.5650000000        3.3140000000        0.0000000000
  O        -3.8260000000        6.6270000000        0.0000000000
  O         0.0000000000        6.6270000000        0.0000000000
  O         3.8260000000        6.6270000000        0.0000000000
  O         7.6520000000        6.6270000000        0.0000000000
  O        -5.7390000000        9.9410000000        0.0000000000
  O        -1.9130000000        9.9410000000        0.0000000000
  O         1.9130000000        9.9410000000        0.0000000000
  O         5.7390000000        9.9410000000        0.0000000000
  O         1.9130000000        1.1050000000        1.5620000000
  O         5.7390000000        1.1050000000        1.5620000000
  O         9.5650000000        1.1050000000        1.5620000000
  O        13.3920000000        1.1050000000        1.5620000000
  O         0.0000000000        4.4180000000        1.5620000000
  O         3.8260000000        4.4180000000        1.5620000000
  O         7.6520000000        4.4180000000        1.5620000000
  O        11.4780000000        4.4180000000        1.5620000000
  O        -1.9130000000        7.7320000000        1.5620000000
  O         1.9130000000        7.7320000000        1.5620000000
  O         5.7390000000        7.7320000000        1.5620000000
  O         9.5650000000        7.7320000000        1.5620000000
  O        -3.8260000000       11.0450000000        1.5620000000
  O         0.0000000000       11.0450000000        1.5620000000
  O         3.8260000000       11.0450000000        1.5620000000
  O         7.6520000000       11.0450000000        1.5620000000
  O         0.0000000000        2.2090000000        3.1240000000
  O         3.8260000000        2.2090000000        3.1240000000
  O         7.6520000000        2.2090000000        3.1240000000
  O        11.4780000000        2.2090000000        3.1240000000
  O        -1.9130000000        5.5230000000        3.1240000000
  O         1.9130000000        5.5230000000        3.1240000000
  O         5.7390000000        5.5230000000        3.1240000000
  O         9.5650000000        5.5230000000        3.1240000000
  O        -3.8260000000        8.8360000000        3.1240000000
  O         0.0000000000        8.8360000000        3.1240000000
  O         3.8260000000        8.8360000000        3.1240000000
  O         7.6520000000        8.8360000000        3.1240000000
  O        -5.7390000000       12.1500000000        3.1240000000
  O        -1.9130000000       12.1500000000        3.1240000000
  O         1.9130000000       12.1500000000        3.1240000000
  O         5.7390000000       12.1500000000        3.1240000000
  O         0.0266754850       -0.2388947905        4.7705985501
  O         3.8261363366       -0.0977606117        4.8692867992
  O         7.8178224402       -0.1190274411        4.7879126728
  O        11.4922330199       -0.0436957535        4.7373322563
  O        -1.9877460440        3.4286431793        4.6872588821
  O         1.8204044647        3.3272511104        4.7676148366
  O         5.6106275477        3.4076483627        4.7426004048
  O         9.6395828671        3.2731830594        4.7694952888
  O        -3.9129956758        6.7642672582        4.9602686164
  O        -0.0703069240        6.5389280853        4.7374545014
  O         3.5885699249        6.6190783198        4.7527563899
  O         7.5764847485        6.5145044303        4.6798008786
  O        -5.8318649281        9.9445427601        4.7501429151
  O        -1.9663586460        9.9570557664        4.7480924864
  O         1.9163799415       10.0290197927        4.8121634399
  O         5.9121554888        9.9034857688        4.7978285300
  O         1.9810123070        1.2676043207        6.0999647987
  O         5.7619248429        1.0140882483        6.1760600316
  O         9.8093171941        0.9194569252        6.5449958349
  O        13.4498308604        1.2855505519        6.1851705056
  O        -0.0970122233        4.5423281668        6.1205920298
  O         3.9186119758        4.3202505930        6.5709575938
  O         7.7325379444        4.3770901794        6.2867434693
  O        11.3810620209        4.1161215561        6.2963473577
  O        -1.8786898130        7.8137854775        6.2111389260
  O         1.8822163149        7.7750228483        6.3235489637
  O         5.5897989455        7.5481935244        6.2599509126
  O         9.4459215957        7.7776720062        6.4090349878
  O        -3.9694649935       10.8095754940        6.3375681088
  O        -0.0235214540       10.6706960768        6.2900679118
  O         3.8391381019       10.8718481918        6.1976706965
  O         7.8402998266       10.9914494972        6.4000100191
  O        -0.0638928540        2.0589123036        7.6041837226
  O         4.0297857151        1.8397188842        7.8798580553
  O         7.8305862090        2.3164076410        8.0520620674
  O        11.4142394509        2.3446169157        8.1089156381
  O        -2.0668659717        5.5311156926        7.7174016131
  O         1.9321109702        5.5632247991        7.8604133500
  O         6.0759014207        5.6102901911        8.2549895889
  O         9.7064862402        5.4979278663        8.0843024449
  O        -4.1261137966        8.7359127024        8.2434590256
  O         0.2278878478        8.6049717015        8.2904034423
  O         3.8277334974        8.8550304803        8.1030660566
  O         7.4621085035        8.9113439025        8.0265459988
  O        -5.7387782410       12.2080175426        7.9993274757
  O        -2.2198907260       11.8284956207        7.9003371685
  O         1.6937053513       12.0733015589        8.0476535298
  O         5.7659502721       12.1479589604        7.7202509064
 Ce         0.0000000000        2.2090000000        0.7810000000
 Ce         3.8260000000        2.2090000000        0.7810000000
 Ce         7.6520000000        2.2090000000        0.7810000000
 Ce        11.4780000000        2.2090000000        0.7810000000
 Ce        -1.9130000000        5.5230000000        0.7810000000
 Ce         1.9130000000        5.5230000000        0.7810000000
 Ce         5.7390000000        5.5230000000        0.7810000000
 Ce         9.5650000000        5.5230000000        0.7810000000
 Ce        -3.8260000000        8.8360000000        0.7810000000
 Ce         0.0000000000        8.8360000000        0.7810000000
 Ce         3.8260000000        8.8360000000        0.7810000000
 Ce         7.6520000000        8.8360000000        0.7810000000
 Ce        -5.7390000000       12.1500000000        0.7810000000
 Ce        -1.9130000000       12.1500000000        0.7810000000
 Ce         1.9130000000       12.1500000000        0.7810000000
 Ce         5.7390000000       12.1500000000        0.7810000000
 Ce         1.8488534302        0.9822961521        3.8699525101
 Ce         5.6332849385        1.0730958529        3.9644279238
 Ce         9.5849935954        1.1505184296        3.9881879873
 Ce        13.3228993954        1.1729592829        3.8593004789
 Ce         0.0594088901        4.4715107463        3.8760019069
 Ce         3.7057081728        4.3227375932        4.0713245371
 Ce         7.5574271141        4.2886026489        3.8939331861
 Ce        11.3878165599        4.4889865928        3.7473310243
 Ce        -2.0566550115        7.7375993549        3.8557833316
 Ce         1.8743003742        7.8632080675        3.9550375167
 Ce         5.7376427026        7.6922407055        4.0028643116
 Ce         9.5851205570        7.6545400025        4.1682293228
 Ce        -3.9859718291       11.0398656709        3.9105858635
 Ce         0.0400320616       10.9937003903        3.8875823474
 Ce         3.6964192978       10.9202913497        3.9161047921
 Ce         7.6184640075       10.9383773744        3.9261753426
 Ce        -0.0677445896       -0.0617586231        7.0019931582
 Ce         3.8597631341       -0.1794344117        7.1248984044
 Ce         7.7858267999       -0.2161125409        7.0445420606
 Ce        11.5128789285       -0.1277762303        6.9646112605
 Ce        -1.9364669863        3.3913241233        6.8451974314
 Ce         1.7748542033        3.3409240451        6.9542381741
 Ce         5.8076411282        3.2367474801        7.0656053081
 Ce         9.6515671327        3.3335270484        7.2208580392
 Ce        -3.8111867898        6.5118692052        7.2267354022
 Ce         0.0516926083        6.5141377910        7.0307580486
 Ce         3.8233916749        6.6936993270        7.2597730690
 Ce         7.6861889687        6.4901550775        7.0594931560
 Ce        -5.7717199390        9.9396500898        7.3322973069
 Ce        -2.1384755274        9.7760056703        7.1805373662
 Ce         1.7732279480        9.8482458051        7.2652680683
 Ce         5.8218929585        9.8555663354        7.0627432501
 Pt        12.5952905663        1.5071842199        9.3726781757
 Pt         0.3107286281        5.0330285131        9.7289552977
 Pt         0.1668058290        7.4971887077        9.8574624202
 Pt         6.7105129615       13.3463989775       10.5276929188
 Pt        -0.3282842777        2.5036409674        9.7641194652
 Pt        -2.5686557340        7.9488155929        9.6526656212
 Pt         2.3227543509        3.2492427342       10.0325689082
 Pt         2.6894603182        5.7839250959       10.4816889170
 Pt         5.2112397600        4.6884096293        9.8904843213
 Pt         1.6176277334        0.4227597725        9.6020195356
 Pt         4.1030517201        1.3487025923        9.8607041585
 Pt        -1.9734736095        5.3484148871       10.5641396536
 Pt         6.6724312214        2.4834879910        9.8283933002
 Pt        -0.3391526471        3.7642688209       12.0014744473
 Pt         5.5930724468        1.7968962855       12.1751820440
 Pt         0.5788241235        6.1804525751       12.0808013404
 Pt         4.0195841352        3.8609604896       11.9490782285
 Pt         0.5561819140        4.5339951526       14.4597569228
 Pt         0.8535476150        1.3136179509       11.9351982380
 Pt         2.6237177027        5.2870864572       13.3527362819
 Pt         3.3536385099        0.5531188000       12.2259908644
 Pt         2.3575293479        2.4698722560       13.5495346995
     166
 i =     2840, time =     2840.000, E =     -6045.7824372641
  O         0.0000000000        0.0000000000        0.0000000000
  O         3.8260000000        0.0000000000        0.0000000000
  O         7.6520000000        0.0000000000        0.0000000000
  O        11.4780000000        0.0000000000        0.0000000000
  O        -1.9130000000        3.3140000000        0.0000000000
  O         1.9130000000        3.3140000000        0.0000000000
  O         5.7390000000        3.3140000000        0.0000000000
  O         9.5650000000        3.3140000000        0.0000000000
  O        -3.8260000000        6.6270000000        0.0000000000
  O         0.0000000000        6.6270000000        0.0000000000
  O         3.8260000000        6.6270000000        0.0000000000
  O         7.6520000000        6.6270000000        0.0000000000
  O        -5.7390000000        9.9410000000        0.0000000000
  O        -1.9130000000        9.9410000000        0.0000000000
  O         1.9130000000        9.9410000000        0.0000000000
  O         5.7390000000        9.9410000000        0.0000000000
  O         1.9130000000        1.1050000000        1.5620000000
  O         5.7390000000        1.1050000000        1.5620000000
  O         9.5650000000        1.1050000000        1.5620000000
  O        13.3920000000        1.1050000000        1.5620000000
  O         0.0000000000        4.4180000000        1.5620000000
  O         3.8260000000        4.4180000000        1.5620000000
  O         7.6520000000        4.4180000000        1.5620000000
  O        11.4780000000        4.4180000000        1.5620000000
  O        -1.9130000000        7.7320000000        1.5620000000
  O         1.9130000000        7.7320000000        1.5620000000
  O         5.7390000000        7.7320000000        1.5620000000
  O         9.5650000000        7.7320000000        1.5620000000
  O        -3.8260000000       11.0450000000        1.5620000000
  O         0.0000000000       11.0450000000        1.5620000000
  O         3.8260000000       11.0450000000        1.5620000000
  O         7.6520000000       11.0450000000        1.5620000000
  O         0.0000000000        2.2090000000        3.1240000000
  O         3.8260000000        2.2090000000        3.1240000000
  O         7.6520000000        2.2090000000        3.1240000000
  O        11.4780000000        2.2090000000        3.1240000000
  O        -1.9130000000        5.5230000000        3.1240000000
  O         1.9130000000        5.5230000000        3.1240000000
  O         5.7390000000        5.5230000000        3.1240000000
  O         9.5650000000        5.5230000000        3.1240000000
  O        -3.8260000000        8.8360000000        3.1240000000
  O         0.0000000000        8.8360000000        3.1240000000
  O         3.8260000000        8.8360000000        3.1240000000
  O         7.6520000000        8.8360000000        3.1240000000
  O        -5.7390000000       12.1500000000        3.1240000000
  O        -1.9130000000       12.1500000000        3.1240000000
  O         1.9130000000       12.1500000000        3.1240000000
  O         5.7390000000       12.1500000000        3.1240000000
  O         0.0356856364       -0.2412557567        4.7781641417
  O         3.8277629633       -0.0932057228        4.8549883679
  O         7.8076047863       -0.1265330025        4.7823898339
  O        11.4971774679       -0.0325270682        4.7262174605
  O        -1.9799348824        3.4230570989        4.6858378383
  O         1.8209565894        3.3252161983        4.7800648962
  O         5.6163878109        3.3944118386        4.7380173680
  O         9.6337511931        3.2687137145        4.7674726064
  O        -3.9161451142        6.7593350110        4.9642940126
  O        -0.0702213315        6.5423032076        4.7417344537
  O         3.5962211233        6.6211828298        4.7450074469
  O         7.5737099680        6.5099706068        4.6826260710
  O        -5.8287326265        9.9427292870        4.7540340919
  O        -1.9686895257        9.9713515047        4.7416583047
  O         1.9204191472       10.0359246530        4.8023149452
  O         5.9123882766        9.8860485705        4.7972263870
  O         1.9836799839        1.2604879919        6.0991338210
  O         5.7733056199        1.0061636766        6.1769853123
  O         9.8232592148        0.9102846939        6.5403661725
  O        13.4551449870        1.2770020100        6.1918242809
  O        -0.0882229070        4.5424652793        6.1155097599
  O         3.9199448218        4.3215272953        6.5729211313
  O         7.7292173292        4.3862207689        6.2901602305
  O        11.3801136468        4.1171233257        6.2876416184
  O        -1.8862146501        7.8097436242        6.2226026934
  O         1.8817336985        7.7562971883        6.3119566060
  O         5.5827928649        7.5388482813        6.2727875606
  O         9.4416425126        7.7645983450        6.4090688662
  O        -3.9701028595       10.8068089097        6.3334296166
  O        -0.0251687596       10.6740785058        6.2937451385
  O         3.8343295628       10.8691400571        6.2068888150
  O         7.8466210462       10.9941203239        6.3988999748
  O        -0.0749315281        2.0562753505        7.6026839530
  O         4.0352373246        1.8454331155        7.8827168845
  O         7.8326183852        2.3132689735        8.0510633818
  O        11.4115283138        2.3507314911        8.1105125980
  O        -2.0667188189        5.5136143820        7.7179713158
  O         1.9212859547        5.5706116030        7.8574680664
  O         6.0724143342        5.6083290980        8.2562042605
  O         9.7072760144        5.4882942016        8.0813434862
  O        -4.1246151046        8.7303776952        8.2514234733
  O         0.2257242630        8.6073183431        8.2830254512
  O         3.8386130828        8.8763467477        8.1136402004
  O         7.4649458381        8.9216946827        8.0358429218
  O        -5.7349943887       12.1985166468        7.9973870032
  O        -2.2205443508       11.8268550099        7.9029122039
  O         1.6964050663       12.0726543522        8.0546001388
  O         5.7595606392       12.1520462739        7.7267644601
 Ce         0.0000000000        2.2090000000        0.7810000000
 Ce         3.8260000000        2.2090000000        0.7810000000
 Ce         7.6520000000        2.2090000000        0.7810000000
 Ce        11.4780000000        2.2090000000        0.7810000000
 Ce        -1.9130000000        5.5230000000        0.7810000000
 Ce         1.9130000000        5.5230000000        0.7810000000
 Ce         5.7390000000        5.5230000000        0.7810000000
 Ce         9.5650000000        5.5230000000        0.7810000000
 Ce        -3.8260000000        8.8360000000        0.7810000000
 Ce         0.0000000000        8.8360000000        0.7810000000
 Ce         3.8260000000        8.8360000000        0.7810000000
 Ce         7.6520000000        8.8360000000        0.7810000000
 Ce        -5.7390000000       12.1500000000        0.7810000000
 Ce        -1.9130000000       12.1500000000        0.7810000000
 Ce         1.9130000000       12.1500000000        0.7810000000
 Ce         5.7390000000       12.1500000000        0.7810000000
 Ce         1.8481570978        0.9803001382        3.8728723922
 Ce         5.6339747000        1.0735101934        3.9683308549
 Ce         9.5865566162        1.1479168108        3.9896348326
 Ce        13.3218937463        1.1706478484        3.8598493777
 Ce         0.0580520080        4.4690051345        3.8778629341
 Ce         3.7060897754        4.3248665496        4.0716185896
 Ce         7.5595483048        4.2877399033        3.8960034731
 Ce        11.3886210273        4.4903479196        3.7479638548
 Ce        -2.0587367859        7.7362018735        3.8559580232
 Ce         1.8702020643        7.8653334587        3.9571191447
 Ce         5.7360143249        7.6908424303        4.0044348317
 Ce         9.5896339233        7.6539036550        4.1698063182
 Ce        -3.9851788849       11.0389408549        3.9109858161
 Ce         0.0421109248       10.9951575652        3.8837526611
 Ce         3.6958672174       10.9195080411        3.9169567829
 Ce         7.6200937712       10.9381304435        3.9238589979
 Ce        -0.0692341895       -0.0636445219        7.0013840276
 Ce         3.8607925324       -0.1782916745        7.1223313530
 Ce         7.7809737619       -0.2218626470        7.0438019878
 Ce        11.5144495455       -0.1251230802        6.9633986479
 Ce        -1.9331746692        3.3899148446        6.8429845901
 Ce         1.7760656852        3.3405639651        6.9533746906
 Ce         5.8098309093        3.2356001273        7.0690724572
 Ce         9.6507135989        3.3345017231        7.2247096019
 Ce        -3.8047584064        6.5156876799        7.2278200639
 Ce         0.0512629059        6.5127410952        7.0316478832
 Ce         3.8259595644        6.6926302815        7.2597570715
 Ce         7.6866287946        6.4897231406        7.0632540148
 Ce        -5.7689814973        9.9348159743        7.3328832343
 Ce        -2.1354928127        9.7739548935        7.1849217994
 Ce         1.7732951756        9.8491903040        7.2625891024
 Ce         5.8221891103        9.8566828514        7.0609840160
 Pt        12.5958132877        1.5044775784        9.3720449490
 Pt         0.3079906303        5.0316609064        9.7286302317
 Pt         0.1675793855        7.4953002447        9.8589857241
 Pt         6.7116849237       13.3479290874       10.5249738124
 Pt        -0.3293091382        2.5055610521        9.7656476175
 Pt        -2.5671477850        7.9465523092        9.6531859914
 Pt         2.3200902708        3.2490671714       10.0321553804
 Pt         2.6892897842        5.7860713931       10.4811101123
 Pt         5.2128739703        4.6848484181        9.8944536870
 Pt         1.6167086368        0.4265821065        9.6026108476
 Pt         4.1035473522        1.3504935210        9.8610984324
 Pt        -1.9768173126        5.3498036949       10.5624830006
 Pt         6.6738679320        2.4819026665        9.8302392955
 Pt        -0.3396127230        3.7666298966       12.0030484690
 Pt         5.5894848462        1.7972633765       12.1742011577
 Pt         0.5716193891        6.1768404709       12.0828195068
 Pt         4.0181861794        3.8652226888       11.9488432119
 Pt         0.5553881418        4.5335313035       14.4568603301
 Pt         0.8522326584        1.3148614343       11.9343402376
 Pt         2.6203228525        5.2881837168       13.3479942281
 Pt         3.3528517164        0.5523117271       12.2253797773
 Pt         2.3561623558        2.4694972891       13.5507937806
     166
 i =     2841, time =     2841.000, E =     -6045.7838209926
  O         0.0000000000        0.0000000000        0.0000000000
  O         3.8260000000        0.0000000000        0.0000000000
  O         7.6520000000        0.0000000000        0.0000000000
  O        11.4780000000        0.0000000000        0.0000000000
  O        -1.9130000000        3.3140000000        0.0000000000
  O         1.9130000000        3.3140000000        0.0000000000
  O         5.7390000000        3.3140000000        0.0000000000
  O         9.5650000000        3.3140000000        0.0000000000
  O        -3.8260000000        6.6270000000        0.0000000000
  O         0.0000000000        6.6270000000        0.0000000000
  O         3.8260000000        6.6270000000        0.0000000000
  O         7.6520000000        6.6270000000        0.0000000000
  O        -5.7390000000        9.9410000000        0.0000000000
  O        -1.9130000000        9.9410000000        0.0000000000
  O         1.9130000000        9.9410000000        0.0000000000
  O         5.7390000000        9.9410000000        0.0000000000
  O         1.9130000000        1.1050000000        1.5620000000
  O         5.7390000000        1.1050000000        1.5620000000
  O         9.5650000000        1.1050000000        1.5620000000
  O        13.3920000000        1.1050000000        1.5620000000
  O         0.0000000000        4.4180000000        1.5620000000
  O         3.8260000000        4.4180000000        1.5620000000
  O         7.6520000000        4.4180000000        1.5620000000
  O        11.4780000000        4.4180000000        1.5620000000
  O        -1.9130000000        7.7320000000        1.5620000000
  O         1.9130000000        7.7320000000        1.5620000000
  O         5.7390000000        7.7320000000        1.5620000000
  O         9.5650000000        7.7320000000        1.5620000000
  O        -3.8260000000       11.0450000000        1.5620000000
  O         0.0000000000       11.0450000000        1.5620000000
  O         3.8260000000       11.0450000000        1.5620000000
  O         7.6520000000       11.0450000000        1.5620000000
  O         0.0000000000        2.2090000000        3.1240000000
  O         3.8260000000        2.2090000000        3.1240000000
  O         7.6520000000        2.2090000000        3.1240000000
  O        11.4780000000        2.2090000000        3.1240000000
  O        -1.9130000000        5.5230000000        3.1240000000
  O         1.9130000000        5.5230000000        3.1240000000
  O         5.7390000000        5.5230000000        3.1240000000
  O         9.5650000000        5.5230000000        3.1240000000
  O        -3.8260000000        8.8360000000        3.1240000000
  O         0.0000000000        8.8360000000        3.1240000000
  O         3.8260000000        8.8360000000        3.1240000000
  O         7.6520000000        8.8360000000        3.1240000000
  O        -5.7390000000       12.1500000000        3.1240000000
  O        -1.9130000000       12.1500000000        3.1240000000
  O         1.9130000000       12.1500000000        3.1240000000
  O         5.7390000000       12.1500000000        3.1240000000
  O         0.0445937079       -0.2426935391        4.7853853301
  O         3.8292337357       -0.0888407986        4.8399006371
  O         7.7972831935       -0.1336931627        4.7770054002
  O        11.5019850635       -0.0212281586        4.7149316647
  O        -1.9720817962        3.4173558677        4.6835019815
  O         1.8219440362        3.3235226723        4.7919017830
  O         5.6226565755        3.3806065033        4.7336255136
  O         9.6272816186        3.2639280776        4.7650007979
  O        -3.9189945388        6.7535620812        4.9675996671
  O        -0.0698228198        6.5465240596        4.7455782541
  O         3.6045930201        6.6229921794        4.7374786295
  O         7.5714475595        6.5057301425        4.6859054231
  O        -5.8251131445        9.9404149165        4.7576769881
  O        -1.9712619856        9.9855825106        4.7349140831
  O         1.9241048436       10.0422114834        4.7921171785
  O         5.9119053657        9.8681721156        4.7967310815
  O         1.9861815165        1.2527319756        6.0985170496
  O         5.7852156427        0.9985161609        6.1780772043
  O         9.8356147056        0.9020307160        6.5347106569
  O        13.4596478041        1.2675415793        6.1977458985
  O        -0.0789230661        4.5416044015        6.1111261983
  O         3.9210274569        4.3230191268        6.5743095089
  O         7.7255906939        4.3952364721        6.2935567142
  O        11.3794711289        4.1194686003        6.2784713653
  O        -1.8938302725        7.8055130643        6.2344769049
  O         1.8812241288        7.7377920147        6.3003537622
  O         5.5764665627        7.5298391447        6.2857359672
  O         9.4372937375        7.7512825216        6.4089954814
  O        -3.9708017840       10.8040285191        6.3292413271
  O        -0.0269721407       10.6781224062        6.2980096599
  O         3.8294255926       10.8668624160        6.2165225683
  O         7.8523447282       10.9966073021        6.3977001385
  O        -0.0855581890        2.0546137438        7.6015119316
  O         4.0408302675        1.8516987563        7.8856100576
  O         7.8341424439        2.3097738336        8.0503217672
  O        11.4084946054        2.3568114420        8.1118499291
  O        -2.0661023379        5.4957676825        7.7183677615
  O         1.9103774086        5.5779096358        7.8541457350
  O         6.0686993696        5.6063124609        8.2569495471
  O         9.7077445756        5.4785817352        8.0778429190
  O        -4.1223895330        8.7247561887        8.2595316306
  O         0.2233705179        8.6106543337        8.2747049749
  O         3.8494328065        8.8972777626        8.1235668163
  O         7.4681016840        8.9316239222        8.0448564551
  O        -5.7311960731       12.1893005226        7.9959329294
  O        -2.2203033000       11.8254850386        7.9056928055
  O         1.6995095193       12.0714290176        8.0613380038
  O         5.7529831278       12.1556625877        7.7330387769
 Ce         0.0000000000        2.2090000000        0.7810000000
 Ce         3.8260000000        2.2090000000        0.7810000000
 Ce         7.6520000000        2.2090000000        0.7810000000
 Ce        11.4780000000        2.2090000000        0.7810000000
 Ce        -1.9130000000        5.5230000000        0.7810000000
 Ce         1.9130000000        5.5230000000        0.7810000000
 Ce         5.7390000000        5.5230000000        0.7810000000
 Ce         9.5650000000        5.5230000000        0.7810000000
 Ce        -3.8260000000        8.8360000000        0.7810000000
 Ce         0.0000000000        8.8360000000        0.7810000000
 Ce         3.8260000000        8.8360000000        0.7810000000
 Ce         7.6520000000        8.8360000000        0.7810000000
 Ce        -5.7390000000       12.1500000000        0.7810000000
 Ce        -1.9130000000       12.1500000000        0.7810000000
 Ce         1.9130000000       12.1500000000        0.7810000000
 Ce         5.7390000000       12.1500000000        0.7810000000
 Ce         1.8474651475        0.9783757427        3.8758769028
 Ce         5.6347088744        1.0738606237        3.9721989377
 Ce         9.5881323557        1.1452521454        3.9910494307
 Ce        13.3209512396        1.1682551056        3.8604490384
 Ce         0.0566163546        4.4665168912        3.8796764209
 Ce         3.7065264091        4.3271425812        4.0718100685
 Ce         7.5616997666        4.2869888664        3.8980730844
 Ce        11.3894939925        4.4916147317        3.7487635087
 Ce        -2.0606819536        7.7348616291        3.8562456507
 Ce         1.8661135396        7.8672941390        3.9592130433
 Ce         5.7343672020        7.6894031951        4.0059087778
 Ce         9.5940324092        7.6533944786        4.1712424424
 Ce        -3.9842391481       11.0379558152        3.9114404909
 Ce         0.0440654678       10.9966437350        3.8799660244
 Ce         3.6954689255       10.9188687579        3.9178167496
 Ce         7.6217379591       10.9379250598        3.9215277206
 Ce        -0.0706898489       -0.0655134193        7.0008214941
 Ce         3.8617851389       -0.1771241066        7.1197427521
 Ce         7.7760432163       -0.2275821157        7.0431062438
 Ce        11.5161429874       -0.1225244012        6.9622838736
 Ce        -1.9298979560        3.3884369509        6.8409254981
 Ce         1.7773410286        3.3401219484        6.9526855100
 Ce         5.8119968164        3.2344285279        7.0726173545
 Ce         9.6498332392        3.3354604489        7.2285864512
 Ce        -3.7983881892        6.5195606038        7.2289682357
 Ce         0.0507550492        6.5114606366        7.0325456139
 Ce         3.8284811721        6.6915594035        7.2597701825
 Ce         7.6870510545        6.4893374738        7.0671016296
 Ce        -5.7663369138        9.9299581484        7.3334390224
 Ce        -2.1324386625        9.7719262685        7.1892638530
 Ce         1.7734975355        9.8501288628        7.2599097786
 Ce         5.8224141535        9.8578387540        7.0593053738
 Pt        12.5963850974        1.5017684605        9.3714779102
 Pt         0.3053024187        5.0301818224        9.7281996530
 Pt         0.1683120741        7.4934317706        9.8606233020
 Pt         6.7128707356       13.3494305605       10.5222462092
 Pt        -0.3303169400        2.5075253423        9.7671187515
 Pt        -2.5656304776        7.9442559093        9.6536815515
 Pt         2.3173590789        3.2488586889       10.0317321712
 Pt         2.6892034947        5.7882218657       10.4805535705
 Pt         5.2144777756        4.6813053430        9.8984102461
 Pt         1.6158002511        0.4303840375        9.6032216690
 Pt         4.1040387794        1.3523056863        9.8614972108
 Pt        -1.9801687258        5.3512378509       10.5608527481
 Pt         6.6752933308        2.4802708349        9.8321034941
 Pt        -0.3400725804        3.7689431589       12.0046825277
 Pt         5.5859123079        1.7976865298       12.1731814252
 Pt         0.5643782121        6.1732580300       12.0848885392
 Pt         4.0168372186        3.8694340659       11.9485879594
 Pt         0.5545779407        4.5330247448       14.4539416459
 Pt         0.8508755132        1.3161169595       11.9334745933
 Pt         2.6169333456        5.2893214865       13.3432490897
 Pt         3.3520666777        0.5514857501       12.2247566119
 Pt         2.3547758439        2.4691907640       13.5520807244
     166
 i =     2842, time =     2842.000, E =     -6045.7849190861
  O         0.0000000000        0.0000000000        0.0000000000
  O         3.8260000000        0.0000000000        0.0000000000
  O         7.6520000000        0.0000000000        0.0000000000
  O        11.4780000000        0.0000000000        0.0000000000
  O        -1.9130000000        3.3140000000        0.0000000000
  O         1.9130000000        3.3140000000        0.0000000000
  O         5.7390000000        3.3140000000        0.0000000000
  O         9.5650000000        3.3140000000        0.0000000000
  O        -3.8260000000        6.6270000000        0.0000000000
  O         0.0000000000        6.6270000000        0.0000000000
  O         3.8260000000        6.6270000000        0.0000000000
  O         7.6520000000        6.6270000000        0.0000000000
  O        -5.7390000000        9.9410000000        0.0000000000
  O        -1.9130000000        9.9410000000        0.0000000000
  O         1.9130000000        9.9410000000        0.0000000000
  O         5.7390000000        9.9410000000        0.0000000000
  O         1.9130000000        1.1050000000        1.5620000000
  O         5.7390000000        1.1050000000        1.5620000000
  O         9.5650000000        1.1050000000        1.5620000000
  O        13.3920000000        1.1050000000        1.5620000000
  O         0.0000000000        4.4180000000        1.5620000000
  O         3.8260000000        4.4180000000        1.5620000000
  O         7.6520000000        4.4180000000        1.5620000000
  O        11.4780000000        4.4180000000        1.5620000000
  O        -1.9130000000        7.7320000000        1.5620000000
  O         1.9130000000        7.7320000000        1.5620000000
  O         5.7390000000        7.7320000000        1.5620000000
  O         9.5650000000        7.7320000000        1.5620000000
  O        -3.8260000000       11.0450000000        1.5620000000
  O         0.0000000000       11.0450000000        1.5620000000
  O         3.8260000000       11.0450000000        1.5620000000
  O         7.6520000000       11.0450000000        1.5620000000
  O         0.0000000000        2.2090000000        3.1240000000
  O         3.8260000000        2.2090000000        3.1240000000
  O         7.6520000000        2.2090000000        3.1240000000
  O        11.4780000000        2.2090000000        3.1240000000
  O        -1.9130000000        5.5230000000        3.1240000000
  O         1.9130000000        5.5230000000        3.1240000000
  O         5.7390000000        5.5230000000        3.1240000000
  O         9.5650000000        5.5230000000        3.1240000000
  O        -3.8260000000        8.8360000000        3.1240000000
  O         0.0000000000        8.8360000000        3.1240000000
  O         3.8260000000        8.8360000000        3.1240000000
  O         7.6520000000        8.8360000000        3.1240000000
  O        -5.7390000000       12.1500000000        3.1240000000
  O        -1.9130000000       12.1500000000        3.1240000000
  O         1.9130000000       12.1500000000        3.1240000000
  O         5.7390000000       12.1500000000        3.1240000000
  O         0.0533862390       -0.2432297209        4.7922444063
  O         3.8305458773       -0.0846641780        4.8240893913
  O         7.7869372387       -0.1404583294        4.7717535690
  O        11.5066296391       -0.0098565245        4.7034847888
  O        -1.9642123950        3.4115453721        4.6802778016
  O         1.8233764467        3.3221795589        4.8031044670
  O         5.6293951282        3.3662998136        4.7294846108
  O         9.6201750530        3.2588446664        4.7621064243
  O        -3.9215001792        6.7469855572        4.9701490124
  O        -0.0691595639        6.5515810880        4.7489320276
  O         3.6136681246        6.6244960198        4.7302035757
  O         7.5697078723        6.5018310511        4.6896305712
  O        -5.8210392497        9.9375868553        4.7610437248
  O        -1.9740361147        9.9996670960        4.7279363806
  O         1.9273784259       10.0478400282        4.7816306071
  O         5.9107377250        9.8499966069        4.7963463343
  O         1.9885231603        1.2443467913        6.0981650702
  O         5.7976009136        0.9911394160        6.1793892136
  O         9.8462616917        0.8947390839        6.5280391322
  O        13.4633125587        1.2571961135        6.2029234592
  O        -0.0691768576        4.5397411228        6.1074486293
  O         3.9218709607        4.3247230150        6.5751223909
  O         7.7216673487        4.4041054870        6.2969335666
  O        11.3791416165        4.1231088338        6.2688399542
  O        -1.9015341840        7.8011264590        6.2466332857
  O         1.8807119750        7.7196241081        6.2888565583
  O         5.5709095253        7.5212219989        6.2987788875
  O         9.4328878706        7.7377537406        6.4088416614
  O        -3.9715279317       10.8012566381        6.3250291335
  O        -0.0289205227       10.6827914809        6.3028183410
  O         3.8244293587       10.8650409049        6.2264774989
  O         7.8574359540       10.9988870597        6.3964011073
  O        -0.0957081067        2.0539333393        7.6006785747
  O         4.0465371954        1.8584464690        7.8885020405
  O         7.8351589716        2.3059183659        8.0498355938
  O        11.4051834716        2.3628410089        8.1129739057
  O        -2.0650647230        5.4776428938        7.7185950196
  O         1.8994074875        5.5850558423        7.8504847480
  O         6.0647673467        5.6042103096        8.2572509516
  O         9.7079009486        5.4688146392        8.0738418135
  O        -4.1194519487        8.7190625101        8.2677685561
  O         0.2208267051        8.6149023576        8.2655050296
  O         3.8601704454        8.9177777269        8.1328556404
  O         7.4715715687        8.9411273648        8.0535982381
  O        -5.7273666830       12.1804125551        7.9949890114
  O        -2.2191956996       11.8243936056        7.9086816816
  O         1.7029796186       12.0696195811        8.0678469729
  O         5.7462657534       12.1587778440        7.7390529475
 Ce         0.0000000000        2.2090000000        0.7810000000
 Ce         3.8260000000        2.2090000000        0.7810000000
 Ce         7.6520000000        2.2090000000        0.7810000000
 Ce        11.4780000000        2.2090000000        0.7810000000
 Ce        -1.9130000000        5.5230000000        0.7810000000
 Ce         1.9130000000        5.5230000000        0.7810000000
 Ce         5.7390000000        5.5230000000        0.7810000000
 Ce         9.5650000000        5.5230000000        0.7810000000
 Ce        -3.8260000000        8.8360000000        0.7810000000
 Ce         0.0000000000        8.8360000000        0.7810000000
 Ce         3.8260000000        8.8360000000        0.7810000000
 Ce         7.6520000000        8.8360000000        0.7810000000
 Ce        -5.7390000000       12.1500000000        0.7810000000
 Ce        -1.9130000000       12.1500000000        0.7810000000
 Ce         1.9130000000       12.1500000000        0.7810000000
 Ce         5.7390000000       12.1500000000        0.7810000000
 Ce         1.8467812590        0.9765241698        3.8789607586
 Ce         5.6354894768        1.0741461564        3.9760236322
 Ce         9.5897177273        1.1425268799        3.9924281748
 Ce        13.3200725234        1.1657839047        3.8610965700
 Ce         0.0551060695        4.4640474353        3.8814392833
 Ce         3.7070218844        4.3295622076        4.0718977321
 Ce         7.5638797911        4.2863469724        3.9001390113
 Ce        11.3904324572        4.4927822747        3.7497298279
 Ce        -2.0624876397        7.7335811679        3.8566441644
 Ce         1.8620403303        7.8690855129        3.9613154221
 Ce         5.7327006262        7.6879189038        4.0072856605
 Ce         9.5983076805        7.6530113114        4.1725353890
 Ce        -3.9831500527       11.0369141218        3.9119472258
 Ce         0.0458896331       10.9981621414        3.8762213286
 Ce         3.6952282011       10.9183738991        3.9186806153
 Ce         7.6233951662       10.9377573099        3.9191847000
 Ce        -0.0721096436       -0.0673672844        7.0003106285
 Ce         3.8627402513       -0.1759329050        7.1171308031
 Ce         7.7710357973       -0.2332741424        7.0424558264
 Ce        11.5179667837       -0.1199883545        6.9612705813
 Ce        -1.9266416049        3.3868885782        6.8390174874
 Ce         1.7786791586        3.3395984634        6.9521757360
 Ce         5.8141382841        3.2332334027        7.0762351223
 Ce         9.6489315363        3.3364059965        7.2324829417
 Ce        -3.7920782043        6.5234775468        7.2301819477
 Ce         0.0501693120        6.5102960278        7.0334514289
 Ce         3.8309506967        6.6904845623        7.2598163750
 Ce         7.6874528785        6.4889958728        7.0710341618
 Ce        -5.7637890178        9.9250808515        7.3339648714
 Ce        -2.1293139901        9.7699246787        7.1935629320
 Ce         1.7738405497        9.8510632116        7.2572348721
 Ce         5.8225650578        9.8590330576        7.0577156935
 Pt        12.5970028194        1.4990608090        9.3709747467
 Pt         0.3026647693        5.0285936288        9.7276647002
 Pt         0.1690046206        7.4915899399        9.8623667557
 Pt         6.7140699871       13.3509030290       10.5195099711
 Pt        -0.3313082188        2.5095313816        9.7685331035
 Pt        -2.5641035809        7.9419253286        9.6541523492
 Pt         2.3145615394        3.2486149518       10.0312967438
 Pt         2.6891977966        5.7903765948       10.4800191054
 Pt         5.2160528484        4.6777803315        9.9023538183
 Pt         1.6149042077        0.4341641355        9.6038505390
 Pt         4.1045259802        1.3541392383        9.8619004300
 Pt        -1.9835267269        5.3527175106       10.5592495595
 Pt         6.6767076885        2.4785936931        9.8339857098
 Pt        -0.3405339003        3.7712051523       12.0063742074
 Pt         5.5823548123        1.7981662336       12.1721235319
 Pt         0.5571029737        6.1697075465       12.0870077349
 Pt         4.0155348538        3.8735961184       11.9483157720
 Pt         0.5537507052        4.5324751087       14.4510036556
 Pt         0.8494771804        1.3173854214       11.9326030191
 Pt         2.6135513156        5.2905002660       13.3385004180
 Pt         3.3512817348        0.5506409851       12.2241220523
 Pt         2.3533712714        2.4689503760       13.5533934018
     166
 i =     2843, time =     2843.000, E =     -6045.7851916605
  O         0.0000000000        0.0000000000        0.0000000000
  O         3.8260000000        0.0000000000        0.0000000000
  O         7.6520000000        0.0000000000        0.0000000000
  O        11.4780000000        0.0000000000        0.0000000000
  O        -1.9130000000        3.3140000000        0.0000000000
  O         1.9130000000        3.3140000000        0.0000000000
  O         5.7390000000        3.3140000000        0.0000000000
  O         9.5650000000        3.3140000000        0.0000000000
  O        -3.8260000000        6.6270000000        0.0000000000
  O         0.0000000000        6.6270000000        0.0000000000
  O         3.8260000000        6.6270000000        0.0000000000
  O         7.6520000000        6.6270000000        0.0000000000
  O        -5.7390000000        9.9410000000        0.0000000000
  O        -1.9130000000        9.9410000000        0.0000000000
  O         1.9130000000        9.9410000000        0.0000000000
  O         5.7390000000        9.9410000000        0.0000000000
  O         1.9130000000        1.1050000000        1.5620000000
  O         5.7390000000        1.1050000000        1.5620000000
  O         9.5650000000        1.1050000000        1.5620000000
  O        13.3920000000        1.1050000000        1.5620000000
  O         0.0000000000        4.4180000000        1.5620000000
  O         3.8260000000        4.4180000000        1.5620000000
  O         7.6520000000        4.4180000000        1.5620000000
  O        11.4780000000        4.4180000000        1.5620000000
  O        -1.9130000000        7.7320000000        1.5620000000
  O         1.9130000000        7.7320000000        1.5620000000
  O         5.7390000000        7.7320000000        1.5620000000
  O         9.5650000000        7.7320000000        1.5620000000
  O        -3.8260000000       11.0450000000        1.5620000000
  O         0.0000000000       11.0450000000        1.5620000000
  O         3.8260000000       11.0450000000        1.5620000000
  O         7.6520000000       11.0450000000        1.5620000000
  O         0.0000000000        2.2090000000        3.1240000000
  O         3.8260000000        2.2090000000        3.1240000000
  O         7.6520000000        2.2090000000        3.1240000000
  O        11.4780000000        2.2090000000        3.1240000000
  O        -1.9130000000        5.5230000000        3.1240000000
  O         1.9130000000        5.5230000000        3.1240000000
  O         5.7390000000        5.5230000000        3.1240000000
  O         9.5650000000        5.5230000000        3.1240000000
  O        -3.8260000000        8.8360000000        3.1240000000
  O         0.0000000000        8.8360000000        3.1240000000
  O         3.8260000000        8.8360000000        3.1240000000
  O         7.6520000000        8.8360000000        3.1240000000
  O        -5.7390000000       12.1500000000        3.1240000000
  O        -1.9130000000       12.1500000000        3.1240000000
  O         1.9130000000       12.1500000000        3.1240000000
  O         5.7390000000       12.1500000000        3.1240000000
  O         0.0620359075       -0.2428954484        4.7987162371
  O         3.8317029169       -0.0806745251        4.8077217204
  O         7.7766402805       -0.1467982633        4.7666573364
  O        11.5110907403        0.0015161263        4.6918634354
  O        -1.9563375446        3.4056196095        4.6762035740
  O         1.8252634037        3.3211917416        4.8136110283
  O         5.6365380573        3.3515956615        4.7256432282
  O         9.6124359923        3.2534858108        4.7588223477
  O        -3.9236269137        6.7396486058        4.9719134980
  O        -0.0682791633        6.5574582264        4.7517513633
  O         3.6234070314        6.6256838318        4.7232024144
  O         7.5684934037        6.4983174233        4.6937967226
  O        -5.8165522370        9.9342376272        4.7641145205
  O        -1.9769811004       10.0135026640        4.7207869141
  O         1.9301822984       10.0527675741        4.7708866031
  O         5.9089077686        9.8316105608        4.7960777604
  O         1.9907106590        1.2353484265        6.0981205242
  O         5.8104148611        0.9840221316        6.1809827983
  O         9.8550825329        0.8884285260        6.5203823804
  O        13.4661068832        1.2459854413        6.2073395286
  O        -0.0590671005        4.5368938356        6.1044813114
  O         3.9224933648        4.3266440426        6.5753562948
  O         7.7174649403        4.4127790305        6.3002869361
  O        11.3791234058        4.1279897564        6.2587160185
  O        -1.9093333084        7.7966161070        6.2589704235
  O         1.8802199159        7.7019207812        6.2775638425
  O         5.5662061602        7.5130340787        6.3118280483
  O         9.4284556311        7.7240784924        6.4086347116
  O        -3.9722482796       10.7985146104        6.3208287656
  O        -0.0310053219       10.6880677922        6.3081198045
  O         3.8193359260       10.8636960102        6.2366192606
  O         7.8618676657       11.0009330309        6.3949923337
  O        -0.1053190627        2.0542187770        7.6001802946
  O         4.0523412235        1.8656187813        7.8913595435
  O         7.8356685078        2.3016967631        8.0495969774
  O        11.4016270446        2.3688110834        8.1139147569
  O        -2.0636530014        5.4592975421        7.7186484043
  O         1.8884002114        5.5919934548        7.8465480267
  O         6.0606331052        5.6019909557        8.2571202158
  O         9.7077498447        5.4590341259        8.0693817822
  O        -4.1158247528        8.7133173069        8.2761380690
  O         0.2180903343        8.6199923086        8.2554766719
  O         3.8707661853        8.9377710065        8.1415050010
  O         7.4753611282        8.9502017678        8.0620830600
  O        -5.7234958557       12.1718716726        7.9945687269
  O        -2.2172417522       11.8235915154        7.9118746703
  O         1.7067430841       12.0672460506        8.0740747434
  O         5.7394657901       12.1613583569        7.7448004683
 Ce         0.0000000000        2.2090000000        0.7810000000
 Ce         3.8260000000        2.2090000000        0.7810000000
 Ce         7.6520000000        2.2090000000        0.7810000000
 Ce        11.4780000000        2.2090000000        0.7810000000
 Ce        -1.9130000000        5.5230000000        0.7810000000
 Ce         1.9130000000        5.5230000000        0.7810000000
 Ce         5.7390000000        5.5230000000        0.7810000000
 Ce         9.5650000000        5.5230000000        0.7810000000
 Ce        -3.8260000000        8.8360000000        0.7810000000
 Ce         0.0000000000        8.8360000000        0.7810000000
 Ce         3.8260000000        8.8360000000        0.7810000000
 Ce         7.6520000000        8.8360000000        0.7810000000
 Ce        -5.7390000000       12.1500000000        0.7810000000
 Ce        -1.9130000000       12.1500000000        0.7810000000
 Ce         1.9130000000       12.1500000000        0.7810000000
 Ce         5.7390000000       12.1500000000        0.7810000000
 Ce         1.8461087374        0.9747469025        3.8821190559
 Ce         5.6363179120        1.0743659385        3.9797951137
 Ce         9.5913104723        1.1397445149        3.9937667031
 Ce        13.3192587393        1.1632376466        3.8617890329
 Ce         0.0535251234        4.4615976769        3.8831487108
 Ce         3.7075797921        4.3321214168        4.0718803957
 Ce         7.5660870088        4.2858116548        3.9021981076
 Ce        11.3914336390        4.4938459446        3.7508627376
 Ce        -2.0641513836        7.7323623574        3.8571508869
 Ce         1.8579876624        7.8707031497        3.9634216321
 Ce         5.7310142645        7.6863852678        4.0085642960
 Ce         9.6024521219        7.6527525772        4.1736826997
 Ce        -3.9819095477       11.0358193239        3.9125028376
 Ce         0.0475773597       10.9997152025        3.8725164329
 Ce         3.6951489455       10.9180236996        3.9195438275
 Ce         7.6250640741       10.9376237035        3.9168331482
 Ce        -0.0734917369       -0.0692067955        6.9998575116
 Ce         3.8636554283       -0.1747188846        7.1144948532
 Ce         7.7659605275       -0.2389413644        7.0418517331
 Ce        11.5199295852       -0.1175212242        6.9603631121
 Ce        -1.9234099739        3.3852671957        6.8372590596
 Ce         1.7800786485        3.3389929406        6.9518515717
 Ce         5.8162541381        3.2320166522        7.0799214464
 Ce         9.6480150499        3.3373407150        7.2363935452
 Ce        -3.7858297257        6.5274269133        7.2314627641
 Ce         0.0495046246        6.5092455643        7.0343651215
 Ce         3.8333617336        6.6894033676        7.2598998915
 Ce         7.6878316387        6.4886962995        7.0750500960
 Ce        -5.7613409318        9.9201892347        7.3344607745
 Ce        -2.1261198498        9.7679547885        7.1978190435
 Ce         1.7743298759        9.8519940539        7.2545692512
 Ce         5.8226394424        9.8602655706        7.0562234669
 Pt        12.5976631126        1.4963575944        9.3705329029
 Pt         0.3000760915        5.0269006475        9.7270263927
 Pt         0.1696604854        7.4897829921        9.8642064654
 Pt         6.7152821264       13.3523443493       10.5167650777
 Pt        -0.3322831415        2.5115785266        9.7698903270
 Pt        -2.5625665309        7.9395605011        9.6545989748
 Pt         2.3116995413        3.2483313750       10.0308439266
 Pt         2.6892713524        5.7925397041       10.4795057767
 Pt         5.2175989544        4.6742739325        9.9062852485
 Pt         1.6140223980        0.4379212986        9.6044953398
 Pt         4.1050074497        1.3559957546        9.8623074891
 Pt        -1.9868899442        5.3542393876       10.5576737593
 Pt         6.6781107243        2.4768716339        9.8358854988
 Pt        -0.3409982920        3.7734105244       12.0081236292
 Pt         5.5788115902        1.7987022623       12.1710278226
 Pt         0.5497939834        6.1661927481       12.0891763500
 Pt         4.0142762580        3.8777096143       11.9480356167
 Pt         0.5529069774        4.5318808763       14.4480496951
 Pt         0.8480401205        1.3186678602       11.9317276567
 Pt         2.6101817263        5.2917215503       13.3337408795
 Pt         3.3504940095        0.5497785343       12.2234775985
 Pt         2.3519493749        2.4687722768       13.5547306606
     166
 i =     2844, time =     2844.000, E =     -6045.7854830267
  O         0.0000000000        0.0000000000        0.0000000000
  O         3.8260000000        0.0000000000        0.0000000000
  O         7.6520000000        0.0000000000        0.0000000000
  O        11.4780000000        0.0000000000        0.0000000000
  O        -1.9130000000        3.3140000000        0.0000000000
  O         1.9130000000        3.3140000000        0.0000000000
  O         5.7390000000        3.3140000000        0.0000000000
  O         9.5650000000        3.3140000000        0.0000000000
  O        -3.8260000000        6.6270000000        0.0000000000
  O         0.0000000000        6.6270000000        0.0000000000
  O         3.8260000000        6.6270000000        0.0000000000
  O         7.6520000000        6.6270000000        0.0000000000
  O        -5.7390000000        9.9410000000        0.0000000000
  O        -1.9130000000        9.9410000000        0.0000000000
  O         1.9130000000        9.9410000000        0.0000000000
  O         5.7390000000        9.9410000000        0.0000000000
  O         1.9130000000        1.1050000000        1.5620000000
  O         5.7390000000        1.1050000000        1.5620000000
  O         9.5650000000        1.1050000000        1.5620000000
  O        13.3920000000        1.1050000000        1.5620000000
  O         0.0000000000        4.4180000000        1.5620000000
  O         3.8260000000        4.4180000000        1.5620000000
  O         7.6520000000        4.4180000000        1.5620000000
  O        11.4780000000        4.4180000000        1.5620000000
  O        -1.9130000000        7.7320000000        1.5620000000
  O         1.9130000000        7.7320000000        1.5620000000
  O         5.7390000000        7.7320000000        1.5620000000
  O         9.5650000000        7.7320000000        1.5620000000
  O        -3.8260000000       11.0450000000        1.5620000000
  O         0.0000000000       11.0450000000        1.5620000000
  O         3.8260000000       11.0450000000        1.5620000000
  O         7.6520000000       11.0450000000        1.5620000000
  O         0.0000000000        2.2090000000        3.1240000000
  O         3.8260000000        2.2090000000        3.1240000000
  O         7.6520000000        2.2090000000        3.1240000000
  O        11.4780000000        2.2090000000        3.1240000000
  O        -1.9130000000        5.5230000000        3.1240000000
  O         1.9130000000        5.5230000000        3.1240000000
  O         5.7390000000        5.5230000000        3.1240000000
  O         9.5650000000        5.5230000000        3.1240000000
  O        -3.8260000000        8.8360000000        3.1240000000
  O         0.0000000000        8.8360000000        3.1240000000
  O         3.8260000000        8.8360000000        3.1240000000
  O         7.6520000000        8.8360000000        3.1240000000
  O        -5.7390000000       12.1500000000        3.1240000000
  O        -1.9130000000       12.1500000000        3.1240000000
  O         1.9130000000       12.1500000000        3.1240000000
  O         5.7390000000       12.1500000000        3.1240000000
  O         0.0704959239       -0.2417280570        4.8047667086
  O         3.8327086060       -0.0768721718        4.7910006875
  O         7.7664419958       -0.1527104132        4.7617482621
  O        11.5153610979        0.0128045365        4.6800875399
  O        -1.9484631992        3.3995696020        4.6713367194
  O         1.8276129814        3.3205592081        4.8233126237
  O         5.6440177904        3.3365700729        4.7221374897
  O         9.6040893971        3.2478864901        4.7551872164
  O        -3.9253437016        6.7315945055        4.9728753090
  O        -0.0672281191        6.5641287975        4.7540043516
  O         3.6337644486        6.6265465520        4.7164788723
  O         7.5677989137        6.4952297385        4.6983905048
  O        -5.8117027422        9.9303675115        4.7668783608
  O        -1.9800783893       10.0269862867        4.7135072070
  O         1.9324667233       10.0569490959        4.7599230882
  O         5.9064324757        9.8130890773        4.7959331013
  O         1.9927459067        1.2257723296        6.0984240790
  O         5.8235695068        0.9771690813        6.1829191768
  O         9.8619716353        0.8831151543        6.5117873044
  O        13.4679951602        1.2339407308        6.2109749740
  O        -0.0486746258        4.5330925764        6.1022325300
  O         3.9229063732        4.3287975968        6.5750092824
  O         7.7130127324        4.4211752218        6.3036068359
  O        11.3794166768        4.1340544925        6.2480617534
  O        -1.9172438880        7.7920083860        6.2714548942
  O         1.8797758091        7.6847584872        6.2665201151
  O         5.5624004324        7.5053004061        6.3247704977
  O         9.4240608988        7.7103654132        6.4083983976
  O        -3.9729314487       10.7958227174        6.3166855720
  O        -0.0332173819       10.6939307540        6.3138565146
  O         3.8141402205       10.8628443252        6.2468030105
  O         7.8656170175       11.0027218073        6.3934633091
  O        -0.1143342513        2.0554698829        7.6000192157
  O         4.0582327032        1.8731732549        7.8941541165
  O         7.8356749684        2.2971090786        8.0495960621
  O        11.3978644592        2.3747155523        8.1147053825
  O        -2.0618974528        5.4408332716        7.7185256354
  O         1.8774297760        5.5986587365        7.8424057186
  O         6.0562967405        5.5996270950        8.2565777766
  O         9.7073130886        5.4492869630        8.0645074531
  O        -4.1115340840        8.7075435352        8.2846529294
  O         0.2151591775        8.6258491498        8.2446838261
  O         3.8811954615        8.9572402041        8.1494873046
  O         7.4794837880        8.9588466582        8.0703080541
  O        -5.7195804166       12.1636932521        7.9946798589
  O        -2.2144646743       11.8230817684        7.9152610762
  O         1.7107287251       12.0643340786        8.0799548557
  O         5.7326462112       12.1633774550        7.7502873007
 Ce         0.0000000000        2.2090000000        0.7810000000
 Ce         3.8260000000        2.2090000000        0.7810000000
 Ce         7.6520000000        2.2090000000        0.7810000000
 Ce        11.4780000000        2.2090000000        0.7810000000
 Ce        -1.9130000000        5.5230000000        0.7810000000
 Ce         1.9130000000        5.5230000000        0.7810000000
 Ce         5.7390000000        5.5230000000        0.7810000000
 Ce         9.5650000000        5.5230000000        0.7810000000
 Ce        -3.8260000000        8.8360000000        0.7810000000
 Ce         0.0000000000        8.8360000000        0.7810000000
 Ce         3.8260000000        8.8360000000        0.7810000000
 Ce         7.6520000000        8.8360000000        0.7810000000
 Ce        -5.7390000000       12.1500000000        0.7810000000
 Ce        -1.9130000000       12.1500000000        0.7810000000
 Ce         1.9130000000       12.1500000000        0.7810000000
 Ce         5.7390000000       12.1500000000        0.7810000000
 Ce         1.8454510813        0.9730454236        3.8853462249
 Ce         5.6371961438        1.0745194670        3.9835033341
 Ce         9.5929077016        1.1369090097        3.9950608774
 Ce        13.3185110814        1.1606200756        3.8625226898
 Ce         0.0518773509        4.4591683071        3.8848014822
 Ce         3.7082042266        4.3348155542        4.0717566091
 Ce         7.5683202193        4.2853803058        3.9042480186
 Ce        11.3924943359        4.4948014339        3.7521618502
 Ce        -2.0656713027        7.7312066739        3.8577622846
 Ce         1.8539605299        7.8721432298        3.9655260447
 Ce         5.7293087589        7.6847973408        4.0097432720
 Ce         9.6064582291        7.6526158874        4.1746825085
 Ce        -3.9805159714       11.0346750797        3.9131035989
 Ce         0.0491228085       11.0013056075        3.8688490093
 Ce         3.6952346482       10.9178182124        3.9204014448
 Ce         7.6267435566       10.9375205588        3.9144759776
 Ce        -0.0748343315       -0.0710327691        6.9994676710
 Ce         3.8645289952       -0.1734827478        7.1118352625
 Ce         7.7608287231       -0.2445873615        7.0412943968
 Ce        11.5220378070       -0.1151280112        6.9595649306
 Ce        -1.9202083654        3.3835698865        6.8356471464
 Ce         1.7815393986        3.3383042170        6.9517186760
 Ce         5.8183448647        3.2307808914        7.0836724545
 Ce         9.6470885911        3.3382670107        7.2403120442
 Ce        -3.7796451035        6.5313960953        7.2328111351
 Ce         0.0487591802        6.5083077220        7.0352861077
 Ce         3.8357100680        6.6883130465        7.2600234591
 Ce         7.6881851237        6.4884361822        7.0791486577
 Ce        -5.7589959890        9.9152879908        7.3349265254
 Ce        -2.1228569566        9.7660221388        7.2020324331
 Ce         1.7749698822        9.8529231151        7.2519173866
 Ce         5.8226360999        9.8615356746        7.0548369267
 Pt        12.5983624388        1.4936618973        9.3701500518
 Pt         0.2975331513        5.0251061054        9.7262834686
 Pt         0.1702829024        7.4880194314        9.8661337467
 Pt         6.7165063667       13.3537519625       10.5140116383
 Pt        -0.3332410921        2.5136661487        9.7711906844
 Pt        -2.5610178713        7.9371607021        9.6550228345
 Pt         2.3087764180        3.2480069393       10.0303727050
 Pt         2.6894231360        5.7947153366       10.4790122258
 Pt         5.2191143529        4.6707894462        9.9102035234
 Pt         1.6131563510        0.4416536394        9.6051528815
 Pt         4.1054812285        1.3578753769        9.8627176352
 Pt        -1.9902564034        5.3558003531       10.5561259362
 Pt         6.6795027091        2.4751039048        9.8378028798
 Pt        -0.3414681622        3.7755560991       12.0099313379
 Pt         5.5752823285        1.7992949951       12.1698943887
 Pt         0.5424497845        6.1627182803       12.0913926393
 Pt         4.0130609010        3.8817687084       11.9477532411
 Pt         0.5520480534        4.5312415367       14.4450797177
 Pt         0.8465661379        1.3199639201       11.9308492985
 Pt         2.6068264252        5.2929876984       13.3289670101
 Pt         3.3497016223        0.5488995012       12.2228238006
 Pt         2.3505106299        2.4686547890       13.5560933706
     166
 i =     2845, time =     2845.000, E =     -6045.7861017969
  O         0.0000000000        0.0000000000        0.0000000000
  O         3.8260000000        0.0000000000        0.0000000000
  O         7.6520000000        0.0000000000        0.0000000000
  O        11.4780000000        0.0000000000        0.0000000000
  O        -1.9130000000        3.3140000000        0.0000000000
  O         1.9130000000        3.3140000000        0.0000000000
  O         5.7390000000        3.3140000000        0.0000000000
  O         9.5650000000        3.3140000000        0.0000000000
  O        -3.8260000000        6.6270000000        0.0000000000
  O         0.0000000000        6.6270000000        0.0000000000
  O         3.8260000000        6.6270000000        0.0000000000
  O         7.6520000000        6.6270000000        0.0000000000
  O        -5.7390000000        9.9410000000        0.0000000000
  O        -1.9130000000        9.9410000000        0.0000000000
  O         1.9130000000        9.9410000000        0.0000000000
  O         5.7390000000        9.9410000000        0.0000000000
  O         1.9130000000        1.1050000000        1.5620000000
  O         5.7390000000        1.1050000000        1.5620000000
  O         9.5650000000        1.1050000000        1.5620000000
  O        13.3920000000        1.1050000000        1.5620000000
  O         0.0000000000        4.4180000000        1.5620000000
  O         3.8260000000        4.4180000000        1.5620000000
  O         7.6520000000        4.4180000000        1.5620000000
  O        11.4780000000        4.4180000000        1.5620000000
  O        -1.9130000000        7.7320000000        1.5620000000
  O         1.9130000000        7.7320000000        1.5620000000
  O         5.7390000000        7.7320000000        1.5620000000
  O         9.5650000000        7.7320000000        1.5620000000
  O        -3.8260000000       11.0450000000        1.5620000000
  O         0.0000000000       11.0450000000        1.5620000000
  O         3.8260000000       11.0450000000        1.5620000000
  O         7.6520000000       11.0450000000        1.5620000000
  O         0.0000000000        2.2090000000        3.1240000000
  O         3.8260000000        2.2090000000        3.1240000000
  O         7.6520000000        2.2090000000        3.1240000000
  O        11.4780000000        2.2090000000        3.1240000000
  O        -1.9130000000        5.5230000000        3.1240000000
  O         1.9130000000        5.5230000000        3.1240000000
  O         5.7390000000        5.5230000000        3.1240000000
  O         9.5650000000        5.5230000000        3.1240000000
  O        -3.8260000000        8.8360000000        3.1240000000
  O         0.0000000000        8.8360000000        3.1240000000
  O         3.8260000000        8.8360000000        3.1240000000
  O         7.6520000000        8.8360000000        3.1240000000
  O        -5.7390000000       12.1500000000        3.1240000000
  O        -1.9130000000       12.1500000000        3.1240000000
  O         1.9130000000       12.1500000000        3.1240000000
  O         5.7390000000       12.1500000000        3.1240000000
  O         0.0787062633       -0.2397717348        4.8103499467
  O         3.8335653160       -0.0732608242        4.7740315846
  O         7.7563826026       -0.1582040087        4.7570603265
  O        11.5194350320        0.0239261567        4.6682429012
  O        -1.9406035737        3.3933932654        4.6657528499
  O         1.8304286090        3.3202759835        4.8320823764
  O         5.6517930597        3.3212637296        4.7189981778
  O         9.5951850292        3.2420954381        4.7512478107
  O        -3.9266231523        6.7228627209        4.9730272065
  O        -0.0660533381        6.5715538405        4.7556726489
  O         3.6447079774        6.6270791557        4.7100219559
  O         7.5676149438        6.4926045870        4.7033991946
  O        -5.8065469535        9.9259809072        4.7693312400
  O        -1.9833119984       10.0400449392        4.7061210047
  O         1.9341906851       10.0603433923        4.7488217044
  O         5.9033383073        9.7945568331        4.7959228508
  O         1.9946334296        1.2156704462        6.0991181395
  O         5.8369671308        0.9705889213        6.1852582841
  O         9.8668471530        0.8788120559        6.5022980294
  O        13.4689453953        1.2211245089        6.2138137881
  O        -0.0380584674        4.5283743937        6.1007083266
  O         3.9231181586        4.3312002660        6.5740803827
  O         7.7083373001        4.4291967603        6.3068779399
  O        11.3800219731        4.1412480562        6.2368715437
  O        -1.9252876292        7.7873259722        6.2840934560
  O         1.8794096474        7.6682122532        6.2557235766
  O         5.5595122272        7.4980472084        6.3375446770
  O         9.4197777935        7.6967071034        6.4081540966
  O        -3.9735472975       10.7932019782        6.3126558463
  O        -0.0355445806       10.7003566788        6.3199726999
  O         3.8088406631       10.8625006936        6.2569131197
  O         7.8686640537       11.0042326629        6.3918059648
  O        -0.1227082730        2.0576928475        7.6001967218
  O         4.0642084545        1.8810763407        7.8968590587
  O         7.8351822995        2.2921544269        8.0498277924
  O        11.3939364904        2.3805416383        8.1153803612
  O        -2.0598034852        5.4223409464        7.7182327106
  O         1.8665973881        5.6049906397        7.8381311416
  O         6.0517554111        5.5970990222        8.2556454223
  O         9.7066184147        5.4396147035        8.0592595198
  O        -4.1066156622        8.7017688743        8.2933095064
  O         0.2120224732        8.6323995418        8.2332317293
  O         3.8914519941        8.9761351314        8.1567544560
  O         7.4839575150        8.9670622089        8.0782411255
  O        -5.7156169447       12.1559059920        7.9953332369
  O        -2.2108927319       11.8228650612        7.9188232532
  O         1.7148777141       12.0609024409        8.0854151889
  O         5.7258683095       12.1648177345        7.7555276072
 Ce         0.0000000000        2.2090000000        0.7810000000
 Ce         3.8260000000        2.2090000000        0.7810000000
 Ce         7.6520000000        2.2090000000        0.7810000000
 Ce        11.4780000000        2.2090000000        0.7810000000
 Ce        -1.9130000000        5.5230000000        0.7810000000
 Ce         1.9130000000        5.5230000000        0.7810000000
 Ce         5.7390000000        5.5230000000        0.7810000000
 Ce         9.5650000000        5.5230000000        0.7810000000
 Ce        -3.8260000000        8.8360000000        0.7810000000
 Ce         0.0000000000        8.8360000000        0.7810000000
 Ce         3.8260000000        8.8360000000        0.7810000000
 Ce         7.6520000000        8.8360000000        0.7810000000
 Ce        -5.7390000000       12.1500000000        0.7810000000
 Ce        -1.9130000000       12.1500000000        0.7810000000
 Ce         1.9130000000       12.1500000000        0.7810000000
 Ce         5.7390000000       12.1500000000        0.7810000000
 Ce         1.8448119010        0.9714213781        3.8886363120
 Ce         5.6381267358        1.0746064568        3.9871386642
 Ce         9.5945058211        1.1340245998        3.9963069327
 Ce        13.3178308190        1.1579352354        3.8632931978
 Ce         0.0501666620        4.4567598583        3.8863941994
 Ce         3.7088995865        4.3376397796        4.0715249936
 Ce         7.5705782605        4.2850502138        3.9062869327
 Ce        11.3936110225        4.4956447221        3.7536265944
 Ce        -2.0670459272        7.7301152402        3.8584742522
 Ce         1.8499639031        7.8734023381        3.9676225531
 Ce         5.7275851863        7.6831495373        4.0108211994
 Ce         9.6103187523        7.6525982260        4.1755333032
 Ce        -3.9789679070       11.0334850499        3.9137453641
 Ce         0.0505204352       11.0029363118        3.8652167792
 Ce         3.6954882740       10.9177571252        3.9212482788
 Ce         7.6284326069       10.9374440698        3.9121158158
 Ce        -0.0761358919       -0.0728453874        6.9991458757
 Ce         3.8653603909       -0.1722246746        7.1091524446
 Ce         7.7556512828       -0.2502156840        7.0407839400
 Ce        11.5242946071       -0.1128124401        6.9588784639
 Ce        -1.9170423412        3.3817932986        6.8341773081
 Ce         1.7830619789        3.3375308070        6.9517817939
 Ce         5.8204117438        3.2295288220        7.0874846318
 Ce         9.6461556061        3.3391873652        7.2442315637
 Ce        -3.7735276382        6.5353722860        7.2342265499
 Ce         0.0479306331        6.5074809822        7.0362129780
 Ce         3.8379937506        6.6872101189        7.2601885766
 Ce         7.6885110052        6.4882124744        7.0833292131
 Ce        -5.7567574081        9.9103808962        7.3353618014
 Ce        -2.1195257803        9.7641326680        7.2062035268
 Ce         1.7757640093        9.8538538988        7.2492830238
 Ce         5.8225544084        9.8628421710        7.0535637018
 Pt        12.5990973913        1.4909765426        9.3698239162
 Pt         0.2950362915        5.0232128590        9.7254342178
 Pt         0.1708743378        7.4863061015        9.8681409406
 Pt         6.7177428285       13.3551240868       10.5112501902
 Pt        -0.3341829658        2.5157930698        9.7724326217
 Pt        -2.5594568796        7.9347262034        9.6554252099
 Pt         2.3057945919        3.2476438797       10.0298845508
 Pt         2.6896518563        5.7969043797       10.4785376279
 Pt         5.2205987119        4.6673307720        9.9141060782
 Pt         1.6123071167        0.4453591068        9.6058203150
 Pt         4.1059456187        1.3597772478        9.8631305066
 Pt        -1.9936250160        5.3573978400       10.5546069939
 Pt         6.6808840697        2.4732895188        9.8397378842
 Pt        -0.3419462707        3.7776384154       12.0117971156
 Pt         5.5717674195        1.7999455660       12.1687234746
 Pt         0.5350688048        6.1592892357       12.0936552591
 Pt         4.0118898301        3.8857642287       11.9474708366
 Pt         0.5511746426        4.5305572302       14.4420935850
 Pt         0.8450560289        1.3212732309       11.9299688761
 Pt         2.6034851038        5.2943025941       13.3241788760
 Pt         3.3489033502        0.5480043112       12.2221606218
 Pt         2.3490558550        2.4685977284       13.5574808519
     166
 i =     2846, time =     2846.000, E =     -6045.7866649759
  O         0.0000000000        0.0000000000        0.0000000000
  O         3.8260000000        0.0000000000        0.0000000000
  O         7.6520000000        0.0000000000        0.0000000000
  O        11.4780000000        0.0000000000        0.0000000000
  O        -1.9130000000        3.3140000000        0.0000000000
  O         1.9130000000        3.3140000000        0.0000000000
  O         5.7390000000        3.3140000000        0.0000000000
  O         9.5650000000        3.3140000000        0.0000000000
  O        -3.8260000000        6.6270000000        0.0000000000
  O         0.0000000000        6.6270000000        0.0000000000
  O         3.8260000000        6.6270000000        0.0000000000
  O         7.6520000000        6.6270000000        0.0000000000
  O        -5.7390000000        9.9410000000        0.0000000000
  O        -1.9130000000        9.9410000000        0.0000000000
  O         1.9130000000        9.9410000000        0.0000000000
  O         5.7390000000        9.9410000000        0.0000000000
  O         1.9130000000        1.1050000000        1.5620000000
  O         5.7390000000        1.1050000000        1.5620000000
  O         9.5650000000        1.1050000000        1.5620000000
  O        13.3920000000        1.1050000000        1.5620000000
  O         0.0000000000        4.4180000000        1.5620000000
  O         3.8260000000        4.4180000000        1.5620000000
  O         7.6520000000        4.4180000000        1.5620000000
  O        11.4780000000        4.4180000000        1.5620000000
  O        -1.9130000000        7.7320000000        1.5620000000
  O         1.9130000000        7.7320000000        1.5620000000
  O         5.7390000000        7.7320000000        1.5620000000
  O         9.5650000000        7.7320000000        1.5620000000
  O        -3.8260000000       11.0450000000        1.5620000000
  O         0.0000000000       11.0450000000        1.5620000000
  O         3.8260000000       11.0450000000        1.5620000000
  O         7.6520000000       11.0450000000        1.5620000000
  O         0.0000000000        2.2090000000        3.1240000000
  O         3.8260000000        2.2090000000        3.1240000000
  O         7.6520000000        2.2090000000        3.1240000000
  O        11.4780000000        2.2090000000        3.1240000000
  O        -1.9130000000        5.5230000000        3.1240000000
  O         1.9130000000        5.5230000000        3.1240000000
  O         5.7390000000        5.5230000000        3.1240000000
  O         9.5650000000        5.5230000000        3.1240000000
  O        -3.8260000000        8.8360000000        3.1240000000
  O         0.0000000000        8.8360000000        3.1240000000
  O         3.8260000000        8.8360000000        3.1240000000
  O         7.6520000000        8.8360000000        3.1240000000
  O        -5.7390000000       12.1500000000        3.1240000000
  O        -1.9130000000       12.1500000000        3.1240000000
  O         1.9130000000       12.1500000000        3.1240000000
  O         5.7390000000       12.1500000000        3.1240000000
  O         0.0866059003       -0.2370754910        4.8154064663
  O         3.8342729241       -0.0698468669        4.7568503537
  O         7.7465117451       -0.1632808474        4.7526266579
  O        11.5232963288        0.0348110248        4.6564581422
  O        -1.9327849279        3.3871031469        4.6595401790
  O         1.8337069759        3.3203301872        4.8398179929
  O         5.6598303760        3.3057457213        4.7162523894
  O         9.5857835157        3.2361626831        4.7470667168
  O        -3.9274423270        6.7134878458        4.9723719176
  O        -0.0648035195        6.5796843096        4.7567493191
  O         3.6562285153        6.6272805695        4.7038117686
  O         7.5679291669        6.4904726930        4.7088231954
  O        -5.8011420143        9.9210804377        4.7714750768
  O        -1.9866558449       10.0526175897        4.6986437592
  O         1.9353224000       10.0629151522        4.7377132414
  O         5.8996767395        9.7761269688        4.7960610595
  O         1.9963876077        1.2050943804        6.1002461342
  O         5.8505408044        0.9642764510        6.1880567319
  O         9.8696634470        0.8755235499        6.4919333249
  O        13.4689402440        1.2076263240        6.2158451810
  O        -0.0272575168        4.5227818012        6.0999096384
  O         3.9231371833        4.3338651134        6.5725706267
  O         7.7034522925        4.4367702936        6.3100888978
  O        11.3809374483        4.1495188562        6.2252014337
  O        -1.9334770792        7.7825910095        6.2968647929
  O         1.8791539366        7.6524017552        6.2451709840
  O         5.5575599794        7.4913043198        6.3501675226
  O         9.4156648614        7.6831544387        6.4079237315
  O        -3.9740666654       10.7906751721        6.3088040832
  O        -0.0379710455       10.7073186987        6.3264207568
  O         3.8034422216       10.8626770854        6.2668832816
  O         7.8709914316       11.0054464069        6.3900132823
  O        -0.1304087514        2.0608894980        7.6007080518
  O         4.0702616255        1.8892929838        7.8994457330
  O         7.8341974445        2.2868381956        8.0502923953
  O        11.3898819194        2.3862685565        8.1159713626
  O        -2.0573774642        5.4038772954        7.7177825027
  O         1.8559871065        5.6109508103        7.8337860857
  O         6.0470097675        5.5943943590        8.2543455154
  O         9.7056870486        5.4300478365        8.0536694127
  O        -4.1011179204        8.6960240663        8.3020657939
  O         0.2086618102        8.6395658759        8.2212710134
  O         3.9014861190        8.9943733870        8.1632502011
  O         7.4887951321        8.9748432842        8.0858255033
  O        -5.7115941680       12.1485468402        7.9965347949
  O        -2.2065623621       11.8229405805        7.9225360586
  O         1.7191440120       12.0569637267        8.0903897076
  O         5.7191852631       12.1656698112        7.7605373070
 Ce         0.0000000000        2.2090000000        0.7810000000
 Ce         3.8260000000        2.2090000000        0.7810000000
 Ce         7.6520000000        2.2090000000        0.7810000000
 Ce        11.4780000000        2.2090000000        0.7810000000
 Ce        -1.9130000000        5.5230000000        0.7810000000
 Ce         1.9130000000        5.5230000000        0.7810000000
 Ce         5.7390000000        5.5230000000        0.7810000000
 Ce         9.5650000000        5.5230000000        0.7810000000
 Ce        -3.8260000000        8.8360000000        0.7810000000
 Ce         0.0000000000        8.8360000000        0.7810000000
 Ce         3.8260000000        8.8360000000        0.7810000000
 Ce         7.6520000000        8.8360000000        0.7810000000
 Ce        -5.7390000000       12.1500000000        0.7810000000
 Ce        -1.9130000000       12.1500000000        0.7810000000
 Ce         1.9130000000       12.1500000000        0.7810000000
 Ce         5.7390000000       12.1500000000        0.7810000000
 Ce         1.8441947663        0.9698764417        3.8919827114
 Ce         5.6391127658        1.0746264812        3.9906917055
 Ce         9.5961006817        1.1310953941        3.9975014139
 Ce        13.3172193746        1.1551873855        3.8640956141
 Ce         0.0483969679        4.4543727300        3.8879232054
 Ce         3.7096700818        4.3405891012        4.0711839390
 Ce         7.5728601472        4.2848180527        3.9083125340
 Ce        11.3947801938        4.4963720648        3.7552558892
 Ce        -2.0682740678        7.7290889375        3.8592821421
 Ce         1.8460025574        7.8744776253        3.9697045850
 Ce         5.7258446082        7.6814361918        4.0117961673
 Ce         9.6140273927        7.6526962591        4.1762333461
 Ce        -3.9772641263       11.0322528997        3.9144235882
 Ce         0.0517650064       11.0046104661        3.8616176754
 Ce         3.6959120429       10.9178398179        3.9220789588
 Ce         7.6301303582       10.9373906199        3.9097548884
 Ce        -0.0773948488       -0.0746442348        6.9988967130
 Ce         3.8661498568       -0.1709451379        7.1064469116
 Ce         7.7504384063       -0.2558286838        7.0403203286
 Ce        11.5266995484       -0.1105768452        6.9583051055
 Ce        -1.9139172899        3.3799338163        6.8328441879
 Ce         1.7846468779        3.3366712320        6.9520443732
 Ce         5.8224561001        3.2282625079        7.0913540770
 Ce         9.6452193378        3.3401033322        7.2481445639
 Ce        -3.7674802256        6.5393434254        7.2357079449
 Ce         0.0470161500        6.5067640170        7.0371435819
 Ce         3.8402109715        6.6860907556        7.2603960488
 Ce         7.6888069232        6.4880223252        7.0875905181
 Ce        -5.7546276179        9.9054711479        7.3357669110
 Ce        -2.1161266487        9.7622924625        7.2103333549
 Ce         1.7767149178        9.8547911540        7.2466695352
 Ce         5.8223938060        9.8641838619        7.0524109616
 Pt        12.5998643029        1.4883045672        9.3695517894
 Pt         0.2925905925        5.0212222199        9.7244793618
 Pt         0.1714355870        7.4846471239        9.8702219026
 Pt         6.7189916678       13.3564590920       10.5084814989
 Pt        -0.3351123893        2.5179585192        9.7736124865
 Pt        -2.5578833081        7.9322573208        9.6558068887
 Pt         2.3027539352        3.2472467531       10.0293812701
 Pt         2.6899551964        5.7991040481       10.4780826820
 Pt         5.2220535480        4.6639003925        9.9179902998
 Pt         1.6114760445        0.4490359087        9.6064951106
 Pt         4.1063999743        1.3617004100        9.8635465585
 Pt        -1.9969946168        5.3590308597       10.5531178455
 Pt         6.6822551424        2.4714284259        9.8416904558
 Pt        -0.3424342634        3.7796536222       12.0137183610
 Pt         5.5682679090        1.8006551949       12.1675160986
 Pt         0.5276512930        6.1559104922       12.0959629539
 Pt         4.0107642698        3.8896899722       11.9471879510
 Pt         0.5502863475        4.5298289490       14.4390929202
 Pt         0.8435097499        1.3225968704       11.9290892476
 Pt         2.6001569266        5.2956690024       13.3193777284
 Pt         3.3480987182        0.5470922191       12.2214877676
 Pt         2.3475858799        2.4686014648       13.5588909040
     166
 i =     2847, time =     2847.000, E =     -6045.7868295611
  O         0.0000000000        0.0000000000        0.0000000000
  O         3.8260000000        0.0000000000        0.0000000000
  O         7.6520000000        0.0000000000        0.0000000000
  O        11.4780000000        0.0000000000        0.0000000000
  O        -1.9130000000        3.3140000000        0.0000000000
  O         1.9130000000        3.3140000000        0.0000000000
  O         5.7390000000        3.3140000000        0.0000000000
  O         9.5650000000        3.3140000000        0.0000000000
  O        -3.8260000000        6.6270000000        0.0000000000
  O         0.0000000000        6.6270000000        0.0000000000
  O         3.8260000000        6.6270000000        0.0000000000
  O         7.6520000000        6.6270000000        0.0000000000
  O        -5.7390000000        9.9410000000        0.0000000000
  O        -1.9130000000        9.9410000000        0.0000000000
  O         1.9130000000        9.9410000000        0.0000000000
  O         5.7390000000        9.9410000000        0.0000000000
  O         1.9130000000        1.1050000000        1.5620000000
  O         5.7390000000        1.1050000000        1.5620000000
  O         9.5650000000        1.1050000000        1.5620000000
  O        13.3920000000        1.1050000000        1.5620000000
  O         0.0000000000        4.4180000000        1.5620000000
  O         3.8260000000        4.4180000000        1.5620000000
  O         7.6520000000        4.4180000000        1.5620000000
  O        11.4780000000        4.4180000000        1.5620000000
  O        -1.9130000000        7.7320000000        1.5620000000
  O         1.9130000000        7.7320000000        1.5620000000
  O         5.7390000000        7.7320000000        1.5620000000
  O         9.5650000000        7.7320000000        1.5620000000
  O        -3.8260000000       11.0450000000        1.5620000000
  O         0.0000000000       11.0450000000        1.5620000000
  O         3.8260000000       11.0450000000        1.5620000000
  O         7.6520000000       11.0450000000        1.5620000000
  O         0.0000000000        2.2090000000        3.1240000000
  O         3.8260000000        2.2090000000        3.1240000000
  O         7.6520000000        2.2090000000        3.1240000000
  O        11.4780000000        2.2090000000        3.1240000000
  O        -1.9130000000        5.5230000000        3.1240000000
  O         1.9130000000        5.5230000000        3.1240000000
  O         5.7390000000        5.5230000000        3.1240000000
  O         9.5650000000        5.5230000000        3.1240000000
  O        -3.8260000000        8.8360000000        3.1240000000
  O         0.0000000000        8.8360000000        3.1240000000
  O         3.8260000000        8.8360000000        3.1240000000
  O         7.6520000000        8.8360000000        3.1240000000
  O        -5.7390000000       12.1500000000        3.1240000000
  O        -1.9130000000       12.1500000000        3.1240000000
  O         1.9130000000       12.1500000000        3.1240000000
  O         5.7390000000       12.1500000000        3.1240000000
  O         0.0941494499       -0.2336858260        4.8198717276
  O         3.8348289625       -0.0666380968        4.7395736215
  O         7.7368875837       -0.1679298632        4.7484822075
  O        11.5269159046        0.0453949409        4.6448424869
  O        -1.9250334610        3.3807246006        4.6527874355
  O         1.8374411566        3.3207042721        4.8464594757
  O         5.6680680568        3.2901336852        4.7139283750
  O         9.5759272368        3.2301215023        4.7427124013
  O        -3.9277822836        6.7035056644        4.9709192574
  O        -0.0635312332        6.5884681373        4.7572337615
  O         3.6683266932        6.6271506931        4.6978272841
  O         7.5687276711        6.4888595636        4.7146738360
  O        -5.7955396787        9.9156634815        4.7733151555
  O        -1.9900709645       10.0646187652        4.6910968350
  O         1.9358400395       10.0646371343        4.7267369830
  O         5.8955142820        9.7578932237        4.7963634375
  O         1.9980318600        1.1940786075        6.1018525861
  O         5.8642348732        0.9582258642        6.1913723073
  O         9.8704074905        0.8732411787        6.4806770710
  O        13.4679824990        1.1935160534        6.2170627292
  O        -0.0163148511        4.5163640252        6.0998340363
  O         3.9229739088        4.3367959289        6.5704827377
  O         7.6983615635        4.4438470132        6.3132338222
  O        11.3821605441        4.1588146323        6.2131497991
  O        -1.9418090346        7.7778319285        6.3096792351
  O         1.8790419291        7.6374273374        6.2348952547
  O         5.5565681412        7.4851083123        6.3626765331
  O         9.4117664954        7.6697584522        6.4077299233
  O        -3.9744625615       10.7882664467        6.3051999986
  O        -0.0404796988       10.7147922168        6.3331678457
  O         3.7979586699       10.8633843147        6.2766785850
  O         7.8725842718       11.0063475951        6.3880798938
  O        -0.1374058708        2.0650575095        7.6015489092
  O         4.0763703879        1.8977686259        7.9018893081
  O         7.8327279171        2.2811762238        8.0509975418
  O        11.3857403307        2.3918651164        8.1165050367
  O        -2.0546413945        5.3855503940        7.7171869345
  O         1.8456619370        5.6165186012        7.8293978477
  O         6.0420588433        5.5915023561        8.2527082917
  O         9.7045337324        5.4206068087        8.0477575859
  O        -4.0950910751        8.6903378844        8.3108395220
  O         0.2050575165        8.6472596978        8.2089566512
  O         3.9112693128        9.0119395363        8.1689266861
  O         7.4939989211        8.9821828286        8.0929957252
  O        -5.7074922468       12.1416521005        7.9982811595
  O        -2.2015141522       11.8233102838        7.9263677277
  O         1.7234852899       12.0525333763        8.0948196227
  O         5.7126407757       12.1659315642        7.7653271340
 Ce         0.0000000000        2.2090000000        0.7810000000
 Ce         3.8260000000        2.2090000000        0.7810000000
 Ce         7.6520000000        2.2090000000        0.7810000000
 Ce        11.4780000000        2.2090000000        0.7810000000
 Ce        -1.9130000000        5.5230000000        0.7810000000
 Ce         1.9130000000        5.5230000000        0.7810000000
 Ce         5.7390000000        5.5230000000        0.7810000000
 Ce         9.5650000000        5.5230000000        0.7810000000
 Ce        -3.8260000000        8.8360000000        0.7810000000
 Ce         0.0000000000        8.8360000000        0.7810000000
 Ce         3.8260000000        8.8360000000        0.7810000000
 Ce         7.6520000000        8.8360000000        0.7810000000
 Ce        -5.7390000000       12.1500000000        0.7810000000
 Ce        -1.9130000000       12.1500000000        0.7810000000
 Ce         1.9130000000       12.1500000000        0.7810000000
 Ce         5.7390000000       12.1500000000        0.7810000000
 Ce         1.8436032405        0.9684124234        3.8953782556
 Ce         5.6401576150        1.0745790721        3.9941531029
 Ce         9.5976877886        1.1281256268        3.9986411320
 Ce        13.3166783307        1.1523810531        3.8649244895
 Ce         0.0465721591        4.4520075397        3.8893849016
 Ce         3.7105197145        4.3436588861        4.0707317238
 Ce         7.5751649809        4.2846802991        3.9103222373
 Ce        11.3959983851        4.4969800542        3.7570484658
 Ce        -2.0693546320        7.7281283647        3.8601812415
 Ce         1.8420812344        7.8753664467        3.9717657482
 Ce         5.7240880140        7.6796513808        4.0126662385
 Ce         9.6175786590        7.6529062455        4.1767809846
 Ce        -3.9754035913       11.0309820941        3.9151335105
 Ce         0.0528516047       11.0063309632        3.8580499184
 Ce         3.6965073557       10.9180650971        3.9228882215
 Ce         7.6318360579       10.9373565192        3.9073951749
 Ce        -0.0786099269       -0.0764288919        6.9987244941
 Ce         3.8668981629       -0.1696451836        7.1037192006
 Ce         7.7451995892       -0.2614289025        7.0399035718
 Ce        11.5292490142       -0.1084223232        6.9578455262
 Ce        -1.9108389761        3.3779881361        6.8316416549
 Ce         1.7862947824        3.3357254181        6.9525086337
 Ce         5.8244787292        3.2269839250        7.0952761783
 Ce         9.6442832523        3.3410157333        7.2520429374
 Ce        -3.7615051267        6.5432980079        7.2372540693
 Ce         0.0460134450        6.5061558261        7.0380758790
 Ce         3.8423584529        6.6849508780        7.2606461478
 Ce         7.6890705781        6.4878632874        7.0919303878
 Ce        -5.7526084807        9.9005613669        7.3361426039
 Ce        -2.1126596755        9.7605071902        7.2144233262
 Ce         1.7778247427        9.8557395988        7.2440807267
 Ce         5.8221535405        9.8655592052        7.0513854300
 Pt        12.6006585305        1.4856494479        9.3693308496
 Pt         0.2902012512        5.0191340305        9.7234214395
 Pt         0.1719658242        7.4830453147        9.8723709994
 Pt         6.7202526876       13.3577556091       10.5057058452
 Pt        -0.3360323574        2.5201612938        9.7747277456
 Pt        -2.5562970044        7.9297534281        9.6561682726
 Pt         2.2996535736        3.2468198282       10.0288649630
 Pt         2.6903294887        5.8013097829       10.4776485606
 Pt         5.2234816746        4.6604991220        9.9218532954
 Pt         1.6106650120        0.4526829607        9.6071749334
 Pt         4.1068447993        1.3636440693        9.8639659291
 Pt        -2.0003639531        5.3607008074       10.5516589378
 Pt         6.6836162181        2.4695213732        9.8436604875
 Pt        -0.3429329070        3.7815989809       12.0156903684
 Pt         5.5647854043        1.8014250683       12.1662736215
 Pt         0.5202005491        6.1525855278       12.0983136509
 Pt         4.0096849508        3.8935441984       11.9469012581
 Pt         0.5493819248        4.5290577545       14.4360815486
 Pt         0.8419267076        1.3239369332       11.9282135753
 Pt         2.5968402333        5.2970874807       13.3145677148
 Pt         3.3472876864        0.5461617929       12.2208052765
 Pt         2.3461012496        2.4686664233       13.5603211397
     166
 i =     2848, time =     2848.000, E =     -6045.7864193724
  O         0.0000000000        0.0000000000        0.0000000000
  O         3.8260000000        0.0000000000        0.0000000000
  O         7.6520000000        0.0000000000        0.0000000000
  O        11.4780000000        0.0000000000        0.0000000000
  O        -1.9130000000        3.3140000000        0.0000000000
  O         1.9130000000        3.3140000000        0.0000000000
  O         5.7390000000        3.3140000000        0.0000000000
  O         9.5650000000        3.3140000000        0.0000000000
  O        -3.8260000000        6.6270000000        0.0000000000
  O         0.0000000000        6.6270000000        0.0000000000
  O         3.8260000000        6.6270000000        0.0000000000
  O         7.6520000000        6.6270000000        0.0000000000
  O        -5.7390000000        9.9410000000        0.0000000000
  O        -1.9130000000        9.9410000000        0.0000000000
  O         1.9130000000        9.9410000000        0.0000000000
  O         5.7390000000        9.9410000000        0.0000000000
  O         1.9130000000        1.1050000000        1.5620000000
  O         5.7390000000        1.1050000000        1.5620000000
  O         9.5650000000        1.1050000000        1.5620000000
  O        13.3920000000        1.1050000000        1.5620000000
  O         0.0000000000        4.4180000000        1.5620000000
  O         3.8260000000        4.4180000000        1.5620000000
  O         7.6520000000        4.4180000000        1.5620000000
  O        11.4780000000        4.4180000000        1.5620000000
  O        -1.9130000000        7.7320000000        1.5620000000
  O         1.9130000000        7.7320000000        1.5620000000
  O         5.7390000000        7.7320000000        1.5620000000
  O         9.5650000000        7.7320000000        1.5620000000
  O        -3.8260000000       11.0450000000        1.5620000000
  O         0.0000000000       11.0450000000        1.5620000000
  O         3.8260000000       11.0450000000        1.5620000000
  O         7.6520000000       11.0450000000        1.5620000000
  O         0.0000000000        2.2090000000        3.1240000000
  O         3.8260000000        2.2090000000        3.1240000000
  O         7.6520000000        2.2090000000        3.1240000000
  O        11.4780000000        2.2090000000        3.1240000000
  O        -1.9130000000        5.5230000000        3.1240000000
  O         1.9130000000        5.5230000000        3.1240000000
  O         5.7390000000        5.5230000000        3.1240000000
  O         9.5650000000        5.5230000000        3.1240000000
  O        -3.8260000000        8.8360000000        3.1240000000
  O         0.0000000000        8.8360000000        3.1240000000
  O         3.8260000000        8.8360000000        3.1240000000
  O         7.6520000000        8.8360000000        3.1240000000
  O        -5.7390000000       12.1500000000        3.1240000000
  O        -1.9130000000       12.1500000000        3.1240000000
  O         1.9130000000       12.1500000000        3.1240000000
  O         5.7390000000       12.1500000000        3.1240000000
  O         0.1013079689       -0.2296466151        4.8236901086
  O         3.8352310288       -0.0636425357        4.7224093500
  O         7.7275586649       -0.1721354590        4.7446671562
  O        11.5302577478        0.0556016405        4.6334477042
  O        -1.9173623430        3.3742849979        4.6455749730
  O         1.8416187871        3.3213720125        4.8519832655
  O         5.6764345503        3.2745228496        4.7120559872
  O         9.5656445911        3.2239950161        4.7382561943
  O        -3.9276286827        6.6929681764        4.9686884577
  O        -0.0622952380        6.5978566536        4.7571320333
  O         3.6809802485        6.6266919544        4.6920528926
  O         7.5699953100        6.4877854621        4.7209627645
  O        -5.7897832267        9.9097215910        4.7748605527
  O        -1.9935138256       10.0759411357        4.6835184517
  O         1.9357298090       10.0654928888        4.7159913127
  O         5.8909031188        9.7399955172        4.7968474958
  O         1.9995945850        1.1826402988        6.1039823766
  O         5.8779713594        0.9524436713        6.1952660013
  O         9.8690987166        0.8719377018        6.4685043163
  O        13.4660884976        1.1788320151        6.2174753196
  O        -0.0053005306        4.5091808269        6.1004706584
  O         3.9226431340        4.3399857067        6.5678174968
  O         7.6930674740        4.4503887393        6.3163103090
  O        11.3836889381        4.1690704210        6.2008004573
  O        -1.9502635000        7.7730757665        6.3224061261
  O         1.8791031066        7.6233341132        6.2249736227
  O         5.5565649271        7.4794999303        6.3750550066
  O         9.4081337112        7.6566005062        6.4075955962
  O        -3.9747125092       10.7859985252        6.3019154811
  O        -0.0430516182       10.7227568817        6.3402002793
  O         3.7924113275       10.8646348924        6.2862640851
  O         7.8734316655       11.0069270866        6.3860036662
  O        -0.1436732511        2.0701827769        7.6027177464
  O         4.0824982155        1.9064215932        7.9041719094
  O         7.8307904398        2.2751923836        8.0519451423
  O        11.3815555044        2.3972917304        8.1170056029
  O        -2.0516319249        5.3674988597        7.7164712375
  O         1.8356831703        5.6216706271        7.8249654434
  O         6.0368975829        5.5884122327        8.2507693678
  O         9.7031760698        5.4113153433        8.0415375707
  O        -4.0885735872        8.6847294686        8.3195384151
  O         0.2011891243        8.6553875294        8.1963869958
  O         3.9208153835        9.0288216715        8.1737504050
  O         7.4995656624        8.9890805912        8.0996955355
  O        -5.7032885035       12.1352498935        8.0005630839
  O        -2.1957871778       11.8239818177        7.9302785953
  O         1.7278588064       12.0476366585        8.0986551430
  O         5.7062689221       12.1656090721        7.7699013784
 Ce         0.0000000000        2.2090000000        0.7810000000
 Ce         3.8260000000        2.2090000000        0.7810000000
 Ce         7.6520000000        2.2090000000        0.7810000000
 Ce        11.4780000000        2.2090000000        0.7810000000
 Ce        -1.9130000000        5.5230000000        0.7810000000
 Ce         1.9130000000        5.5230000000        0.7810000000
 Ce         5.7390000000        5.5230000000        0.7810000000
 Ce         9.5650000000        5.5230000000        0.7810000000
 Ce        -3.8260000000        8.8360000000        0.7810000000
 Ce         0.0000000000        8.8360000000        0.7810000000
 Ce         3.8260000000        8.8360000000        0.7810000000
 Ce         7.6520000000        8.8360000000        0.7810000000
 Ce        -5.7390000000       12.1500000000        0.7810000000
 Ce        -1.9130000000       12.1500000000        0.7810000000
 Ce         1.9130000000       12.1500000000        0.7810000000
 Ce         5.7390000000       12.1500000000        0.7810000000
 Ce         1.8430408733        0.9670314359        3.8988151085
 Ce         5.6412647257        1.0744638091        3.9975132041
 Ce         9.5992623626        1.1251197623        3.9997226823
 Ce        13.3162094873        1.1495209707        3.8657735058
 Ce         0.0446964061        4.4496650765        3.8907757109
 Ce         3.7114520945        4.3468449215        4.0701668364
 Ce         7.5774918439        4.2846334602        3.9123132954
 Ce        11.3972621375        4.4974658061        3.7590024009
 Ce        -2.0702866537        7.7272337907        3.8611665041
 Ce         1.8382047114        7.8760663809        3.9737998345
 Ce         5.7223163133        7.6777888912        4.0134296487
 Ce         9.6209677300        7.6532239580        4.1771746625
 Ce        -3.9733855525       11.0296758465        3.9158699695
 Ce         0.0537756912       11.0081001304        3.8545116823
 Ce         3.6972747025       10.9184309344        3.9236708192
 Ce         7.6335489845       10.9373379676        3.9050382052
 Ce        -0.0797798904       -0.0781995409        6.9986326652
 Ce         3.8676063211       -0.1683263940        7.1009702659
 Ce         7.7399405886       -0.2670180793        7.0395335365
 Ce        11.5319363323       -0.1063489987        6.9574985629
 Ce        -1.9078132257        3.3759536369        6.8305617815
 Ce         1.7880071713        3.3346956329        6.9531761019
 Ce         5.8264800290        3.2256960124        7.0992461726
 Ce         9.6433498308        3.3419254635        7.2559180997
 Ce        -3.7556047654        6.5472250642        7.2388630778
 Ce         0.0449219836        6.5056554981        7.0390087417
 Ce         3.8444317345        6.6837864337        7.2609396259
 Ce         7.6892994675        6.4877333042        7.0963462601
 Ce        -5.7507017233        9.8956541093        7.3364895440
 Ce        -2.1091245533        9.7587824848        7.2184752722
 Ce         1.7790954132        9.8567026226        7.2415210948
 Ce         5.8218324421        9.8669656715        7.0504934526
 Pt        12.6014749610        1.4830145753        9.3691584795
 Pt         0.2878690241        5.0169488193        9.7222621238
 Pt         0.1724641875        7.4815049033        9.8745817623
 Pt         6.7215259069       13.3590127235       10.5029234235
 Pt        -0.3369420456        2.5223981802        9.7757804491
 Pt        -2.5546975570        7.9272128401        9.6565097748
 Pt         2.2964949491        3.2463635886       10.0283367967
 Pt         2.6907708716        5.8035184760       10.4772354579
 Pt         5.2248865503        4.6571266401        9.9256919030
 Pt         1.6098759318        0.4562997955        9.6078578448
 Pt         4.1072808006        1.3656072024        9.8643882994
 Pt        -2.0037325327        5.3624106129       10.5502307526
 Pt         6.6849678018        2.4675690898        9.8456483728
 Pt        -0.3434428643        3.7834747632       12.0177089794
 Pt         5.5613209949        1.8022562153       12.1649974950
 Pt         0.5127230448        6.1493143590       12.1007056965
 Pt         4.0086510019        3.8973282748       11.9466060499
 Pt         0.5484593531        4.5282429494       14.4330636729
 Pt         0.8403065027        1.3252947797       11.9273436421
 Pt         2.5935316372        5.2985578802       13.3097550120
 Pt         3.3464698515        0.5452127799       12.2201134978
 Pt         2.3446020466        2.4687925904       13.5617685681
     166
 i =     2849, time =     2849.000, E =     -6045.7865519456
  O         0.0000000000        0.0000000000        0.0000000000
  O         3.8260000000        0.0000000000        0.0000000000
  O         7.6520000000        0.0000000000        0.0000000000
  O        11.4780000000        0.0000000000        0.0000000000
  O        -1.9130000000        3.3140000000        0.0000000000
  O         1.9130000000        3.3140000000        0.0000000000
  O         5.7390000000        3.3140000000        0.0000000000
  O         9.5650000000        3.3140000000        0.0000000000
  O        -3.8260000000        6.6270000000        0.0000000000
  O         0.0000000000        6.6270000000        0.0000000000
  O         3.8260000000        6.6270000000        0.0000000000
  O         7.6520000000        6.6270000000        0.0000000000
  O        -5.7390000000        9.9410000000        0.0000000000
  O        -1.9130000000        9.9410000000        0.0000000000
  O         1.9130000000        9.9410000000        0.0000000000
  O         5.7390000000        9.9410000000        0.0000000000
  O         1.9130000000        1.1050000000        1.5620000000
  O         5.7390000000        1.1050000000        1.5620000000
  O         9.5650000000        1.1050000000        1.5620000000
  O        13.3920000000        1.1050000000        1.5620000000
  O         0.0000000000        4.4180000000        1.5620000000
  O         3.8260000000        4.4180000000        1.5620000000
  O         7.6520000000        4.4180000000        1.5620000000
  O        11.4780000000        4.4180000000        1.5620000000
  O        -1.9130000000        7.7320000000        1.5620000000
  O         1.9130000000        7.7320000000        1.5620000000
  O         5.7390000000        7.7320000000        1.5620000000
  O         9.5650000000        7.7320000000        1.5620000000
  O        -3.8260000000       11.0450000000        1.5620000000
  O         0.0000000000       11.0450000000        1.5620000000
  O         3.8260000000       11.0450000000        1.5620000000
  O         7.6520000000       11.0450000000        1.5620000000
  O         0.0000000000        2.2090000000        3.1240000000
  O         3.8260000000        2.2090000000        3.1240000000
  O         7.6520000000        2.2090000000        3.1240000000
  O        11.4780000000        2.2090000000        3.1240000000
  O        -1.9130000000        5.5230000000        3.1240000000
  O         1.9130000000        5.5230000000        3.1240000000
  O         5.7390000000        5.5230000000        3.1240000000
  O         9.5650000000        5.5230000000        3.1240000000
  O        -3.8260000000        8.8360000000        3.1240000000
  O         0.0000000000        8.8360000000        3.1240000000
  O         3.8260000000        8.8360000000        3.1240000000
  O         7.6520000000        8.8360000000        3.1240000000
  O        -5.7390000000       12.1500000000        3.1240000000
  O        -1.9130000000       12.1500000000        3.1240000000
  O         1.9130000000       12.1500000000        3.1240000000
  O         5.7390000000       12.1500000000        3.1240000000
  O         0.1080582966       -0.2250007431        4.8268165220
  O         3.8354783660       -0.0608677861        4.7054972002
  O         7.7185532523       -0.1758886805        4.7412299354
  O        11.5332881739        0.0653360590        4.6222875579
  O        -1.9097696840        3.3678075106        4.6379660840
  O         1.8462233983        3.3223026975        4.8563843785
  O         5.6848911251        3.2589624537        4.7106657536
  O         9.5549690247        3.2178077244        4.7337694502
  O        -3.9269718299        6.6819582533        4.9657081204
  O        -0.0611589818        6.6078058286        4.7564570418
  O         3.6941259926        6.6259090080        4.6864847030
  O         7.5717159856        6.4872663331        4.7276930805
  O        -5.7839093011        9.9032433265        4.7761230026
  O        -1.9969467422       10.0864895824        4.6759746855
  O         1.9349829575       10.0654757249        4.7055206166
  O         5.8858642848        9.7225714638        4.7975329585
  O         2.0011049408        1.1708013564        6.1066784702
  O         5.8916707450        0.9469268414        6.1998018126
  O         9.8657779077        0.8715664971        6.4554417638
  O        13.4632734546        1.1636180958        6.2171036989
  O         0.0057040896        4.5012913030        6.1018010074
  O         3.9221619127        4.3434224566        6.5645712456
  O         7.6875787909        4.4563580856        6.3193190573
  O        11.3855162180        4.1802013840        6.1881761081
  O        -1.9588157995        7.7683362091        6.3349540531
  O         1.8793638993        7.6101629881        6.2155012611
  O         5.5575798225        7.4745192287        6.3872192674
  O         9.4048382235        7.6437678784        6.4075422050
  O        -3.9747969540       10.7838913789        6.2990190121
  O        -0.0456651573       10.7311921654        6.3475171667
  O         3.7868245932       10.8664425333        6.2955757324
  O         7.8735264802       11.0071805640        6.3837842236
  O        -0.1491852799        2.0762326275        7.6042090267
  O         4.0886076303        1.9151611646        7.9062780493
  O         7.8284106413        2.2689176088        8.0531360349
  O        11.3773759547        2.4025035209        8.1175006378
  O        -2.0483725372        5.3497818228        7.7156616496
  O         1.8261257168        5.6263663137        7.8204851145
  O         6.0315147994        5.5851092842        8.2485670282
  O         9.7016357998        5.4022120228        8.0350237333
  O        -4.0815954381        8.6792066448        8.3280874985
  O         0.1970424089        8.6638561478        8.1835970531
  O         3.9301147806        9.0449640236        8.1777011996
  O         7.5054919363        8.9955412206        8.1058876062
  O        -5.6989637839       12.1293566352        8.0033622809
  O        -2.1894123881       11.8249690335        7.9342213846
  O         1.7322143960       12.0423142267        8.1018518773
  O         5.7000933629       12.1647115382        7.7742535328
 Ce         0.0000000000        2.2090000000        0.7810000000
 Ce         3.8260000000        2.2090000000        0.7810000000
 Ce         7.6520000000        2.2090000000        0.7810000000
 Ce        11.4780000000        2.2090000000        0.7810000000
 Ce        -1.9130000000        5.5230000000        0.7810000000
 Ce         1.9130000000        5.5230000000        0.7810000000
 Ce         5.7390000000        5.5230000000        0.7810000000
 Ce         9.5650000000        5.5230000000        0.7810000000
 Ce        -3.8260000000        8.8360000000        0.7810000000
 Ce         0.0000000000        8.8360000000        0.7810000000
 Ce         3.8260000000        8.8360000000        0.7810000000
 Ce         7.6520000000        8.8360000000        0.7810000000
 Ce        -5.7390000000       12.1500000000        0.7810000000
 Ce        -1.9130000000       12.1500000000        0.7810000000
 Ce         1.9130000000       12.1500000000        0.7810000000
 Ce         5.7390000000       12.1500000000        0.7810000000
 Ce         1.8425111178        0.9657359302        3.9022852567
 Ce         5.6424372351        1.0742805313        4.0007618382
 Ce         9.6008195414        1.1220827167        4.0007423399
 Ce        13.3158151288        1.1466120624        3.8666356617
 Ce         0.0427741174        4.4473461201        3.8920921401
 Ce         3.7124704678        4.3501433092        4.0694879492
 Ce         7.5798397378        4.2846743861        3.9142830317
 Ce        11.3985680742        4.4978269237        3.7611152279
 Ce        -2.0710693454        7.7264050541        3.8622325655
 Ce         1.8343778848        7.8765750504        3.9758006077
 Ce         5.7205305816        7.6758421831        4.0140848697
 Ce         9.6241902270        7.6536447356        4.1774130559
 Ce        -3.9712098506       11.0283371751        3.9166275441
 Ce         0.0545331426       11.0099195259        3.8510007944
 Ce         3.6982139175       10.9189345472        3.9244215357
 Ce         7.6352685362       10.9373311170        3.9026852279
 Ce        -0.0809031955       -0.0799563895        6.9986244162
 Ce         3.8682748620       -0.1669905437        7.0982022634
 Ce         7.7346633779       -0.2725974752        7.0392098449
 Ce        11.5347532825       -0.1043561722        6.9572615488
 Ce        -1.9048452284        3.3738281117        6.8295957265
 Ce         1.7897862048        3.3335848181        6.9540483928
 Ce         5.8284599653        3.2244027069        7.1032600034
 Ce         9.6424205545        3.3428337616        7.2597611109
 Ce        -3.7497818932        6.5511137473        7.2405326008
 Ce         0.0437421326        6.5052616861        7.0399418683
 Ce         3.8464264817        6.6825934662        7.2612776498
 Ce         7.6894903563        6.4876304109        7.1008356616
 Ce        -5.7489092037        9.8907522271        7.3368085305
 Ce        -2.1055208286        9.7571238895        7.2224915206
 Ce         1.7805286980        9.8576817822        7.2389952218
 Ce         5.8214293708        9.8684000276        7.0497411261
 Pt        12.6023097157        1.4804033892        9.3690316993
 Pt         0.2855912028        5.0146697446        9.7210016729
 Pt         0.1729310734        7.4800312742        9.8768467331
 Pt         6.7228109241       13.3602294511       10.5001350716
 Pt        -0.3378391723        2.5246658429        9.7767753585
 Pt        -2.5530833885        7.9246335761        9.6568322278
 Pt         2.2932819736        3.2458751794       10.0277957671
 Pt         2.6912758629        5.8057298713       10.4768418090
 Pt         5.2262712809        4.6537826428        9.9295027996
 Pt         1.6091102917        0.4598856467        9.6085421261
 Pt         4.1077089181        1.3675889417        9.8648127219
 Pt        -2.0071003199        5.3641622877       10.5488341180
 Pt         6.6863100010        2.4655723474        9.8476540469
 Pt        -0.3439655945        3.7852816972       12.0197719757
 Pt         5.5578765794        1.8031485750       12.1636891337
 Pt         0.5052253910        6.1460963704       12.1031382927
 Pt         4.0076608812        3.9010447548       11.9462985514
 Pt         0.5475152016        4.5273823459       14.4300433016
 Pt         0.8386493045        1.3266698699       11.9264805166
 Pt         2.5902279067        5.3000812827       13.3049443774
 Pt         3.3456438901        0.5442456093       12.2194125332
 Pt         2.3430876623        2.4689795857       13.5632312910
