     166
 i =        0, time =        0.000, E =     -6046.1807521678
  O         0.0000000000        0.0000000000        0.0000000000
  O         3.8260000000        0.0000000000        0.0000000000
  O         7.6520000000        0.0000000000        0.0000000000
  O        11.4780000000        0.0000000000        0.0000000000
  O        -1.9130000000        3.3140000000        0.0000000000
  O         1.9130000000        3.3140000000        0.0000000000
  O         5.7390000000        3.3140000000        0.0000000000
  O         9.5650000000        3.3140000000        0.0000000000
  O        -3.8260000000        6.6270000000        0.0000000000
  O         0.0000000000        6.6270000000        0.0000000000
  O         3.8260000000        6.6270000000        0.0000000000
  O         7.6520000000        6.6270000000        0.0000000000
  O        -5.7390000000        9.9410000000        0.0000000000
  O        -1.9130000000        9.9410000000        0.0000000000
  O         1.9130000000        9.9410000000        0.0000000000
  O         5.7390000000        9.9410000000        0.0000000000
  O         1.9130000000        1.1050000000        1.5620000000
  O         5.7390000000        1.1050000000        1.5620000000
  O         9.5650000000        1.1050000000        1.5620000000
  O        13.3920000000        1.1050000000        1.5620000000
  O         0.0000000000        4.4180000000        1.5620000000
  O         3.8260000000        4.4180000000        1.5620000000
  O         7.6520000000        4.4180000000        1.5620000000
  O        11.4780000000        4.4180000000        1.5620000000
  O        -1.9130000000        7.7320000000        1.5620000000
  O         1.9130000000        7.7320000000        1.5620000000
  O         5.7390000000        7.7320000000        1.5620000000
  O         9.5650000000        7.7320000000        1.5620000000
  O        -3.8260000000       11.0450000000        1.5620000000
  O         0.0000000000       11.0450000000        1.5620000000
  O         3.8260000000       11.0450000000        1.5620000000
  O         7.6520000000       11.0450000000        1.5620000000
  O         0.0000000000        2.2090000000        3.1240000000
  O         3.8260000000        2.2090000000        3.1240000000
  O         7.6520000000        2.2090000000        3.1240000000
  O        11.4780000000        2.2090000000        3.1240000000
  O        -1.9130000000        5.5230000000        3.1240000000
  O         1.9130000000        5.5230000000        3.1240000000
  O         5.7390000000        5.5230000000        3.1240000000
  O         9.5650000000        5.5230000000        3.1240000000
  O        -3.8260000000        8.8360000000        3.1240000000
  O         0.0000000000        8.8360000000        3.1240000000
  O         3.8260000000        8.8360000000        3.1240000000
  O         7.6520000000        8.8360000000        3.1240000000
  O        -5.7390000000       12.1500000000        3.1240000000
  O        -1.9130000000       12.1500000000        3.1240000000
  O         1.9130000000       12.1500000000        3.1240000000
  O         5.7390000000       12.1500000000        3.1240000000
  O        -0.0070000000       -0.0060000000        4.7450000000
  O         3.8560000000       -0.0280000000        4.7480000000
  O         7.6610000000        0.0010000000        4.7540000000
  O        11.4720000000       -0.0030000000        4.7470000000
  O        -1.9140000000        3.3200000000        4.7280000000
  O         1.9530000000        3.3270000000        4.7420000000
  O         5.7380000000        3.3250000000        4.7390000000
  O         9.5390000000        3.3300000000        4.7450000000
  O        -3.8290000000        6.6150000000        4.7500000000
  O        -0.0060000000        6.6450000000        4.6940000000
  O         3.8270000000        6.6310000000        4.7500000000
  O         7.6600000000        6.6160000000        4.7520000000
  O        -5.7410000000        9.9420000000        4.7440000000
  O        -1.9050000000        9.9670000000        4.6890000000
  O         1.9200000000        9.9430000000        4.7410000000
  O         5.7400000000        9.9330000000        4.7450000000
  O         1.9300000000        1.0820000000        6.2520000000
  O         5.7790000000        1.1580000000        6.3070000000
  O         9.5970000000        1.1630000000        6.3100000000
  O        13.3620000000        1.1090000000        6.2890000000
  O         0.0270000000        4.4700000000        6.2320000000
  O         3.8690000000        4.4590000000        6.3660000000
  O         7.6250000000        4.3940000000        6.3660000000
  O        11.4380000000        4.3490000000        6.2990000000
  O        -1.9090000000        7.8100000000        6.2310000000
  O         1.9040000000        7.7340000000        6.2960000000
  O         5.7500000000        7.6950000000        6.2980000000
  O         9.5690000000        7.7370000000        6.2880000000
  O        -3.8030000000       10.9820000000        6.3050000000
  O         0.0110000000       11.0310000000        6.2930000000
  O         3.8320000000       11.0520000000        6.2830000000
  O         7.6490000000       11.0420000000        6.2980000000
  O         0.1030000000        2.2680000000        7.7130000000
  O         3.7730000000        2.1440000000        7.8590000000
  O         7.7540000000        2.1460000000        8.0790000000
  O        11.4170000000        2.2040000000        8.1580000000
  O        -1.9600000000        5.5110000000        7.7150000000
  O         1.8520000000        5.5720000000        7.8760000000
  O         5.7660000000        5.6440000000        8.0610000000
  O         9.5650000000        5.5270000000        7.8680000000
  O        -4.0090000000        8.7930000000        8.0800000000
  O         0.1440000000        8.9570000000        8.0140000000
  O         3.8440000000        8.8470000000        7.8670000000
  O         7.6520000000        8.8260000000        7.8690000000
  O        -5.7180000000       12.0860000000        7.8590000000
  O        -1.8670000000       12.1470000000        7.8560000000
  O         1.9260000000       12.1580000000        7.8650000000
  O         5.7100000000       12.0670000000        7.8660000000
 Ce         0.0000000000        2.2090000000        0.7810000000
 Ce         3.8260000000        2.2090000000        0.7810000000
 Ce         7.6520000000        2.2090000000        0.7810000000
 Ce        11.4780000000        2.2090000000        0.7810000000
 Ce        -1.9130000000        5.5230000000        0.7810000000
 Ce         1.9130000000        5.5230000000        0.7810000000
 Ce         5.7390000000        5.5230000000        0.7810000000
 Ce         9.5650000000        5.5230000000        0.7810000000
 Ce        -3.8260000000        8.8360000000        0.7810000000
 Ce         0.0000000000        8.8360000000        0.7810000000
 Ce         3.8260000000        8.8360000000        0.7810000000
 Ce         7.6520000000        8.8360000000        0.7810000000
 Ce        -5.7390000000       12.1500000000        0.7810000000
 Ce        -1.9130000000       12.1500000000        0.7810000000
 Ce         1.9130000000       12.1500000000        0.7810000000
 Ce         5.7390000000       12.1500000000        0.7810000000
 Ce         1.9100000000        1.0930000000        3.9440000000
 Ce         5.7410000000        1.1040000000        3.9340000000
 Ce         9.5720000000        1.1100000000        3.9370000000
 Ce        13.3990000000        1.0990000000        3.9420000000
 Ce         0.0020000000        4.4260000000        3.9130000000
 Ce         3.8320000000        4.4260000000        3.9260000000
 Ce         7.6540000000        4.4140000000        3.9270000000
 Ce        11.4750000000        4.4180000000        3.9210000000
 Ce        -1.9150000000        7.7470000000        3.9120000000
 Ce         1.9140000000        7.7340000000        3.9300000000
 Ce         5.7380000000        7.7300000000        3.9260000000
 Ce         9.5690000000        7.7350000000        3.9260000000
 Ce        -3.8150000000       11.0380000000        3.9230000000
 Ce        -0.0040000000       11.0430000000        3.9230000000
 Ce         3.8250000000       11.0520000000        3.9200000000
 Ce         7.6580000000       11.0550000000        3.9310000000
 Ce        -0.0080000000       -0.0340000000        7.1800000000
 Ce         3.8190000000       -0.0720000000        7.0940000000
 Ce         7.6690000000       -0.0340000000        7.1040000000
 Ce        11.5060000000       -0.0140000000        7.1160000000
 Ce        -1.9020000000        3.3630000000        7.0500000000
 Ce         1.9380000000        3.3350000000        7.0570000000
 Ce         5.7510000000        3.3140000000        7.1000000000
 Ce         9.5780000000        3.3400000000        7.1270000000
 Ce        -3.8320000000        6.6210000000        7.1090000000
 Ce        -0.0930000000        6.6630000000        7.0390000000
 Ce         3.8300000000        6.7090000000        7.1360000000
 Ce         7.7060000000        6.6680000000        7.0980000000
 Ce        -5.7720000000        9.9520000000        7.1040000000
 Ce        -1.9030000000        9.9920000000        7.1240000000
 Ce         1.9630000000        9.9770000000        7.0770000000
 Ce         5.7520000000        9.9370000000        7.0770000000
 Pt        13.0450000000        1.8340000000        9.4420000000
 Pt         0.9770000000        5.5680000000        9.7630000000
 Pt        -0.0010000000        7.9250000000        9.8950000000
 Pt         7.3800000000       13.6360000000       10.1370000000
 Pt         0.1410000000        2.9790000000        9.6980000000
 Pt        -2.4290000000        8.2610000000        9.3020000000
 Pt         2.7870000000        3.7220000000       10.4630000000
 Pt         3.2920000000        6.2610000000       10.7790000000
 Pt         5.2590000000        4.7770000000        9.8640000000
 Pt         1.8100000000        1.3440000000       11.3160000000
 Pt         4.0930000000        1.4440000000        9.7760000000
 Pt        -0.0850000000        6.5180000000       12.0030000000
 Pt         6.5850000000        2.4000000000        9.8280000000
 Pt         0.7080000000        3.9690000000       11.9810000000
 Pt         5.3930000000        0.5380000000       11.7350000000
 Pt         2.2420000000        6.0150000000       13.1200000000
 Pt         5.0700000000        3.0690000000       11.8750000000
 Pt         0.0680000000        5.0320000000       14.2310000000
 Pt         1.1360000000        2.3550000000       13.9180000000
 Pt         4.9060000000        5.5400000000       12.6990000000
 Pt         3.4110000000        1.1810000000       13.2580000000
 Pt         3.2570000000        3.7590000000       13.6880000000
     166
 i =        1, time =        1.000, E =     -6046.1791352552
  O         0.0000000000        0.0000000000        0.0000000000
  O         3.8260000000        0.0000000000        0.0000000000
  O         7.6520000000        0.0000000000        0.0000000000
  O        11.4780000000        0.0000000000        0.0000000000
  O        -1.9130000000        3.3140000000        0.0000000000
  O         1.9130000000        3.3140000000        0.0000000000
  O         5.7390000000        3.3140000000        0.0000000000
  O         9.5650000000        3.3140000000        0.0000000000
  O        -3.8260000000        6.6270000000        0.0000000000
  O         0.0000000000        6.6270000000        0.0000000000
  O         3.8260000000        6.6270000000        0.0000000000
  O         7.6520000000        6.6270000000        0.0000000000
  O        -5.7390000000        9.9410000000        0.0000000000
  O        -1.9130000000        9.9410000000        0.0000000000
  O         1.9130000000        9.9410000000        0.0000000000
  O         5.7390000000        9.9410000000        0.0000000000
  O         1.9130000000        1.1050000000        1.5620000000
  O         5.7390000000        1.1050000000        1.5620000000
  O         9.5650000000        1.1050000000        1.5620000000
  O        13.3920000000        1.1050000000        1.5620000000
  O         0.0000000000        4.4180000000        1.5620000000
  O         3.8260000000        4.4180000000        1.5620000000
  O         7.6520000000        4.4180000000        1.5620000000
  O        11.4780000000        4.4180000000        1.5620000000
  O        -1.9130000000        7.7320000000        1.5620000000
  O         1.9130000000        7.7320000000        1.5620000000
  O         5.7390000000        7.7320000000        1.5620000000
  O         9.5650000000        7.7320000000        1.5620000000
  O        -3.8260000000       11.0450000000        1.5620000000
  O         0.0000000000       11.0450000000        1.5620000000
  O         3.8260000000       11.0450000000        1.5620000000
  O         7.6520000000       11.0450000000        1.5620000000
  O         0.0000000000        2.2090000000        3.1240000000
  O         3.8260000000        2.2090000000        3.1240000000
  O         7.6520000000        2.2090000000        3.1240000000
  O        11.4780000000        2.2090000000        3.1240000000
  O        -1.9130000000        5.5230000000        3.1240000000
  O         1.9130000000        5.5230000000        3.1240000000
  O         5.7390000000        5.5230000000        3.1240000000
  O         9.5650000000        5.5230000000        3.1240000000
  O        -3.8260000000        8.8360000000        3.1240000000
  O         0.0000000000        8.8360000000        3.1240000000
  O         3.8260000000        8.8360000000        3.1240000000
  O         7.6520000000        8.8360000000        3.1240000000
  O        -5.7390000000       12.1500000000        3.1240000000
  O        -1.9130000000       12.1500000000        3.1240000000
  O         1.9130000000       12.1500000000        3.1240000000
  O         5.7390000000       12.1500000000        3.1240000000
  O        -0.0023540859       -0.0091322031        4.7414928193
  O         3.8529491572       -0.0332514842        4.7403435770
  O         7.6774531692       -0.0106259432        4.7602372872
  O        11.4873325623       -0.0088585200        4.7496629065
  O        -1.9086821547        3.3144638884        4.7395665329
  O         1.9532569074        3.3215806852        4.7493829278
  O         5.7259503054        3.3157852993        4.7332519658
  O         9.5298580881        3.3379819028        4.7378267704
  O        -3.8304472072        6.6316723145        4.7451099122
  O        -0.0092682336        6.6586511568        4.6889361053
  O         3.8331547214        6.6285400605        4.7605623494
  O         7.6602910073        6.6192366625        4.7426516778
  O        -5.7465901914        9.9403072485        4.7518346256
  O        -1.9058933229        9.9817999843        4.6897590324
  O         1.9360940629        9.9480956234        4.7438522465
  O         5.7394903562        9.9213125785        4.7545104200
  O         1.9275260101        1.0855762779        6.2554734758
  O         5.7838539696        1.1583959808        6.3057151104
  O         9.5917730573        1.1705188448        6.3143726848
  O        13.3669770547        1.1082446475        6.3062823566
  O         0.0179401513        4.4703602157        6.2289183433
  O         3.8811423413        4.4594194641        6.3617645858
  O         7.6024955599        4.3921129763        6.3676696299
  O        11.4294913558        4.3557304866        6.2942092020
  O        -1.8967539912        7.8183764665        6.2420082917
  O         1.9084400476        7.7217953667        6.3002999375
  O         5.7529979500        7.6956884681        6.2985935821
  O         9.5555148938        7.7353337349        6.2933224137
  O        -3.8132595782       10.9825094761        6.3022092309
  O         0.0104014970       11.0416094935        6.3008955008
  O         3.8265598745       11.0570425109        6.2916019848
  O         7.6658513484       11.0514049684        6.3081626270
  O         0.1059429682        2.2605271141        7.7073906810
  O         3.7885545061        2.1499571583        7.8538720989
  O         7.7439936560        2.1372398863        8.0806449162
  O        11.4030997824        2.2109212891        8.1545731320
  O        -1.9636919357        5.5257073956        7.7196293692
  O         1.8523191107        5.5696972845        7.8759465609
  O         5.7540116175        5.6437012899        8.0624255451
  O         9.5666307883        5.5281981118        7.8552414312
  O        -4.0130521727        8.7843992986        8.0757435810
  O         0.1396145243        8.9533072870        8.0109622157
  O         3.8463177014        8.8419902044        7.8665110809
  O         7.6386344728        8.8126265935        7.8686411354
  O        -5.7200694838       12.0818947585        7.8512816097
  O        -1.8619098123       12.1492067492        7.8395368003
  O         1.9300184671       12.1700878155        7.8652025807
  O         5.6975677710       12.0650191561        7.8631593672
 Ce         0.0000000000        2.2090000000        0.7810000000
 Ce         3.8260000000        2.2090000000        0.7810000000
 Ce         7.6520000000        2.2090000000        0.7810000000
 Ce        11.4780000000        2.2090000000        0.7810000000
 Ce        -1.9130000000        5.5230000000        0.7810000000
 Ce         1.9130000000        5.5230000000        0.7810000000
 Ce         5.7390000000        5.5230000000        0.7810000000
 Ce         9.5650000000        5.5230000000        0.7810000000
 Ce        -3.8260000000        8.8360000000        0.7810000000
 Ce         0.0000000000        8.8360000000        0.7810000000
 Ce         3.8260000000        8.8360000000        0.7810000000
 Ce         7.6520000000        8.8360000000        0.7810000000
 Ce        -5.7390000000       12.1500000000        0.7810000000
 Ce        -1.9130000000       12.1500000000        0.7810000000
 Ce         1.9130000000       12.1500000000        0.7810000000
 Ce         5.7390000000       12.1500000000        0.7810000000
 Ce         1.9118086729        1.0916217901        3.9449636913
 Ce         5.7426216795        1.1038296423        3.9339360933
 Ce         9.5751784890        1.1071795198        3.9402341448
 Ce        13.4005066524        1.1047689790        3.9448500115
 Ce         0.0022274679        4.4262976016        3.9136837979
 Ce         3.8277532864        4.4251990852        3.9213778978
 Ce         7.6517457005        4.4113779594        3.9264835280
 Ce        11.4784535994        4.4174070365        3.9195672006
 Ce        -1.9100045614        7.7456946674        3.9157601171
 Ce         1.9146494830        7.7336387950        3.9338832189
 Ce         5.7389095628        7.7287228141        3.9250342489
 Ce         9.5676750785        7.7368899352        3.9290486582
 Ce        -3.8136148564       11.0349696767        3.9234282027
 Ce        -0.0044776680       11.0434668105        3.9220200593
 Ce         3.8278134318       11.0497459498        3.9222388732
 Ce         7.6554453219       11.0575183738        3.9272773901
 Ce        -0.0076522670       -0.0363470608        7.1837130362
 Ce         3.8169874690       -0.0699320953        7.0975142148
 Ce         7.6724404830       -0.0320453900        7.1084864072
 Ce        11.5074467299       -0.0133736366        7.1165506418
 Ce        -1.8992159886        3.3637924141        7.0436091249
 Ce         1.9400377399        3.3375741049        7.0632203090
 Ce         5.7507980821        3.3114084138        7.0986191701
 Ce         9.5797236187        3.3351070129        7.1288661541
 Ce        -3.8337755576        6.6248783721        7.1068356239
 Ce        -0.0953355723        6.6612921624        7.0377544033
 Ce         3.8278438328        6.7038964730        7.1350174639
 Ce         7.7033361292        6.6638890800        7.1031115095
 Ce        -5.7736398843        9.9521960932        7.1000209227
 Ce        -1.9019461961        9.9911135987        7.1207943596
 Ce         1.9635207417        9.9826055987        7.0755252703
 Ce         5.7506126813        9.9393291718        7.0823786853
 Pt        13.0404828194        1.8349114582        9.4397070409
 Pt         0.9766602809        5.5638698434        9.7629353716
 Pt        -0.0024305662        7.9276881729        9.8970203020
 Pt         7.3776121221       13.6350186906       10.1357937675
 Pt         0.1400887240        2.9800942306        9.7002885015
 Pt        -2.4292761050        8.2646445274        9.3016588687
 Pt         2.7889705482        3.7201092117       10.4644395630
 Pt         3.2959433247        6.2635648826       10.7765728506
 Pt         5.2583871794        4.7783148215        9.8634166677
 Pt         1.8084525655        1.3438934270       11.3135554114
 Pt         4.0941198844        1.4443298741        9.7761928450
 Pt        -0.0858452988        6.5180243557       11.9984435803
 Pt         6.5842170689        2.4014992526        9.8258115364
 Pt         0.7055651976        3.9694595170       11.9841263564
 Pt         5.3938689181        0.5385077913       11.7345149153
 Pt         2.2438421615        6.0160936118       13.1165859058
 Pt         5.0709325916        3.0706163598       11.8729733797
 Pt         0.0678435887        5.0333725167       14.2310185435
 Pt         1.1359871736        2.3527689983       13.9184701012
 Pt         4.9034355320        5.5379711182       12.6980169838
 Pt         3.4135477707        1.1791099078       13.2571385052
 Pt         3.2576100847        3.7563907892       13.6871519704
     166
 i =        2, time =        2.000, E =     -6046.1732928822
  O         0.0000000000        0.0000000000        0.0000000000
  O         3.8260000000        0.0000000000        0.0000000000
  O         7.6520000000        0.0000000000        0.0000000000
  O        11.4780000000        0.0000000000        0.0000000000
  O        -1.9130000000        3.3140000000        0.0000000000
  O         1.9130000000        3.3140000000        0.0000000000
  O         5.7390000000        3.3140000000        0.0000000000
  O         9.5650000000        3.3140000000        0.0000000000
  O        -3.8260000000        6.6270000000        0.0000000000
  O         0.0000000000        6.6270000000        0.0000000000
  O         3.8260000000        6.6270000000        0.0000000000
  O         7.6520000000        6.6270000000        0.0000000000
  O        -5.7390000000        9.9410000000        0.0000000000
  O        -1.9130000000        9.9410000000        0.0000000000
  O         1.9130000000        9.9410000000        0.0000000000
  O         5.7390000000        9.9410000000        0.0000000000
  O         1.9130000000        1.1050000000        1.5620000000
  O         5.7390000000        1.1050000000        1.5620000000
  O         9.5650000000        1.1050000000        1.5620000000
  O        13.3920000000        1.1050000000        1.5620000000
  O         0.0000000000        4.4180000000        1.5620000000
  O         3.8260000000        4.4180000000        1.5620000000
  O         7.6520000000        4.4180000000        1.5620000000
  O        11.4780000000        4.4180000000        1.5620000000
  O        -1.9130000000        7.7320000000        1.5620000000
  O         1.9130000000        7.7320000000        1.5620000000
  O         5.7390000000        7.7320000000        1.5620000000
  O         9.5650000000        7.7320000000        1.5620000000
  O        -3.8260000000       11.0450000000        1.5620000000
  O         0.0000000000       11.0450000000        1.5620000000
  O         3.8260000000       11.0450000000        1.5620000000
  O         7.6520000000       11.0450000000        1.5620000000
  O         0.0000000000        2.2090000000        3.1240000000
  O         3.8260000000        2.2090000000        3.1240000000
  O         7.6520000000        2.2090000000        3.1240000000
  O        11.4780000000        2.2090000000        3.1240000000
  O        -1.9130000000        5.5230000000        3.1240000000
  O         1.9130000000        5.5230000000        3.1240000000
  O         5.7390000000        5.5230000000        3.1240000000
  O         9.5650000000        5.5230000000        3.1240000000
  O        -3.8260000000        8.8360000000        3.1240000000
  O         0.0000000000        8.8360000000        3.1240000000
  O         3.8260000000        8.8360000000        3.1240000000
  O         7.6520000000        8.8360000000        3.1240000000
  O        -5.7390000000       12.1500000000        3.1240000000
  O        -1.9130000000       12.1500000000        3.1240000000
  O         1.9130000000       12.1500000000        3.1240000000
  O         5.7390000000       12.1500000000        3.1240000000
  O         0.0022307858       -0.0122288647        4.7380138513
  O         3.8499149010       -0.0384719655        4.7327793870
  O         7.6938607817       -0.0221791345        4.7664031070
  O        11.5025565304       -0.0146422816        4.7523030213
  O        -1.9034192101        3.3089644785        4.7510347919
  O         1.9534962974        3.3162132075        4.7566961417
  O         5.7139737581        3.3066220877        4.7275029581
  O         9.5207582242        3.3459298778        4.7307301361
  O        -3.8318437831        6.6482300703        4.7402797020
  O        -0.0125337326        6.6722366907        4.6838881176
  O         3.8392364767        6.6260988512        4.7710092503
  O         7.6605741496        6.6224372354        4.7333907933
  O        -5.7521550853        9.9386171873        4.7595624090
  O        -1.9067514519        9.9965359879        4.6905265512
  O         1.9520934413        9.9531476016        4.7466942271
  O         5.7389927297        9.9097297521        4.7639509900
  O         1.9250851474        1.0891338796        6.2589621075
  O         5.7886767438        1.1587606949        6.3044027893
  O         9.5866081676        1.1780123461        6.3186630647
  O        13.3719590497        1.1075116882        6.3233952365
  O         0.0089175185        4.4707342625        6.2258585869
  O         3.8931897245        4.4598059026        6.3575541431
  O         7.5800819055        4.3902339542        6.3693271938
  O        11.4210776143        4.3624064477        6.2894156865
  O        -1.8845516230        7.8267338754        6.2528669850
  O         1.9128206962        7.7096996309        6.3045273866
  O         5.7559835055        7.6963473862        6.2991764419
  O         9.5421255176        7.7336859642        6.2985987604
  O        -3.8234702450       10.9830085215        6.2994581565
  O         0.0098455025       11.0521018406        6.3087101706
  O         3.8211503430       11.0620416303        6.3001598402
  O         7.6825279373       11.0607428444        6.3182171266
  O         0.1088606266        2.2531658570        7.7018690198
  O         3.8040073407        2.1558656526        7.8488069570
  O         7.7340576589        2.1285321498        8.0822707878
  O        11.3893038968        2.2178222909        8.1511826938
  O        -1.9673892156        5.5403132233        7.7241957545
  O         1.8526211397        5.5673613637        7.8758954875
  O         5.7420468591        5.6434099215        8.0638684945
  O         9.5682383407        5.5293548632        7.8426009787
  O        -4.0170699130        8.7758219083        8.0715249767
  O         0.1352837735        8.9496536914        8.0079335816
  O         3.8486056788        8.8370376203        7.8660202912
  O         7.6253108389        8.7993131529        7.8683080160
  O        -5.7221070231       12.0778490221        7.8436603075
  O        -1.8568825762       12.1514041828        7.8231723723
  O         1.9340476645       12.1821311080        7.8654178582
  O         5.6852039514       12.0630383858        7.8603597457
 Ce         0.0000000000        2.2090000000        0.7810000000
 Ce         3.8260000000        2.2090000000        0.7810000000
 Ce         7.6520000000        2.2090000000        0.7810000000
 Ce        11.4780000000        2.2090000000        0.7810000000
 Ce        -1.9130000000        5.5230000000        0.7810000000
 Ce         1.9130000000        5.5230000000        0.7810000000
 Ce         5.7390000000        5.5230000000        0.7810000000
 Ce         9.5650000000        5.5230000000        0.7810000000
 Ce        -3.8260000000        8.8360000000        0.7810000000
 Ce         0.0000000000        8.8360000000        0.7810000000
 Ce         3.8260000000        8.8360000000        0.7810000000
 Ce         7.6520000000        8.8360000000        0.7810000000
 Ce        -5.7390000000       12.1500000000        0.7810000000
 Ce        -1.9130000000       12.1500000000        0.7810000000
 Ce         1.9130000000       12.1500000000        0.7810000000
 Ce         5.7390000000       12.1500000000        0.7810000000
 Ce         1.9136184305        1.0902421821        3.9459289205
 Ce         5.7442424999        1.1036587687        3.9338749127
 Ce         9.5783516357        1.1043598775        3.9434667194
 Ce        13.4020168745        1.1105267276        3.9476988549
 Ce         0.0024583829        4.4265933643        3.9143655369
 Ce         3.8235143007        4.4243962906        3.9167633319
 Ce         7.6494896651        4.4087603378        3.9259678487
 Ce        11.4818952210        4.4168202392        3.9181349244
 Ce        -1.9050169126        7.7443971297        3.9195148883
 Ce         1.9153051348        7.7332802495        3.9377655684
 Ce         5.7398206705        7.7274441046        3.9240751962
 Ce         9.5663473493        7.7387779774        3.9320952181
 Ce        -3.8122341908       11.0319429243        3.9238559533
 Ce        -0.0049530831       11.0439378406        3.9210424848
 Ce         3.8306279438       11.0474917166        3.9244767551
 Ce         7.6528942716       11.0600342901        3.9235601437
 Ce        -0.0073024226       -0.0386935315        7.1874246963
 Ce         3.8149772172       -0.0678659329        7.1010218654
 Ce         7.6758773403       -0.0300912480        7.1129706421
 Ce        11.5088917035       -0.0127473122        7.1171059664
 Ce        -1.8964354243        3.3645872367        7.0372316511
 Ce         1.9420788432        3.3401439179        7.0694374102
 Ce         5.7505934914        3.3088170121        7.0972360477
 Ce         9.5814420133        3.3302202024        7.1307301301
 Ce        -3.8355549434        6.6287564061        7.1046727978
 Ce        -0.0976674990        6.6595886516        7.0365158574
 Ce         3.8256944783        6.6987972037        7.1340354780
 Ce         7.7006660883        6.6597834415        7.1082169762
 Ce        -5.7752816439        9.9523888769        7.0960448257
 Ce        -1.9008927978        9.9902330601        7.1175917855
 Ce         1.9640418048        9.9882070558        7.0740554582
 Ce         5.7492259911        9.9416478336        7.0877561057
 Pt        13.0359649164        1.8358228435        9.4374142545
 Pt         0.9763198018        5.5597445771        9.7628703891
 Pt        -0.0038599877        7.9303737173        9.8990384881
 Pt         7.3752235318       13.6340377851       10.1345880172
 Pt         0.1391772373        2.9811863502        9.7025721234
 Pt        -2.4295535037        8.2682893256        9.3013178042
 Pt         2.7909396714        3.7182208088       10.4658803076
 Pt         3.2998841309        6.2661287244       10.7741442688
 Pt         5.2577745717        4.7796294791        9.8628340577
 Pt         1.8069066038        1.3437864257       11.3111126584
 Pt         4.0952387135        1.4446595267        9.7763822129
 Pt        -0.0866888512        6.5180485970       11.9938909583
 Pt         6.5834333047        2.4029982263        9.8236258684
 Pt         0.7031326083        3.9699178924       11.9872498062
 Pt         5.3947383976        0.5390151246       11.7340299411
 Pt         2.2456811653        6.0171873245       13.1131716929
 Pt         5.0718653498        3.0722302821       11.8709491571
 Pt         0.0676867323        5.0347454829       14.2310375043
 Pt         1.1359756612        2.3505379473       13.9189399442
 Pt         4.9008718838        5.5359430328       12.6970343723
 Pt         3.4160927990        1.1772208372       13.2562753285
 Pt         3.2582195177        3.7537823358       13.6863041271
     166
 i =        3, time =        3.000, E =     -6046.1643711925
  O         0.0000000000        0.0000000000        0.0000000000
  O         3.8260000000        0.0000000000        0.0000000000
  O         7.6520000000        0.0000000000        0.0000000000
  O        11.4780000000        0.0000000000        0.0000000000
  O        -1.9130000000        3.3140000000        0.0000000000
  O         1.9130000000        3.3140000000        0.0000000000
  O         5.7390000000        3.3140000000        0.0000000000
  O         9.5650000000        3.3140000000        0.0000000000
  O        -3.8260000000        6.6270000000        0.0000000000
  O         0.0000000000        6.6270000000        0.0000000000
  O         3.8260000000        6.6270000000        0.0000000000
  O         7.6520000000        6.6270000000        0.0000000000
  O        -5.7390000000        9.9410000000        0.0000000000
  O        -1.9130000000        9.9410000000        0.0000000000
  O         1.9130000000        9.9410000000        0.0000000000
  O         5.7390000000        9.9410000000        0.0000000000
  O         1.9130000000        1.1050000000        1.5620000000
  O         5.7390000000        1.1050000000        1.5620000000
  O         9.5650000000        1.1050000000        1.5620000000
  O        13.3920000000        1.1050000000        1.5620000000
  O         0.0000000000        4.4180000000        1.5620000000
  O         3.8260000000        4.4180000000        1.5620000000
  O         7.6520000000        4.4180000000        1.5620000000
  O        11.4780000000        4.4180000000        1.5620000000
  O        -1.9130000000        7.7320000000        1.5620000000
  O         1.9130000000        7.7320000000        1.5620000000
  O         5.7390000000        7.7320000000        1.5620000000
  O         9.5650000000        7.7320000000        1.5620000000
  O        -3.8260000000       11.0450000000        1.5620000000
  O         0.0000000000       11.0450000000        1.5620000000
  O         3.8260000000       11.0450000000        1.5620000000
  O         7.6520000000       11.0450000000        1.5620000000
  O         0.0000000000        2.2090000000        3.1240000000
  O         3.8260000000        2.2090000000        3.1240000000
  O         7.6520000000        2.2090000000        3.1240000000
  O        11.4780000000        2.2090000000        3.1240000000
  O        -1.9130000000        5.5230000000        3.1240000000
  O         1.9130000000        5.5230000000        3.1240000000
  O         5.7390000000        5.5230000000        3.1240000000
  O         9.5650000000        5.5230000000        3.1240000000
  O        -3.8260000000        8.8360000000        3.1240000000
  O         0.0000000000        8.8360000000        3.1240000000
  O         3.8260000000        8.8360000000        3.1240000000
  O         7.6520000000        8.8360000000        3.1240000000
  O        -5.7390000000       12.1500000000        3.1240000000
  O        -1.9130000000       12.1500000000        3.1240000000
  O         1.9130000000       12.1500000000        3.1240000000
  O         5.7390000000       12.1500000000        3.1240000000
  O         0.0066954824       -0.0152585257        4.7345831375
  O         3.8469181623       -0.0436265374        4.7253820630
  O         7.7102047062       -0.0336096864        4.7724462054
  O        11.5176159777       -0.0203088334        4.7549069331
  O        -1.8982584324        3.3035381976        4.7622607652
  O         1.9536991145        3.3109502242        4.7638808738
  O         5.7021100561        3.2975426148        4.7217409940
  O         9.5117586327        3.3538012943        4.7237706504
  O        -3.8331533365        6.6645968053        4.7355703092
  O        -0.0157950654        6.6856955135        4.6788864400
  O         3.8451839400        6.6236935280        4.7812721674
  O         7.6608476147        6.6255556974        4.7242880403
  O        -5.7576761116        9.9369312808        4.7670988361
  O        -1.9075416431       10.0111232194        4.6913143307
  O         1.9679445390        9.9581157828        4.7495183404
  O         5.7385149518        9.8983323319        4.7732752120
  O         1.9227165638        1.0926523475        6.2624849663
  O         5.7934486169        1.1590656911        6.3030351767
  O         9.5815497178        1.1854689398        6.3228019991
  O        13.3769376679        1.1068171395        6.3402001863
  O        -0.0000438481        4.4711375099        6.2228359468
  O         3.9050648222        4.4601316343        6.3533833992
  O         7.5578734399        4.3883903865        6.3709504242
  O        11.4128260251        4.3689879612        6.2846061175
  O        -1.8724509428        7.8350554706        6.2634787563
  O         1.9170779332        7.6977822994        6.3086100073
  O         5.7589401411        7.6969452646        6.2997416856
  O         9.5288869929        7.7320706843        6.3037713748
  O        -3.8335989191       10.9834887318        6.2967867626
  O         0.0093859370       11.0623477544        6.3163564349
  O         3.8157954987       11.0669679594        6.3085998760
  O         7.6989200960       11.0699801812        6.3280840099
  O         0.1117395250        2.2459978010        7.6964979126
  O         3.8192389751        2.1616858330        7.8438465136
  O         7.7242318847        2.1199009906        8.0838678527
  O        11.3756726737        2.2246834336        8.1478674156
  O        -1.9710737526        5.5547225043        7.7286490242
  O         1.8528902393        5.5649618997        7.8758455454
  O         5.7301680145        5.6431382366        8.0653336628
  O         9.5698033425        5.5304312595        7.8301513510
  O        -4.0210234452        8.7673036702        8.0673725672
  O         0.1310566084        8.9460692446        8.0049206965
  O         3.8508400217        8.8321969803        7.8655281849
  O         7.6120383886        8.7860845008        7.8680243607
  O        -5.7240763047       12.0739184448        7.8362127034
  O        -1.8519825513       12.1535832090        7.8068977835
  O         1.9381073371       12.1941142480        7.8656606156
  O         5.6729608645       12.0610448092        7.8576418448
 Ce         0.0000000000        2.2090000000        0.7810000000
 Ce         3.8260000000        2.2090000000        0.7810000000
 Ce         7.6520000000        2.2090000000        0.7810000000
 Ce        11.4780000000        2.2090000000        0.7810000000
 Ce        -1.9130000000        5.5230000000        0.7810000000
 Ce         1.9130000000        5.5230000000        0.7810000000
 Ce         5.7390000000        5.5230000000        0.7810000000
 Ce         9.5650000000        5.5230000000        0.7810000000
 Ce        -3.8260000000        8.8360000000        0.7810000000
 Ce         0.0000000000        8.8360000000        0.7810000000
 Ce         3.8260000000        8.8360000000        0.7810000000
 Ce         7.6520000000        8.8360000000        0.7810000000
 Ce        -5.7390000000       12.1500000000        0.7810000000
 Ce        -1.9130000000       12.1500000000        0.7810000000
 Ce         1.9130000000       12.1500000000        0.7810000000
 Ce         5.7390000000       12.1500000000        0.7810000000
 Ce         1.9154305856        1.0888593582        3.9468969309
 Ce         5.7458605451        1.1034867116        3.9338184800
 Ce         9.5815147614        1.1015420877        3.9466953255
 Ce        13.4035342837        1.1162629620        3.9505455320
 Ce         0.0026965759        4.4268857724        3.9150433604
 Ce         3.8192905179        4.4235898336        3.9121631542
 Ce         7.6472294847        4.4061521219        3.9254528515
 Ce        11.4853135572        4.4162454404        3.9167032655
 Ce        -1.9000448677        7.7431148506        3.9232592933
 Ce         1.9159728919        7.7329261800        3.9416460382
 Ce         5.7407356323        7.7261616764        3.9231293666
 Ce         9.5650135004        7.7406627970        3.9351379916
 Ce        -3.8108630409       11.0289234954        3.9242832397
 Ce        -0.0054240073       11.0444171962        3.9200689662
 Ce         3.8334449451       11.0452371684        3.9267124361
 Ce         7.6503510768       11.0625446139        3.9198529166
 Ce        -0.0069474621       -0.0410380215        7.1911352222
 Ce         3.8129705970       -0.0658041535        7.1045164710
 Ce         7.6793067398       -0.0281378566        7.1174507202
 Ce        11.5103331943       -0.0121203082        7.1176698432
 Ce        -1.8936619016        3.3653850806        7.0308812611
 Ce         1.9441256934        3.3427046852        7.0756490862
 Ce         5.7503830060        3.3062261953        7.0958489285
 Ce         9.5831511330        3.3253452766        7.1325904723
 Ce        -3.8373415049        6.6326346899        7.1025130221
 Ce        -0.0999920870        6.6578939074        7.0352919248
 Ce         3.8235596436        6.6937059960        7.1330540656
 Ce         7.6979830481        6.6556886669        7.1133110333
 Ce        -5.7769265203        9.9525750344        7.0920746016
 Ce        -1.8998408517        9.9893636904        7.1143954110
 Ce         1.9645636777        9.9937997293        7.0725954858
 Ce         5.7478409235        9.9439446542        7.0931312346
 Pt        13.0314474243        1.8367372692        9.4351204229
 Pt         0.9759800439        5.5556285075        9.7628048517
 Pt        -0.0052870393        7.9330543765        9.9010519682
 Pt         7.3728329923       13.6330586775       10.1333826099
 Pt         0.1382631186        2.9822727721        9.7048480569
 Pt        -2.4298334556        8.2719349545        9.3009768889
 Pt         2.7929047739        3.7163365070       10.4673228970
 Pt         3.3038193799        6.2686905768       10.7717146036
 Pt         5.2571620451        4.7809426475        9.8622543289
 Pt         1.8053645592        1.3436788146       11.3086744774
 Pt         4.0963571126        1.4449896034        9.7765661368
 Pt        -0.0875307285        6.5180724524       11.9893456286
 Pt         6.5826489064        2.4044971663        9.8214446683
 Pt         0.7007033868        3.9703744836       11.9903689197
 Pt         5.3956089641        0.5395214337       11.7335453660
 Pt         2.2475157981        6.0182784895       13.1097576791
 Pt         5.0727977468        3.0738407944       11.8689273156
 Pt         0.0675303749        5.0361195190       14.2310562914
 Pt         1.1359659591        2.3483065693       13.9194088714
 Pt         4.8983123829        5.5339174897       12.6960524757
 Pt         3.4186316323        1.1753330998       13.2554101872
 Pt         3.2588259595        3.7511755717       13.6854560487
     166
 i =        4, time =        4.000, E =     -6046.1530085790
  O         0.0000000000        0.0000000000        0.0000000000
  O         3.8260000000        0.0000000000        0.0000000000
  O         7.6520000000        0.0000000000        0.0000000000
  O        11.4780000000        0.0000000000        0.0000000000
  O        -1.9130000000        3.3140000000        0.0000000000
  O         1.9130000000        3.3140000000        0.0000000000
  O         5.7390000000        3.3140000000        0.0000000000
  O         9.5650000000        3.3140000000        0.0000000000
  O        -3.8260000000        6.6270000000        0.0000000000
  O         0.0000000000        6.6270000000        0.0000000000
  O         3.8260000000        6.6270000000        0.0000000000
  O         7.6520000000        6.6270000000        0.0000000000
  O        -5.7390000000        9.9410000000        0.0000000000
  O        -1.9130000000        9.9410000000        0.0000000000
  O         1.9130000000        9.9410000000        0.0000000000
  O         5.7390000000        9.9410000000        0.0000000000
  O         1.9130000000        1.1050000000        1.5620000000
  O         5.7390000000        1.1050000000        1.5620000000
  O         9.5650000000        1.1050000000        1.5620000000
  O        13.3920000000        1.1050000000        1.5620000000
  O         0.0000000000        4.4180000000        1.5620000000
  O         3.8260000000        4.4180000000        1.5620000000
  O         7.6520000000        4.4180000000        1.5620000000
  O        11.4780000000        4.4180000000        1.5620000000
  O        -1.9130000000        7.7320000000        1.5620000000
  O         1.9130000000        7.7320000000        1.5620000000
  O         5.7390000000        7.7320000000        1.5620000000
  O         9.5650000000        7.7320000000        1.5620000000
  O        -3.8260000000       11.0450000000        1.5620000000
  O         0.0000000000       11.0450000000        1.5620000000
  O         3.8260000000       11.0450000000        1.5620000000
  O         7.6520000000       11.0450000000        1.5620000000
  O         0.0000000000        2.2090000000        3.1240000000
  O         3.8260000000        2.2090000000        3.1240000000
  O         7.6520000000        2.2090000000        3.1240000000
  O        11.4780000000        2.2090000000        3.1240000000
  O        -1.9130000000        5.5230000000        3.1240000000
  O         1.9130000000        5.5230000000        3.1240000000
  O         5.7390000000        5.5230000000        3.1240000000
  O         9.5650000000        5.5230000000        3.1240000000
  O        -3.8260000000        8.8360000000        3.1240000000
  O         0.0000000000        8.8360000000        3.1240000000
  O         3.8260000000        8.8360000000        3.1240000000
  O         7.6520000000        8.8360000000        3.1240000000
  O        -5.7390000000       12.1500000000        3.1240000000
  O        -1.9130000000       12.1500000000        3.1240000000
  O         1.9130000000       12.1500000000        3.1240000000
  O         5.7390000000       12.1500000000        3.1240000000
  O         0.0109883342       -0.0181954531        4.7312163980
  O         3.8439798821       -0.0486774599        4.7181986375
  O         7.7264304665       -0.0448569033        4.7783356587
  O        11.5324797922       -0.0258164819        4.7574625421
  O        -1.8932331836        3.2982093267        4.7731297946
  O         1.9538457280        3.3058443631        4.7708979743
  O         5.6903795018        3.2885626425        4.7159417704
  O         9.5029292980        3.3615430065        4.7169863466
  O        -3.8343460865        6.6807420983        4.7310387746
  O        -0.0190436856        6.6989358862        4.6739734653
  O         3.8509465999        6.6213378333        4.7913192848
  O         7.6611101531        6.6285479462        4.7153737819
  O        -5.7631419499        9.9352485128        4.7743838954
  O        -1.9082416218       10.0254646374        4.6921354997
  O         1.9835719992        9.9629421358        4.7523171790
  O         5.7380622752        9.8871957526        4.7824755639
  O         1.9204602283        1.0961063734        6.2660632798
  O         5.7981575937        1.1592833350        6.3015845536
  O         9.5766312878        1.1928917458        6.3267289421
  O        13.3818972227        1.1061777890        6.3566780354
  O        -0.0089309708        4.4715905861        6.2198629059
  O         3.9166990627        4.4603871042        6.3492553814
  O         7.5359774592        4.3865647684        6.3725120592
  O        11.4047872525        4.3754469741        6.2797585971
  O        -1.8604894510        7.8433366946        6.2737950513
  O         1.9211612608        7.6860846760        6.3124784021
  O         5.7618514275        7.6974504607        6.3002821772
  O         9.5158202194        7.7304980384        6.3087806943
  O        -3.8436178962       10.9839426973        6.2942312743
  O         0.0090839350       11.0722376027        6.3237665224
  O         3.8105100314       11.0718049599        6.3168413759
  O         7.7149150128       11.0790822281        6.3377254454
  O         0.1145722095        2.2390882540        7.6913248525
  O         3.8341880463        2.1673980759        7.8390262919
  O         7.7145566330        2.1113604144        8.0854281156
  O        11.3622320076        2.2315005743        8.1446653927
  O        -1.9747184029        5.5688762234        7.7329498052
  O         1.8531106199        5.5624696041        7.8757925181
  O         5.7184504704        5.6428954558        8.0668223129
  O         9.5713073248        5.5313875100        7.8178989207
  O        -4.0248945737        8.7588747928        8.0633073572
  O         0.1269729476        8.9425780809        8.0019291630
  O         3.8530023463        8.8275211268        7.8650355744
  O         7.5988645672        8.7730038117        7.8678147803
  O        -5.7259416311       12.0701554277        7.8289915723
  O        -1.8472810810       12.1557319412        7.7907065509
  O         1.9422131109       12.2060174051        7.8659459443
  O         5.6608844558       12.0590278707        7.8550468534
 Ce         0.0000000000        2.2090000000        0.7810000000
 Ce         3.8260000000        2.2090000000        0.7810000000
 Ce         7.6520000000        2.2090000000        0.7810000000
 Ce        11.4780000000        2.2090000000        0.7810000000
 Ce        -1.9130000000        5.5230000000        0.7810000000
 Ce         1.9130000000        5.5230000000        0.7810000000
 Ce         5.7390000000        5.5230000000        0.7810000000
 Ce         9.5650000000        5.5230000000        0.7810000000
 Ce        -3.8260000000        8.8360000000        0.7810000000
 Ce         0.0000000000        8.8360000000        0.7810000000
 Ce         3.8260000000        8.8360000000        0.7810000000
 Ce         7.6520000000        8.8360000000        0.7810000000
 Ce        -5.7390000000       12.1500000000        0.7810000000
 Ce        -1.9130000000       12.1500000000        0.7810000000
 Ce         1.9130000000       12.1500000000        0.7810000000
 Ce         5.7390000000       12.1500000000        0.7810000000
 Ce         1.9172465131        1.0874715710        3.9478689237
 Ce         5.7474735093        1.1033130250        3.9337686851
 Ce         9.5846631353        1.0987271483        3.9499174849
 Ce        13.4050623550        1.1219674211        3.9533885526
 Ce         0.0029458102        4.4271731979        3.9157152375
 Ce         3.8150893379        4.4227778880        3.9075842434
 Ce         7.6449626721        4.4035583072        3.9249383247
 Ce        11.4886973873        4.4156880998        3.9152721336
 Ce        -1.8950964627        7.7418551944        3.9269879361
 Ce         1.9166585361        7.7325784304        3.9455234887
 Ce         5.7416566184        7.7248733827        3.9222030466
 Ce         9.5636701844        7.7425431236        3.9381751607
 Ce        -3.8095064264       11.0259152396        3.9247099652
 Ce        -0.0058882711       11.0449088858        3.9191009295
 Ce         3.8362660266       11.0429823124        3.9289445202
 Ce         7.6478198876       11.0650462761        3.9161599197
 Ce        -0.0065840451       -0.0433789730        7.1948448023
 Ce         3.8109690682       -0.0637492244        7.1079920495
 Ce         7.6827246660       -0.0261854727        7.1219246476
 Ce        11.5117692923       -0.0114919679        7.1182458573
 Ce        -1.8908986187        3.3661861667        7.0245718008
 Ce         1.9461806159        3.3452514587        7.0818534683
 Ce         5.7501632182        3.3036361842        7.0944561354
 Ce         9.5848471393        3.3204881891        7.1344457530
 Ce        -3.8391386030        6.6365136042        7.1003576326
 Ce        -0.1023053629        6.6562123361        7.0340902787
 Ce         3.8214467599        6.6886265331        7.1320736327
 Ce         7.6952803470        6.6516099324        7.1183886660
 Ce        -5.7785751362        9.9527513729        7.0881133714
 Ce        -1.8987911903        9.9885110855        7.1112085942
 Ce         1.9650867795        9.9993792882        7.0711502416
 Ce         5.7464580270        9.9462081752        7.0985029965
 Pt        13.0269311979        1.8376573030        9.4328246946
 Pt         0.9756420956        5.5515252705        9.7627386821
 Pt        -0.0067108923        7.9357280452        9.9030585064
 Pt         7.3704393130       13.6320829425       10.1321776878
 Pt         0.1373438866        2.9833497216        9.7071140531
 Pt        -2.4301171152        8.2755819748        9.3006362228
 Pt         2.7948634655        3.7144585696       10.4687675601
 Pt         3.3077458390        6.2712500659       10.7692840471
 Pt         5.2565496591        4.7822531218        9.8616798422
 Pt         1.8038287643        1.3435704131       11.3062431946
 Pt         4.0974755865        1.4453202425        9.7767427822
 Pt        -0.0883708488        6.5180955045       11.9848112879
 Pt         6.5818639150        2.4059958137        9.8192700578
 Pt         0.6982787320        3.9708287242       11.9934821450
 Pt         5.3964809466        0.5400265061       11.7330615407
 Pt         2.2493454721        6.0193642373       13.1063444219
 Pt         5.0737296824        3.0754468574       11.8669082317
 Pt         0.0673755202        5.0374956443       14.2310738975
 Pt         1.1359583855        2.3460747910       13.9198763689
 Pt         4.8957594981        5.5318954584       12.6950720224
 Pt         3.4211615299        1.1734471580       13.2545422711
 Pt         3.2594271457        3.7485719377       13.6846072777
     166
 i =        5, time =        5.000, E =     -6046.1393250146
  O         0.0000000000        0.0000000000        0.0000000000
  O         3.8260000000        0.0000000000        0.0000000000
  O         7.6520000000        0.0000000000        0.0000000000
  O        11.4780000000        0.0000000000        0.0000000000
  O        -1.9130000000        3.3140000000        0.0000000000
  O         1.9130000000        3.3140000000        0.0000000000
  O         5.7390000000        3.3140000000        0.0000000000
  O         9.5650000000        3.3140000000        0.0000000000
  O        -3.8260000000        6.6270000000        0.0000000000
  O         0.0000000000        6.6270000000        0.0000000000
  O         3.8260000000        6.6270000000        0.0000000000
  O         7.6520000000        6.6270000000        0.0000000000
  O        -5.7390000000        9.9410000000        0.0000000000
  O        -1.9130000000        9.9410000000        0.0000000000
  O         1.9130000000        9.9410000000        0.0000000000
  O         5.7390000000        9.9410000000        0.0000000000
  O         1.9130000000        1.1050000000        1.5620000000
  O         5.7390000000        1.1050000000        1.5620000000
  O         9.5650000000        1.1050000000        1.5620000000
  O        13.3920000000        1.1050000000        1.5620000000
  O         0.0000000000        4.4180000000        1.5620000000
  O         3.8260000000        4.4180000000        1.5620000000
  O         7.6520000000        4.4180000000        1.5620000000
  O        11.4780000000        4.4180000000        1.5620000000
  O        -1.9130000000        7.7320000000        1.5620000000
  O         1.9130000000        7.7320000000        1.5620000000
  O         5.7390000000        7.7320000000        1.5620000000
  O         9.5650000000        7.7320000000        1.5620000000
  O        -3.8260000000       11.0450000000        1.5620000000
  O         0.0000000000       11.0450000000        1.5620000000
  O         3.8260000000       11.0450000000        1.5620000000
  O         7.6520000000       11.0450000000        1.5620000000
  O         0.0000000000        2.2090000000        3.1240000000
  O         3.8260000000        2.2090000000        3.1240000000
  O         7.6520000000        2.2090000000        3.1240000000
  O        11.4780000000        2.2090000000        3.1240000000
  O        -1.9130000000        5.5230000000        3.1240000000
  O         1.9130000000        5.5230000000        3.1240000000
  O         5.7390000000        5.5230000000        3.1240000000
  O         9.5650000000        5.5230000000        3.1240000000
  O        -3.8260000000        8.8360000000        3.1240000000
  O         0.0000000000        8.8360000000        3.1240000000
  O         3.8260000000        8.8360000000        3.1240000000
  O         7.6520000000        8.8360000000        3.1240000000
  O        -5.7390000000       12.1500000000        3.1240000000
  O        -1.9130000000       12.1500000000        3.1240000000
  O         1.9130000000       12.1500000000        3.1240000000
  O         5.7390000000       12.1500000000        3.1240000000
  O         0.0150646710       -0.0210178008        4.7279263289
  O         3.8411188366       -0.0535834916        4.7112524449
  O         7.7425085004       -0.0558702528        4.7840550301
  O        11.5470963751       -0.0311046379        4.7599604640
  O        -1.8883707157        3.2929939926        4.7835773791
  O         1.9539154349        3.3009469008        4.7777325048
  O         5.6788238989        3.2797003470        4.7100680629
  O         9.4943291822        3.3690976327        4.7103957256
  O        -3.8353923859        6.6966166047        4.7267358124
  O        -0.0222504933        6.7118483921        4.6692020212
  O         3.8564839020        6.6190427469        4.8011249559
  O         7.6613595677        6.6313707892        4.7066453286
  O        -5.7685477769        9.9335666596        4.7813804620
  O        -1.9088346814       10.0394881400        4.6930060645
  O         1.9988662634        9.9675711441        4.7550843296
  O         5.7376378062        9.8764099832        4.7915724644
  O         1.9183586570        1.0994676245        6.2697203046
  O         5.8027967084        1.1593858911        6.3000229640
  O         9.5718812995        1.2002930467        6.3303911496
  O        13.3868158513        1.1056129038        6.3728149242
  O        -0.0177297444        4.4721194506        6.2169504458
  O         3.9280115597        4.4605761287        6.3451660248
  O         7.5145039270        4.3847707329        6.3739805951
  O        11.3970146978        4.3817590062        6.2748396470
  O        -1.8486959165        7.8515736734        6.2837790980
  O         1.9250288670        7.6746496552        6.3160668947
  O         5.7647005597        7.6978306030        6.3007900123
  O         9.5029503502        7.7289797873        6.3135674737
  O        -3.8534860322       10.9843626274        6.2918250151
  O         0.0089993943       11.0816797156        6.3308968872
  O         3.8053016679       11.0765421795        6.3248185402
  O         7.7303686782       11.0880023729        6.3471396931
  O         0.1173605074        2.2324989242        7.6863932752
  O         3.8487978379        2.1729739082        7.8343790341
  O         7.7050937412        2.1029340392        8.0869427796
  O        11.3490194294        2.2382656163        8.1416122033
  O        -1.9783008929        5.5827174403        7.7370676576
  O         1.8532637090        5.5598532922        7.8757376065
  O         5.7069371159        5.6426860376        8.0683434659
  O         9.5727323010        5.5321856168        7.8058212549
  O        -4.0286739994        8.7505506146        8.0593424461
  O         0.1230674819        8.9391965509        7.9989678055
  O         3.8550766702        8.8230577840        7.8645426742
  O         7.5858375764        8.7601742828        7.8677091782
  O        -5.7276670432       12.0666113845        7.8220318829
  O        -1.8428532233       12.1578330492        7.7746977361
  O         1.9463681259       12.2177878278        7.8662865502
  O         5.6490264593       12.0569927541        7.8526142398
 Ce         0.0000000000        2.2090000000        0.7810000000
 Ce         3.8260000000        2.2090000000        0.7810000000
 Ce         7.6520000000        2.2090000000        0.7810000000
 Ce        11.4780000000        2.2090000000        0.7810000000
 Ce        -1.9130000000        5.5230000000        0.7810000000
 Ce         1.9130000000        5.5230000000        0.7810000000
 Ce         5.7390000000        5.5230000000        0.7810000000
 Ce         9.5650000000        5.5230000000        0.7810000000
 Ce        -3.8260000000        8.8360000000        0.7810000000
 Ce         0.0000000000        8.8360000000        0.7810000000
 Ce         3.8260000000        8.8360000000        0.7810000000
 Ce         7.6520000000        8.8360000000        0.7810000000
 Ce        -5.7390000000       12.1500000000        0.7810000000
 Ce        -1.9130000000       12.1500000000        0.7810000000
 Ce         1.9130000000       12.1500000000        0.7810000000
 Ce         5.7390000000       12.1500000000        0.7810000000
 Ce         1.9190675940        1.0860771411        3.9488459288
 Ce         5.7490790665        1.1031373361        3.9337273185
 Ce         9.5877920972        1.0959160579        3.9531305144
 Ce        13.4066044367        1.1276296587        3.9562260943
 Ce         0.0032098658        4.4274539397        3.9163787985
 Ce         3.8109181815        4.4219585536        3.9030334561
 Ce         7.6426867160        4.4009838127        3.9244237693
 Ce        11.4920354405        4.4151535023        3.9138412852
 Ce        -1.8901799546        7.7406255469        3.9306949781
 Ce         1.9173680329        7.7322389309        3.9493965931
 Ce         5.7425857102        7.7235771026        3.9213023263
 Ce         9.5623139358        7.7444176605        3.9412047373
 Ce        -3.8081694920       11.0229220133        3.9251356974
 Ce        -0.0063436160       11.0454168724        3.9181393896
 Ce         3.8390929231       11.0407272600        3.9311714188
 Ce         7.6453047914       11.0675362606        3.9124849372
 Ce        -0.0062092376       -0.0457148222        7.1985535343
 Ce         3.8089741735       -0.0617035824        7.1114426785
 Ce         7.6861273230       -0.0242340212        7.1263906687
 Ce        11.5131981182       -0.0108614455        7.1188377633
 Ce        -1.8881488954        3.3669909597        7.0183175042
 Ce         1.9482463866        3.3477793688        7.0880481419
 Ce         5.7499307139        3.3010469021        7.0930560910
 Ce         9.5865260623        3.3156549134        7.1362947143
 Ce        -3.8409497550        6.6403932363        7.0982079247
 Ce        -0.1046031003        6.6545480155        7.0329184906
 Ce         3.8193632204        6.6835626007        7.1310948515
 Ce         7.6925513822        6.6475521581        7.1234450291
 Ce        -5.7802277403        9.9529141574        7.0841645490
 Ce        -1.8977446087        9.9876811763        7.1080348311
 Ce         1.9656116841       10.0049415691        7.0697247241
 Ce         5.7450773568        9.9484270490        7.1038703784
 Pt        13.0224169178        1.8385847141        9.4305266079
 Pt         0.9753072186        5.5474384183        9.7626717650
 Pt        -0.0081305463        7.9383926461        9.9050552901
 Pt         7.3680412351       13.6311119623       10.1309735231
 Pt         0.1364172683        2.9844136115        9.7093673434
 Pt        -2.4304055646        8.2792309351        9.3002959871
 Pt         2.7968142355        3.7125903842       10.4702147221
 Pt         3.3116604011        6.2738059907       10.7668519393
 Pt         5.2559367851        4.7835601713        9.8611125255
 Pt         1.8023010684        1.3434605686       11.3038202157
 Pt         4.0985940822        1.4456514939        9.7769100606
 Pt        -0.0892091218        6.5181177617       11.9802911746
 Pt         6.5810776337        2.4074939629        9.8171045672
 Pt         0.6958609474        3.9712797246       11.9965871917
 Pt         5.3973552969        0.5405297346       11.7325786246
 Pt         2.2511690871        6.0204430380       13.1029328541
 Pt         5.0746616273        3.0770470388       11.8648924654
 Pt         0.0672225485        5.0388747480       14.2310902584
 Pt         1.1359531837        2.3438423207       13.9203421732
 Pt         4.8932149231        5.5298778715       12.6940938535
 Pt         3.4236799373        1.1715636024       13.2536706477
 Pt         3.2600214876        3.7459727450       13.6837576731
     166
 i =        6, time =        6.000, E =     -6046.1234619576
  O         0.0000000000        0.0000000000        0.0000000000
  O         3.8260000000        0.0000000000        0.0000000000
  O         7.6520000000        0.0000000000        0.0000000000
  O        11.4780000000        0.0000000000        0.0000000000
  O        -1.9130000000        3.3140000000        0.0000000000
  O         1.9130000000        3.3140000000        0.0000000000
  O         5.7390000000        3.3140000000        0.0000000000
  O         9.5650000000        3.3140000000        0.0000000000
  O        -3.8260000000        6.6270000000        0.0000000000
  O         0.0000000000        6.6270000000        0.0000000000
  O         3.8260000000        6.6270000000        0.0000000000
  O         7.6520000000        6.6270000000        0.0000000000
  O        -5.7390000000        9.9410000000        0.0000000000
  O        -1.9130000000        9.9410000000        0.0000000000
  O         1.9130000000        9.9410000000        0.0000000000
  O         5.7390000000        9.9410000000        0.0000000000
  O         1.9130000000        1.1050000000        1.5620000000
  O         5.7390000000        1.1050000000        1.5620000000
  O         9.5650000000        1.1050000000        1.5620000000
  O        13.3920000000        1.1050000000        1.5620000000
  O         0.0000000000        4.4180000000        1.5620000000
  O         3.8260000000        4.4180000000        1.5620000000
  O         7.6520000000        4.4180000000        1.5620000000
  O        11.4780000000        4.4180000000        1.5620000000
  O        -1.9130000000        7.7320000000        1.5620000000
  O         1.9130000000        7.7320000000        1.5620000000
  O         5.7390000000        7.7320000000        1.5620000000
  O         9.5650000000        7.7320000000        1.5620000000
  O        -3.8260000000       11.0450000000        1.5620000000
  O         0.0000000000       11.0450000000        1.5620000000
  O         3.8260000000       11.0450000000        1.5620000000
  O         7.6520000000       11.0450000000        1.5620000000
  O         0.0000000000        2.2090000000        3.1240000000
  O         3.8260000000        2.2090000000        3.1240000000
  O         7.6520000000        2.2090000000        3.1240000000
  O        11.4780000000        2.2090000000        3.1240000000
  O        -1.9130000000        5.5230000000        3.1240000000
  O         1.9130000000        5.5230000000        3.1240000000
  O         5.7390000000        5.5230000000        3.1240000000
  O         9.5650000000        5.5230000000        3.1240000000
  O        -3.8260000000        8.8360000000        3.1240000000
  O         0.0000000000        8.8360000000        3.1240000000
  O         3.8260000000        8.8360000000        3.1240000000
  O         7.6520000000        8.8360000000        3.1240000000
  O        -5.7390000000       12.1500000000        3.1240000000
  O        -1.9130000000       12.1500000000        3.1240000000
  O         1.9130000000       12.1500000000        3.1240000000
  O         5.7390000000       12.1500000000        3.1240000000
  O         0.0188875049       -0.0237081154        4.7247210448
  O         3.8383494425       -0.0583027720        4.7045489677
  O         7.7584288686       -0.0666018045        4.7895977700
  O        11.5614074475       -0.0361183303        4.7623941151
  O        -1.8836921708        3.2879002748        4.7935749127
  O         1.9538877030        3.2963031317        4.7843897930
  O         5.6675010678        3.2709759663        4.7040769614
  O         9.4859959714        3.3764099120        4.7040035344
  O        -3.8362523798        6.7121483098        4.7227029439
  O        -0.0253680318        6.7243485586        4.6646274677
  O         3.8617647951        6.6168166482        4.8106370247
  O         7.6615941602        6.6339844575        4.6980828020
  O        -5.7738955204        9.9318826461        4.7880679713
  O        -1.9093053413       10.0531417959        4.6939440201
  O         2.0137342288        9.9719801167        4.7578160211
  O         5.7372442528        9.8660732475        4.8005877827
  O         1.9164534288        1.1027059158        6.2734784336
  O         5.8073642117        1.1593477412        6.2983243622
  O         9.5673287704        1.2076836785        6.3337452062
  O        13.3916699012        1.1051416060        6.3885030112
  O        -0.0264145160        4.4727526631        6.2141060967
  O         3.9389079181        4.4607025594        6.3411041685
  O         7.4935613364        4.3830580962        6.3753209006
  O        11.3895717771        4.3878989132        6.2698063741
  O        -1.8371276725        7.8597381634        6.2933718615
  O         1.9286403327        7.6635369269        6.3193184713
  O         5.7674716462        7.6980541896        6.3012578561
  O         9.4903372358        7.7275322060        6.3180786082
  O        -3.8631387707       10.9847403754        6.2895979978
  O         0.0091893553       11.0905940715        6.3377317886
  O         3.8001748668       11.0811729788        6.3324954701
  O         7.7451681261       11.0967157387        6.3563379823
  O         0.1201123535        2.2262887762        7.6817377864
  O         3.8629782603        2.1783632515        7.8299282198
  O         7.6959127547        2.0946590362        8.0884050915
  O        11.3360954500        2.2449630672        8.1387406924
  O        -1.9818152603        5.5961736480        7.7409844094
  O         1.8533299859        5.5570831474        7.8756815819
  O         5.6956383119        5.6425145087        8.0699049137
  O         9.5740617833        5.5327916869        7.7939268436
  O        -4.0323558420        8.7423313338        8.0554858718
  O         0.1193688954        8.9359377819        7.9960446534
  O         3.8570489568        8.8188494879        7.8640494142
  O         7.5729571937        8.7476651739        7.8677384552
  O        -5.7292163248       12.0633338264        7.8153595920
  O        -1.8387798040       12.1598751245        7.7590142341
  O         1.9505572929       12.2293451578        7.8666976208
  O         5.6374431427       12.0549574699        7.8503807460
 Ce         0.0000000000        2.2090000000        0.7810000000
 Ce         3.8260000000        2.2090000000        0.7810000000
 Ce         7.6520000000        2.2090000000        0.7810000000
 Ce        11.4780000000        2.2090000000        0.7810000000
 Ce        -1.9130000000        5.5230000000        0.7810000000
 Ce         1.9130000000        5.5230000000        0.7810000000
 Ce         5.7390000000        5.5230000000        0.7810000000
 Ce         9.5650000000        5.5230000000        0.7810000000
 Ce        -3.8260000000        8.8360000000        0.7810000000
 Ce         0.0000000000        8.8360000000        0.7810000000
 Ce         3.8260000000        8.8360000000        0.7810000000
 Ce         7.6520000000        8.8360000000        0.7810000000
 Ce        -5.7390000000       12.1500000000        0.7810000000
 Ce        -1.9130000000       12.1500000000        0.7810000000
 Ce         1.9130000000       12.1500000000        0.7810000000
 Ce         5.7390000000       12.1500000000        0.7810000000
 Ce         1.9208951987        1.0846744374        3.9498288579
 Ce         5.7506745847        1.1029594764        3.9336958945
 Ce         9.5908969927        1.0931098620        3.9563317205
 Ce        13.4081635645        1.1332393780        3.9590559702
 Ce         0.0034922856        4.4277262062        3.9170315767
 Ce         3.8067843699        4.4211300227        3.8985174699
 Ce         7.6403992159        4.3984335540        3.9239086358
 Ce        11.4953166648        4.4146464688        3.9124104239
 Ce        -1.8853038619        7.7394330594        3.9343743035
 Ce         1.9181070328        7.7319095724        3.9532638602
 Ce         5.7435248715        7.7222708284        3.9204329974
 Ce         9.5609413312        7.7462850971        3.9442245789
 Ce        -3.8068572634       11.0199477099        3.9255598905
 Ce        -0.0067879076       11.0459449668        3.9171850873
 Ce         3.8419275695       11.0384723414        3.9333913749
 Ce         7.6428096974       11.0700116108        3.9088313651
 Ce        -0.0058202366       -0.0480438680        7.2022617404
 Ce         3.8069876069       -0.0596694296        7.1148630805
 Ce         7.6895109115       -0.0222833613        7.1308467768
 Ce        11.5146179850       -0.0102274976        7.1194491055
 Ce        -1.8854158107        3.3677993010        7.0121329294
 Ce         1.9503257336        3.3502834284        7.0942307221
 Ce         5.7496822715        3.2984580369        7.0916472191
 Ce         9.5881843285        3.3108515635        7.1381361000
 Ce        -3.8427783399        6.6442731991        7.0960648877
 Ce        -0.1068811381        6.6529049518        7.0317837892
 Ce         3.8173159881        6.6785181319        7.1301185695
 Ce         7.6897900347        6.6435197492        7.1284755316
 Ce        -5.7818841855        9.9530599338        7.0802315857
 Ce        -1.8967015388        9.9868800348        7.1048776516
 Ce         1.9661388689       10.0104827294        7.0683237091
 Ce         5.7436985099        9.9505901278        7.1092323108
 Pt        13.0179052970        1.8395205795        9.4282258787
 Pt         0.9749756378        5.5433717884        9.7626044885
 Pt        -0.0095454648        7.9410459103        9.9070400308
 Pt         7.3656376940       13.6301468704       10.1297702982
 Pt         0.1354811911        2.9854614803        9.7116053884
 Pt        -2.4306995918        8.2828823682        9.2999562808
 Pt         2.7987561876        3.7107348985       10.4716650914
 Pt         3.3155599473        6.2763579286       10.7644171503
 Pt         5.2553234202        4.7848632269        9.8605534846
 Pt         1.8007826930        1.3433485904       11.3014070223
 Pt         4.0997121852        1.4459827684        9.7770659705
 Pt        -0.0900446009        6.5181388396       11.9757886597
 Pt         6.5802891598        2.4089911506        9.8149513035
 Pt         0.6934525006        3.9717266660       11.9996816324
 Pt         5.3982324915        0.5410313347       11.7320965004
 Pt         2.2529844253        6.0215140153       13.0995238966
 Pt         5.0755945302        3.0786385453       11.8628811695
 Pt         0.0670718542        5.0402578633       14.2311044424
 Pt         1.1359509079        2.3416089690       13.9208059880
 Pt         4.8906795802        5.5278658558       12.6931194870
 Pt         3.4261848311        1.1696831538       13.2527937622
 Pt         3.2606077108        3.7433789857       13.6829073877
     166
 i =        7, time =        7.000, E =     -6046.1056488414
  O         0.0000000000        0.0000000000        0.0000000000
  O         3.8260000000        0.0000000000        0.0000000000
  O         7.6520000000        0.0000000000        0.0000000000
  O        11.4780000000        0.0000000000        0.0000000000
  O        -1.9130000000        3.3140000000        0.0000000000
  O         1.9130000000        3.3140000000        0.0000000000
  O         5.7390000000        3.3140000000        0.0000000000
  O         9.5650000000        3.3140000000        0.0000000000
  O        -3.8260000000        6.6270000000        0.0000000000
  O         0.0000000000        6.6270000000        0.0000000000
  O         3.8260000000        6.6270000000        0.0000000000
  O         7.6520000000        6.6270000000        0.0000000000
  O        -5.7390000000        9.9410000000        0.0000000000
  O        -1.9130000000        9.9410000000        0.0000000000
  O         1.9130000000        9.9410000000        0.0000000000
  O         5.7390000000        9.9410000000        0.0000000000
  O         1.9130000000        1.1050000000        1.5620000000
  O         5.7390000000        1.1050000000        1.5620000000
  O         9.5650000000        1.1050000000        1.5620000000
  O        13.3920000000        1.1050000000        1.5620000000
  O         0.0000000000        4.4180000000        1.5620000000
  O         3.8260000000        4.4180000000        1.5620000000
  O         7.6520000000        4.4180000000        1.5620000000
  O        11.4780000000        4.4180000000        1.5620000000
  O        -1.9130000000        7.7320000000        1.5620000000
  O         1.9130000000        7.7320000000        1.5620000000
  O         5.7390000000        7.7320000000        1.5620000000
  O         9.5650000000        7.7320000000        1.5620000000
  O        -3.8260000000       11.0450000000        1.5620000000
  O         0.0000000000       11.0450000000        1.5620000000
  O         3.8260000000       11.0450000000        1.5620000000
  O         7.6520000000       11.0450000000        1.5620000000
  O         0.0000000000        2.2090000000        3.1240000000
  O         3.8260000000        2.2090000000        3.1240000000
  O         7.6520000000        2.2090000000        3.1240000000
  O        11.4780000000        2.2090000000        3.1240000000
  O        -1.9130000000        5.5230000000        3.1240000000
  O         1.9130000000        5.5230000000        3.1240000000
  O         5.7390000000        5.5230000000        3.1240000000
  O         9.5650000000        5.5230000000        3.1240000000
  O        -3.8260000000        8.8360000000        3.1240000000
  O         0.0000000000        8.8360000000        3.1240000000
  O         3.8260000000        8.8360000000        3.1240000000
  O         7.6520000000        8.8360000000        3.1240000000
  O        -5.7390000000       12.1500000000        3.1240000000
  O        -1.9130000000       12.1500000000        3.1240000000
  O         1.9130000000       12.1500000000        3.1240000000
  O         5.7390000000       12.1500000000        3.1240000000
  O         0.0224251429       -0.0262522117        4.7216063650
  O         3.8356805035       -0.0627935212        4.6980901183
  O         7.7741254395       -0.0769716158        4.7949579772
  O        11.5753722141       -0.0408305765        4.7647602550
  O        -1.8792174908        3.2829325224        4.8030894313
  O         1.9537418987        3.2919531501        4.7908839022
  O         5.6564493117        3.2624030168        4.6979265574
  O         9.4779620065        3.3834233004        4.6978130924
  O        -3.8368733654        6.7272890985        4.7189747507
  O        -0.0283482592        6.7363710533        4.6603034129
  O         3.8667613584        6.6146679340        4.8197610031
  O         7.6618114836        6.6363511811        4.6896744024
  O        -5.7791912529        9.9301940939        4.7944284649
  O        -1.9096354004       10.0663481450        4.6949674051
  O         2.0280986234        9.9761541496        4.7605091236
  O         5.7368856653        9.8562749042        4.8095182574
  O         1.9147850343        1.1057891074        6.2773582980
  O         5.8118618591        1.1591461550        6.2964644676
  O         9.5630084940        1.2150612958        6.3367530619
  O        13.3964259100        1.1047826398        6.4035844981
  O        -0.0349400801        4.4735182277        6.2113346572
  O         3.9492902919        4.4607584154        6.3370568591
  O         7.4732473407        4.3814364221        6.3764963841
  O        11.3825336552        4.3938395352        6.2646076521
  O        -1.8258670186        7.8677840727        6.3024743148
  O         1.9319444934        7.6528165315        6.3221830238
  O         5.7701489954        7.6980885880        6.3016783900
  O         9.4780693050        7.7261707741        6.3222733025
  O        -3.8724935171       10.9850680473        6.2875735423
  O         0.0097076447       11.0988983950        6.3442732522
  O         3.7951376048       11.0856895891        6.3398638475
  O         7.7592023757       11.1051998134        6.3653065643
  O         0.1228357715        2.2205223736        7.6773883380
  O         3.8766326970        2.1835280658        7.8256960166
  O         7.6870624892        2.0865794739        8.0898082860
  O        11.3235163074        2.2515898409        8.1360803639
  O        -1.9852650514        5.6091765433        7.7446881998
  O         1.8532911335        5.5541298146        7.8756282091
  O         5.6845554096        5.6423861939        8.0715185251
  O         9.5752772594        5.5331740005        7.7822826918
  O        -4.0359329991        8.7342120103        8.0517392811
  O         0.1159036499        8.9328114532        7.9931655676
  O         3.8589072708        8.8149326052        7.8635552880
  O         7.5602384005        8.7355298615        7.8679336001
  O        -5.7305543013       12.0603686484        7.8090023291
  O        -1.8351359950       12.1618492603        7.7436967116
  O         1.9547671652       12.2406388903        7.8671977750
  O         5.6261913495       12.0529363068        7.8483808817
 Ce         0.0000000000        2.2090000000        0.7810000000
 Ce         3.8260000000        2.2090000000        0.7810000000
 Ce         7.6520000000        2.2090000000        0.7810000000
 Ce        11.4780000000        2.2090000000        0.7810000000
 Ce        -1.9130000000        5.5230000000        0.7810000000
 Ce         1.9130000000        5.5230000000        0.7810000000
 Ce         5.7390000000        5.5230000000        0.7810000000
 Ce         9.5650000000        5.5230000000        0.7810000000
 Ce        -3.8260000000        8.8360000000        0.7810000000
 Ce         0.0000000000        8.8360000000        0.7810000000
 Ce         3.8260000000        8.8360000000        0.7810000000
 Ce         7.6520000000        8.8360000000        0.7810000000
 Ce        -5.7390000000       12.1500000000        0.7810000000
 Ce        -1.9130000000       12.1500000000        0.7810000000
 Ce         1.9130000000       12.1500000000        0.7810000000
 Ce         5.7390000000       12.1500000000        0.7810000000
 Ce         1.9227306318        1.0832620452        3.9508184632
 Ce         5.7522575379        1.1027791018        3.9336758248
 Ce         9.5939734932        1.0903096159        3.9595182858
 Ce        13.4097424815        1.1387863799        3.9618757642
 Ce         0.0037964756        4.4279882260        3.9176709907
 Ce         3.8026949081        4.4202903625        3.8940427899
 Ce         7.6380979694        4.3959121442        3.9233920385
 Ce        11.4985303156        4.4141715224        3.9109793090
 Ce        -1.8804767558        7.7382848864        3.9380197223
 Ce         1.9188810514        7.7315923561        3.9571237312
 Ce         5.7444758682        7.7209527158        3.9196005514
 Ce         9.5595491302        7.7481440613        3.9472324230
 Ce        -3.8055746266       11.0169961542        3.9259818426
 Ce        -0.0072189282       11.0464966919        3.9162385858
 Ce         3.8447718043       11.0362181209        3.9356025519
 Ce         7.6403383816       11.0724695152        3.9052022573
 Ce        -0.0054145186       -0.0503641872        7.2059697138
 Ce         3.8050111240       -0.0576491636        7.1182480957
 Ce         7.6928718524       -0.0203332710        7.1352911406
 Ce        11.5160270415       -0.0095885918        7.1200833495
 Ce        -1.8827027484        3.3686111594        7.0060332082
 Ce         1.9524212946        3.3527586178        7.1003984572
 Ce         5.7494148030        3.2958686053        7.0902282370
 Ce         9.5898181832        3.3060843380        7.1399688330
 Ce        -3.8446276333        6.6481528062        7.0939294025
 Ce        -0.1091353349        6.6512871685        7.0306930236
 Ce         3.8153118926        6.6734972080        7.1291459672
 Ce         7.6869904562        6.6395168440        7.1334758415
 Ce        -5.7835438291        9.9531848417        7.0763182997
 Ce        -1.8956623541        9.9861138443        7.1017407851
 Ce         1.9666684922       10.0159990761        7.0669520331
 Ce         5.7423206485        9.9526865939        7.1145877664
 Pt        13.0133967390        1.8404653430        9.4259223911
 Pt         0.9746475626        5.5393293648        9.7625365560
 Pt        -0.0109552115        7.9436861993        9.9090103836
 Pt         7.3632275477       13.6291884004       10.1285680199
 Pt         0.1345346504        2.9864910105        9.7138253452
 Pt        -2.4310001282        8.2865367116        9.2996171310
 Pt         2.8006885065        3.7088945693       10.4731195595
 Pt         3.3194423873        6.2789049192       10.7619784802
 Pt         5.2547095246        4.7861622861        9.8600036091
 Pt         1.7992741925        1.3432339410       11.2990050802
 Pt         4.1008294717        1.4463139550        9.7772079791
 Pt        -0.0908762446        6.5181585009       11.9713073656
 Pt         6.5794976657        2.4104874658        9.8128133528
 Pt         0.6910553283        3.9721687356       12.0027635498
 Pt         5.3991135356        0.5415308711       11.7316150649
 Pt         2.2547892025        6.0225766135       13.0961179116
 Pt         5.0765289623        3.0802189814       11.8608757855
 Pt         0.0669235639        5.0416455363       14.2311161890
 Pt         1.1359523509        2.3393745041       13.9212674677
 Pt         4.8881541678        5.5258602268       12.6921491875
 Pt         3.4286740445        1.1678063069       13.2519110009
 Pt         3.2611847664        3.7407915644       13.6820567869
     166
 i =        8, time =        8.000, E =     -6046.0863096493
  O         0.0000000000        0.0000000000        0.0000000000
  O         3.8260000000        0.0000000000        0.0000000000
  O         7.6520000000        0.0000000000        0.0000000000
  O        11.4780000000        0.0000000000        0.0000000000
  O        -1.9130000000        3.3140000000        0.0000000000
  O         1.9130000000        3.3140000000        0.0000000000
  O         5.7390000000        3.3140000000        0.0000000000
  O         9.5650000000        3.3140000000        0.0000000000
  O        -3.8260000000        6.6270000000        0.0000000000
  O         0.0000000000        6.6270000000        0.0000000000
  O         3.8260000000        6.6270000000        0.0000000000
  O         7.6520000000        6.6270000000        0.0000000000
  O        -5.7390000000        9.9410000000        0.0000000000
  O        -1.9130000000        9.9410000000        0.0000000000
  O         1.9130000000        9.9410000000        0.0000000000
  O         5.7390000000        9.9410000000        0.0000000000
  O         1.9130000000        1.1050000000        1.5620000000
  O         5.7390000000        1.1050000000        1.5620000000
  O         9.5650000000        1.1050000000        1.5620000000
  O        13.3920000000        1.1050000000        1.5620000000
  O         0.0000000000        4.4180000000        1.5620000000
  O         3.8260000000        4.4180000000        1.5620000000
  O         7.6520000000        4.4180000000        1.5620000000
  O        11.4780000000        4.4180000000        1.5620000000
  O        -1.9130000000        7.7320000000        1.5620000000
  O         1.9130000000        7.7320000000        1.5620000000
  O         5.7390000000        7.7320000000        1.5620000000
  O         9.5650000000        7.7320000000        1.5620000000
  O        -3.8260000000       11.0450000000        1.5620000000
  O         0.0000000000       11.0450000000        1.5620000000
  O         3.8260000000       11.0450000000        1.5620000000
  O         7.6520000000       11.0450000000        1.5620000000
  O         0.0000000000        2.2090000000        3.1240000000
  O         3.8260000000        2.2090000000        3.1240000000
  O         7.6520000000        2.2090000000        3.1240000000
  O        11.4780000000        2.2090000000        3.1240000000
  O        -1.9130000000        5.5230000000        3.1240000000
  O         1.9130000000        5.5230000000        3.1240000000
  O         5.7390000000        5.5230000000        3.1240000000
  O         9.5650000000        5.5230000000        3.1240000000
  O        -3.8260000000        8.8360000000        3.1240000000
  O         0.0000000000        8.8360000000        3.1240000000
  O         3.8260000000        8.8360000000        3.1240000000
  O         7.6520000000        8.8360000000        3.1240000000
  O        -5.7390000000       12.1500000000        3.1240000000
  O        -1.9130000000       12.1500000000        3.1240000000
  O         1.9130000000       12.1500000000        3.1240000000
  O         5.7390000000       12.1500000000        3.1240000000
  O         0.0256506203       -0.0286382481        4.7185834768
  O         3.8331162595       -0.0670180603        4.6918831287
  O         7.7895432859       -0.0869242043        4.8001266573
  O        11.5889506897       -0.0452262992        4.7670595123
  O        -1.8749689285        3.2780963833        4.8120525140
  O         1.9534579329        3.2879307189        4.7972272629
  O         5.6456874997        3.2539933458        4.6915859780
  O         9.4702736011        3.3900777893        4.6918347673
  O        -3.8371983153        6.7420135267        4.7155784787
  O        -0.0311507251        6.7478457270        4.6562772534
  O         3.8714463064        6.6126059899        4.8283759903
  O         7.6620092471        6.6384373637        4.6814311943
  O        -5.7844404192        9.9285006492        4.8004369144
  O        -1.9098031113       10.0790013809        4.6960950457
  O         2.0418727993        9.9800553266        4.7631632149
  O         5.7365669473        9.8470840122        4.8183236611
  O         1.9133915083        1.1086858557        6.2813763135
  O         5.8162929699        1.1587617045        6.2944217029
  O         9.5589606692        1.2224044855        6.3393813638
  O        13.4010533458        1.1045532292        6.4179997839
  O        -0.0432469774        4.4744393400        6.2086357185
  O         3.9590754185        4.4607256799        6.3330088970
  O         7.4536742743        4.3799172331        6.3774691760
  O        11.3759699384        4.3995561645        6.2591893056
  O        -1.8149709387        7.8756842507        6.3109571647
  O         1.9348786704        7.6425457402        6.3246188686
  O         5.7727179954        7.6979036782        6.3020439939
  O         9.4662121457        7.7249046452        6.3261253073
  O        -3.8814756088       10.9853387549        6.2857667209
  O         0.0106010197       11.1065044486        6.3505319666
  O         3.7902032759       11.0900802523        6.3469331203
  O         7.7723210720       11.1134031254        6.3739989450
  O         0.1255356766        2.2152691041        7.6733675750
  O         3.8896845176        2.1884581894        7.8217018216
  O         7.6785703487        2.0787333699        8.0911441150
  O        11.3113209460        2.2581571907        8.1336561171
  O        -1.9886492154        5.6216895659        7.7481747587
  O         1.8531281326        5.5509661812        7.8755803064
  O         5.6737098013        5.6423099983        8.0731893669
  O         9.5763637977        5.5333073402        7.7709923899
  O        -4.0393907770        8.7261961784        8.0481017246
  O         0.1126950433        8.9298257446        7.9903319942
  O         3.8606395440        8.8113390640        7.8630599774
  O         7.5477243338        8.7238292941        7.8683257594
  O        -5.7316450323       12.0577589771        7.8030010967
  O        -1.8319902847       12.1637463890        7.7287152466
  O         1.9589968681       12.2516513929        7.8678028801
  O         5.6153205813       12.0509274386        7.8466462494
 Ce         0.0000000000        2.2090000000        0.7810000000
 Ce         3.8260000000        2.2090000000        0.7810000000
 Ce         7.6520000000        2.2090000000        0.7810000000
 Ce        11.4780000000        2.2090000000        0.7810000000
 Ce        -1.9130000000        5.5230000000        0.7810000000
 Ce         1.9130000000        5.5230000000        0.7810000000
 Ce         5.7390000000        5.5230000000        0.7810000000
 Ce         9.5650000000        5.5230000000        0.7810000000
 Ce        -3.8260000000        8.8360000000        0.7810000000
 Ce         0.0000000000        8.8360000000        0.7810000000
 Ce         3.8260000000        8.8360000000        0.7810000000
 Ce         7.6520000000        8.8360000000        0.7810000000
 Ce        -5.7390000000       12.1500000000        0.7810000000
 Ce        -1.9130000000       12.1500000000        0.7810000000
 Ce         1.9130000000       12.1500000000        0.7810000000
 Ce         5.7390000000       12.1500000000        0.7810000000
 Ce         1.9245750780        1.0818387133        3.9518154860
 Ce         5.7538252342        1.1025959936        3.9336682936
 Ce         9.5970174093        1.0875164338        3.9626872774
 Ce        13.4113437184        1.1442605723        3.9646826981
 Ce         0.0041257139        4.4282381105        3.9182943091
 Ce         3.7986565686        4.4194376791        3.8896158184
 Ce         7.6357810700        4.3934241220        3.9228730170
 Ce        11.5016658286        4.4137327701        3.9095476019
 Ce        -1.8757073626        7.7371878878        3.9416246789
 Ce         1.9196953732        7.7312892536        3.9609745033
 Ce         5.7454403099        7.7196210254        3.9188102493
 Ce         9.5581341678        7.7499930104        3.9502258465
 Ce        -3.8043263561       11.0140711765        3.9264007585
 Ce        -0.0076344272       11.0470754025        3.9153001937
 Ce         3.8476275181       11.0339653844        3.9378030002
 Ce         7.6378943722       11.0749073886        3.9016003837
 Ce        -0.0049895943       -0.0526735091        7.2096776722
 Ce         3.8030464261       -0.0556451163        7.1215929605
 Ce         7.6962065889       -0.0183836388        7.1397217938
 Ce        11.5174235768       -0.0089431190        7.1207437064
 Ce        -1.8800129457        3.3694259721        7.0000336278
 Ce         1.9545354512        3.3551999355        7.1065486969
 Ce         5.7491254658        3.2932775613        7.0887980559
 Ce         9.5914239657        3.3013597988        7.1417918314
 Ce        -3.8465007723        6.6520307721        7.0918021309
 Ce        -0.1113614107        6.6496984609        7.0296527102
 Ce         3.8133573975        6.6685038278        7.1281784590
 Ce         7.6841471187        6.6355472724        7.1384420248
 Ce        -5.7852058076        9.9532852531        7.0724286494
 Ce        -1.8946271838        9.9853889739        7.0986280055
 Ce         1.9672006983       10.0214871877        7.0656142801
 Ce         5.7409425813        9.9547058691        7.1199357743
 Pt        13.0088912948        1.8414190927        9.4236161560
 Pt         0.9743228801        5.5353151028        9.7624675751
 Pt        -0.0123594531        7.9463120625        9.9109648031
 Pt         7.3608101483       13.6282371641       10.1273670473
 Pt         0.1335777290        2.9875006347        9.7160246842
 Pt        -2.4313080892        8.2901942796        9.2992784977
 Pt         2.8026097532        3.7070709380       10.4745792443
 Pt         3.3233058986        6.2814463844       10.7595351042
 Pt         5.2540954762        4.7874573074        9.8594640980
 Pt         1.7977764765        1.3431163623       11.2966163671
 Pt         4.1019455454        1.4466448531        9.7773338710
 Pt        -0.0917022240        6.5181757568       11.9668511693
 Pt         6.5787027093        2.4119829813        9.8106938411
 Pt         0.6886705990        3.9726052687       12.0058313282
 Pt         5.3999986633        0.5420283634       11.7311343219
 Pt         2.2565807284        6.0236299409       13.0927146806
 Pt         5.0774647160        3.0817862568       11.8588781324
 Pt         0.0667780398        5.0430383186       14.2311250707
 Pt         1.1359585066        2.3371386915       13.9217260498
 Pt         4.8856394852        5.5238615969       12.6911828246
 Pt         3.4311451077        1.1659336830       13.2510214252
 Pt         3.2617519249        3.7382112249       13.6812058282
     166
 i =        9, time =        9.000, E =     -6046.0658715601
  O         0.0000000000        0.0000000000        0.0000000000
  O         3.8260000000        0.0000000000        0.0000000000
  O         7.6520000000        0.0000000000        0.0000000000
  O        11.4780000000        0.0000000000        0.0000000000
  O        -1.9130000000        3.3140000000        0.0000000000
  O         1.9130000000        3.3140000000        0.0000000000
  O         5.7390000000        3.3140000000        0.0000000000
  O         9.5650000000        3.3140000000        0.0000000000
  O        -3.8260000000        6.6270000000        0.0000000000
  O         0.0000000000        6.6270000000        0.0000000000
  O         3.8260000000        6.6270000000        0.0000000000
  O         7.6520000000        6.6270000000        0.0000000000
  O        -5.7390000000        9.9410000000        0.0000000000
  O        -1.9130000000        9.9410000000        0.0000000000
  O         1.9130000000        9.9410000000        0.0000000000
  O         5.7390000000        9.9410000000        0.0000000000
  O         1.9130000000        1.1050000000        1.5620000000
  O         5.7390000000        1.1050000000        1.5620000000
  O         9.5650000000        1.1050000000        1.5620000000
  O        13.3920000000        1.1050000000        1.5620000000
  O         0.0000000000        4.4180000000        1.5620000000
  O         3.8260000000        4.4180000000        1.5620000000
  O         7.6520000000        4.4180000000        1.5620000000
  O        11.4780000000        4.4180000000        1.5620000000
  O        -1.9130000000        7.7320000000        1.5620000000
  O         1.9130000000        7.7320000000        1.5620000000
  O         5.7390000000        7.7320000000        1.5620000000
  O         9.5650000000        7.7320000000        1.5620000000
  O        -3.8260000000       11.0450000000        1.5620000000
  O         0.0000000000       11.0450000000        1.5620000000
  O         3.8260000000       11.0450000000        1.5620000000
  O         7.6520000000       11.0450000000        1.5620000000
  O         0.0000000000        2.2090000000        3.1240000000
  O         3.8260000000        2.2090000000        3.1240000000
  O         7.6520000000        2.2090000000        3.1240000000
  O        11.4780000000        2.2090000000        3.1240000000
  O        -1.9130000000        5.5230000000        3.1240000000
  O         1.9130000000        5.5230000000        3.1240000000
  O         5.7390000000        5.5230000000        3.1240000000
  O         9.5650000000        5.5230000000        3.1240000000
  O        -3.8260000000        8.8360000000        3.1240000000
  O         0.0000000000        8.8360000000        3.1240000000
  O         3.8260000000        8.8360000000        3.1240000000
  O         7.6520000000        8.8360000000        3.1240000000
  O        -5.7390000000       12.1500000000        3.1240000000
  O        -1.9130000000       12.1500000000        3.1240000000
  O         1.9130000000       12.1500000000        3.1240000000
  O         5.7390000000       12.1500000000        3.1240000000
  O         0.0285387353       -0.0308541282        4.7156507518
  O         3.8306579419       -0.0709427585        4.6859499459
  O         7.8046725405       -0.0964430432        4.8050875335
  O        11.6020789810       -0.0492721947        4.7692960954
  O        -1.8709732504        3.2734002734        4.8203537983
  O         1.9530161811        3.2842659214        4.8034206112
  O         5.6352520084        3.2457770677        4.6850415096
  O         9.4629938472        3.3963131237        4.6860930862
  O        -3.8371771350        6.7562658421        4.7125392821
  O        -0.0337439600        6.7586867575        4.6525902510
  O         3.8757898373        6.6106424674        4.8363634119
  O         7.6621844489        6.6402116328        4.6733957392
  O        -5.7896445084        9.9268050745        4.8060547070
  O        -1.9097829357       10.0910097155        4.6973486012
  O         2.0549709055        9.9836277792        4.7657812102
  O         5.7362925356        9.8385594382        4.8269354081
  O         1.9123095551        1.1113656248        6.2855424513
  O         5.8206613352        1.1581772575        6.2921760383
  O         9.5552260005        1.2296765350        6.3415984842
  O        13.4055233022        1.1044695491        6.4317555844
  O        -0.0512747269        4.4755353141        6.2060043168
  O         3.9681965764        4.4605871926        6.3289463794
  O         7.4349558486        4.3785593484        6.3782003167
  O        11.3699362159        4.4050266956        6.2534985269
  O        -1.8044696291        7.8834328632        6.3186979534
  O         1.9373754657        7.6327629354        6.3265895039
  O         5.7751640674        7.6974699109        6.3023471700
  O         9.4547967681        7.7237418067        6.3296147497
  O        -3.8900310565       10.9855457585        6.2841898060
  O         0.0119098949       11.1133196901        6.3565152253
  O         3.7853922009       11.0943259269        6.3537136164
  O         7.7843740739       11.1212670649        6.3823296719
  O         0.1282135275        2.2106048999        7.6696970403
  O         3.9020460243        2.1931430765        7.8179666308
  O         7.6704634951        2.0711594242        8.0924076524
  O        11.2995614832        2.2646656753        8.1314932150
  O        -1.9919538026        5.6336857356        7.7514434698
  O         1.8528217628        5.5475676873        7.8755404128
  O         5.6631551252        5.6422938648        8.0749242831
  O         9.5773098390        5.5331707477        7.7601322528
  O        -4.0427067417        8.7183057909        8.0445716000
  O         0.1097676785        8.9269870247        7.9875474492
  O         3.8622320476        8.8080976558        7.8625634504
  O         7.5354322776        8.7126289812        7.8689459480
  O        -5.7324504451       12.0555472660        7.7974146456
  O        -1.8294051482       12.1655581701        7.7140836100
  O         1.9632551952       12.2623729524        7.8685275080
  O         5.6048790158       12.0489181957        7.8452073694
 Ce         0.0000000000        2.2090000000        0.7810000000
 Ce         3.8260000000        2.2090000000        0.7810000000
 Ce         7.6520000000        2.2090000000        0.7810000000
 Ce        11.4780000000        2.2090000000        0.7810000000
 Ce        -1.9130000000        5.5230000000        0.7810000000
 Ce         1.9130000000        5.5230000000        0.7810000000
 Ce         5.7390000000        5.5230000000        0.7810000000
 Ce         9.5650000000        5.5230000000        0.7810000000
 Ce        -3.8260000000        8.8360000000        0.7810000000
 Ce         0.0000000000        8.8360000000        0.7810000000
 Ce         3.8260000000        8.8360000000        0.7810000000
 Ce         7.6520000000        8.8360000000        0.7810000000
 Ce        -5.7390000000       12.1500000000        0.7810000000
 Ce        -1.9130000000       12.1500000000        0.7810000000
 Ce         1.9130000000       12.1500000000        0.7810000000
 Ce         5.7390000000       12.1500000000        0.7810000000
 Ce         1.9264296871        1.0804032498        3.9528204937
 Ce         5.7553749661        1.1024099870        3.9336741413
 Ce         9.6000247326        1.0847316048        3.9658355387
 Ce        13.4129696535        1.1496519562        3.9674737797
 Ce         0.0044831309        4.4284740319        3.9188987476
 Ce         3.7946760425        4.4185701459        3.8852427080
 Ce         7.6334465696        4.3909739842        3.9223503714
 Ce        11.5047129193        4.4133341107        3.9081149429
 Ce        -1.8710046148        7.7361488126        3.9451824020
 Ce         1.9205552283        7.7310021510        3.9648142929
 Ce         5.7464197580        7.7182740586        3.9180669537
 Ce         9.5566932682        7.7518303795        3.9532021989
 Ce        -3.8031172447       11.0111765767        3.9268155081
 Ce        -0.0080321961       11.0476842039        3.9143697768
 Ce         3.8504968336       11.0317149979        3.9399905194
 Ce         7.6354810926       11.0773226333        3.8980281965
 Ce        -0.0045429388       -0.0549692285        7.2133862396
 Ce         3.8010949274       -0.0536595715        7.1248930507
 Ce         7.6995116183       -0.0164342419        7.1441366398
 Ce        11.5188060316       -0.0082892509        7.1214330709
 Ce        -1.8773495942        3.3702430110        6.9941495892
 Ce         1.9566705228        3.3576022937        7.1126787749
 Ce         5.7488112363        3.2906837276        7.0873556984
 Ce         9.5929979861        3.2966849909        7.1436038849
 Ce        -3.8484009258        6.6559053918        7.0896833850
 Ce        -0.1135550295        6.6481421658        7.0286690981
 Ce         3.8114589315        6.6635416878        7.1272173424
 Ce         7.6812546722        6.6316143640        7.1433702257
 Ce        -5.7868690031        9.9533575921        7.0685667009
 Ce        -1.8935960524        9.9847119753        7.0955429534
 Ce         1.9677355268       10.0269437432        7.0643148676
 Ce         5.7395630787        9.9566375755        7.1252751411
 Pt        13.0043893843        1.8423821252        9.4213072246
 Pt         0.9740017420        5.5313328328        9.7623969875
 Pt        -0.0137574879        7.9489222927        9.9129013596
 Pt         7.3583845628       13.6272941975       10.1261675848
 Pt         0.1326102199        2.9884884583        9.7182007601
 Pt        -2.4316244381        8.2938552601        9.2989405103
 Pt         2.8045180279        3.7052655310       10.4760453306
 Pt         3.3271485159        6.2839819584       10.7570862425
 Pt         5.2534815063        4.7887476378        9.8589365822
 Pt         1.7962906244        1.3429954431       11.2942423153
 Pt         4.1030604818        1.4469753175        9.7774416374
 Pt        -0.0925213596        6.5181899016       11.9624234841
 Pt         6.5779037429        2.4134777594        9.8085953124
 Pt         0.6862994433        3.9730353244       12.0088829587
 Pt         5.4008884201        0.5425236174       11.7306539657
 Pt         2.2583562794        6.0246733290       13.0893141208
 Pt         5.0784018169        3.0833389415       11.8568894680
 Pt         0.0666354473        5.0444368300       14.2311315401
 Pt         1.1359695679        2.3349010963       13.9221815846
 Pt         4.8831372809        5.5218710300       12.6902203623
 Pt         3.4335955586        1.1640653368       13.2501245617
 Pt         3.2623087239        3.7356387629       13.6803543957
     166
 i =       10, time =       10.000, E =     -6046.0445497985
  O         0.0000000000        0.0000000000        0.0000000000
  O         3.8260000000        0.0000000000        0.0000000000
  O         7.6520000000        0.0000000000        0.0000000000
  O        11.4780000000        0.0000000000        0.0000000000
  O        -1.9130000000        3.3140000000        0.0000000000
  O         1.9130000000        3.3140000000        0.0000000000
  O         5.7390000000        3.3140000000        0.0000000000
  O         9.5650000000        3.3140000000        0.0000000000
  O        -3.8260000000        6.6270000000        0.0000000000
  O         0.0000000000        6.6270000000        0.0000000000
  O         3.8260000000        6.6270000000        0.0000000000
  O         7.6520000000        6.6270000000        0.0000000000
  O        -5.7390000000        9.9410000000        0.0000000000
  O        -1.9130000000        9.9410000000        0.0000000000
  O         1.9130000000        9.9410000000        0.0000000000
  O         5.7390000000        9.9410000000        0.0000000000
  O         1.9130000000        1.1050000000        1.5620000000
  O         5.7390000000        1.1050000000        1.5620000000
  O         9.5650000000        1.1050000000        1.5620000000
  O        13.3920000000        1.1050000000        1.5620000000
  O         0.0000000000        4.4180000000        1.5620000000
  O         3.8260000000        4.4180000000        1.5620000000
  O         7.6520000000        4.4180000000        1.5620000000
  O        11.4780000000        4.4180000000        1.5620000000
  O        -1.9130000000        7.7320000000        1.5620000000
  O         1.9130000000        7.7320000000        1.5620000000
  O         5.7390000000        7.7320000000        1.5620000000
  O         9.5650000000        7.7320000000        1.5620000000
  O        -3.8260000000       11.0450000000        1.5620000000
  O         0.0000000000       11.0450000000        1.5620000000
  O         3.8260000000       11.0450000000        1.5620000000
  O         7.6520000000       11.0450000000        1.5620000000
  O         0.0000000000        2.2090000000        3.1240000000
  O         3.8260000000        2.2090000000        3.1240000000
  O         7.6520000000        2.2090000000        3.1240000000
  O        11.4780000000        2.2090000000        3.1240000000
  O        -1.9130000000        5.5230000000        3.1240000000
  O         1.9130000000        5.5230000000        3.1240000000
  O         5.7390000000        5.5230000000        3.1240000000
  O         9.5650000000        5.5230000000        3.1240000000
  O        -3.8260000000        8.8360000000        3.1240000000
  O         0.0000000000        8.8360000000        3.1240000000
  O         3.8260000000        8.8360000000        3.1240000000
  O         7.6520000000        8.8360000000        3.1240000000
  O        -5.7390000000       12.1500000000        3.1240000000
  O        -1.9130000000       12.1500000000        3.1240000000
  O         1.9130000000       12.1500000000        3.1240000000
  O         5.7390000000       12.1500000000        3.1240000000
  O         0.0310674670       -0.0328886483        4.7128036097
  O         3.8283056433       -0.0745406652        4.6803250715
  O         7.8194840048       -0.1054994704        4.8098161636
  O        11.6146984392       -0.0529201550        4.7714781361
  O        -1.8672594619        3.2688568227        4.8278650960
  O         1.9523997517        3.2809847654        4.8094478670
  O         5.6252061000        3.2378010138        4.6783011149
  O         9.4561857295        3.4020811255        4.6806264462
  O        -3.8367792016        6.7699674891        4.7098790273
  O        -0.0361011383        6.7688116163        4.6492743597
  O         3.8797624513        6.6087893579        4.8436335884
  O         7.6623344941        6.6416482023        4.6656313989
  O        -5.7948003712        9.9251129192        4.8112308400
  O        -1.9095502279       10.1023220379        4.6987476230
  O         2.0673329924        9.9868276952        4.7683686457
  O         5.7360662588        9.8307559687        4.8352804598
  O         1.9115714041        1.1138005967        6.2898569111
  O         5.8249708147        1.1573810607        6.2897107141
  O         9.5518375281        1.2368349574        6.3433771602
  O        13.4098093089        1.1045453276        6.4448439551
  O        -0.0589763819        4.4768221698        6.2034319227
  O         3.9766041810        4.4603362336        6.3248600020
  O         7.4171706420        4.3774075190        6.3786531106
  O        11.3644704367        4.4102313547        6.2474933840
  O        -1.7943965815        7.8910226224        6.3256018983
  O         1.9393758702        7.6234939879        6.3280658098
  O         5.7774732781        7.6967600573        6.3025814254
  O         9.4438330200        7.7226934845        6.3327312879
  O        -3.8981289789       10.9856826684        6.2828505814
  O         0.0136666344       11.1192622043        6.3622196287
  O         3.7807288615       11.0984035183        6.3602068133
  O         7.7952679587       11.1287614381        6.3902096039
  O         0.1308649495        2.2065983123        7.6663886615
  O         3.9136092377        2.1975494552        7.8145084309
  O         7.6627845766        2.0638972061        8.0935950961
  O        11.2883138838        2.2710890238        8.1296148900
  O        -1.9951576866        5.6451192141        7.7544952443
  O         1.8523570155        5.5439151843        7.8755098763
  O         5.6529645567        5.6423432939        8.0767216605
  O         9.5781030733        5.5327454135        7.7497209300
  O        -4.0458580400        8.7105796471        8.0411464283
  O         0.1071476373        8.9243015792        7.9848159854
  O         3.8636711653        8.8052312324        7.8620664644
  O         7.5233558788        8.7019931561        7.8698234326
  O        -5.7329336763       12.0537706283        7.7923126123
  O        -1.8274314402       12.1672789440        7.6999027669
  O         1.9675523427       12.2727825103        7.8693851189
  O         5.5949194871       12.0468995911        7.8440938951
 Ce         0.0000000000        2.2090000000        0.7810000000
 Ce         3.8260000000        2.2090000000        0.7810000000
 Ce         7.6520000000        2.2090000000        0.7810000000
 Ce        11.4780000000        2.2090000000        0.7810000000
 Ce        -1.9130000000        5.5230000000        0.7810000000
 Ce         1.9130000000        5.5230000000        0.7810000000
 Ce         5.7390000000        5.5230000000        0.7810000000
 Ce         9.5650000000        5.5230000000        0.7810000000
 Ce        -3.8260000000        8.8360000000        0.7810000000
 Ce         0.0000000000        8.8360000000        0.7810000000
 Ce         3.8260000000        8.8360000000        0.7810000000
 Ce         7.6520000000        8.8360000000        0.7810000000
 Ce        -5.7390000000       12.1500000000        0.7810000000
 Ce        -1.9130000000       12.1500000000        0.7810000000
 Ce         1.9130000000       12.1500000000        0.7810000000
 Ce         5.7390000000       12.1500000000        0.7810000000
 Ce         1.9282954151        1.0789547277        3.9538341803
 Ce         5.7569039177        1.1022209332        3.9336938900
 Ce         9.6029917587        1.0819564548        3.9689596884
 Ce        13.4146223379        1.1549508814        3.9702457073
 Ce         0.0048716499        4.4286941173        3.9194816010
 Ce         3.7907595005        4.4176859777        3.8809293024
 Ce         7.6310929934        4.3885659293        3.9218228174
 Ce        11.5076618708        4.4129789483        3.9066808611
 Ce        -1.8663772669        7.7351739043        3.9486861713
 Ce         1.9214652501        7.7307328223        3.9686411336
 Ce         5.7474155550        7.7169104224        3.9173751193
 Ce         9.5552236825        7.7536544005        3.9561587482
 Ce        -3.8019516869       11.0083160785        3.9272251156
 Ce        -0.0084101045       11.0483258476        3.9134470786
 Ce         3.8533816735       11.0294680887        3.9421628612
 Ce         7.6331016474       11.0797129812        3.8944879026
 Ce        -0.0040718778       -0.0572482100        7.2170961747
 Ce         3.7991579561       -0.0516947969        7.1281442397
 Ce         7.7027831834       -0.0144856988        7.1485332561
 Ce        11.5201730762       -0.0076254468        7.1221534968
 Ce        -1.8747156291        3.3710612945        6.9883956903
 Ce         1.9588281726        3.3599604483        7.1187863160
 Ce         5.7484690435        3.2880858320        7.0858999306
 Ce         9.5945372588        3.2920674347        7.1454035357
 Ce        -3.8503306222        6.6597746007        7.0875734791
 Ce        -0.1157122487        6.6466216440        7.0277484530
 Ce         3.8096219356        6.6586147246        7.1262634719
 Ce         7.6783085844        6.6277214110        7.1482568578
 Ce        -5.7885319620        9.9533988377        7.0647367591
 Ce        -1.8925687502        9.9840888603        7.0924896024
 Ce         1.9682727514       10.0323651892        7.0630579416
 Ce         5.7381807505        9.9584716576        7.1306045843
 Pt        12.9998918607        1.8433555567        9.4189956847
 Pt         0.9736847091        5.5273863957        9.7623246288
 Pt        -0.0151486106        7.9515153049        9.9148175809
 Pt         7.3559498434       13.6263603656       10.1249697764
 Pt         0.1316308613        2.9894523038        9.7203519601
 Pt        -2.4319498454        8.2975198850        9.2986034241
 Pt         2.8064110462        3.7034802512       10.4775181063
 Pt         3.3309673142        6.2865108736       10.7546318765
 Pt         5.2528674317        4.7900325549        9.8584230242
 Pt         1.7948182749        1.3428708963       11.2918848831
 Pt         4.1041745695        1.4473049549        9.7775297046
 Pt        -0.0933333287        6.5182006759       11.9580275425
 Pt         6.5771006591        2.4149715365        9.8065203137
 Pt         0.6839435002        3.9734579831       12.0119167550
 Pt         5.4017832322        0.5430164360       11.7301740168
 Pt         2.2601143377        6.0257053859       13.0859163497
 Pt         5.0793404880        3.0848755580       11.8549108948
 Pt         0.0664962803        5.0458418229       14.2311353952
 Pt         1.1359860193        2.3326617091       13.9226336306
 Pt         4.8806495895        5.5198896406       12.6892624027
 Pt         3.4360231425        1.1622018470       13.2492197030
 Pt         3.2628537664        3.7330749885       13.6795023425
     166
 i =       11, time =       11.000, E =     -6046.0227395177
  O         0.0000000000        0.0000000000        0.0000000000
  O         3.8260000000        0.0000000000        0.0000000000
  O         7.6520000000        0.0000000000        0.0000000000
  O        11.4780000000        0.0000000000        0.0000000000
  O        -1.9130000000        3.3140000000        0.0000000000
  O         1.9130000000        3.3140000000        0.0000000000
  O         5.7390000000        3.3140000000        0.0000000000
  O         9.5650000000        3.3140000000        0.0000000000
  O        -3.8260000000        6.6270000000        0.0000000000
  O         0.0000000000        6.6270000000        0.0000000000
  O         3.8260000000        6.6270000000        0.0000000000
  O         7.6520000000        6.6270000000        0.0000000000
  O        -5.7390000000        9.9410000000        0.0000000000
  O        -1.9130000000        9.9410000000        0.0000000000
  O         1.9130000000        9.9410000000        0.0000000000
  O         5.7390000000        9.9410000000        0.0000000000
  O         1.9130000000        1.1050000000        1.5620000000
  O         5.7390000000        1.1050000000        1.5620000000
  O         9.5650000000        1.1050000000        1.5620000000
  O        13.3920000000        1.1050000000        1.5620000000
  O         0.0000000000        4.4180000000        1.5620000000
  O         3.8260000000        4.4180000000        1.5620000000
  O         7.6520000000        4.4180000000        1.5620000000
  O        11.4780000000        4.4180000000        1.5620000000
  O        -1.9130000000        7.7320000000        1.5620000000
  O         1.9130000000        7.7320000000        1.5620000000
  O         5.7390000000        7.7320000000        1.5620000000
  O         9.5650000000        7.7320000000        1.5620000000
  O        -3.8260000000       11.0450000000        1.5620000000
  O         0.0000000000       11.0450000000        1.5620000000
  O         3.8260000000       11.0450000000        1.5620000000
  O         7.6520000000       11.0450000000        1.5620000000
  O         0.0000000000        2.2090000000        3.1240000000
  O         3.8260000000        2.2090000000        3.1240000000
  O         7.6520000000        2.2090000000        3.1240000000
  O        11.4780000000        2.2090000000        3.1240000000
  O        -1.9130000000        5.5230000000        3.1240000000
  O         1.9130000000        5.5230000000        3.1240000000
  O         5.7390000000        5.5230000000        3.1240000000
  O         9.5650000000        5.5230000000        3.1240000000
  O        -3.8260000000        8.8360000000        3.1240000000
  O         0.0000000000        8.8360000000        3.1240000000
  O         3.8260000000        8.8360000000        3.1240000000
  O         7.6520000000        8.8360000000        3.1240000000
  O        -5.7390000000       12.1500000000        3.1240000000
  O        -1.9130000000       12.1500000000        3.1240000000
  O         1.9130000000       12.1500000000        3.1240000000
  O         5.7390000000       12.1500000000        3.1240000000
  O         0.0332156545       -0.0347293791        4.7100372248
  O         3.8260597265       -0.0777889379        4.6750548995
  O         7.8339428646       -0.1140450834        4.8142832195
  O        11.6267839663       -0.0561277271        4.7736166852
  O        -1.8638559991        3.2644844354        4.8344637222
  O         1.9515931517        3.2781110913        4.8152755587
  O         5.6156118548        3.2300999644        4.6714004891
  O         9.4499010454        3.4073476010        4.6754860117
  O        -3.8359913031        6.7830635679        4.7076199969
  O        -0.0381923364        6.7781517803        4.6463558194
  O         3.8833334326        6.6070593339        4.8501284894
  O         7.6624571591        6.6427255428        4.6582027474
  O        -5.7999000641        9.9234328056        4.8159046185
  O        -1.9090816109       10.1129047598        4.7003115510
  O         2.0789108152        9.9896293906        4.7709334377
  O         5.7358905744        9.8237389041        4.8433050673
  O         1.9112064479        1.1159643492        6.2943100077
  O         5.8292235181        1.1563652886        6.2870110114
  O         9.5488184973        1.2438408327        6.3446922363
  O        13.4138874085        1.1047920299        6.4571858601
  O        -0.0663220528        4.4783153923        6.2009084937
  O         3.9842516106        4.4599762132        6.3207479650
  O         7.4004006217        4.3764752681        6.3787934229
  O        11.3596055690        4.4151479927        6.2411494082
  O        -1.7848029751        7.8984309470        6.3316044654
  O         1.9408312731        7.6147682324        6.3290219974
  O         5.7796313260        7.6957478026        6.3027403742
  O         9.4333401344        7.7217779104        6.3354700220
  O        -3.9057496624       10.9857422252        6.2817531945
  O         0.0158978224       11.1242623686        6.3676279568
  O         3.7762389983       11.1022884434        6.3663955364
  O         7.8049195743       11.1358642748        6.3975653752
  O         0.1334812508        2.2033119355        7.6634518487
  O         3.9242715569        2.2016269060        7.8113504560
  O         7.6555865112        2.0569811487        8.0947080852
  O        11.2776530362        2.2773873389        8.1280458581
  O        -1.9982430097        5.6559219232        7.7573300784
  O         1.8517214973        5.5399928166        7.8754886901
  O         5.6431925850        5.6424597734        8.0785741988
  O         9.5787303143        5.5320128247        7.7397426070
  O        -4.0488275664        8.7030636447        8.0378222991
  O         0.1048608815        8.9217769856        7.9821385720
  O         3.8649444209        8.8027599141        7.8615698513
  O         7.5115209323        8.6919981087        7.8709856252
  O        -5.7330602721       12.0524645135        7.7877703280
  O        -1.8261106046       12.1689080727        7.6862809531
  O         1.9718893228       12.2828410021        7.8703875823
  O         5.5855039461       12.0448784257        7.8433354652
 Ce         0.0000000000        2.2090000000        0.7810000000
 Ce         3.8260000000        2.2090000000        0.7810000000
 Ce         7.6520000000        2.2090000000        0.7810000000
 Ce        11.4780000000        2.2090000000        0.7810000000
 Ce        -1.9130000000        5.5230000000        0.7810000000
 Ce         1.9130000000        5.5230000000        0.7810000000
 Ce         5.7390000000        5.5230000000        0.7810000000
 Ce         9.5650000000        5.5230000000        0.7810000000
 Ce        -3.8260000000        8.8360000000        0.7810000000
 Ce         0.0000000000        8.8360000000        0.7810000000
 Ce         3.8260000000        8.8360000000        0.7810000000
 Ce         7.6520000000        8.8360000000        0.7810000000
 Ce        -5.7390000000       12.1500000000        0.7810000000
 Ce        -1.9130000000       12.1500000000        0.7810000000
 Ce         1.9130000000       12.1500000000        0.7810000000
 Ce         5.7390000000       12.1500000000        0.7810000000
 Ce         1.9301731519        1.0774924124        3.9548571769
 Ce         5.7584093254        1.1020285556        3.9337278453
 Ce         9.6059150601        1.0791924680        3.9720560396
 Ce        13.4163037729        1.1601478655        3.9729949025
 Ce         0.0052941344        4.4288966402        3.9200400400
 Ce         3.7869128184        4.4167833871        3.8766813055
 Ce         7.6287191173        4.3862040446        3.9212888899
 Ce        11.5105032445        4.4126705657        3.9052448350
 Ce        -1.8618340123        7.7342693015        3.9521292476
 Ce         1.9224298731        7.7304829871        3.9724529784
 Ce         5.7484289393        7.7155287585        3.9167388321
 Ce         9.5537228307        7.7554631355        3.9590926487
 Ce        -3.8008339340       11.0054932793        3.9276285200
 Ce        -0.0087660096       11.0490026807        3.9125316460
 Ce         3.8562838958       11.0272257732        3.9443176381
 Ce         7.6307590332       11.0820762575        3.8909815229
 Ce        -0.0035735890       -0.0595070084        7.2208081941
 Ce         3.7972366643       -0.0497532966        7.1313423547
 Ce         7.7060174374       -0.0125389944        7.1529090964
 Ce        11.5215234448       -0.0069504809        7.1229066002
 Ce        -1.8721140175        3.3718800726        6.9827861816
 Ce         1.9610097734        3.3622692309        7.1248689173
 Ce         5.7480956996        3.2854825241        7.0844296038
 Ce         9.5960385238        3.2875153347        7.1471889571
 Ce        -3.8522923078        6.6636362271        7.0854725023
 Ce        -0.1178290803        6.6451402406        7.0268970730
 Ce         3.8078514993        6.6537267174        7.1253175350
 Ce         7.6753045882        6.6238715316        7.1530983261
 Ce        -5.7901928771        9.9534059282        7.0609433580
 Ce        -1.8915453025        9.9835255901        7.0894720746
 Ce         1.9688118990       10.0377478880        7.0618477201
 Ce         5.7367942373        9.9601983492        7.1359226626
 Pt        12.9953999664        1.8443411231        9.4166817491
 Pt         0.9733728923        5.5234787868        9.7622504058
 Pt        -0.0165317555        7.9540900575        9.9167105209
 Pt         7.3535050096       13.6254369035       10.1237737043
 Pt         0.1306373571        2.9903891677        9.7224772578
 Pt        -2.4322853341        8.3011884988        9.2982674033
 Pt         2.8082867783        3.7017172556       10.4789971021
 Pt         3.3347592249        6.2890325192       10.7521722197
 Pt         5.2522528484        4.7913107134        9.8579257732
 Pt         1.7933612261        1.3427423609       11.2895455751
 Pt         4.1052880854        1.4476337681        9.7775967473
 Pt        -0.0941386599        6.5182078070       11.9536671280
 Pt         6.5762931132        2.4164643131        9.8044712425
 Pt         0.6816048652        3.9738724501       12.0149310834
 Pt         5.4026839671        0.5435065047       11.7296944389
 Pt         2.2618546769        6.0267240158       13.0825221661
 Pt         5.0802811739        3.0863949071       11.8529428747
 Pt         0.0663611701        5.0472544958       14.2311360359
 Pt         1.1360078059        2.3304203759       13.9230821017
 Pt         4.8781782019        5.5179179503       12.6883097627
 Pt         3.4384260622        1.1603437252       13.2483063152
 Pt         3.2633851612        3.7305214851       13.6786493426
     166
 i =       12, time =       12.000, E =     -6046.0013140856
  O         0.0000000000        0.0000000000        0.0000000000
  O         3.8260000000        0.0000000000        0.0000000000
  O         7.6520000000        0.0000000000        0.0000000000
  O        11.4780000000        0.0000000000        0.0000000000
  O        -1.9130000000        3.3140000000        0.0000000000
  O         1.9130000000        3.3140000000        0.0000000000
  O         5.7390000000        3.3140000000        0.0000000000
  O         9.5650000000        3.3140000000        0.0000000000
  O        -3.8260000000        6.6270000000        0.0000000000
  O         0.0000000000        6.6270000000        0.0000000000
  O         3.8260000000        6.6270000000        0.0000000000
  O         7.6520000000        6.6270000000        0.0000000000
  O        -5.7390000000        9.9410000000        0.0000000000
  O        -1.9130000000        9.9410000000        0.0000000000
  O         1.9130000000        9.9410000000        0.0000000000
  O         5.7390000000        9.9410000000        0.0000000000
  O         1.9130000000        1.1050000000        1.5620000000
  O         5.7390000000        1.1050000000        1.5620000000
  O         9.5650000000        1.1050000000        1.5620000000
  O        13.3920000000        1.1050000000        1.5620000000
  O         0.0000000000        4.4180000000        1.5620000000
  O         3.8260000000        4.4180000000        1.5620000000
  O         7.6520000000        4.4180000000        1.5620000000
  O        11.4780000000        4.4180000000        1.5620000000
  O        -1.9130000000        7.7320000000        1.5620000000
  O         1.9130000000        7.7320000000        1.5620000000
  O         5.7390000000        7.7320000000        1.5620000000
  O         9.5650000000        7.7320000000        1.5620000000
  O        -3.8260000000       11.0450000000        1.5620000000
  O         0.0000000000       11.0450000000        1.5620000000
  O         3.8260000000       11.0450000000        1.5620000000
  O         7.6520000000       11.0450000000        1.5620000000
  O         0.0000000000        2.2090000000        3.1240000000
  O         3.8260000000        2.2090000000        3.1240000000
  O         7.6520000000        2.2090000000        3.1240000000
  O        11.4780000000        2.2090000000        3.1240000000
  O        -1.9130000000        5.5230000000        3.1240000000
  O         1.9130000000        5.5230000000        3.1240000000
  O         5.7390000000        5.5230000000        3.1240000000
  O         9.5650000000        5.5230000000        3.1240000000
  O        -3.8260000000        8.8360000000        3.1240000000
  O         0.0000000000        8.8360000000        3.1240000000
  O         3.8260000000        8.8360000000        3.1240000000
  O         7.6520000000        8.8360000000        3.1240000000
  O        -5.7390000000       12.1500000000        3.1240000000
  O        -1.9130000000       12.1500000000        3.1240000000
  O         1.9130000000       12.1500000000        3.1240000000
  O         5.7390000000       12.1500000000        3.1240000000
  O         0.0349647306       -0.0363631358        4.7073469090
  O         3.8239211388       -0.0806692444        4.6701909886
  O         7.8480515309       -0.1220423220        4.8184570970
  O        11.6383322471       -0.0588664952        4.7757257866
  O        -1.8607869790        3.2603058676        4.8400511055
  O         1.9505836881        3.2756654435        4.8208586383
  O         5.6065023372        3.2226821067        4.6643901846
  O         9.4441770992        3.4120896379        4.6707278543
  O        -3.8348103104        6.7955336743        4.7057839055
  O        -0.0399814583        6.7866535501        4.6438555908
  O         3.8864732900        6.6054642783        4.8558156805
  O         7.6625497564        6.6434261716        4.6511558901
  O        -5.8049313283        9.9217747345        4.8200127628
  O        -1.9083567005       10.1227188869        4.7020597400
  O         2.0896432229        9.9920114419        4.7734854915
  O         5.7357654935        9.8175789205        4.8509886366
  O         1.9112387628        1.1178331068        6.2988812994
  O         5.8334181236        1.1551260838        6.2840632992
  O         9.5461818295        1.2506641076        6.3455209808
  O        13.4177422695        1.1052190424        6.4686698254
  O        -0.0732952045        4.4800299390        6.1984224429
  O         3.9910917281        4.4595176940        6.3166151842
  O         7.3847526727        4.3757912431        6.3785893588
  O        11.3553732357        4.4197512246        6.2344641473
  O        -1.7757378392        7.9056239167        6.3366638899
  O         1.9417050149        7.6066206133        6.3294373056
  O         5.7816234798        7.6944086345        6.3028180659
  O         9.4233576470        7.7210155324        6.3378296263
  O        -3.9128752872       10.9857169792        6.2808986513
  O         0.0186239194       11.1282645477        6.3727134277
  O         3.7719459603       11.1059571659        6.3722448428
  O         7.8132362225       11.1425485690        6.4043520514
  O         0.1360498820        2.2007981542        7.6608923155
  O         3.9339650382        2.2053292784        7.8085156730
  O         7.6489169730        2.0504324006        8.0957471047
  O        11.2676252322        2.2835277119        8.1268122578
  O        -2.0012033572        5.6660353461        7.7599470314
  O         1.8509064591        5.5357932680        7.8754753539
  O         5.6338631902        5.6426472476        8.0804702619
  O         9.5791797250        5.5309585574        7.7301772935
  O        -4.0516069070        8.6957981968        8.0345984304
  O         0.1029338199        8.9194210288        7.9795186601
  O         3.8660394800        8.8007003222        7.8610744328
  O         7.4999765704        8.6827026387        7.8724586183
  O        -5.7327991235       12.0516603552        7.7838616384
  O        -1.8254775583       12.1704449820        7.6732494768
  O         1.9762498576       12.2925038305        7.8715467814
  O         5.5766922844       12.0428745596        7.8429604720
 Ce         0.0000000000        2.2090000000        0.7810000000
 Ce         3.8260000000        2.2090000000        0.7810000000
 Ce         7.6520000000        2.2090000000        0.7810000000
 Ce        11.4780000000        2.2090000000        0.7810000000
 Ce        -1.9130000000        5.5230000000        0.7810000000
 Ce         1.9130000000        5.5230000000        0.7810000000
 Ce         5.7390000000        5.5230000000        0.7810000000
 Ce         9.5650000000        5.5230000000        0.7810000000
 Ce        -3.8260000000        8.8360000000        0.7810000000
 Ce         0.0000000000        8.8360000000        0.7810000000
 Ce         3.8260000000        8.8360000000        0.7810000000
 Ce         7.6520000000        8.8360000000        0.7810000000
 Ce        -5.7390000000       12.1500000000        0.7810000000
 Ce        -1.9130000000       12.1500000000        0.7810000000
 Ce         1.9130000000       12.1500000000        0.7810000000
 Ce         5.7390000000       12.1500000000        0.7810000000
 Ce         1.9320636338        1.0760157939        3.9558898361
 Ce         5.7598886263        1.1018324417        3.9337759074
 Ce         9.6087916354        1.0764412797        3.9751207753
 Ce        13.4180155851        1.1652338580        3.9757176060
 Ce         0.0057531214        4.4290801200        3.9205712910
 Ce         3.7831413956        4.4158607331        3.8725039105
 Ce         7.6263240414        4.3838920580        3.9207470444
 Ce        11.5132283033        4.4124119043        3.9038064189
 Ce        -1.8573832774        7.7334407683        3.9555051878
 Ce         1.9234530236        7.7302542522        3.9762476832
 Ce         5.7494609764        7.7141279683        3.9161616361
 Ce         9.5521885548        7.7572545325        3.9620009651
 Ce        -3.7997678642       11.0027115469        3.9280245439
 Ce        -0.0090978176       11.0497166040        3.9116228191
 Ce         3.8592052076       11.0249892922        3.9464523981
 Ce         7.6284559757       11.0844103518        3.8875108054
 Ce        -0.0030453589       -0.0617420545        7.2245230310
 Ce         3.7953321076       -0.0478375925        7.1344834218
 Ce         7.7092106218       -0.0105954703        7.1572614739
 Ce        11.5228559398       -0.0062629609        7.1236936404
 Ce        -1.8695477284        3.3726989071        6.9773345274
 Ce         1.9632163551        3.3645236231        7.1309241903
 Ce         5.7476884581        3.2828723821        7.0829438309
 Ce         9.5974986001        3.2830372928        7.1489581842
 Ce        -3.8542878965        6.6674879066        7.0833804410
 Ce        -0.1199021364        6.6437012087        7.0261206573
 Ce         3.8061521783        6.6488815213        7.1243799945
 Ce         7.6722390509        6.6200675281        7.1578913862
 Ce        -5.7918497134        9.9533758775        7.0571910716
 Ce        -1.8905257928        9.9830275402        7.0864945239
 Ce         1.9693521894       10.0430881638        7.0606881672
 Ce         5.7354022088        9.9618084101        7.1412277866
 Pt        12.9909148968        1.8453404413        9.4143657823
 Pt         0.9730675868        5.5196131157        9.7621743770
 Pt        -0.0179062426        7.9566456732        9.9185770594
 Pt         7.3510492457       13.6245254012       10.1225796572
 Pt         0.1296269353        2.9912955462        9.7245760383
 Pt        -2.4326315440        8.3048614412        9.2979324873
 Pt         2.8101440980        3.6999790337       10.4804818533
 Pt         3.3385210997        6.2915469476       10.7497070746
 Pt         5.2516373553        4.7925807443        9.8574468806
 Pt         1.7919211867        1.3426091568       11.2872261633
 Pt         4.1064011149        1.4479616558        9.7776420126
 Pt        -0.0949378901        6.5182112171       11.9493457720
 Pt         6.5754810578        2.4179559031        9.8024502916
 Pt         0.6792852851        3.9742777215       12.0179251013
 Pt         5.4035911684        0.5439937006       11.7292154305
 Pt         2.2635765866        6.0277273955       13.0791328399
 Pt         5.0812243274        3.0878951460       11.8509859369
 Pt         0.0662310232        5.0486754827       14.2311326597
 Pt         1.1360358594        2.3281772790       13.9235261807
 Pt         4.8757256915        5.5159573641       12.6873638506
 Pt         3.4408018109        1.1584918689       13.2473835665
 Pt         3.2639003045        3.7279789467       13.6777949138
     166
 i =       13, time =       13.000, E =     -6045.9807163237
  O         0.0000000000        0.0000000000        0.0000000000
  O         3.8260000000        0.0000000000        0.0000000000
  O         7.6520000000        0.0000000000        0.0000000000
  O        11.4780000000        0.0000000000        0.0000000000
  O        -1.9130000000        3.3140000000        0.0000000000
  O         1.9130000000        3.3140000000        0.0000000000
  O         5.7390000000        3.3140000000        0.0000000000
  O         9.5650000000        3.3140000000        0.0000000000
  O        -3.8260000000        6.6270000000        0.0000000000
  O         0.0000000000        6.6270000000        0.0000000000
  O         3.8260000000        6.6270000000        0.0000000000
  O         7.6520000000        6.6270000000        0.0000000000
  O        -5.7390000000        9.9410000000        0.0000000000
  O        -1.9130000000        9.9410000000        0.0000000000
  O         1.9130000000        9.9410000000        0.0000000000
  O         5.7390000000        9.9410000000        0.0000000000
  O         1.9130000000        1.1050000000        1.5620000000
  O         5.7390000000        1.1050000000        1.5620000000
  O         9.5650000000        1.1050000000        1.5620000000
  O        13.3920000000        1.1050000000        1.5620000000
  O         0.0000000000        4.4180000000        1.5620000000
  O         3.8260000000        4.4180000000        1.5620000000
  O         7.6520000000        4.4180000000        1.5620000000
  O        11.4780000000        4.4180000000        1.5620000000
  O        -1.9130000000        7.7320000000        1.5620000000
  O         1.9130000000        7.7320000000        1.5620000000
  O         5.7390000000        7.7320000000        1.5620000000
  O         9.5650000000        7.7320000000        1.5620000000
  O        -3.8260000000       11.0450000000        1.5620000000
  O         0.0000000000       11.0450000000        1.5620000000
  O         3.8260000000       11.0450000000        1.5620000000
  O         7.6520000000       11.0450000000        1.5620000000
  O         0.0000000000        2.2090000000        3.1240000000
  O         3.8260000000        2.2090000000        3.1240000000
  O         7.6520000000        2.2090000000        3.1240000000
  O        11.4780000000        2.2090000000        3.1240000000
  O        -1.9130000000        5.5230000000        3.1240000000
  O         1.9130000000        5.5230000000        3.1240000000
  O         5.7390000000        5.5230000000        3.1240000000
  O         9.5650000000        5.5230000000        3.1240000000
  O        -3.8260000000        8.8360000000        3.1240000000
  O         0.0000000000        8.8360000000        3.1240000000
  O         3.8260000000        8.8360000000        3.1240000000
  O         7.6520000000        8.8360000000        3.1240000000
  O        -5.7390000000       12.1500000000        3.1240000000
  O        -1.9130000000       12.1500000000        3.1240000000
  O         1.9130000000       12.1500000000        3.1240000000
  O         5.7390000000       12.1500000000        3.1240000000
  O         0.0362991424       -0.0377758976        4.7047292450
  O         3.8218923149       -0.0831667977        4.6657842043
  O         7.8618101415       -0.1294544649        4.8223076894
  O        11.6493255706       -0.0611134954        4.7778212990
  O        -1.8580709948        3.2563463213        4.8445517960
  O         1.9493606662        3.2736662894        4.8261479286
  O         5.5979003491        3.2155469901        4.6573227539
  O         9.4390428695        3.4162880134        4.6664068505
  O        -3.8332323732        6.8073579044        4.7043941262
  O        -0.0414281673        6.7942650943        4.6417919121
  O         3.8891535812        6.6040146807        4.8606737609
  O         7.6626093462        6.6437351235        4.6445121091
  O        -5.8098782938        9.9201479409        4.8234956898
  O        -1.9073592665       10.1317149365        4.7040121769
  O         2.0994500196        9.9939447771        4.7760359930
  O         5.7356891542        9.8123436659        4.8583363153
  O         1.9116880171        1.1193866786        6.3035421957
  O         5.8375492665        1.1536635082        6.2808546655
  O         9.5439333456        1.2572812461        6.3458415282
  O        13.4213647422        1.1058355685        6.4792184118
  O        -0.0798852616        4.4819808205        6.1959612502
  O         3.9970750155        4.4589707833        6.3124758355
  O         7.3703185104        4.3754120803        6.3780132489
  O        11.3518079644        4.4240132444        6.2274570797
  O        -1.7672300188        7.9125670679        6.3407513050
  O         1.9419682089        7.5990858688        6.3292939710
  O         5.7834353675        7.6927193221        6.3028093908
  O         9.4139387390        7.7204228767        6.3398117188
  O        -3.9194817917       10.9855979939        6.2802865161
  O         0.0218593467       11.1312232741        6.3774440592
  O         3.7678668201       11.1093890574        6.3777059669
  O         7.8201244030       11.1487810812        6.4105511749
  O         0.1385597161        2.1991095342        7.6587303860
  O         3.9426448006        2.2086182173        7.8060337820
  O         7.6428081556        2.0442611219        8.0967137746
  O        11.2582590741        2.2894902514        8.1259404531
  O        -2.0040419386        5.6754306230        7.7623437587
  O         1.8499026249        5.5313156130        7.8754721889
  O         5.6249817299        5.6429103160        8.0823955047
  O         9.5794412694        5.5295730742        7.7210340882
  O        -4.0541948528        8.6888107325        8.0314797831
  O         0.1013912283        8.9172426965        7.9769576537
  O         3.8669438041        8.7990670745        7.8605804234
  O         7.4887496604        8.6741307980        7.8742670363
  O        -5.7321219739       12.0513858603        7.7806557100
  O        -1.8255614914       12.1718880038        7.6607783264
  O         1.9806064271       12.3017427302        7.8728752620
  O         5.5685329636       12.0409095411        7.8429954864
 Ce         0.0000000000        2.2090000000        0.7810000000
 Ce         3.8260000000        2.2090000000        0.7810000000
 Ce         7.6520000000        2.2090000000        0.7810000000
 Ce        11.4780000000        2.2090000000        0.7810000000
 Ce        -1.9130000000        5.5230000000        0.7810000000
 Ce         1.9130000000        5.5230000000        0.7810000000
 Ce         5.7390000000        5.5230000000        0.7810000000
 Ce         9.5650000000        5.5230000000        0.7810000000
 Ce        -3.8260000000        8.8360000000        0.7810000000
 Ce         0.0000000000        8.8360000000        0.7810000000
 Ce         3.8260000000        8.8360000000        0.7810000000
 Ce         7.6520000000        8.8360000000        0.7810000000
 Ce        -5.7390000000       12.1500000000        0.7810000000
 Ce        -1.9130000000       12.1500000000        0.7810000000
 Ce         1.9130000000       12.1500000000        0.7810000000
 Ce         5.7390000000       12.1500000000        0.7810000000
 Ce         1.9339673552        1.0745244992        3.9569324279
 Ce         5.7613393737        1.1016321917        3.9338377474
 Ce         9.6116188515        1.0737047194        3.9781500886
 Ce        13.4197591900        1.1701999876        3.9784100971
 Ce         0.0062509527        4.4292430873        3.9210726169
 Ce         3.7794504185        4.4149165356        3.8684021595
 Ce         7.6239071988        4.3816334990        3.9201958002
 Ce        11.5158286588        4.4122055088        3.9023652563
 Ce        -1.8530332871        7.7326937648        3.9588074849
 Ce         1.9245384288        7.7300481243        3.9800231159
 Ce         5.7505125957        7.7127070855        3.9156468810
 Ce         9.5506188215        7.7590263148        3.9648805696
 Ce        -3.7987571512       10.9999742272        3.9284118403
 Ce        -0.0094033290       11.0504692890        3.9107198093
 Ce         3.8621473256       11.0227600277        3.9485647797
 Ce         7.6261948828       11.0867133298        3.8840774738
 Ce        -0.0024851029       -0.0639495959        7.2282412208
 Ce         3.7934452059       -0.0459502005        7.1375634929
 Ce         7.7123592782       -0.0086566128        7.1615873529
 Ce        11.5241698420       -0.0055610316        7.1245158174
 Ce        -1.8670197136        3.3735171696        6.9720540393
 Ce         1.9654489604        3.3667187625        7.1369491429
 Ce         5.7472449252        3.2802540527        7.0814414675
 Ce         9.5989142073        3.2786421215        7.1507090484
 Ce        -3.8563191837        6.6713264595        7.0812967762
 Ce        -0.1219280425        6.6423075874        7.0254241766
 Ce         3.8045280932        6.6440831309        7.1234512734
 Ce         7.6691085458        6.6163117744        7.1626328186
 Ce        -5.7935007695        9.9533062216        7.0534840267
 Ce        -1.8895098490        9.9826001904        7.0835607572
 Ce         1.9698928326       10.0483823235        7.0595829934
 Ce         5.7340030833        9.9632932689        7.1465181185
 Pt        12.9864379218        1.8463543396        9.4120481533
 Pt         0.9727695277        5.5157929012        9.7620970458
 Pt        -0.0192721980        7.9591805882        9.9204151444
 Pt         7.3485816218       13.6236270625       10.1213877654
 Pt         0.1285979219        2.9921685455        9.7266470415
 Pt        -2.4329886040        8.3085388376        9.2975987281
 Pt         2.8119819471        3.6982676989       10.4819735265
 Pt         3.3422507445        6.2940542621       10.7472360347
 Pt         5.2510213461        4.7938416064        9.8569878502
 Pt         1.7904991554        1.3424707151       11.2849276540
 Pt         4.1075135500        1.4482887395        9.7776644810
 Pt        -0.0957295558        6.5182102615       11.9450662519
 Pt         6.5746643304        2.4194462982        9.8004595984
 Pt         0.6769860254        3.9746732833       12.0208970048
 Pt         5.4045055770        0.5444778984       11.7287368253
 Pt         2.2652775837        6.0287145364       13.0757486309
 Pt         5.0821698187        3.0893743042       11.8490406197
 Pt         0.0661059282        5.0501056036       14.2311250412
 Pt         1.1360701895        2.3259318751       13.9239656695
 Pt         4.8732939959        5.5140095876       12.6864251523
 Pt         3.4431482084        1.1566457717       13.2464511154
 Pt         3.2643983981        3.7254486876       13.6769389088
     166
 i =       14, time =       14.000, E =     -6045.9611274248
  O         0.0000000000        0.0000000000        0.0000000000
  O         3.8260000000        0.0000000000        0.0000000000
  O         7.6520000000        0.0000000000        0.0000000000
  O        11.4780000000        0.0000000000        0.0000000000
  O        -1.9130000000        3.3140000000        0.0000000000
  O         1.9130000000        3.3140000000        0.0000000000
  O         5.7390000000        3.3140000000        0.0000000000
  O         9.5650000000        3.3140000000        0.0000000000
  O        -3.8260000000        6.6270000000        0.0000000000
  O         0.0000000000        6.6270000000        0.0000000000
  O         3.8260000000        6.6270000000        0.0000000000
  O         7.6520000000        6.6270000000        0.0000000000
  O        -5.7390000000        9.9410000000        0.0000000000
  O        -1.9130000000        9.9410000000        0.0000000000
  O         1.9130000000        9.9410000000        0.0000000000
  O         5.7390000000        9.9410000000        0.0000000000
  O         1.9130000000        1.1050000000        1.5620000000
  O         5.7390000000        1.1050000000        1.5620000000
  O         9.5650000000        1.1050000000        1.5620000000
  O        13.3920000000        1.1050000000        1.5620000000
  O         0.0000000000        4.4180000000        1.5620000000
  O         3.8260000000        4.4180000000        1.5620000000
  O         7.6520000000        4.4180000000        1.5620000000
  O        11.4780000000        4.4180000000        1.5620000000
  O        -1.9130000000        7.7320000000        1.5620000000
  O         1.9130000000        7.7320000000        1.5620000000
  O         5.7390000000        7.7320000000        1.5620000000
  O         9.5650000000        7.7320000000        1.5620000000
  O        -3.8260000000       11.0450000000        1.5620000000
  O         0.0000000000       11.0450000000        1.5620000000
  O         3.8260000000       11.0450000000        1.5620000000
  O         7.6520000000       11.0450000000        1.5620000000
  O         0.0000000000        2.2090000000        3.1240000000
  O         3.8260000000        2.2090000000        3.1240000000
  O         7.6520000000        2.2090000000        3.1240000000
  O        11.4780000000        2.2090000000        3.1240000000
  O        -1.9130000000        5.5230000000        3.1240000000
  O         1.9130000000        5.5230000000        3.1240000000
  O         5.7390000000        5.5230000000        3.1240000000
  O         9.5650000000        5.5230000000        3.1240000000
  O        -3.8260000000        8.8360000000        3.1240000000
  O         0.0000000000        8.8360000000        3.1240000000
  O         3.8260000000        8.8360000000        3.1240000000
  O         7.6520000000        8.8360000000        3.1240000000
  O        -5.7390000000       12.1500000000        3.1240000000
  O        -1.9130000000       12.1500000000        3.1240000000
  O         1.9130000000       12.1500000000        3.1240000000
  O         5.7390000000       12.1500000000        3.1240000000
  O         0.0372084924       -0.0389545382        4.7021826394
  O         3.8199763382       -0.0852713129        4.6618780908
  O         7.8751697840       -0.1362313194        4.8258082786
  O        11.6597184678       -0.0628475922        4.7799193800
  O        -1.8557191299        3.2526315904        4.8479150772
  O         1.9479167888        3.2721289362        4.8310992170
  O         5.5898367641        3.2087021719        4.6502403940
  O         9.4345213239        3.4199260493        4.6625701567
  O        -3.8312503319        6.8185011796        4.7034743483
  O        -0.0424932388        6.8009312540        4.6401811501
  O         3.8913504915        6.6027185493        4.8646878614
  O         7.6626324660        6.6436412210        4.6382709597
  O        -5.8147250303        9.9185588768        4.8263050255
  O        -1.9060801280       10.1398478029        4.7061890068
  O         2.1082567906        9.9953963652        4.7785968415
  O         5.7356586816        9.8080870553        4.8653655583
  O         1.9125670409        1.1206101640        6.3082584411
  O         5.8416085445        1.1519814684        6.2773709197
  O         9.5420738011        1.2636720694        6.3456342040
  O        13.4247513303        1.1066494708        6.4888135584
  O        -0.0860810847        4.4841792494        6.1935125451
  O         4.0021556252        4.4583428480        6.3083527424
  O         7.3571485584        4.3753837377        6.3770442521
  O        11.3489459627        4.4279067823        6.2201652639
  O        -1.7592899330        7.9192277992        6.3438483032
  O         1.9416008424        7.5921880088        6.3285787550
  O         5.7850537202        7.6906581288        6.3027102417
  O         9.4051290864        7.7200082178        6.3414199284
  O        -3.9255381896       10.9853750699        6.2799140237
  O         0.0256108540       11.1331055946        6.3817886017
  O         3.7640111449       11.1125690828        6.3827265658
  O         7.8255137812       11.1545306331        6.4161653854
  O         0.1409989737        2.1982910304        7.6569909086
  O         3.9502716658        2.2114622251        7.8039350876
  O         7.6372794672        2.0384722162        8.0976069422
  O        11.2495884567        2.2952597402        8.1254544200
  O        -2.0067673426        5.6841044247        7.7645154662
  O         1.8487039967        5.5265699500        7.8754823919
  O         5.6165486483        5.6432506023        8.0843416730
  O         9.5795044415        5.5278521722        7.7123574005
  O        -4.0565944710        8.6821158251        8.0284749025
  O         0.1002529937        8.9152500908        7.9744530453
  O         3.8676477354        8.7978703285        7.8600862688
  O         7.4778528538        8.6662905183        7.8764325845
  O        -5.7310083800       12.0516613292        7.7782099493
  O        -1.8263821919       12.1732348135        7.6488454271
  O         1.9849350907       12.3105500437        7.8743832982
  O         5.5610587937       12.0389984635        7.8434620675
 Ce         0.0000000000        2.2090000000        0.7810000000
 Ce         3.8260000000        2.2090000000        0.7810000000
 Ce         7.6520000000        2.2090000000        0.7810000000
 Ce        11.4780000000        2.2090000000        0.7810000000
 Ce        -1.9130000000        5.5230000000        0.7810000000
 Ce         1.9130000000        5.5230000000        0.7810000000
 Ce         5.7390000000        5.5230000000        0.7810000000
 Ce         9.5650000000        5.5230000000        0.7810000000
 Ce        -3.8260000000        8.8360000000        0.7810000000
 Ce         0.0000000000        8.8360000000        0.7810000000
 Ce         3.8260000000        8.8360000000        0.7810000000
 Ce         7.6520000000        8.8360000000        0.7810000000
 Ce        -5.7390000000       12.1500000000        0.7810000000
 Ce        -1.9130000000       12.1500000000        0.7810000000
 Ce         1.9130000000       12.1500000000        0.7810000000
 Ce         5.7390000000       12.1500000000        0.7810000000
 Ce         1.9358845878        1.0730184686        3.9579849915
 Ce         5.7627593123        1.1014274305        3.9339126552
 Ce         9.6143945359        1.0709847445        3.9811400637
 Ce        13.4215354567        1.1750377462        3.9810683096
 Ce         0.0067897021        4.4293841978        3.9215410241
 Ce         3.7758445494        4.4139494591        3.8643805278
 Ce         7.6214688382        4.3794313186        3.9196336355
 Ce        11.5182965104        4.4120533844        3.9009208117
 Ce        -1.8487916091        7.7320330195        3.9620296085
 Ce         1.9256892678        7.7298659849        3.9837769046
 Ce         5.7515844554        7.7112655306        3.9151973780
 Ce         9.5490120512        7.7607758778        3.9677281085
 Ce        -3.7978049137       10.9972845254        3.9287890057
 Ce        -0.0096802604       11.0512620989        3.9098216399
 Ce         3.8651115059       11.0205395349        3.9506525136
 Ce         7.6239777020       11.0889835639        3.8806828679
 Ce        -0.0018914520       -0.0661257671        7.2319633345
 Ce         3.7915769397       -0.0440934622        7.1405792759
 Ce         7.7154602089       -0.0067241223        7.1658838409
 Ce        11.5254649618       -0.0048427614        7.1253745113
 Ce        -1.8645329371        3.3743342187        6.9669570571
 Ce         1.9677086812        3.3688497466        7.1429403880
 Ce         5.7467632983        3.2776260877        7.0799212917
 Ce         9.6002823122        3.2743384011        7.1524393165
 Ce        -3.8583877886        6.6751477983        7.0792207512
 Ce        -0.1239037327        6.6409623389        7.0248114811
 Ce         3.8029824483        6.6393359303        7.1225317526
 Ce         7.6659103480        6.6126066320        7.1673196848
 Ce        -5.7951447300        9.9531953066        7.0498259639
 Ce        -1.8884967954        9.9822490452        7.0806741962
 Ce         1.9704332657       10.0536266941        7.0585357644
 Ce         5.7325949670        9.9646453706        7.1517918567
 Pt        12.9819700414        1.8473824823        9.4097293735
 Pt         0.9724790764        5.5120210522        9.7620182585
 Pt        -0.0206298400        7.9616944545        9.9222228350
 Pt         7.3461014682       13.6227425438       10.1201979870
 Pt         0.1275500095        2.9930064238        9.7286885197
 Pt        -2.4333571005        8.3122206525        9.2972661405
 Pt         2.8137991953        3.6965850660       10.4834737855
 Pt         3.3459471192        6.2965543262       10.7447579353
 Pt         5.2504056477        4.7950930478        9.8565494280
 Pt         1.7890959468        1.3423266729       11.2826516118
 Pt         4.1086249101        1.4486146000        9.7776628034
 Pt        -0.0965121681        6.5182043426       11.9408319056
 Pt         6.5738426446        2.4209359139        9.7985015711
 Pt         0.6747079847        3.9750581340       12.0238452620
 Pt         5.4054276807        0.5449592070       11.7282585727
 Pt         2.2669546443        6.0296853742       13.0723696821
 Pt         5.0831174600        3.0908301198       11.8471080666
 Pt         0.0659857676        5.0515449086       14.2311136935
 Pt         1.1361119944        2.3236837729       13.9243999179
 Pt         4.8708843341        5.5120757679       12.6854932983
 Pt         3.4454624923        1.1548059072       13.2455083099
 Pt         3.2648792808        3.7229308540       13.6760816228
     166
 i =       15, time =       15.000, E =     -6045.9429533004
  O         0.0000000000        0.0000000000        0.0000000000
  O         3.8260000000        0.0000000000        0.0000000000
  O         7.6520000000        0.0000000000        0.0000000000
  O        11.4780000000        0.0000000000        0.0000000000
  O        -1.9130000000        3.3140000000        0.0000000000
  O         1.9130000000        3.3140000000        0.0000000000
  O         5.7390000000        3.3140000000        0.0000000000
  O         9.5650000000        3.3140000000        0.0000000000
  O        -3.8260000000        6.6270000000        0.0000000000
  O         0.0000000000        6.6270000000        0.0000000000
  O         3.8260000000        6.6270000000        0.0000000000
  O         7.6520000000        6.6270000000        0.0000000000
  O        -5.7390000000        9.9410000000        0.0000000000
  O        -1.9130000000        9.9410000000        0.0000000000
  O         1.9130000000        9.9410000000        0.0000000000
  O         5.7390000000        9.9410000000        0.0000000000
  O         1.9130000000        1.1050000000        1.5620000000
  O         5.7390000000        1.1050000000        1.5620000000
  O         9.5650000000        1.1050000000        1.5620000000
  O        13.3920000000        1.1050000000        1.5620000000
  O         0.0000000000        4.4180000000        1.5620000000
  O         3.8260000000        4.4180000000        1.5620000000
  O         7.6520000000        4.4180000000        1.5620000000
  O        11.4780000000        4.4180000000        1.5620000000
  O        -1.9130000000        7.7320000000        1.5620000000
  O         1.9130000000        7.7320000000        1.5620000000
  O         5.7390000000        7.7320000000        1.5620000000
  O         9.5650000000        7.7320000000        1.5620000000
  O        -3.8260000000       11.0450000000        1.5620000000
  O         0.0000000000       11.0450000000        1.5620000000
  O         3.8260000000       11.0450000000        1.5620000000
  O         7.6520000000       11.0450000000        1.5620000000
  O         0.0000000000        2.2090000000        3.1240000000
  O         3.8260000000        2.2090000000        3.1240000000
  O         7.6520000000        2.2090000000        3.1240000000
  O        11.4780000000        2.2090000000        3.1240000000
  O        -1.9130000000        5.5230000000        3.1240000000
  O         1.9130000000        5.5230000000        3.1240000000
  O         5.7390000000        5.5230000000        3.1240000000
  O         9.5650000000        5.5230000000        3.1240000000
  O        -3.8260000000        8.8360000000        3.1240000000
  O         0.0000000000        8.8360000000        3.1240000000
  O         3.8260000000        8.8360000000        3.1240000000
  O         7.6520000000        8.8360000000        3.1240000000
  O        -5.7390000000       12.1500000000        3.1240000000
  O        -1.9130000000       12.1500000000        3.1240000000
  O         1.9130000000       12.1500000000        3.1240000000
  O         5.7390000000       12.1500000000        3.1240000000
  O         0.0376863318       -0.0398863982        4.6997070583
  O         3.8181772139       -0.0869760413        4.6585053823
  O         7.8880728606       -0.1423478256        4.8289427716
  O        11.6694523254       -0.0640513330        4.7820366131
  O        -1.8537371377        3.2491880931        4.8501022968
  O         1.9462468246        3.2710659405        4.8356761391
  O         5.5823554332        3.2021736114        4.6431656943
  O         9.4306364550        3.4229847355        4.6592561213
  O        -3.8288525505        6.8289258992        4.7030478831
  O        -0.0431411544        6.8065905670        4.6390377216
  O         3.8930438943        6.6015821649        4.8678421255
  O         7.6626155916        6.6431367205        4.6324186627
  O        -5.8194576137        9.9170115464        4.8284031111
  O        -1.9045164387       10.1470841881        4.7086091242
  O         2.1160108693        9.9963358774        4.7811790061
  O         5.7356701211        9.8048501131        4.8720915070
  O         1.9138813828        1.1214923300        6.3129951919
  O         5.8455877864        1.1500874142        6.2735980156
  O         9.5406029759        1.2698123768        6.3448829358
  O        13.4279022656        1.1076666634        6.4974721088
  O        -0.0918668551        4.4866311086        6.1910633449
  O         4.0062959974        4.4576376410        6.3042754757
  O         7.3452800983        4.3757274876        6.3756682852
  O        11.3468240989        4.4314079130        6.2126286938
  O        -1.7519315913        7.9255692908        6.3459367492
  O         1.9405908960        7.5859398198        6.3272831843
  O         5.7864657073        7.6882058282        6.3025184687
  O         9.3969554048        7.7197748117        6.3426597636
  O        -3.9310096162       10.9850373549        6.2797768990
  O         0.0298803497       11.1338899063        6.3857215445
  O         3.7603863681       11.1154888878        6.3872586237
  O         7.8293577380       11.1597690488        6.4212054316
  O         0.1433544117        2.1983760688        7.6556920109
  O         3.9568001450        2.2138326224        7.8022446928
  O         7.6323511562        2.0330739050        8.0984205551
  O        11.2416643501        2.3008185400        8.1253795602
  O        -2.0093879441        5.6920563587        7.7664542533
  O         1.8473096606        5.5215794261        7.8755069691
  O         5.6085764922        5.6436700033        8.0862973988
  O         9.5793605958        5.5257960990        7.7042139118
  O        -4.0588147241        8.6757244194        8.0255962015
  O         0.0995367615        8.9134509509        7.9720063535
  O         3.8681427549        8.7971168536        7.8595906119
  O         7.4673198584        8.6592043512        7.8789749227
  O        -5.7294463317       12.0524993498        7.7765697166
  O        -1.8279492656       12.1744811287        7.6374878106
  O         1.9892207311       12.3189269226        7.8760802227
  O         5.5542919695       12.0371506082        7.8443796918
 Ce         0.0000000000        2.2090000000        0.7810000000
 Ce         3.8260000000        2.2090000000        0.7810000000
 Ce         7.6520000000        2.2090000000        0.7810000000
 Ce        11.4780000000        2.2090000000        0.7810000000
 Ce        -1.9130000000        5.5230000000        0.7810000000
 Ce         1.9130000000        5.5230000000        0.7810000000
 Ce         5.7390000000        5.5230000000        0.7810000000
 Ce         9.5650000000        5.5230000000        0.7810000000
 Ce        -3.8260000000        8.8360000000        0.7810000000
 Ce         0.0000000000        8.8360000000        0.7810000000
 Ce         3.8260000000        8.8360000000        0.7810000000
 Ce         7.6520000000        8.8360000000        0.7810000000
 Ce        -5.7390000000       12.1500000000        0.7810000000
 Ce        -1.9130000000       12.1500000000        0.7810000000
 Ce         1.9130000000       12.1500000000        0.7810000000
 Ce         5.7390000000       12.1500000000        0.7810000000
 Ce         1.9378153853        1.0714978264        3.9590474752
 Ce         5.7641464110        1.1012175725        3.9339997930
 Ce         9.6171169762        1.0682834839        3.9840868125
 Ce        13.4233451084        1.1797390101        3.9836882982
 Ce         0.0073712638        4.4295022993        3.9219737266
 Ce         3.7723279761        4.4129583674        3.8604432938
 Ce         7.6190095016        4.3772882180        3.9190592130
 Ce        11.5206246609        4.4119572036        3.8994726435
 Ce        -1.8446653450        7.7314629117        3.9651653423
 Ce         1.9269083314        7.7297090774        3.9875068219
 Ce         5.7526770606        7.7098028484        3.9148156943
 Ce         9.5473669549        7.7625004355        3.9705401481
 Ce        -3.7969139498       10.9946455258        3.9291546545
 Ce        -0.0099262718       11.0520960155        3.9089273749
 Ce         3.8680988049       11.0183293791        3.9527135280
 Ce         7.6218060967       11.0912195654        3.8773284280
 Ce        -0.0012633066       -0.0682665717        7.2356894106
 Ce         3.7897283290       -0.0422696028        7.1435277976
 Ce         7.7185103399       -0.0048001282        7.1701478184
 Ce        11.5267412680       -0.0041060394        7.1262709813
 Ce        -1.8620901899        3.3751497440        6.9620550872
 Ce         1.9699963048        3.3709120265        7.1488945846
 Ce         5.7462422978        3.2749870591        7.0783818091
 Ce         9.6015997873        3.2701348885        7.1541464585
 Ce        -3.8604948171        6.6789474446        7.0771513848
 Ce        -0.1258262098        6.6396681580        7.0242862089
 Ce         3.8015174073        6.6346444671        7.1216216477
 Ce         7.6626422180        6.6089542778        7.1719490089
 Ce        -5.7967804516        9.9530418012        7.0462203243
 Ce        -1.8874858923        9.9819792959        7.0778381230
 Ce         1.9709727467       10.0588172781        7.0575497660
 Ce         5.7311759584        9.9658578206        7.1570470411
 Pt        12.9775114197        1.8484238663        9.4074098663
 Pt         0.9721957561        5.5083006442        9.7619378551
 Pt        -0.0219791485        7.9641862040        9.9239988900
 Pt         7.3436080529       13.6218719900       10.1190105548
 Pt         0.1264835292        2.9938086652        9.7306993126
 Pt        -2.4337371709        8.3159065585        9.2969348392
 Pt         2.8155945848        3.6949332267       10.4849833921
 Pt         3.3496085035        6.2990465859       10.7422721203
 Pt         5.2497909385        4.7963353436        9.8561326851
 Pt         1.7877120177        1.3421768831       11.2803993578
 Pt         4.1097346139        1.4489381757        9.7776358158
 Pt        -0.0972837171        6.5181925814       11.9366459362
 Pt         6.5730153618        2.4224247428        9.7965789054
 Pt         0.6724523191        3.9754315216       12.0267679897
 Pt         5.4063582174        0.5454375732       11.7277805396
 Pt         2.2686054090        6.0306393493       13.0689954982
 Pt         5.0840677260        3.0922610872       11.8451904214
 Pt         0.0658707186        5.0529943871       14.2310985187
 Pt         1.1361615168        2.3214327180       13.9248288177
 Pt         4.8684962395        5.5101559167       12.6845682096
 Pt         3.4477431703        1.1529728348       13.2445547707
 Pt         3.2653433040        3.7204263105       13.6752229469
     166
 i =       16, time =       16.000, E =     -6045.9266514839
  O         0.0000000000        0.0000000000        0.0000000000
  O         3.8260000000        0.0000000000        0.0000000000
  O         7.6520000000        0.0000000000        0.0000000000
  O        11.4780000000        0.0000000000        0.0000000000
  O        -1.9130000000        3.3140000000        0.0000000000
  O         1.9130000000        3.3140000000        0.0000000000
  O         5.7390000000        3.3140000000        0.0000000000
  O         9.5650000000        3.3140000000        0.0000000000
  O        -3.8260000000        6.6270000000        0.0000000000
  O         0.0000000000        6.6270000000        0.0000000000
  O         3.8260000000        6.6270000000        0.0000000000
  O         7.6520000000        6.6270000000        0.0000000000
  O        -5.7390000000        9.9410000000        0.0000000000
  O        -1.9130000000        9.9410000000        0.0000000000
  O         1.9130000000        9.9410000000        0.0000000000
  O         5.7390000000        9.9410000000        0.0000000000
  O         1.9130000000        1.1050000000        1.5620000000
  O         5.7390000000        1.1050000000        1.5620000000
  O         9.5650000000        1.1050000000        1.5620000000
  O        13.3920000000        1.1050000000        1.5620000000
  O         0.0000000000        4.4180000000        1.5620000000
  O         3.8260000000        4.4180000000        1.5620000000
  O         7.6520000000        4.4180000000        1.5620000000
  O        11.4780000000        4.4180000000        1.5620000000
  O        -1.9130000000        7.7320000000        1.5620000000
  O         1.9130000000        7.7320000000        1.5620000000
  O         5.7390000000        7.7320000000        1.5620000000
  O         9.5650000000        7.7320000000        1.5620000000
  O        -3.8260000000       11.0450000000        1.5620000000
  O         0.0000000000       11.0450000000        1.5620000000
  O         3.8260000000       11.0450000000        1.5620000000
  O         7.6520000000       11.0450000000        1.5620000000
  O         0.0000000000        2.2090000000        3.1240000000
  O         3.8260000000        2.2090000000        3.1240000000
  O         7.6520000000        2.2090000000        3.1240000000
  O        11.4780000000        2.2090000000        3.1240000000
  O        -1.9130000000        5.5230000000        3.1240000000
  O         1.9130000000        5.5230000000        3.1240000000
  O         5.7390000000        5.5230000000        3.1240000000
  O         9.5650000000        5.5230000000        3.1240000000
  O        -3.8260000000        8.8360000000        3.1240000000
  O         0.0000000000        8.8360000000        3.1240000000
  O         3.8260000000        8.8360000000        3.1240000000
  O         7.6520000000        8.8360000000        3.1240000000
  O        -5.7390000000       12.1500000000        3.1240000000
  O        -1.9130000000       12.1500000000        3.1240000000
  O         1.9130000000       12.1500000000        3.1240000000
  O         5.7390000000       12.1500000000        3.1240000000
  O         0.0377302498       -0.0405597731        4.6973057832
  O         3.8164992871       -0.0882765324        4.6556906880
  O         7.9004997737       -0.1478071389        4.8317049234
  O        11.6784804883       -0.0647147312        4.7841910231
  O        -1.8521257402        3.2460409595        4.8510853980
  O         1.9443484560        3.2704871344        4.8398548888
  O         5.5754983711        3.1959994863        4.6361034802
  O         9.4274109425        3.4254434869        4.6564939352
  O        -3.8260301683        6.8386122746        4.7031374445
  O        -0.0433425042        6.8111824142        4.6383745939
  O         3.8942176012        6.6006103365        4.8701217698
  O         7.6625549336        6.6422176838        4.6269380627
  O        -5.8240650781        9.9155087490        4.8297641902
  O        -1.9026721271       10.1534056142        4.7112903479
  O         2.1226839583        9.9967406978        4.7837933601
  O         5.7357190853        9.8026612269        4.8785176970
  O         1.9156334495        1.1220245085        6.3177226316
  O         5.8494800595        1.1479912716        6.2695211346
  O         9.5395205914        1.2756698254        6.3435746742
  O        13.4308196677        1.1088918394        6.5052124981
  O        -0.0972200909        4.4893362315        6.1886025437
  O         4.0094674382        4.4568545047        6.3002792351
  O         7.3347554250        4.3764506666        6.3738785841
  O        11.3454741475        4.4344971659        6.2048738580
  O        -1.7451818758        7.9315507968        6.3469999933
  O         1.9389351150        7.5803434395        6.3254036410
  O         5.7876589218        7.6853455974        6.3022325452
  O         9.3894245589        7.7197255361        6.3435379434
  O        -3.9358620065       10.9845743587        6.2798691420
  O         0.0346658186       11.1335665369        6.3892253641
  O         3.7569987554       11.1181453812        6.3912627503
  O         7.8316274821       11.1644680146        6.4256827390
  O         0.1456154223        2.1993888350        7.6548522698
  O         3.9621762550        2.2157021312        7.8009875862
  O         7.6280443206        2.0280829582        8.0991490860
  O        11.2345430169        2.3061486282        8.1257437423
  O        -2.0119065770        5.6992755103        7.7681518008
  O         1.8457231978        5.5163743122        7.8755459809
  O         5.6010943317        5.6441660332        8.0882468808
  O         9.5790047898        5.5234102011        7.6966643168
  O        -4.0608648235        8.6696506865        8.0228608998
  O         0.0992553566        8.9118503695        7.9696223500
  O         3.8684220257        8.7968102512        7.8590903363
  O         7.4572032727        8.6529152042        7.8819126347
  O        -5.7274291618       12.0539084406        7.7757694982
  O        -1.8302630364       12.1756235323        7.6267851827
  O         1.9934554583       12.3268731408        7.8779747008
  O         5.5482515638       12.0353739512        7.8457652212
 Ce         0.0000000000        2.2090000000        0.7810000000
 Ce         3.8260000000        2.2090000000        0.7810000000
 Ce         7.6520000000        2.2090000000        0.7810000000
 Ce        11.4780000000        2.2090000000        0.7810000000
 Ce        -1.9130000000        5.5230000000        0.7810000000
 Ce         1.9130000000        5.5230000000        0.7810000000
 Ce         5.7390000000        5.5230000000        0.7810000000
 Ce         9.5650000000        5.5230000000        0.7810000000
 Ce        -3.8260000000        8.8360000000        0.7810000000
 Ce         0.0000000000        8.8360000000        0.7810000000
 Ce         3.8260000000        8.8360000000        0.7810000000
 Ce         7.6520000000        8.8360000000        0.7810000000
 Ce        -5.7390000000       12.1500000000        0.7810000000
 Ce        -1.9130000000       12.1500000000        0.7810000000
 Ce         1.9130000000       12.1500000000        0.7810000000
 Ce         5.7390000000       12.1500000000        0.7810000000
 Ce         1.9397596103        1.0699629611        3.9601197507
 Ce         5.7654987914        1.1010020049        3.9340979087
 Ce         9.6197848732        1.0656033074        3.9869862061
 Ce        13.4251885261        1.1842959760        3.9862658058
 Ce         0.0079973300        4.4295964362        3.9223678570
 Ce         3.7689044461        4.4119422825        3.8565942815
 Ce         7.6165303890        4.3752064821        3.9184712249
 Ce        11.5228064621        4.4119183304        3.8980201971
 Ce        -1.8406608906        7.7309871902        3.9682087168
 Ce         1.9281978709        7.7295784640        3.9912104953
 Ce         5.7537907388        7.7083188265        3.9145039404
 Ce         9.5456826949        7.7641969573        3.9733131303
 Ce        -3.7960865945       10.9920601387        3.9295074274
 Ce        -0.0101390344       11.0529716232        3.9080359161
 Ce         3.8711098583       11.0161311209        3.9547458161
 Ce         7.6196814706       11.0934200215        3.8740153861
 Ce        -0.0005994951       -0.0703678323        7.2394194401
 Ce         3.7879002702       -0.0404809533        7.1464062032
 Ce         7.7215064783       -0.0028873629        7.1743758506
 Ce        11.5279992182       -0.0033490425        7.1272060639
 Ce        -1.8596940803        3.3759636142        6.9573581206
 Ce         1.9723123566        3.3729009055        7.1548080296
 Ce         5.7456808524        3.2723357105        7.0768212049
 Ce         9.6028636722        3.2660404209        7.1558276876
 Ce        -3.8626409773        6.6827205652        7.0750875691
 Ce        -0.1276928900        6.6384276972        7.0238515531
 Ce         3.8001343100        6.6300135501        7.1207206616
 Ce         7.6593026186        6.6053568493        7.1765180815
 Ce        -5.7984069268        9.9528451659        7.0426702438
 Ce        -1.8864764425        9.9817955528        7.0750557617
 Ce         1.9715106884       10.0639499101        7.0566280616
 Ce         5.7297441366        9.9669245001        7.1622817461
 Pt        12.9730629077        1.8494775801        9.4050903186
 Pt         0.9719192183        5.5046343177        9.7618554546
 Pt        -0.0233196269        7.9666550639        9.9257414277
 Pt         7.3411008556       13.6210164156       10.1178258102
 Pt         0.1253984278        2.9945746720        9.7326785812
 Pt        -2.4341291896        8.3195963233        9.2966047690
 Pt         2.8173665695        3.6933141743       10.4865021470
 Pt         3.3532324373        6.3015313611       10.7397773895
 Pt         5.2491774736        4.7975683758        9.8557387498
 Pt         1.7863478825        1.3420211616       11.2781717795
 Pt         4.1108419293        1.4492585266        9.7775827447
 Pt        -0.0980434021        6.5181741424       11.9325115643
 Pt         6.5721818962        2.4239124388        9.7946935170
 Pt         0.6702205044        3.9757919096       12.0296633433
 Pt         5.4072977986        0.5459127250       11.7273023191
 Pt         2.2702278454        6.0315761454       13.0656264228
 Pt         5.0850219260        3.0936654916       11.8432901094
 Pt         0.0657612935        5.0544549884       14.2310791195
 Pt         1.1362191025        2.3191789059       13.9252517587
 Pt         4.8661303771        5.5082506994       12.6836509614
 Pt         3.4499886622        1.1511473337       13.2435898549
 Pt         3.2657899604        3.7179350886       13.6743633367
     166
 i =       17, time =       17.000, E =     -6045.9125446887
  O         0.0000000000        0.0000000000        0.0000000000
  O         3.8260000000        0.0000000000        0.0000000000
  O         7.6520000000        0.0000000000        0.0000000000
  O        11.4780000000        0.0000000000        0.0000000000
  O        -1.9130000000        3.3140000000        0.0000000000
  O         1.9130000000        3.3140000000        0.0000000000
  O         5.7390000000        3.3140000000        0.0000000000
  O         9.5650000000        3.3140000000        0.0000000000
  O        -3.8260000000        6.6270000000        0.0000000000
  O         0.0000000000        6.6270000000        0.0000000000
  O         3.8260000000        6.6270000000        0.0000000000
  O         7.6520000000        6.6270000000        0.0000000000
  O        -5.7390000000        9.9410000000        0.0000000000
  O        -1.9130000000        9.9410000000        0.0000000000
  O         1.9130000000        9.9410000000        0.0000000000
  O         5.7390000000        9.9410000000        0.0000000000
  O         1.9130000000        1.1050000000        1.5620000000
  O         5.7390000000        1.1050000000        1.5620000000
  O         9.5650000000        1.1050000000        1.5620000000
  O        13.3920000000        1.1050000000        1.5620000000
  O         0.0000000000        4.4180000000        1.5620000000
  O         3.8260000000        4.4180000000        1.5620000000
  O         7.6520000000        4.4180000000        1.5620000000
  O        11.4780000000        4.4180000000        1.5620000000
  O        -1.9130000000        7.7320000000        1.5620000000
  O         1.9130000000        7.7320000000        1.5620000000
  O         5.7390000000        7.7320000000        1.5620000000
  O         9.5650000000        7.7320000000        1.5620000000
  O        -3.8260000000       11.0450000000        1.5620000000
  O         0.0000000000       11.0450000000        1.5620000000
  O         3.8260000000       11.0450000000        1.5620000000
  O         7.6520000000       11.0450000000        1.5620000000
  O         0.0000000000        2.2090000000        3.1240000000
  O         3.8260000000        2.2090000000        3.1240000000
  O         7.6520000000        2.2090000000        3.1240000000
  O        11.4780000000        2.2090000000        3.1240000000
  O        -1.9130000000        5.5230000000        3.1240000000
  O         1.9130000000        5.5230000000        3.1240000000
  O         5.7390000000        5.5230000000        3.1240000000
  O         9.5650000000        5.5230000000        3.1240000000
  O        -3.8260000000        8.8360000000        3.1240000000
  O         0.0000000000        8.8360000000        3.1240000000
  O         3.8260000000        8.8360000000        3.1240000000
  O         7.6520000000        8.8360000000        3.1240000000
  O        -5.7390000000       12.1500000000        3.1240000000
  O        -1.9130000000       12.1500000000        3.1240000000
  O         1.9130000000       12.1500000000        3.1240000000
  O         5.7390000000       12.1500000000        3.1240000000
  O         0.0373414291       -0.0409640151        4.6949845161
  O         3.8149466747       -0.0891711333        4.6534493194
  O         7.9124391016       -0.1526154685        4.8340975471
  O        11.6867792934       -0.0648348858        4.7864023976
  O        -1.8508823240        3.2432149367        4.8508441583
  O         1.9422210047        3.2703994750        4.8436236132
  O         5.5692936097        3.1902215844        4.6290481485
  O         9.4248655127        3.4272820244        4.6543041524
  O        -3.8227835208        6.8475569258        4.7037650694
  O        -0.0430745490        6.8146518725        4.6382037223
  O         3.8948588805        6.5998071015        4.8715144493
  O         7.6624463988        6.6408840652        4.6218161079
  O        -5.8285394245        9.9140526903        4.8303726375
  O        -1.9005566137       10.1588018068        4.7142476569
  O         2.1282640187        9.9965955870        4.7864499589
  O         5.7358006051        9.8015385396        4.8846303281
  O         1.9178193900        1.1222019735        6.3224175183
  O         5.8532824375        1.1457040561        6.2651242423
  O         9.5388284584        1.2812009724        6.3417008303
  O        13.4335043691        1.1103283814        6.5120366327
  O        -0.1021151527        4.4922899756        6.1861229001
  O         4.0116504837        4.4559918389        6.2964001906
  O         7.3256208177        4.3775637366        6.3716756978
  O        11.3449216223        4.4371587702        6.1969071088
  O        -1.7390756447        7.9371319143        6.3470218745
  O         1.9366394707        7.5753946271        6.3229447211
  O         5.7886204370        7.6820646483        6.3018527973
  O         9.3825309548        7.7198660053        6.3440621175
  O        -3.9400678584       10.9839758825        6.2801817685
  O         0.0399606502       11.1321396742        6.3922916815
  O         3.7538565765       11.1205404247        6.3947105154
  O         7.8323057564       11.1685988168        6.4296060081
  O         0.1477686425        2.2013413746        7.6544852209
  O         3.9663489519        2.2170521115        7.8001773920
  O         7.6243879794        2.0235268409        8.0997817052
  O        11.2282730857        2.3112324617        8.1265781708
  O        -2.0143177524        5.7057360832        7.7696026776
  O         1.8439522199        5.5109902879        7.8756034861
  O         5.5941468029        5.6447418852        8.0901665053
  O         9.5784347852        5.5207027704        7.6897443499
  O        -4.0627573788        8.6639152092        8.0202868744
  O         0.0994205803        8.9104486297        7.9673119834
  O         3.8684795518        8.7969475722        7.8585857019
  O         7.4475376904        8.6474627983        7.8852657308
  O        -5.7249576707       12.0558887845        7.7758291851
  O        -1.8333112248       12.1766581131        7.6168039039
  O         1.9976355549       12.3343807439        7.8800755135
  O         5.5429550776       12.0336797565        7.8476353238
 Ce         0.0000000000        2.2090000000        0.7810000000
 Ce         3.8260000000        2.2090000000        0.7810000000
 Ce         7.6520000000        2.2090000000        0.7810000000
 Ce        11.4780000000        2.2090000000        0.7810000000
 Ce        -1.9130000000        5.5230000000        0.7810000000
 Ce         1.9130000000        5.5230000000        0.7810000000
 Ce         5.7390000000        5.5230000000        0.7810000000
 Ce         9.5650000000        5.5230000000        0.7810000000
 Ce        -3.8260000000        8.8360000000        0.7810000000
 Ce         0.0000000000        8.8360000000        0.7810000000
 Ce         3.8260000000        8.8360000000        0.7810000000
 Ce         7.6520000000        8.8360000000        0.7810000000
 Ce        -5.7390000000       12.1500000000        0.7810000000
 Ce        -1.9130000000       12.1500000000        0.7810000000
 Ce         1.9130000000       12.1500000000        0.7810000000
 Ce         5.7390000000       12.1500000000        0.7810000000
 Ce         1.9417169573        1.0684144069        3.9612016075
 Ce         5.7668147716        1.1007799210        3.9342055287
 Ce         9.6223973782        1.0629468599        3.9898339523
 Ce        13.4270658970        1.1887012298        3.9887964777
 Ce         0.0086693650        4.4296658840        3.9227205549
 Ce         3.7655772055        4.4109003510        3.8528368896
 Ce         7.6140331367        4.3731879742        3.9178684820
 Ce        11.5248358920        4.4119378211        3.8965628727
 Ce        -1.8367839611        7.7306091702        3.9711541911
 Ce         1.9295595950        7.7294750518        3.9948854672
 Ce         5.7549257212        7.7068134311        3.9142637920
 Ce         9.5439588613        7.7658622924        3.9760434165
 Ce        -3.7953247431       10.9895311223        3.9298460911
 Ce        -0.0103162994       11.0538890865        3.9071461649
 Ce         3.8741449404       11.0139462899        3.9567474265
 Ce         7.6176050334       11.0955837808        3.8707449705
 Ce         0.0001015010       -0.0724254171        7.2431536168
 Ce         3.7860935343       -0.0387299991        7.1492120223
 Ce         7.7244451249       -0.0009890264        7.1785644384
 Ce        11.5292393886       -0.0025704295        7.1281795870
 Ce        -1.8573472423        3.3767759068        6.9528739855
 Ce         1.9746573388        3.3748115406        7.1606768603
 Ce         5.7450783409        3.2696709985        7.0752380688
 Ce         9.6040706572        3.2620640949        7.1574798532
 Ce        -3.8648265354        6.6864624716        7.0730280201
 Ce        -0.1295017887        6.6372439556        7.0235099266
 Ce         3.7988342396        6.6254477882        7.1198274684
 Ce         7.6558904538        6.6018162562        7.1810242748
 Ce        -5.8000230160        9.9526054166        7.0391788442
 Ce        -1.8854680410        9.9817016665        7.0723305751
 Ce         1.9720460935       10.0690203516        7.0557732592
 Ce         5.7282980431        9.9678398544        7.1674937980
 Pt        12.9686262923        1.8505442583        9.4027714648
 Pt         0.9716496086        5.5010255976        9.7617713080
 Pt        -0.0246505047        7.9690995272        9.9274482607
 Pt         7.3385791774       13.6201769612       10.1166439035
 Pt         0.1242933292        2.9953031113        9.7346263361
 Pt        -2.4345328956        8.3232898965        9.2962759394
 Pt         2.8191136248        3.6917293579       10.4880291105
 Pt         3.3568158647        6.3040083969       10.7372739625
 Pt         5.2485650681        4.7987914342        9.8553692447
 Pt         1.7850039970        1.3418589018       11.2759700997
 Pt         4.1119461965        1.4495754921        9.7775031885
 Pt        -0.0987909047        6.5181482578       11.9284315060
 Pt         6.5713424044        2.4253990271        9.7928469600
 Pt         0.6680140228        3.9761379564       12.0325293568
 Pt         5.4082479162        0.5463833998       11.7268241132
 Pt         2.2718210209        6.0324945912       13.0622626067
 Pt         5.0859805174        3.0950424833       11.8414086220
 Pt         0.0656581881        5.0559278089       14.2310545309
 Pt         1.1362844745        2.3169225317       13.9256684003
 Pt         4.8637878005        5.5063609718       12.6827423230
 Pt         3.4521970971        1.1493297669       13.2426137813
 Pt         3.2662183344        3.7154583772       13.6735028496
     166
 i =       18, time =       18.000, E =     -6045.9005160114
  O         0.0000000000        0.0000000000        0.0000000000
  O         3.8260000000        0.0000000000        0.0000000000
  O         7.6520000000        0.0000000000        0.0000000000
  O        11.4780000000        0.0000000000        0.0000000000
  O        -1.9130000000        3.3140000000        0.0000000000
  O         1.9130000000        3.3140000000        0.0000000000
  O         5.7390000000        3.3140000000        0.0000000000
  O         9.5650000000        3.3140000000        0.0000000000
  O        -3.8260000000        6.6270000000        0.0000000000
  O         0.0000000000        6.6270000000        0.0000000000
  O         3.8260000000        6.6270000000        0.0000000000
  O         7.6520000000        6.6270000000        0.0000000000
  O        -5.7390000000        9.9410000000        0.0000000000
  O        -1.9130000000        9.9410000000        0.0000000000
  O         1.9130000000        9.9410000000        0.0000000000
  O         5.7390000000        9.9410000000        0.0000000000
  O         1.9130000000        1.1050000000        1.5620000000
  O         5.7390000000        1.1050000000        1.5620000000
  O         9.5650000000        1.1050000000        1.5620000000
  O        13.3920000000        1.1050000000        1.5620000000
  O         0.0000000000        4.4180000000        1.5620000000
  O         3.8260000000        4.4180000000        1.5620000000
  O         7.6520000000        4.4180000000        1.5620000000
  O        11.4780000000        4.4180000000        1.5620000000
  O        -1.9130000000        7.7320000000        1.5620000000
  O         1.9130000000        7.7320000000        1.5620000000
  O         5.7390000000        7.7320000000        1.5620000000
  O         9.5650000000        7.7320000000        1.5620000000
  O        -3.8260000000       11.0450000000        1.5620000000
  O         0.0000000000       11.0450000000        1.5620000000
  O         3.8260000000       11.0450000000        1.5620000000
  O         7.6520000000       11.0450000000        1.5620000000
  O         0.0000000000        2.2090000000        3.1240000000
  O         3.8260000000        2.2090000000        3.1240000000
  O         7.6520000000        2.2090000000        3.1240000000
  O        11.4780000000        2.2090000000        3.1240000000
  O        -1.9130000000        5.5230000000        3.1240000000
  O         1.9130000000        5.5230000000        3.1240000000
  O         5.7390000000        5.5230000000        3.1240000000
  O         9.5650000000        5.5230000000        3.1240000000
  O        -3.8260000000        8.8360000000        3.1240000000
  O         0.0000000000        8.8360000000        3.1240000000
  O         3.8260000000        8.8360000000        3.1240000000
  O         7.6520000000        8.8360000000        3.1240000000
  O        -5.7390000000       12.1500000000        3.1240000000
  O        -1.9130000000       12.1500000000        3.1240000000
  O         1.9130000000       12.1500000000        3.1240000000
  O         5.7390000000       12.1500000000        3.1240000000
  O         0.0365262103       -0.0410905039        4.6927513571
  O         3.8135238010       -0.0896605633        4.6517902503
  O         7.9238641572       -0.1567656549        4.8361334085
  O        11.6943434959       -0.0644138597        4.7886915263
  O        -1.8500011885        3.2407328482        4.8493683142
  O         1.9398673127        3.2708045993        4.8469802609
  O         5.5637541243        3.1848775536        4.6219952043
  O         9.4230124447        3.4284837201        4.6527001324
  O        -3.8191280570        6.8557610083        4.7049511685
  O        -0.0423231123        6.8169563124        4.6385325745
  O         3.8949603837        6.5991752038        4.8720123753
  O         7.6622856683        6.6391395041        4.6170476792
  O        -5.8328744481        9.9126462863        4.8302242448
  O        -1.8981846967       10.1632689184        4.7174927300
  O         2.1327492108        9.9958945166        4.7891558902
  O         5.7359104120        9.8014899908        4.8903992332
  O         1.9204317915        1.1220228621        6.3270666514
  O         5.8569975156        1.1432384248        6.2603964605
  O         9.5385270149        1.2863561721        6.3392589260
  O        13.4359560296        1.1119771070        6.5179293084
  O        -0.1065287561        4.4954831827        6.1836155839
  O         4.0128374614        4.4550452945        6.2926743880
  O         7.3179065442        4.3790817695        6.3690701963
  O        11.3451831387        4.4393806209        6.1887147148
  O        -1.7336443546        7.9422824602        6.3459896008
  O         1.9337211059        7.5710862060        6.3199170859
  O         5.7893395270        7.6783537778        6.3013798957
  O         9.3762639841        7.7202052372        6.3442408391
  O        -3.9436085224       10.9832315280        6.2807050424
  O         0.0457499364       11.1296303761        6.3949218218
  O         3.7509703577       11.1226814645        6.3975834036
  O         7.8313879007       11.1721347582        6.4329827312
  O         0.1497993443        2.2042243895        7.6545917482
  O         3.9692816343        2.2178692052        7.7998345331
  O         7.6214015907        2.0194357517        8.1003250964
  O        11.2228831618        2.3160502508        8.1279121835
  O        -2.0166158040        5.7114071354        7.7707982585
  O         1.8420155338        5.5054612935        7.8756753446
  O         5.5877862123        5.6453948781        8.0920351971
  O         9.5776457163        5.5176827211        7.6834618160
  O        -4.0645069512        8.6585505879        8.0178898345
  O         0.1000356142        8.9092493791        7.9650838068
  O         3.8683143959        8.7975222140        7.8580753880
  O         7.4383302475        8.6428695916        7.8890530458
  O        -5.7220360240       12.0584349505        7.7767581862
  O        -1.8370724236       12.1775869179        7.6075693999
  O         2.0017514588       12.3414393339        7.8823918502
  O         5.5384191188       12.0320843157        7.8500036160
 Ce         0.0000000000        2.2090000000        0.7810000000
 Ce         3.8260000000        2.2090000000        0.7810000000
 Ce         7.6520000000        2.2090000000        0.7810000000
 Ce        11.4780000000        2.2090000000        0.7810000000
 Ce        -1.9130000000        5.5230000000        0.7810000000
 Ce         1.9130000000        5.5230000000        0.7810000000
 Ce         5.7390000000        5.5230000000        0.7810000000
 Ce         9.5650000000        5.5230000000        0.7810000000
 Ce        -3.8260000000        8.8360000000        0.7810000000
 Ce         0.0000000000        8.8360000000        0.7810000000
 Ce         3.8260000000        8.8360000000        0.7810000000
 Ce         7.6520000000        8.8360000000        0.7810000000
 Ce        -5.7390000000       12.1500000000        0.7810000000
 Ce        -1.9130000000       12.1500000000        0.7810000000
 Ce         1.9130000000       12.1500000000        0.7810000000
 Ce         5.7390000000       12.1500000000        0.7810000000
 Ce         1.9436868097        1.0668529770        3.9622927711
 Ce         5.7680927716        1.1005505566        3.9343207432
 Ce         9.6249541098        1.0603169453        3.9926254767
 Ce        13.4289771404        1.1929479117        3.9912757858
 Ce         0.0093886167        4.4297102460        3.9230291651
 Ce         3.7623489319        4.4098320031        3.8491741598
 Ce         7.6115201334        4.3712342456        3.9172498141
 Ce        11.5267076748        4.4120164474        3.8951000418
 Ce        -1.8330392685        7.7303312282        3.9739967722
 Ce         1.9309945251        7.7293994507        3.9985293794
 Ce         5.7560820214        7.7052868864        3.9140966568
 Ce         9.5421955185        7.7674929822        3.9787273052
 Ce        -3.7946297608       10.9870609953        3.9301695167
 Ce        -0.0104558350       11.0548480715        3.9062570096
 Ce         3.8772036918       11.0117762369        3.9587165710
 Ce         7.6155777216       11.0977098952        3.8675183021
 Ce         0.0008412232       -0.0744350376        7.2468923397
 Ce         3.7843084914       -0.0370195445        7.1519424046
 Ce         7.7273226729        0.0008907189        7.1827089791
 Ce        11.5304626432       -0.0017697232        7.1291906002
 Ce        -1.8550518287        3.3775873536        6.9486089866
 Ce         1.9770307791        3.3766398610        7.1664972644
 Ce         5.7444338546        3.2669927475        7.0736297457
 Ce         9.6052182884        3.2582152047        7.1590991851
 Ce        -3.8670512299        6.6901680235        7.0709717255
 Ce        -0.1312511671        6.6361198480        7.0232641473
 Ce         3.7976172743        6.6209519473        7.1189403983
 Ce         7.6524051017        6.5983348522        7.1854649940
 Ce        -5.8016278811        9.9523233586        7.0357487766
 Ce        -1.8844599791        9.9817005303        7.0696658520
 Ce         1.9725778778       10.0740238166        7.0549879772
 Ce         5.7268364332        9.9685987384        7.1726811363
 Pt        12.9642031154        1.8516256449        9.4004539831
 Pt         0.9713884802        5.4974772129        9.7616854480
 Pt        -0.0259707545        7.9715201172        9.9291156662
 Pt         7.3360429492       13.6193543757       10.1154649112
 Pt         0.1231660210        2.9959912155        9.7365422362
 Pt        -2.4349486542        8.3269875004        9.2959481067
 Pt         2.8208347273        3.6901796351       10.4895633426
 Pt         3.3603563991        6.3064780996       10.7347619481
 Pt         5.2479538701        4.8000022271        9.8550260155
 Pt         1.7836821742        1.3416890854       11.2737960554
 Pt         4.1130479008        1.4498892713        9.7773972451
 Pt        -0.0995278888        6.5181153346       11.9244090343
 Pt         6.5704966557        2.4268849800        9.7910405280
 Pt         0.6658346036        3.9764682318       12.0353651838
 Pt         5.4092083950        0.5468505044       11.7263455457
 Pt         2.2733846374        6.0333935537       13.0589053174
 Pt         5.0869438862        3.0963901779       11.8395458342
 Pt         0.0655615662        5.0574133672       14.2310255376
 Pt         1.1363580501        2.3146629820       13.9260790614
 Pt         4.8614717057        5.5044878038       12.6818426813
 Pt         3.4543663515        1.1475207654       13.2416256020
 Pt         3.2666263674        3.7129966580       13.6726411404
     166
 i =       19, time =       19.000, E =     -6045.8908594340
  O         0.0000000000        0.0000000000        0.0000000000
  O         3.8260000000        0.0000000000        0.0000000000
  O         7.6520000000        0.0000000000        0.0000000000
  O        11.4780000000        0.0000000000        0.0000000000
  O        -1.9130000000        3.3140000000        0.0000000000
  O         1.9130000000        3.3140000000        0.0000000000
  O         5.7390000000        3.3140000000        0.0000000000
  O         9.5650000000        3.3140000000        0.0000000000
  O        -3.8260000000        6.6270000000        0.0000000000
  O         0.0000000000        6.6270000000        0.0000000000
  O         3.8260000000        6.6270000000        0.0000000000
  O         7.6520000000        6.6270000000        0.0000000000
  O        -5.7390000000        9.9410000000        0.0000000000
  O        -1.9130000000        9.9410000000        0.0000000000
  O         1.9130000000        9.9410000000        0.0000000000
  O         5.7390000000        9.9410000000        0.0000000000
  O         1.9130000000        1.1050000000        1.5620000000
  O         5.7390000000        1.1050000000        1.5620000000
  O         9.5650000000        1.1050000000        1.5620000000
  O        13.3920000000        1.1050000000        1.5620000000
  O         0.0000000000        4.4180000000        1.5620000000
  O         3.8260000000        4.4180000000        1.5620000000
  O         7.6520000000        4.4180000000        1.5620000000
  O        11.4780000000        4.4180000000        1.5620000000
  O        -1.9130000000        7.7320000000        1.5620000000
  O         1.9130000000        7.7320000000        1.5620000000
  O         5.7390000000        7.7320000000        1.5620000000
  O         9.5650000000        7.7320000000        1.5620000000
  O        -3.8260000000       11.0450000000        1.5620000000
  O         0.0000000000       11.0450000000        1.5620000000
  O         3.8260000000       11.0450000000        1.5620000000
  O         7.6520000000       11.0450000000        1.5620000000
  O         0.0000000000        2.2090000000        3.1240000000
  O         3.8260000000        2.2090000000        3.1240000000
  O         7.6520000000        2.2090000000        3.1240000000
  O        11.4780000000        2.2090000000        3.1240000000
  O        -1.9130000000        5.5230000000        3.1240000000
  O         1.9130000000        5.5230000000        3.1240000000
  O         5.7390000000        5.5230000000        3.1240000000
  O         9.5650000000        5.5230000000        3.1240000000
  O        -3.8260000000        8.8360000000        3.1240000000
  O         0.0000000000        8.8360000000        3.1240000000
  O         3.8260000000        8.8360000000        3.1240000000
  O         7.6520000000        8.8360000000        3.1240000000
  O        -5.7390000000       12.1500000000        3.1240000000
  O        -1.9130000000       12.1500000000        3.1240000000
  O         1.9130000000       12.1500000000        3.1240000000
  O         5.7390000000       12.1500000000        3.1240000000
  O         0.0352950409       -0.0409316863        4.6906176257
  O         3.8122343858       -0.0897484178        4.6507187389
  O         7.9347402647       -0.1602459359        4.8378326122
  O        11.7011738082       -0.0634564394        4.7910781231
  O        -1.8494742176        3.2386180475        4.8466525540
  O         1.9372909407        3.2717013684        4.8499287224
  O         5.5588852009        3.1800019285        4.6149546149
  O         9.4218579140        3.4290366151        4.6516899626
  O        -3.8150907654        6.8632165315        4.7067163341
  O        -0.0410810206        6.8180625907        4.6393679056
  O         3.8945172957        6.5987164342        4.8716138372
  O         7.6620684603        6.6369920448        4.6126374708
  O        -5.8370636386        9.9112945930        4.8293247127
  O        -1.8955738658       10.1668034909        4.7210334833
  O         2.1361396917        9.9946368533        4.7919149150
  O         5.7360446655        9.8025156434        4.8957832370
  O         1.9234577117        1.1214874913        6.3316670957
  O         5.8606310291        1.1406080995        6.2553308578
  O         9.5386167104        1.2910807986        6.3362499453
  O        13.4381757570        1.1138371987        6.5228631827
  O        -0.1104423798        4.4989074533        6.1810771974
  O         4.0130290934        4.4540108309        6.2891346987
  O         7.3116189283        4.3810194490        6.3660782493
  O        11.3462702384        4.4411547529        6.1802767170
  O        -1.7289093289        7.9469829995        6.3438929398
  O         1.9302051178        7.5674095088        6.3163430445
  O         5.7898066222        7.6742095091        6.3008162447
  O         9.3706146615        7.7207545503        6.3440839520
  O        -3.9464756576       10.9823295045        6.2814279098
  O         0.0520085359       11.1260751274        6.3971236882
  O         3.7483541948       11.1245781767        6.3998699002
  O         7.8288784189       11.1750511618        6.4358201262
  O         0.1516936966        2.2080230629        7.6551702270
  O         3.9709499339        2.2181499747        7.7999690094
  O         7.6191079556        2.0158364900        8.1007740713
  O        11.2183978553        2.3205840556        8.1297750933
  O        -2.0187904842        5.7162590824        7.7717315087
  O         1.8399293209        5.4998176669        7.8757603551
  O         5.5820510420        5.6461252534        8.0938260694
  O         9.5766372269        5.5143637345        7.6778056089
  O        -4.0661229237        8.6535963456        8.0156889433
  O         0.1011007927        8.9082518069        7.9629487142
  O         3.8679256036        8.7985230950        7.8575592951
  O         7.4295777007        8.6391483365        7.8932960120
  O        -5.7186761718       12.0615357846        7.7785560185
  O        -1.8415152555       12.1784096519        7.5990608294
  O         2.0057830879       12.3480348535        7.8849336388
  O         5.5346632810       12.0306054830        7.8528790644
 Ce         0.0000000000        2.2090000000        0.7810000000
 Ce         3.8260000000        2.2090000000        0.7810000000
 Ce         7.6520000000        2.2090000000        0.7810000000
 Ce        11.4780000000        2.2090000000        0.7810000000
 Ce        -1.9130000000        5.5230000000        0.7810000000
 Ce         1.9130000000        5.5230000000        0.7810000000
 Ce         5.7390000000        5.5230000000        0.7810000000
 Ce         9.5650000000        5.5230000000        0.7810000000
 Ce        -3.8260000000        8.8360000000        0.7810000000
 Ce         0.0000000000        8.8360000000        0.7810000000
 Ce         3.8260000000        8.8360000000        0.7810000000
 Ce         7.6520000000        8.8360000000        0.7810000000
 Ce        -5.7390000000       12.1500000000        0.7810000000
 Ce        -1.9130000000       12.1500000000        0.7810000000
 Ce         1.9130000000       12.1500000000        0.7810000000
 Ce         5.7390000000       12.1500000000        0.7810000000
 Ce         1.9456683138        1.0652797221        3.9633927779
 Ce         5.7693315584        1.1003129049        3.9344412709
 Ce         9.6274552339        1.0577165871        3.9953561953
 Ce        13.4309218728        1.1970295545        3.9936992013
 Ce         0.0101560653        4.4297293223        3.9232910104
 Ce         3.7592217539        4.4087368459        3.8456085800
 Ce         7.6089942781        4.3693464199        3.9166142367
 Ce        11.5284171119        4.4121545747        3.8936310150
 Ce        -1.8294306722        7.7301552534        3.9767317307
 Ce         1.9325031680        7.7293522128        4.0021396979
 Ce         5.7572594949        7.7037395855        3.9140034206
 Ce         9.5403931021        7.7690854127        3.9813609105
 Ce        -3.7940026364       10.9846521105        3.9304765268
 Ce        -0.0105552592       11.0558479352        3.9053673077
 Ce         3.8802853772       11.0096223426        3.9606516896
 Ce         7.6136001742       11.0997975660        3.8643365049
 Ce         0.0016209857       -0.0763923574        7.2506356754
 Ce         3.7825453589       -0.0353525223        7.1545945292
 Ce         7.7301359604        0.0027474306        7.1868050872
 Ce        11.5316702580       -0.0009463583        7.1302381509
 Ce        -1.8528100120        3.3783984400        6.9445680784
 Ce         1.9794318618        3.3783813305        7.1722651184
 Ce         5.7437475287        3.2643011814        7.0719937838
 Ce         9.6063042920        3.2545027403        7.1606818583
 Ce        -3.8693143330        6.6938317402        7.0689173683
 Ce        -0.1329397999        6.6350583293        7.0231159738
 Ce         3.7964831241        6.6165308780        7.1180571885
 Ce         7.6488464856        6.5949146146        7.1898378529
 Ce        -5.8032210182        9.9520005168        7.0323822427
 Ce        -1.8834515278        9.9817946365        7.0670646563
 Ce         1.9731050380       10.0789556843        7.0542744380
 Ce         5.7253581728        9.9691971798        7.1778416512
 Pt        12.9597953948        1.8527232299        9.3981388211
 Pt         0.9711369575        5.4939914034        9.7615986370
 Pt        -0.0272800963        7.9739165357        9.9307406633
 Pt         7.3334918391       13.6185503327       10.1142888174
 Pt         0.1220142913        2.9966359348        9.7384265731
 Pt        -2.4353764728        8.3306890614        9.2956211892
 Pt         2.8225280112        3.6886667536       10.4911051620
 Pt         3.3638515032        6.3089406943       10.7322416476
 Pt         5.2473442849        4.8011988684        9.8547107818
 Pt         1.7823835787        1.3415114137       11.2716509254
 Pt         4.1141468001        1.4501997336        9.7772652531
 Pt        -0.1002546383        6.5180750006       11.9204470924
 Pt         6.5696453538        2.4283705509        9.7892754370
 Pt         0.6636835048        3.9767816579       12.0381693013
 Pt         5.4101798351        0.5473139187       11.7258666897
 Pt         2.2749181965        6.0342719710       13.0555553178
 Pt         5.0879117059        3.0977072315       11.8377020767
 Pt         0.0654715520        5.0589121392       14.2309922080
 Pt         1.1364404205        2.3124001150       13.9264829561
 Pt         4.8591845950        5.5026323850       12.6809528181
 Pt         3.4564941521        1.1457206919       13.2406249526
 Pt         3.2670122958        3.7105507218       13.6717775163
     166
 i =       20, time =       20.000, E =     -6045.8835832689
  O         0.0000000000        0.0000000000        0.0000000000
  O         3.8260000000        0.0000000000        0.0000000000
  O         7.6520000000        0.0000000000        0.0000000000
  O        11.4780000000        0.0000000000        0.0000000000
  O        -1.9130000000        3.3140000000        0.0000000000
  O         1.9130000000        3.3140000000        0.0000000000
  O         5.7390000000        3.3140000000        0.0000000000
  O         9.5650000000        3.3140000000        0.0000000000
  O        -3.8260000000        6.6270000000        0.0000000000
  O         0.0000000000        6.6270000000        0.0000000000
  O         3.8260000000        6.6270000000        0.0000000000
  O         7.6520000000        6.6270000000        0.0000000000
  O        -5.7390000000        9.9410000000        0.0000000000
  O        -1.9130000000        9.9410000000        0.0000000000
  O         1.9130000000        9.9410000000        0.0000000000
  O         5.7390000000        9.9410000000        0.0000000000
  O         1.9130000000        1.1050000000        1.5620000000
  O         5.7390000000        1.1050000000        1.5620000000
  O         9.5650000000        1.1050000000        1.5620000000
  O        13.3920000000        1.1050000000        1.5620000000
  O         0.0000000000        4.4180000000        1.5620000000
  O         3.8260000000        4.4180000000        1.5620000000
  O         7.6520000000        4.4180000000        1.5620000000
  O        11.4780000000        4.4180000000        1.5620000000
  O        -1.9130000000        7.7320000000        1.5620000000
  O         1.9130000000        7.7320000000        1.5620000000
  O         5.7390000000        7.7320000000        1.5620000000
  O         9.5650000000        7.7320000000        1.5620000000
  O        -3.8260000000       11.0450000000        1.5620000000
  O         0.0000000000       11.0450000000        1.5620000000
  O         3.8260000000       11.0450000000        1.5620000000
  O         7.6520000000       11.0450000000        1.5620000000
  O         0.0000000000        2.2090000000        3.1240000000
  O         3.8260000000        2.2090000000        3.1240000000
  O         7.6520000000        2.2090000000        3.1240000000
  O        11.4780000000        2.2090000000        3.1240000000
  O        -1.9130000000        5.5230000000        3.1240000000
  O         1.9130000000        5.5230000000        3.1240000000
  O         5.7390000000        5.5230000000        3.1240000000
  O         9.5650000000        5.5230000000        3.1240000000
  O        -3.8260000000        8.8360000000        3.1240000000
  O         0.0000000000        8.8360000000        3.1240000000
  O         3.8260000000        8.8360000000        3.1240000000
  O         7.6520000000        8.8360000000        3.1240000000
  O        -5.7390000000       12.1500000000        3.1240000000
  O        -1.9130000000       12.1500000000        3.1240000000
  O         1.9130000000       12.1500000000        3.1240000000
  O         5.7390000000       12.1500000000        3.1240000000
  O         0.0336631377       -0.0404830445        4.6885963888
  O         3.8110813790       -0.0894422856        4.6502355817
  O         7.9450411524       -0.1630575305        4.8392206029
  O        11.7072683892       -0.0619718379        4.7935793765
  O        -1.8492914961        3.2368939455        4.8427030464
  O         1.9344966182        3.2730846587        4.8524761382
  O         5.5546931635        3.1756263284        4.6079584408
  O         9.4213987675        3.4289356619        4.6512768173
  O        -3.8107067158        6.8699075412        4.7090798376
  O        -0.0393509795        6.8179511998        4.6407126261
  O         3.8935289073        6.5984320347        4.8703230742
  O         7.6617912327        6.6344547817        4.6085983339
  O        -5.8410996572        9.9100053799        4.8276920854
  O        -1.8927436852       10.1694052143        4.7248719722
  O         2.1384402153        9.9928293329        4.7947264367
  O         5.7361999467        9.8046059079        4.9007383132
  O         1.9268768966        1.1205998607        6.3362227836
  O         5.8641935060        1.1378277906        6.2499293375
  O         9.5390964452        1.2953218895        6.3326793887
  O        13.4401667535        1.1159050589        6.5268110130
  O        -0.1138470729        4.5025563597        6.1785069071
  O         4.0122358210        4.4528850804        6.2858083621
  O         7.3067429440        4.3833827348        6.3627229127
  O        11.3481871620        4.4424788662        6.1715885128
  O        -1.7248803955        7.9512244336        6.3407280914
  O         1.9261227932        7.5643548352        6.3122581862
  O         5.7900159306        7.6696340716        6.3001659860
  O         9.3655771838        7.7215249267        6.3436037478
  O        -3.9486716998       10.9812559532        6.2823387789
  O         0.0587017388       11.1215261050        6.3989109058
  O         3.7460240891       11.1262431097        6.4015646144
  O         7.8247967968       11.1773285192        6.4381287795
  O         0.1534369264        2.2127103007        7.6562123880
  O         3.9713505337        2.2178997402        7.8005815891
  O         7.6175238279        2.0127496638        8.1011266701
  O        11.2148342274        2.3248170144        8.1321909995
  O        -2.0208344206        5.7202754703        7.7723960000
  O         1.8377078459        5.4940878486        7.8758596771
  O         5.5769661315        5.6469306955        8.0955165951
  O         9.5754115767        5.5107634397        7.6727542005
  O        -4.0676112589        8.6490977210        8.0137053442
  O         0.1026114837        8.9074532362        7.9609197090
  O         3.8673139120        8.7999360491        7.8570371978
  O         7.4212837112        8.6363071186        7.8980181423
  O        -5.7148992550       12.0651698682        7.7812098530
  O        -1.8465988582       12.1791264448        7.5912374979
  O         2.0097007577       12.3541576514        7.8877119686
  O         5.5317044883       12.0292599918        7.8562621584
 Ce         0.0000000000        2.2090000000        0.7810000000
 Ce         3.8260000000        2.2090000000        0.7810000000
 Ce         7.6520000000        2.2090000000        0.7810000000
 Ce        11.4780000000        2.2090000000        0.7810000000
 Ce        -1.9130000000        5.5230000000        0.7810000000
 Ce         1.9130000000        5.5230000000        0.7810000000
 Ce         5.7390000000        5.5230000000        0.7810000000
 Ce         9.5650000000        5.5230000000        0.7810000000
 Ce        -3.8260000000        8.8360000000        0.7810000000
 Ce         0.0000000000        8.8360000000        0.7810000000
 Ce         3.8260000000        8.8360000000        0.7810000000
 Ce         7.6520000000        8.8360000000        0.7810000000
 Ce        -5.7390000000       12.1500000000        0.7810000000
 Ce        -1.9130000000       12.1500000000        0.7810000000
 Ce         1.9130000000       12.1500000000        0.7810000000
 Ce         5.7390000000       12.1500000000        0.7810000000
 Ce         1.9476603266        1.0636960321        3.9645011895
 Ce         5.7705300859        1.1000660500        3.9345646672
 Ce         9.6299013591        1.0551490374        3.9980215129
 Ce        13.4328994586        1.2009402751        3.9960623640
 Ce         0.0109725264        4.4297230579        3.9235036828
 Ce         3.7561972795        4.4076147292        3.8421424336
 Ce         7.6064590651        4.3675251558        3.9159609735
 Ce        11.5299602632        4.4123521351        3.8921550946
 Ce        -1.8259608797        7.7300821947        3.9793547307
 Ce         1.9340855161        7.7293335775        4.0057139219
 Ce         5.7584577655        7.7021720817        3.9139847020
 Ce         9.5385523735        7.7706357252        3.9839401763
 Ce        -3.7934438509       10.9823067067        3.9307659554
 Ce        -0.0106121813       11.0568877540        3.9044759710
 Ce         3.8833887188       11.0074858915        3.9625514954
 Ce         7.6116726896       11.1018462429        3.8612006412
 Ce         0.0024415972       -0.0782928790        7.2543832229
 Ce         3.7808044383       -0.0337312754        7.1571661900
 Ce         7.7328819815        0.0045766220        7.1908483257
 Ce        11.5328638706       -0.0000996252        7.1313214757
 Ce        -1.8506234788        3.3792098347        6.9407546367
 Ce         1.9818596566        3.3800315979        7.1779764734
 Ce         5.7430194764        3.2615967400        7.0703276687
 Ce         9.6073270315        3.2509349659        7.1622239832
 Ce        -3.8716147890        6.6974473297        7.0668633770
 Ce        -0.1345665783        6.6340619030        7.0230661899
 Ce         3.7954307654        6.6121893326        7.1171753526
 Ce         7.6452148453        6.5915576030        7.1941405817
 Ce        -5.8048025115        9.9516392117        7.0290807604
 Ce        -1.8824415643        9.9819861900        7.0645293966
 Ce         1.9736268515       10.0838110596        7.0536345575
 Ce         5.7238621746        9.9696320743        7.1829732914
 Pt        12.9554041192        1.8538374148        9.3958266018
 Pt         0.9708962485        5.4905702109        9.7615117311
 Pt        -0.0285786644        7.9762885822        9.9323205450
 Pt         7.3309248269       13.6177654444       10.1131155741
 Pt         0.1208363390        2.9972349037        9.7402790234
 Pt        -2.4358163926        8.3343942312        9.2952952849
 Pt         2.8241919988        3.6871934794       10.4926558483
 Pt         3.3672989897        6.3113957940       10.7297130848
 Pt         5.2467368097        4.8023797456        9.8544248069
 Pt         1.7811096629        1.3413256918       11.2695356789
 Pt         4.1152432401        1.4505062776        9.7771077343
 Pt        -0.1009705255        6.5180269529       11.9165488211
 Pt         6.5687888628        2.4298556672        9.7875527245
 Pt         0.6615620246        3.9770780843       12.0409407486
 Pt         5.4111628772        0.5477740893       11.7253872693
 Pt         2.2764197635        6.0351288794       13.0522126959
 Pt         5.0888837746        3.0989917524       11.8358773359
 Pt         0.0653882374        5.0604246971       14.2309546729
 Pt         1.1365320786        2.3101340216       13.9268797176
 Pt         4.8569284885        5.5007964228       12.6800735420
 Pt         3.4585791427        1.1439294035       13.2396115249
 Pt         3.2673750034        3.7081211762       13.6709113701
     166
 i =       21, time =       21.000, E =     -6045.8785626097
  O         0.0000000000        0.0000000000        0.0000000000
  O         3.8260000000        0.0000000000        0.0000000000
  O         7.6520000000        0.0000000000        0.0000000000
  O        11.4780000000        0.0000000000        0.0000000000
  O        -1.9130000000        3.3140000000        0.0000000000
  O         1.9130000000        3.3140000000        0.0000000000
  O         5.7390000000        3.3140000000        0.0000000000
  O         9.5650000000        3.3140000000        0.0000000000
  O        -3.8260000000        6.6270000000        0.0000000000
  O         0.0000000000        6.6270000000        0.0000000000
  O         3.8260000000        6.6270000000        0.0000000000
  O         7.6520000000        6.6270000000        0.0000000000
  O        -5.7390000000        9.9410000000        0.0000000000
  O        -1.9130000000        9.9410000000        0.0000000000
  O         1.9130000000        9.9410000000        0.0000000000
  O         5.7390000000        9.9410000000        0.0000000000
  O         1.9130000000        1.1050000000        1.5620000000
  O         5.7390000000        1.1050000000        1.5620000000
  O         9.5650000000        1.1050000000        1.5620000000
  O        13.3920000000        1.1050000000        1.5620000000
  O         0.0000000000        4.4180000000        1.5620000000
  O         3.8260000000        4.4180000000        1.5620000000
  O         7.6520000000        4.4180000000        1.5620000000
  O        11.4780000000        4.4180000000        1.5620000000
  O        -1.9130000000        7.7320000000        1.5620000000
  O         1.9130000000        7.7320000000        1.5620000000
  O         5.7390000000        7.7320000000        1.5620000000
  O         9.5650000000        7.7320000000        1.5620000000
  O        -3.8260000000       11.0450000000        1.5620000000
  O         0.0000000000       11.0450000000        1.5620000000
  O         3.8260000000       11.0450000000        1.5620000000
  O         7.6520000000       11.0450000000        1.5620000000
  O         0.0000000000        2.2090000000        3.1240000000
  O         3.8260000000        2.2090000000        3.1240000000
  O         7.6520000000        2.2090000000        3.1240000000
  O        11.4780000000        2.2090000000        3.1240000000
  O        -1.9130000000        5.5230000000        3.1240000000
  O         1.9130000000        5.5230000000        3.1240000000
  O         5.7390000000        5.5230000000        3.1240000000
  O         9.5650000000        5.5230000000        3.1240000000
  O        -3.8260000000        8.8360000000        3.1240000000
  O         0.0000000000        8.8360000000        3.1240000000
  O         3.8260000000        8.8360000000        3.1240000000
  O         7.6520000000        8.8360000000        3.1240000000
  O        -5.7390000000       12.1500000000        3.1240000000
  O        -1.9130000000       12.1500000000        3.1240000000
  O         1.9130000000       12.1500000000        3.1240000000
  O         5.7390000000       12.1500000000        3.1240000000
  O         0.0316502615       -0.0397412867        4.6867034081
  O         3.8100668328       -0.0887516274        4.6503407902
  O         7.9547458329       -0.1652184028        4.8403275188
  O        11.7126178223       -0.0599745067        4.7962096522
  O        -1.8494405692        3.2355849868        4.8375382313
  O         1.9314896291        3.2749470405        4.8546326604
  O         5.5511878905        3.1717816893        4.6010645905
  O         9.4216239611        3.4281818064        4.6514609734
  O        -3.8060112810        6.8758172477        4.7120606255
  O        -0.0371430371        6.8166126181        4.6425672190
  O         3.8919974534        6.5983217918        4.8681490428
  O         7.6614502449        6.6315456721        4.6049496148
  O        -5.8449729399        9.9087901992        4.8253543233
  O        -1.8897135947       10.1710767984        4.7290022827
  O         2.1396579900        9.9904834444        4.7975850871
  O         5.7363733041        9.8077421264        4.9052244002
  O         1.9306648496        1.1193684127        6.3407443760
  O         5.8676966379        1.1349143505        6.2442081102
  O         9.5399635634        1.2990297058        6.3285582677
  O        13.4419350938        1.1181760325        6.5297496719
  O        -0.1167416161        4.5064236705        6.1759085681
  O         4.0104748667        4.4516636924        6.2827197086
  O         7.3032496806        4.3861677920        6.3590305932
  O        11.3509333644        4.4433539235        6.1626806791
  O        -1.7215594026        7.9550012248        6.3364926005
  O         1.9215084675        7.5619102802        6.3077119990
  O         5.7899652764        7.6646344475        6.2994346160
  O         9.3611483250        7.7225253641        6.3428135382
  O        -3.9502070698       10.9799964313        6.2834254285
  O         0.0657925441       11.1160464708        6.4002991029
  O         3.7439979795       11.1276905973        6.4026642136
  O         7.8191731591       11.1789498606        6.4399224187
  O         0.1550197775        2.2182557802        7.6577148523
  O         3.9704942858        2.2171316459        7.8016695797
  O         7.6166616403        2.0101902165        8.1013756171
  O        11.2122067733        2.3287338947        8.1351786798
  O        -2.0227429905        5.7234493165        7.7727851829
  O         1.8353635488        5.4882946747        7.8759748371
  O         5.5725452727        5.6478071352        8.0970833734
  O         9.5739731484        5.5069010950        7.6682847318
  O        -4.0689771047        8.6451036436        8.0119609366
  O         0.1045581524        8.9068491064        7.9590102274
  O         3.8664820004        8.8017438237        7.8565078603
  O         7.4134661487        8.6343528946        7.9032429555
  O        -5.7107345029       12.0693107433        7.7846972787
  O        -1.8522764327       12.1797412596        7.5840654625
  O         2.0134694321       12.3598054137        7.8907396381
  O         5.5295579821       12.0280632590        7.8601430635
 Ce         0.0000000000        2.2090000000        0.7810000000
 Ce         3.8260000000        2.2090000000        0.7810000000
 Ce         7.6520000000        2.2090000000        0.7810000000
 Ce        11.4780000000        2.2090000000        0.7810000000
 Ce        -1.9130000000        5.5230000000        0.7810000000
 Ce         1.9130000000        5.5230000000        0.7810000000
 Ce         5.7390000000        5.5230000000        0.7810000000
 Ce         9.5650000000        5.5230000000        0.7810000000
 Ce        -3.8260000000        8.8360000000        0.7810000000
 Ce         0.0000000000        8.8360000000        0.7810000000
 Ce         3.8260000000        8.8360000000        0.7810000000
 Ce         7.6520000000        8.8360000000        0.7810000000
 Ce        -5.7390000000       12.1500000000        0.7810000000
 Ce        -1.9130000000       12.1500000000        0.7810000000
 Ce         1.9130000000       12.1500000000        0.7810000000
 Ce         5.7390000000       12.1500000000        0.7810000000
 Ce         1.9496614399        1.0621034602        3.9656174317
 Ce         5.7716876291        1.0998089182        3.9346882182
 Ce         9.6322936841        1.0526177562        4.0006169829
 Ce        13.4349088650        1.2046746349        3.9983611225
 Ce         0.0118384412        4.4296916767        3.9236648757
 Ce         3.7532766429        4.4064657712        3.8387775784
 Ce         7.6039185705        4.3657707373        3.9152894815
 Ce        11.5313338250        4.4126086670        3.8906716627
 Ce        -1.8226316771        7.7301123619        3.9818619486
 Ce         1.9357410272        7.7293436919        4.0092495712
 Ce         5.7596762808        7.7005851180        3.9140407830
 Ce         9.5366744679        7.7721399055        3.9864610322
 Ce        -3.7929535238       10.9800268285        3.9310367289
 Ce        -0.0106240736       11.0579663175        3.9035820771
 Ce         3.8865120630       11.0053681933        3.9644150961
 Ce         7.6097952601       11.1038554763        3.8581119235
 Ce         0.0033031662       -0.0801323708        7.2581345805
 Ce         3.7790860938       -0.0321582971        7.1596552446
 Ce         7.7355582362        0.0063736730        7.1948341292
 Ce        11.5340456726        0.0007714142        7.1324399773
 Ce        -1.8484940161        3.3800224097        6.9371709369
 Ce         1.9843130709        3.3815864463        7.1836268681
 Ce         5.7422505126        3.2588801237        7.0686285579
 Ce         9.6082852620        3.2475195029        7.1637215945
 Ce        -3.8739509606        6.7010083477        7.0648081181
 Ce        -0.1361308978        6.6331331965        7.0231149751
 Ce         3.7944585558        6.6079324240        7.1162921822
 Ce         7.6415108806        6.5882657448        7.1983708954
 Ce        -5.8063727356        9.9512423123        7.0258453628
 Ce        -1.8814288324        9.9822767659        7.0620622321
 Ce         1.9741427662       10.0885849653        7.0530702354
 Ce         5.7223472962        9.9699015208        7.1880740286
 Pt        12.9510305545        1.8549673942        9.3935181026
 Pt         0.9706668570        5.4872157937        9.7614253127
 Pt        -0.0298669739        7.9786363817        9.9338528715
 Pt         7.3283411828       13.6170004499       10.1119450797
 Pt         0.1196311561        2.9977863685        9.7420991732
 Pt        -2.4362683939        8.3381025336        9.2949702985
 Pt         2.8258250492        3.6857620094       10.4942168818
 Pt         3.3706972662        6.3138431101       10.7271763157
 Pt         5.2461320273        4.8035438046        9.8541691037
 Pt         1.7798614519        1.3411318838       11.2674511800
 Pt         4.1163367553        1.4508080380        9.7769251131
 Pt        -0.1016741119        6.5179707520       11.9127172280
 Pt         6.5679277720        2.4313402634        9.7858733157
 Pt         0.6594715650        3.9773572181       12.0436786456
 Pt         5.4121582446        0.5482311112       11.7249071856
 Pt         2.2778868753        6.0359627575       13.0488774659
 Pt         5.0898594784        3.1002422901       11.8340725239
 Pt         0.0653117800        5.0619514045       14.2309131160
 Pt         1.1366336267        2.3078648229       13.9272685662
 Pt         4.8547041226        5.4989810562       12.6792052563
 Pt         3.4606196853        1.1421472101       13.2385849145
 Pt         3.2677145161        3.7057089725       13.6700419580
     166
 i =       22, time =       22.000, E =     -6045.8756837731
  O         0.0000000000        0.0000000000        0.0000000000
  O         3.8260000000        0.0000000000        0.0000000000
  O         7.6520000000        0.0000000000        0.0000000000
  O        11.4780000000        0.0000000000        0.0000000000
  O        -1.9130000000        3.3140000000        0.0000000000
  O         1.9130000000        3.3140000000        0.0000000000
  O         5.7390000000        3.3140000000        0.0000000000
  O         9.5650000000        3.3140000000        0.0000000000
  O        -3.8260000000        6.6270000000        0.0000000000
  O         0.0000000000        6.6270000000        0.0000000000
  O         3.8260000000        6.6270000000        0.0000000000
  O         7.6520000000        6.6270000000        0.0000000000
  O        -5.7390000000        9.9410000000        0.0000000000
  O        -1.9130000000        9.9410000000        0.0000000000
  O         1.9130000000        9.9410000000        0.0000000000
  O         5.7390000000        9.9410000000        0.0000000000
  O         1.9130000000        1.1050000000        1.5620000000
  O         5.7390000000        1.1050000000        1.5620000000
  O         9.5650000000        1.1050000000        1.5620000000
  O        13.3920000000        1.1050000000        1.5620000000
  O         0.0000000000        4.4180000000        1.5620000000
  O         3.8260000000        4.4180000000        1.5620000000
  O         7.6520000000        4.4180000000        1.5620000000
  O        11.4780000000        4.4180000000        1.5620000000
  O        -1.9130000000        7.7320000000        1.5620000000
  O         1.9130000000        7.7320000000        1.5620000000
  O         5.7390000000        7.7320000000        1.5620000000
  O         9.5650000000        7.7320000000        1.5620000000
  O        -3.8260000000       11.0450000000        1.5620000000
  O         0.0000000000       11.0450000000        1.5620000000
  O         3.8260000000       11.0450000000        1.5620000000
  O         7.6520000000       11.0450000000        1.5620000000
  O         0.0000000000        2.2090000000        3.1240000000
  O         3.8260000000        2.2090000000        3.1240000000
  O         7.6520000000        2.2090000000        3.1240000000
  O        11.4780000000        2.2090000000        3.1240000000
  O        -1.9130000000        5.5230000000        3.1240000000
  O         1.9130000000        5.5230000000        3.1240000000
  O         5.7390000000        5.5230000000        3.1240000000
  O         9.5650000000        5.5230000000        3.1240000000
  O        -3.8260000000        8.8360000000        3.1240000000
  O         0.0000000000        8.8360000000        3.1240000000
  O         3.8260000000        8.8360000000        3.1240000000
  O         7.6520000000        8.8360000000        3.1240000000
  O        -5.7390000000       12.1500000000        3.1240000000
  O        -1.9130000000       12.1500000000        3.1240000000
  O         1.9130000000       12.1500000000        3.1240000000
  O         5.7390000000       12.1500000000        3.1240000000
  O         0.0292805873       -0.0387047464        4.6849569118
  O         3.8091915872       -0.0876889490        4.6510321436
  O         7.9638277149       -0.1667574606        4.8411879292
  O        11.7172071618       -0.0574854667        4.7989807155
  O        -1.8499068629        3.2347153322        4.8312017108
  O         1.9282755414        3.2772778761        4.8564111670
  O         5.5483811493        3.1684965437        4.5943496340
  O         9.4225129643        3.4267834431        4.6522400711
  O        -3.8010365945        6.8809376856        4.7156760101
  O        -0.0344781143        6.8140517031        4.6449274144
  O         3.8899296523        6.5983833896        4.8651057345
  O         7.6610425607        6.6282888855        4.6017144472
  O        -5.8486721803        9.9076643511        4.8223522580
  O        -1.8865031385       10.1718277097        4.7334068449
  O         2.1398074031        9.9876166073        4.8004802770
  O         5.7365621843        9.8118931467        4.9092113744
  O         1.9347918137        1.1178069168        6.3452459400
  O         5.8711531419        1.1318879598        6.2382040936
  O         9.5412137090        1.3021625244        6.3239093419
  O        13.4434892486        1.1206452879        6.5316683428
  O        -0.1191345294        4.5105014311        6.1732925027
  O         4.0077725141        4.4503415844        6.2798899230
  O         7.3010957730        4.3893587227        6.3550311108
  O        11.3545024479        4.4437836672        6.1536268979
  O        -1.7189421150        7.9583093451        6.3311898177
  O         1.9163982050        7.5600592511        6.3027697259
  O         5.7896574439        7.6592208174        6.2986290537
  O         9.3573244180        7.7237606372        6.3417282526
  O        -3.9511008921       10.9785370357        6.2846745335
  O         0.0732479213       11.1097102331        6.4013063510
  O         3.7422943535       11.1289382173        6.4031684822
  O         7.8120551685       11.1799022102        6.4412216025
  O         0.1564364727        2.2246250706        7.6596775050
  O         3.9684118389        2.2158676741        7.8032244902
  O         7.6165266573        2.0081690040        8.1015154008
  O        11.2105266275        2.3323212511        8.1387518409
  O        -2.0245149644        5.7257818969        7.7728940166
  O         1.8329049320        5.4824597998        7.8761087469
  O         5.5687938288        5.6487469984        8.0985075944
  O         9.5723289928        5.5027953993        7.6643769065
  O        -4.0702274747        8.6416583080        8.0104771416
  O         0.1069247121        8.9064323679        7.9572357957
  O         3.8654345917        8.8039262797        7.8559687664
  O         7.4061516691        8.6332841542        7.9089921122
  O        -5.7062231406       12.0739223680        7.7889821790
  O        -1.8584935523       12.1802636736        7.5775302688
  O         2.0170548343       12.3649858091        7.8940310037
  O         5.5282325108       12.0270310336        7.8644992410
 Ce         0.0000000000        2.2090000000        0.7810000000
 Ce         3.8260000000        2.2090000000        0.7810000000
 Ce         7.6520000000        2.2090000000        0.7810000000
 Ce        11.4780000000        2.2090000000        0.7810000000
 Ce        -1.9130000000        5.5230000000        0.7810000000
 Ce         1.9130000000        5.5230000000        0.7810000000
 Ce         5.7390000000        5.5230000000        0.7810000000
 Ce         9.5650000000        5.5230000000        0.7810000000
 Ce        -3.8260000000        8.8360000000        0.7810000000
 Ce         0.0000000000        8.8360000000        0.7810000000
 Ce         3.8260000000        8.8360000000        0.7810000000
 Ce         7.6520000000        8.8360000000        0.7810000000
 Ce        -5.7390000000       12.1500000000        0.7810000000
 Ce        -1.9130000000       12.1500000000        0.7810000000
 Ce         1.9130000000       12.1500000000        0.7810000000
 Ce         5.7390000000       12.1500000000        0.7810000000
 Ce         1.9516699407        1.0605037926        3.9667406212
 Ce         5.7728037292        1.0995405416        3.9348087618
 Ce         9.6346338596        1.0501263470        4.0031379222
 Ce        13.4369487033        1.2082277518        4.0005911709
 Ce         0.0127540304        4.4296356786        3.9237722284
 Ce         3.7504604764        4.4052904243        3.8355153042
 Ce         7.6013775699        4.3640830367        3.9145992325
 Ce        11.5325351867        4.4129233491        3.8891798061
 Ce        -1.8194436390        7.7302450386        3.9842498853
 Ce         1.9374685391        7.7293824455        4.0127439936
 Ce         5.7609142776        7.6989796404        3.9141714633
 Ce         9.5347608743        7.7735937207        3.9889192067
 Ce        -3.7925312598       10.9778142594        3.9312877259
 Ce        -0.0105884041       11.0590820810        3.9026846624
 Ce         3.8896531192       11.0032704461        3.9662417260
 Ce         7.6079675417       11.1058250301        3.8550713905
 Ce         0.0042052970       -0.0819071484        7.2618886657
 Ce         3.7773908534       -0.0306361429        7.1620599229
 Ce         7.7381625918        0.0081336551        7.1987577527
 Ce        11.5352181872        0.0016673489        7.1335929264
 Ce        -1.8464231416        3.3808376401        6.9338170805
 Ce         1.9867908492        3.3830422045        7.1892116330
 Ce         5.7414419206        3.2561524979        7.0668931073
 Ce         9.6091785567        3.2442631452        7.1651705518
 Ce        -3.8763206053        6.7045081983        7.0627500300
 Ce        -0.1376325504        6.6322746534        7.0232617092
 Ce         3.7935640079        6.6037657243        7.1154047346
 Ce         7.6377358480        6.5850413726        7.2025266450
 Ce        -5.8079323947        9.9508130527        7.0226766429
 Ce        -1.8804120780        9.9826669992        7.0596650619
 Ce         1.9746526114       10.0932721412        7.0525831898
 Ce         5.7208124033        9.9700043873        7.1931419787
 Pt        12.9466757862        1.8561120204        9.3912140655
 Pt         0.9704487272        5.4839306442        9.7613397375
 Pt        -0.0311455989        7.9809596822        9.9353358325
 Pt         7.3257403378       13.6162556400       10.1107774013
 Pt         0.1183986405        2.9982897947        9.7438869239
 Pt        -2.4367320139        8.3418134306        9.2946458763
 Pt         2.8274257127        3.6843738551       10.4957892123
 Pt         3.3740449740        6.3162825963       10.7246306953
 Pt         5.2455303457        4.8046905139        9.8539440943
 Pt         1.7786395997        1.3409300805       11.2653983803
 Pt         4.1174267719        1.4511040115        9.7767178743
 Pt        -0.1023636128        6.5179059226       11.9089547140
 Pt         6.5670625351        2.4328242973        9.7842378160
 Pt         0.6574129950        3.9776185824       12.0463820320
 Pt         5.4131665393        0.5486851243       11.7244262494
 Pt         2.2793165978        6.0367728499       13.0455500120
 Pt         5.0908389066        3.1014570047       11.8322890193
 Pt         0.0652421447        5.0634925775       14.2308674320
 Pt         1.1367452707        2.3055923367       13.9276490643
 Pt         4.8525124874        5.4971874420       12.6783480448
 Pt         3.4626142217        1.1403743443       13.2375447773
 Pt         3.2680312222        3.7033146362       13.6691690828
     166
 i =       23, time =       23.000, E =     -6045.8746631222
  O         0.0000000000        0.0000000000        0.0000000000
  O         3.8260000000        0.0000000000        0.0000000000
  O         7.6520000000        0.0000000000        0.0000000000
  O        11.4780000000        0.0000000000        0.0000000000
  O        -1.9130000000        3.3140000000        0.0000000000
  O         1.9130000000        3.3140000000        0.0000000000
  O         5.7390000000        3.3140000000        0.0000000000
  O         9.5650000000        3.3140000000        0.0000000000
  O        -3.8260000000        6.6270000000        0.0000000000
  O         0.0000000000        6.6270000000        0.0000000000
  O         3.8260000000        6.6270000000        0.0000000000
  O         7.6520000000        6.6270000000        0.0000000000
  O        -5.7390000000        9.9410000000        0.0000000000
  O        -1.9130000000        9.9410000000        0.0000000000
  O         1.9130000000        9.9410000000        0.0000000000
  O         5.7390000000        9.9410000000        0.0000000000
  O         1.9130000000        1.1050000000        1.5620000000
  O         5.7390000000        1.1050000000        1.5620000000
  O         9.5650000000        1.1050000000        1.5620000000
  O        13.3920000000        1.1050000000        1.5620000000
  O         0.0000000000        4.4180000000        1.5620000000
  O         3.8260000000        4.4180000000        1.5620000000
  O         7.6520000000        4.4180000000        1.5620000000
  O        11.4780000000        4.4180000000        1.5620000000
  O        -1.9130000000        7.7320000000        1.5620000000
  O         1.9130000000        7.7320000000        1.5620000000
  O         5.7390000000        7.7320000000        1.5620000000
  O         9.5650000000        7.7320000000        1.5620000000
  O        -3.8260000000       11.0450000000        1.5620000000
  O         0.0000000000       11.0450000000        1.5620000000
  O         3.8260000000       11.0450000000        1.5620000000
  O         7.6520000000       11.0450000000        1.5620000000
  O         0.0000000000        2.2090000000        3.1240000000
  O         3.8260000000        2.2090000000        3.1240000000
  O         7.6520000000        2.2090000000        3.1240000000
  O        11.4780000000        2.2090000000        3.1240000000
  O        -1.9130000000        5.5230000000        3.1240000000
  O         1.9130000000        5.5230000000        3.1240000000
  O         5.7390000000        5.5230000000        3.1240000000
  O         9.5650000000        5.5230000000        3.1240000000
  O        -3.8260000000        8.8360000000        3.1240000000
  O         0.0000000000        8.8360000000        3.1240000000
  O         3.8260000000        8.8360000000        3.1240000000
  O         7.6520000000        8.8360000000        3.1240000000
  O        -5.7390000000       12.1500000000        3.1240000000
  O        -1.9130000000       12.1500000000        3.1240000000
  O         1.9130000000       12.1500000000        3.1240000000
  O         5.7390000000       12.1500000000        3.1240000000
  O         0.0265801335       -0.0373720558        4.6833759433
  O         3.8084553843       -0.0862689422        4.6523054187
  O         7.9722456649       -0.1677038520        4.8418379294
  O        11.7210174976       -0.0545313066        4.8019017319
  O        -1.8506741984        3.2343109280        4.8237666694
  O         1.9248592297        3.2800650220        4.8578239643
  O         5.5462856775        3.1657987190        4.5878958061
  O         9.4240395756        3.4247539401        4.6536102653
  O        -3.7958107096        6.8852707512        4.7199423152
  O        -0.0313855389        6.8102839604        4.6477847448
  O         3.8873352853        6.5986128219        4.8612078706
  O         7.6605666826        6.6247149869        4.5989174447
  O        -5.8521846139        9.9066465351        4.8187366107
  O        -1.8831306715       10.1716717098        4.7380543689
  O         2.1389074819        9.9842487731        4.8033949611
  O         5.7367637417        9.8170169626        4.9126793816
  O         1.9392243963        1.1159323654        6.3497402498
  O         5.8745749311        1.1287732167        6.2319743278
  O         9.5428438886        1.3046859865        6.3187699661
  O        13.4448381981        1.1233085290        6.5325667756
  O        -0.1210421093        4.5147785272        6.1706752015
  O         4.0041616843        4.4489136561        6.2773360762
  O         7.3002296358        4.3929315778        6.3507524025
  O        11.3588837637        4.4437742046        6.1445302172
  O        -1.7170225415        7.9611408141        6.3248291033
  O         1.9108285284        7.5587810892        6.2975089527
  O         5.7890990993        7.6534045588        6.2977581847
  O         9.3541010404        7.7252318874        6.3403639974
  O        -3.9513785897       10.9768635255        6.2860712387
  O         0.0810412305       11.1025990185        6.4019507446
  O         3.7409341919       11.1300066253        6.4030780561
  O         7.8035057705       11.1801720540        6.4420532783
  O         0.1576841627        2.2317821176        7.6620999434
  O         3.9651486500        2.2141359814        7.8052331254
  O         7.6171231872        2.0066930293        8.1015347507
  O        11.2098028675        2.3355609931        8.1429193209
  O        -2.0261520604        5.7272781476        7.7727195439
  O         1.8303375188        5.4766124833        7.8762616211
  O         5.5657135727        5.6497439845        8.0997695691
  O         9.5704891772        5.4984632510        7.6610157230
  O        -4.0713718481        8.6387990560        8.0092726971
  O         0.1096880502        8.9061945105        7.9556166192
  O         3.8641772603        8.8064623955        7.8554182779
  O         7.3993692842        8.6330901323        7.9152798829
  O        -5.7014208348       12.0789566227        7.7940172508
  O        -1.8651901333       12.1807063295        7.5716385423
  O         2.0204290268       12.3697125262        7.8976023150
  O         5.5277319322       12.0261815605        7.8693022551
 Ce         0.0000000000        2.2090000000        0.7810000000
 Ce         3.8260000000        2.2090000000        0.7810000000
 Ce         7.6520000000        2.2090000000        0.7810000000
 Ce        11.4780000000        2.2090000000        0.7810000000
 Ce        -1.9130000000        5.5230000000        0.7810000000
 Ce         1.9130000000        5.5230000000        0.7810000000
 Ce         5.7390000000        5.5230000000        0.7810000000
 Ce         9.5650000000        5.5230000000        0.7810000000
 Ce        -3.8260000000        8.8360000000        0.7810000000
 Ce         0.0000000000        8.8360000000        0.7810000000
 Ce         3.8260000000        8.8360000000        0.7810000000
 Ce         7.6520000000        8.8360000000        0.7810000000
 Ce        -5.7390000000       12.1500000000        0.7810000000
 Ce        -1.9130000000       12.1500000000        0.7810000000
 Ce         1.9130000000       12.1500000000        0.7810000000
 Ce         5.7390000000       12.1500000000        0.7810000000
 Ce         1.9536840189        1.0588989345        3.9678698993
 Ce         5.7738781253        1.0992597706        3.9349230626
 Ce         9.6369238720        1.0476785671        4.0055797006
 Ce        13.4390174448        1.2115951647        4.0027483678
 Ce         0.0137193368        4.4295558897        3.9238235368
 Ce         3.7477489686        4.4040893407        3.8323566529
 Ce         7.5988410651        4.3624616191        3.9138899103
 Ce        11.5335623314        4.4132951242        3.8876785072
 Ce        -1.8163963888        7.7304790851        3.9865155749
 Ce         1.9392663764        7.7294496199        4.0161945840
 Ce         5.7621708210        7.6973566515        3.9143762100
 Ce         9.5328133684        7.7749929532        3.9913103782
 Ce        -3.7921762927       10.9756706496        3.9315180489
 Ce        -0.0105026655       11.0602332351        3.9017830181
 Ce         3.8928092488       11.0011936991        3.9680308490
 Ce         7.6061890535       11.1077547287        3.8520802198
 Ce         0.0051477790       -0.0836138860        7.2656442083
 Ce         3.7757193878       -0.0291673483        7.1643784751
 Ce         7.7406929982        0.0098517261        7.2026145135
 Ce        11.5363839933        0.0025883950        7.1347791496
 Ce        -1.8444122925        3.3816572705        6.9306913611
 Ce         1.9892918397        3.3843954492        7.1947261261
 Ce         5.7405954558        3.2534151047        7.0651181246
 Ce         9.6100065097        3.2411720336        7.1665665418
 Ce        -3.8787210905        6.7079405609        7.0606875435
 Ce        -0.1390714002        6.6314888643        7.0235051168
 Ce         3.7927440103        6.5996946145        7.1145098101
 Ce         7.6338912386        6.5818865764        7.2066057945
 Ce        -5.8094821752        9.9503550841        7.0195748725
 Ce        -1.8793901483        9.9831568941        7.0573396985
 Ce         1.9751560571       10.0978671287        7.0521749674
 Ce         5.7192565984        9.9699402820        7.1981751329
 Pt        12.9423409954        1.8572704951        9.3889153690
 Pt         0.9702413066        5.4807174189        9.7612551484
 Pt        -0.0324146268        7.9832580117        9.9367679054
 Pt         7.3231221617       13.6155315026       10.1096124541
 Pt         0.1171389176        2.9987452691        9.7456425026
 Pt        -2.4372064970        8.3455263276        9.2943214925
 Pt         2.8289924891        3.6830297343       10.4973727805
 Pt         3.3773403595        6.3187148616       10.7220758598
 Pt         5.2449325862        4.8058197084        9.8537497140
 Pt         1.7774440277        1.3407201479       11.2633782411
 Pt         4.1185125779        1.4513932142        9.7764866151
 Pt        -0.1030379840        6.5178321373       11.9052639803
 Pt         6.5661933827        2.4343077462        9.7826465260
 Pt         0.6553870435        3.9778606604       12.0490496150
 Pt         5.4141885309        0.5491357877       11.7239441647
 Pt         2.2807072781        6.0375585941       13.0422302914
 Pt         5.0918230392        3.1026344521       11.8305290115
 Pt         0.0651798026        5.0650491279       14.2308172365
 Pt         1.1368672346        2.3033164582       13.9280211171
 Pt         4.8503534778        5.4954162003       12.6775023394
 Pt         3.4645611400        1.1386108976       13.2364913618
 Pt         3.2683248913        3.7009386123       13.6682925511
     166
 i =       24, time =       24.000, E =     -6045.8751266088
  O         0.0000000000        0.0000000000        0.0000000000
  O         3.8260000000        0.0000000000        0.0000000000
  O         7.6520000000        0.0000000000        0.0000000000
  O        11.4780000000        0.0000000000        0.0000000000
  O        -1.9130000000        3.3140000000        0.0000000000
  O         1.9130000000        3.3140000000        0.0000000000
  O         5.7390000000        3.3140000000        0.0000000000
  O         9.5650000000        3.3140000000        0.0000000000
  O        -3.8260000000        6.6270000000        0.0000000000
  O         0.0000000000        6.6270000000        0.0000000000
  O         3.8260000000        6.6270000000        0.0000000000
  O         7.6520000000        6.6270000000        0.0000000000
  O        -5.7390000000        9.9410000000        0.0000000000
  O        -1.9130000000        9.9410000000        0.0000000000
  O         1.9130000000        9.9410000000        0.0000000000
  O         5.7390000000        9.9410000000        0.0000000000
  O         1.9130000000        1.1050000000        1.5620000000
  O         5.7390000000        1.1050000000        1.5620000000
  O         9.5650000000        1.1050000000        1.5620000000
  O        13.3920000000        1.1050000000        1.5620000000
  O         0.0000000000        4.4180000000        1.5620000000
  O         3.8260000000        4.4180000000        1.5620000000
  O         7.6520000000        4.4180000000        1.5620000000
  O        11.4780000000        4.4180000000        1.5620000000
  O        -1.9130000000        7.7320000000        1.5620000000
  O         1.9130000000        7.7320000000        1.5620000000
  O         5.7390000000        7.7320000000        1.5620000000
  O         9.5650000000        7.7320000000        1.5620000000
  O        -3.8260000000       11.0450000000        1.5620000000
  O         0.0000000000       11.0450000000        1.5620000000
  O         3.8260000000       11.0450000000        1.5620000000
  O         7.6520000000       11.0450000000        1.5620000000
  O         0.0000000000        2.2090000000        3.1240000000
  O         3.8260000000        2.2090000000        3.1240000000
  O         7.6520000000        2.2090000000        3.1240000000
  O        11.4780000000        2.2090000000        3.1240000000
  O        -1.9130000000        5.5230000000        3.1240000000
  O         1.9130000000        5.5230000000        3.1240000000
  O         5.7390000000        5.5230000000        3.1240000000
  O         9.5650000000        5.5230000000        3.1240000000
  O        -3.8260000000        8.8360000000        3.1240000000
  O         0.0000000000        8.8360000000        3.1240000000
  O         3.8260000000        8.8360000000        3.1240000000
  O         7.6520000000        8.8360000000        3.1240000000
  O        -5.7390000000       12.1500000000        3.1240000000
  O        -1.9130000000       12.1500000000        3.1240000000
  O         1.9130000000       12.1500000000        3.1240000000
  O         5.7390000000       12.1500000000        3.1240000000
  O         0.0235776004       -0.0357427957        4.6819804249
  O         3.8078572832       -0.0845084122        4.6541545218
  O         7.9799483869       -0.1680831314        4.8423151801
  O        11.7240304782       -0.0511433523        4.8049774486
  O        -1.8517246506        3.2343968097        4.8153420452
  O         1.9212475210        3.2832941398        4.8588835820
  O         5.5449114738        3.1637121724        4.5817783419
  O         9.4261693309        3.4221124293        4.6555648245
  O        -3.7903617330        6.8888285688        4.7248705134
  O        -0.0279040041        6.8053396392        4.6511238600
  O         3.8842284289        6.5990034862        4.8564712289
  O         7.6600236591        6.6208601874        4.5965823249
  O        -5.8554963199        9.9057583024        4.8145686432
  O        -1.8796141712       10.1706300332        4.7428996951
  O         2.1369839119        9.9804021874        4.8063061076
  O         5.7369748011        9.8230583634        4.9156194377
  O         1.9439303163        1.1137637545        6.3542353956
  O         5.8779713609        1.1255993945        6.2255933522
  O         9.5448500495        1.3065751029        6.3131973805
  O        13.4459912896        1.1261620258        6.5324553756
  O        -0.1224869905        4.5192389911        6.1680793973
  O         3.9996809426        4.4473730029        6.2750759946
  O         7.3005874330        4.3968528263        6.3462206109
  O        11.3640618614        4.4433339087        6.1354936487
  O        -1.7157915042        7.9634879267        6.3174387817
  O         1.9048380426        7.5580497881        6.2920136756
  O         5.7883007751        7.6471943707        6.2968317843
  O         9.3514702924        7.7269364623        6.3387371735
  O        -3.9510713291       10.9749622539        6.2875982151
  O         0.0891381905       11.0948062580        6.4022504323
  O         3.7399381433       11.1309193498        6.4023951933
  O         7.7936141981       11.1797486442        6.4424511088
  O         0.1587647371        2.2396934572        7.6649798823
  O         3.9607664275        2.2119754947        7.8076804151
  O         7.6184491047        2.0057651725        8.1014219411
  O        11.2100337299        2.3384375641        8.1476767064
  O        -2.0276580449        5.7279468519        7.7722608871
  O         1.8276685797        5.4707890997        7.8764336678
  O         5.5632995960        5.6507879564        8.1008553305
  O         9.5684643803        5.4939187907        7.6581892543
  O        -4.0724210279        8.6365548349        8.0083604175
  O         0.1128174501        8.9061249404        7.9541742281
  O         3.8627162098        8.8093282256        7.8548548111
  O         7.3931444307        8.6337469991        7.9221034853
  O        -5.6963958332       12.0843491168        7.7997443201
  O        -1.8722998897       12.1810843285        7.5664104446
  O         2.0235701049       12.3740038665        7.9014695158
  O         5.5280501968       12.0255315475        7.8745242755
 Ce         0.0000000000        2.2090000000        0.7810000000
 Ce         3.8260000000        2.2090000000        0.7810000000
 Ce         7.6520000000        2.2090000000        0.7810000000
 Ce        11.4780000000        2.2090000000        0.7810000000
 Ce        -1.9130000000        5.5230000000        0.7810000000
 Ce         1.9130000000        5.5230000000        0.7810000000
 Ce         5.7390000000        5.5230000000        0.7810000000
 Ce         9.5650000000        5.5230000000        0.7810000000
 Ce        -3.8260000000        8.8360000000        0.7810000000
 Ce         0.0000000000        8.8360000000        0.7810000000
 Ce         3.8260000000        8.8360000000        0.7810000000
 Ce         7.6520000000        8.8360000000        0.7810000000
 Ce        -5.7390000000       12.1500000000        0.7810000000
 Ce        -1.9130000000       12.1500000000        0.7810000000
 Ce         1.9130000000       12.1500000000        0.7810000000
 Ce         5.7390000000       12.1500000000        0.7810000000
 Ce         1.9557015585        1.0572910180        3.9690043814
 Ce         5.7749107848        1.0989656465        3.9350276386
 Ce         9.6391660995        1.0452782874        4.0079375685
 Ce        13.4411132070        1.2147730185        4.0048285885
 Ce         0.0147341693        4.4294533609        3.9238167253
 Ce         3.7451418489        4.4028634330        3.8293022715
 Ce         7.5963146836        4.3609057081        3.9131613235
 Ce        11.5344138802        4.4137226151        3.8861666329
 Ce        -1.8134884507        7.7308123562        3.9886564098
 Ce         1.9411322034        7.7295447594        4.0195985907
 Ce         5.7634448074        7.6957173018        3.9146540773
 Ce         9.5308340354        7.7763332441        3.9936301875
 Ce        -3.7918874469       10.9735974209        3.9317269429
 Ce        -0.0103643752       11.0614176816        3.9008764738
 Ce         3.8959772409       10.9991389228        3.9697821002
 Ce         7.6044590544       11.1096446214        3.8491395914
 Ce         0.0061302748       -0.0852495320        7.2693998742
 Ce         3.7740722207       -0.0277546821        7.1666093328
 Ce         7.7431476629        0.0115230998        7.2063996917
 Ce        11.5375459515        0.0035342780        7.1359972313
 Ce        -1.8424625650        3.3824832731        6.9277902594
 Ce         1.9918142842        3.3856428082        7.2001657108
 Ce         5.7397131436        3.2506695125        7.0632998918
 Ce         9.6107697164        3.2382512928        7.1679052015
 Ce        -3.8811494178        6.7112990836        7.0586193287
 Ce        -0.1404475949        6.6307781769        7.0238433070
 Ce         3.7919949536        6.5957245358        7.1136037732
 Ce         7.6299790414        6.5788035973        7.2106064698
 Ce        -5.8110230021        9.9498725811        7.0165400708
 Ce        -1.8783619599        9.9837455905        7.0550878074
 Ce         1.9756531532       10.1023642086        7.0518469759
 Ce         5.7176791857        9.9697096941        7.2031716287
 Pt        12.9380273535        1.8584427753        9.3866229006
 Pt         0.9700442129        5.4775781019        9.7611716665
 Pt        -0.0336732324        7.9855311855        9.9381476327
 Pt         7.3204866942       13.6148284431       10.1084501196
 Pt         0.1158524100        2.9991536882        9.7473666897
 Pt        -2.4376912228        8.3492407280        9.2939966251
 Pt         2.8305235901        3.6817304979       10.4989664390
 Pt         3.3805813414        6.3211402850       10.7195110613
 Pt         5.2443396845        4.8069312701        9.8535860491
 Pt         1.7762748410        1.3405017370       11.2613919313
 Pt         4.1195935629        1.4516746232        9.7762319963
 Pt        -0.1036975418        6.5177487082       11.9016477024
 Pt         6.5653201582        2.4357911035        9.7810996434
 Pt         0.6533945092        3.9780809778       12.0516793755
 Pt         5.4152245804        0.5495830484       11.7234606858
 Pt         2.2820585531        6.0383209123       13.0389182741
 Pt         5.0928134838        3.1037735437       11.8287946439
 Pt         0.0651250053        5.0666220060       14.2307626174
 Pt         1.1370000698        2.3010372171       13.9283845092
 Pt         4.8482273928        5.4936671104       12.6766684105
 Pt         3.4664587777        1.1368575432       13.2354247385
 Pt         3.2685949872        3.6985802502       13.6674130491
