85
CIF: Cu-W-CeO2-O-CO.cif | data_image0
Ce     1.93596140     1.11772783     0.89035214
Ce     0.02355791     2.23689113     4.03290822
Ce    -5.77122490    10.01958665     7.18283488
Ce     5.80789581     1.11772783     0.89035214
Ce     3.85834924     2.25221597     4.07397526
Ce     3.81159034     0.04017346     7.27876839
Ce     9.67981860     1.11772783     0.89035214
Ce     7.80020339     2.18921213     3.93510288
Ce     1.92669237    10.00937813     7.21273926
Ce     0.00000000     4.47091133     0.89035214
Ce    -1.96582507     5.60344176     4.04135895
Ce    -1.85700223     3.41576574     7.11327501
Ce     3.87193441     4.47091133     0.89035214
Ce     1.91622014     5.59944751     4.05140959
Ce     1.93800532     3.45399739     7.28536859
Ce     7.74385721     4.47091133     0.89035214
Ce     5.78593329     5.60222188     4.05522802
Ce    -1.93596721     7.82410489     0.89035214
Ce    -3.88669397     8.94815590     4.06147617
Ce     7.67129092     6.71026081     7.31651968
Ce     1.93596721     7.82410489     0.89035214
Ce    -0.01790222     8.96380207     4.06779341
Ce    -0.07186817     6.76197715     7.22231935
Ce     5.80789000     7.82410489     0.89035214
Ce     3.87012703     8.92231207     4.06381536
Ce     3.73773288     6.66139750     7.32646253
W      6.11716091     3.23793325     6.87708516
Cu     9.21623053     1.57874003     9.96446812
O      0.00000000     0.00000000     0.09999685
O      1.93604559     1.12326582     3.22335480
O     -0.11233043     2.20651148     6.38318344
O      0.00000000     2.23545567     1.68070743
O     -5.79011148    10.05319934     4.83684005
O      1.84217410     1.22921846     7.99278876
O      3.87192279     0.00000000     0.09999685
O      5.79427220     1.13769861     3.22394932
O      4.12388629     2.66120129     6.47244193
O      3.87192279     2.23545567     1.68070743
O      3.83220560     0.10097725     4.87475795
O      5.89501934     1.80497432     8.03306951
O      7.74385721     0.00000000     0.09999685
O      9.71150274     1.10415081     3.21327912
O      7.71532964     2.28154123     6.27710886
O      7.74385721     2.23545567     1.68070743
O      1.93773098    10.05926877     4.77344261
O      9.68455844     1.25869614     8.28805973
O     -1.93596140     3.35318350     0.09999685
O      0.00628991     4.48449767     3.23983981
O     -1.98449388     5.53448396     6.39631111
O     -1.93596721     5.58864923     1.68070743
O     -1.93123087     3.35783293     4.79546587
O     -0.09318893     4.46421777     8.01257294
O      1.93596140     3.35318350     0.09999685
O      3.89539246     4.46250906     3.27201734
O      1.84486053     5.61860031     6.31265662
O      1.93595559     5.58864923     1.68070743
O      1.93249145     3.31011677     4.88006842
O      5.80789581     3.35318350     0.09999685
O      7.72943057     4.47321090     3.21194683
O      5.54859093     5.13027497     6.57944238
O      5.80789000     5.58864923     1.68070743
O      5.95481849     3.29700371     4.88584402
O      7.44974260     4.14740595     7.91760381
O     -3.87192860     6.70637706     0.09999685
O     -1.97748499     7.84203295     3.26189002
O     -3.91532051     8.95479046     6.43371852
O     -3.87192860     8.94183273     1.68070743
O      7.63082858     6.66447707     4.88887356
O     -1.86386300     7.75548216     8.10713422
O     -0.00000581     6.70637706     0.09999685
O      1.93323809     7.80179572     3.25093631
O     -0.03047974     8.99121444     6.40448569
O     -0.00000581     8.94183273     1.68070743
O     -0.06908958     6.74130803     4.84058245
O      3.87192860     6.70637706     0.09999685
O      5.79983232     7.81591256     3.23119960
O      3.88683441     9.03345941     6.41381305
O      3.87192860     8.94183273     1.68070743
O      3.91632227     6.71247813     4.90655980
O      5.66728010     7.83973608     8.03804221
O      1.86901685     7.75609419     8.05962999
O      3.25337951     4.78988138     8.37294292
O      8.68578737     1.92378598    11.74237708
O      8.26535981     2.17549504    14.04199902
C      8.47892838     2.04692270    12.89793169
