81
CIF: Cu-W-CeO2-Ov.cif | data_image0
Ce     1.93596140     1.11772783     0.89035214
Ce     0.01220147     2.20363886     3.99425326
Ce    -5.73372032     9.98491391     7.20491958
Ce     5.80789581     1.11772783     0.89035214
Ce     3.84143393     2.19874725     3.96985472
Ce    -1.94584639     9.91167571     7.29247716
Ce     9.67981860     1.11772783     0.89035214
Ce     7.75152238     2.22189075     4.02747832
Ce     1.91321417    10.04671840     7.25003492
Ce     0.00000000     4.47091133     0.89035214
Ce    -1.94060781     5.59803614     4.05404571
Ce    -1.82535373     3.36293741     7.08163007
Ce     3.87193441     4.47091133     0.89035214
Ce     1.94830892     5.58926848     4.07693921
Ce     1.75784814     3.36030878     7.22066953
Ce     7.74385721     4.47091133     0.89035214
Ce     5.79914303     5.62066380     4.06467742
Ce    -1.93596721     7.82410489     0.89035214
Ce    -3.86073767     8.92675229     4.04368695
Ce    -3.87354650     6.76748722     7.32505048
Ce     1.93596721     7.82410489     0.89035214
Ce    -0.00165462     8.95586900     4.07456187
Ce     0.02479648     6.73729158     7.26061185
Ce     5.80789000     7.82410489     0.89035214
Ce     3.87550551     8.95165383     4.06279125
Ce     3.86686075     6.80397148     7.29179640
W      5.86378578     3.42275731     7.04903717
Cu     8.03714621     2.57509995     9.08993410
O      0.00000000     0.00000000     0.09999685
O      1.85799167     1.06875422     3.19155318
O     -0.10654540     2.15420295     6.41837412
O      0.00000000     2.23545567     1.68070743
O     -5.79283534    10.03536331     4.85433289
O      1.95003510     1.26369099     7.91078516
O      3.87192279     0.00000000     0.09999685
O      5.88085669     1.10428796     3.22157323
O      4.08926024     3.79747285     7.53780496
O      3.87192279     2.23545567     1.68070743
O     -1.95615761    10.05390737     4.89723298
O      5.58241677     1.61159359     7.50360706
O      7.74385721     0.00000000     0.09999685
O      9.68538869     1.10587413     3.22844664
O      7.71891544     2.65197068     6.35984878
O      7.74385721     2.23545567     1.68070743
O      7.76967319     0.06591416     4.86455834
O      9.39059346     1.47030158     8.41474465
O     -1.93596140     3.35318350     0.09999685
O      0.04840277     4.46645117     3.23926412
O     -1.98952717     5.49512766     6.46349547
O     -1.93596721     5.58864923     1.68070743
O     -1.87547504     3.34501376     4.75795109
O     -0.00455177     4.41559174     8.06554620
O      1.93596140     3.35318350     0.09999685
O      3.87989961     4.55679876     3.24936262
O      1.93155973     5.52859895     6.47410412
O      1.93595559     5.58864923     1.68070743
O      1.91833490     3.28372454     4.97261434
O      5.80789581     3.35318350     0.09999685
O      7.67872441     4.43992290     3.28226201
O      5.95026427     5.37265995     6.51985050
O      5.80789000     5.58864923     1.68070743
O      5.65777156     3.28533449     5.10729690
O      6.90262551     3.97124886     8.54700078
O     -3.87192860     6.70637706     0.09999685
O     -1.92187006     7.81940670     3.24579059
O     -3.91410020     8.92167783     6.43148526
O     -3.87192860     8.94183273     1.68070743
O      7.73155068     6.70707635     4.82719580
O     -1.79720510     7.73908066     8.15332815
O     -0.00000581     6.70637706     0.09999685
O      1.94411618     7.81764991     3.28262695
O      0.01740140     8.88893341     6.38243349
O     -0.00000581     8.94183273     1.68070743
O     -0.01574493     6.66043799     4.87611783
O      3.87192860     6.70637706     0.09999685
O      5.79570708     7.81339187     3.23882383
O      3.91241550     9.06771501     6.47689839
O      3.87192860     8.94183273     1.68070743
O      3.92030743     6.73919123     4.91638815
O      5.81151656     7.99217019     8.14750604
O      1.83997836     7.78437324     8.11213759
