82
CIF: Cu-W-CeO2.cif | data_image0
Ce     1.93596140     1.11772783     0.89035214
Ce     0.01422954     2.22313132     3.98453427
Ce    -5.72433613     9.98894613     7.19674879
Ce     5.80789581     1.11772783     0.89035214
Ce     3.84383274     2.21050912     4.03567105
Ce    -1.95983145    10.04862786     7.26515830
Ce     9.67981860     1.11772783     0.89035214
Ce     7.79308392     2.21262467     4.03904827
Ce     7.76134046     0.04500840     7.20312032
Ce     0.00000000     4.47091133     0.89035214
Ce    -1.94757787     5.59734940     4.05054941
Ce    -1.81688245     3.31658601     7.07181790
Ce     3.87193441     4.47091133     0.89035214
Ce     1.92450901     5.59288962     4.04978965
Ce     1.84497663     3.31430393     7.18318529
Ce     7.74385721     4.47091133     0.89035214
Ce     5.80591686     5.62404581     4.05291102
Ce    -1.93596721     7.82410489     0.89035214
Ce    -3.86960555     8.92655643     4.04721253
Ce     7.70280048     6.69543659     7.29801113
Ce     1.93596721     7.82410489     0.89035214
Ce    -0.00364173     8.95262817     4.07474161
Ce    -0.02627758     6.73108825     7.23481996
Ce     5.80789000     7.82410489     0.89035214
Ce     3.86362907     8.95280326     4.02605621
Ce     3.81992487     6.82129634     7.20183579
W      5.43572547     3.51586657     7.09446628
Cu     7.85371148     2.59830167     8.86867798
O      0.00000000     0.00000000     0.09999685
O      1.94612926     1.11705188     3.20967847
O     -0.05883004     2.13466275     6.38526722
O      0.00000000     2.23545567     1.68070743
O     -5.77349534    10.03349248     4.82123641
O      1.81370310     1.18370107     8.03527163
O      3.87192279     0.00000000     0.09999685
O      5.78724518     1.18437036     3.26126171
O      3.82233976     2.39008759     6.38683937
O      3.87192279     2.23545567     1.68070743
O      3.84118158     0.02880072     4.83507285
O      5.80911983     1.82850060     7.87427496
O      7.74385721     0.00000000     0.09999685
O      9.69847406     1.10890687     3.21853066
O      8.07831528     2.17930474     6.18676502
O      7.74385721     2.23545567     1.68070743
O      1.92635077    10.00455816     4.74011768
O      9.36719633     1.50862787     8.46603097
O     -1.93596140     3.35318350     0.09999685
O      0.03845253     4.50917702     3.19647878
O     -2.00844207     5.48970856     6.44515012
O     -1.93596721     5.58864923     1.68070743
O     -1.82019683     3.40865276     4.70641898
O      0.05106767     4.42880163     7.96610703
O      1.93596140     3.35318350     0.09999685
O      3.90737538     4.45372635     3.28975698
O      2.01517395     5.52929050     6.41459449
O      1.93595559     5.58864923     1.68070743
O      1.87193287     3.32336481     4.84103671
O      5.80789581     3.35318350     0.09999685
O      7.67967248     4.45474711     3.26696962
O      5.63835059     5.49403249     6.42253055
O      5.80789000     5.58864923     1.68070743
O      5.80594330     3.33171148     5.18350390
O      6.97264514     4.12937987     8.09718908
O     -3.87192860     6.70637706     0.09999685
O     -1.93731591     7.81908750     3.25009586
O     -3.90440754     8.93380859     6.44556429
O     -3.87192860     8.94183273     1.68070743
O      7.69899406     6.69941377     4.84949007
O     -1.81077590     7.72236263     8.09598397
O     -0.00000581     6.70637706     0.09999685
O      1.91844624     7.78517080     3.22535204
O     -0.00230272     8.96443570     6.41690086
O     -0.00000581     8.94183273     1.68070743
O     -0.01515176     6.68631419     4.89875147
O      3.87192860     6.70637706     0.09999685
O      5.80289342     7.80941744     3.22153649
O      3.91499882     9.05209368     6.43176384
O      3.87192860     8.94183273     1.68070743
O      3.86492564     6.77872333     4.86429158
O      5.67921779     7.87686474     8.06135450
O      4.03376705     4.30012152     8.04292251
O      1.96127985     7.70975193     8.02823126
