85
CIF: 1-NH3-NH2+H_fs.cif | data_image0
Ce     5.79195594    10.04274841     8.74735273
Ce     1.93735049     1.11434335     5.64947293
Ce     0.00000000     2.23543938     2.47426506
Ce     3.92512052     0.03406063     8.82859984
Ce     5.81024176     1.10874430     5.60788503
Ce     3.87189458     2.23543938     2.47426506
Ce     1.87009243    10.05806682     8.82211983
Ce     9.67484425     1.10454816     5.63132996
Ce     7.74390532     2.23543938     2.47426506
Ce     9.64993188     3.29942034     8.79687659
Ce     0.00040180     4.44210374     5.61283728
Ce    -1.93600537     5.58869904     2.47426506
Ce     1.99884558     3.37111489     8.82894665
Ce     3.86863764     4.47155708     5.60802391
Ce     1.93588921     5.58869904     2.47426506
Ce     5.81887446     3.35247977     8.73235522
Ce     7.75143294     4.47135219     5.61634292
Ce     5.80789995     5.58869904     2.47426506
Ce     7.68909524     6.69570649     8.79688328
Ce    -1.95737502     7.83261062     5.61235973
Ce    -3.87195266     8.94185811     2.47426506
Ce     1.94406534     7.82458583     5.61750480
Ce    -0.00005808     8.94185811     2.47426506
Ce     3.84401175     6.63871891     8.82250714
Ce     5.79746175     7.82028001     5.63118449
Ce     3.87195266     8.94185811     2.47426506
Fe    -0.03142017     6.68221277     8.17330678
O      5.80868472    10.05542453     6.43985448
O     -0.03351080     2.27844220     9.49921575
O      1.93594729     1.11771969     3.26466483
O      0.00052320     2.21976663     4.81436506
O      0.00000000     0.00000000     1.68386529
O      1.93459618     1.11004949     8.00128780
O     -1.95337342     9.99681005     6.46386464
O      3.90282496     2.24653996     9.54223690
O      5.80795803     1.11771969     3.26466483
O      3.85461084     2.22246958     4.83527133
O      3.87189458     0.00000000     1.68386529
O      5.80696558     1.16724166     7.87239433
O      1.94435179     9.99495348     6.45336686
O      7.74296441     2.23650992     9.52710711
O      9.67985261     1.11771969     3.26466483
O      7.76578657     2.22083874     4.82607705
O      7.74390532     0.00000000     1.68386529
O      9.67307909     1.09251616     7.97495074
O     -1.88688882     3.34510946     6.45729512
O     -2.39117596     5.31772381     9.97481421
O      0.00000000     4.47087876     3.26466483
O     -1.95470060     5.57479528     4.80997814
O     -1.93594729     3.35315907     1.68386529
O     -0.02812460     4.76408561     8.05420357
O      1.87815981     3.36191351     6.46408571
O      2.42865800     5.27605268     9.83300454
O      3.87201074     4.47087876     3.26466483
O      1.94414319     5.57349980     4.80564604
O      1.93594729     3.35315907     1.68386529
O      3.91958350     4.43629744     7.87226330
O      5.83453363     3.36442242     6.36972550
O      5.81413294     5.57577360     9.52781289
O      7.74390532     4.47087876     3.26466483
O      5.80816717     5.61132180     4.82571302
O      5.80795803     3.35315907     1.68386529
O      7.75467652     4.47125704     7.92607770
O     -3.85046557     6.74678906     6.45668103
O     -3.84590118     8.87999845     9.49967060
O     -1.93600537     7.82413842     3.26466483
O     -3.88328398     8.94592309     4.81425422
O     -3.87195266     6.70641873     1.68386529
O     -1.69123219     7.64303915     8.05573010
O     -0.01156511     6.69596583     6.27254876
O     -0.01810748     9.51404429     9.83225659
O      1.93600537     7.82413842     3.26466483
O     -0.00645631     8.95253571     4.80522017
O     -0.00005808     6.70641873     1.68386529
O      1.64941742     7.65220340     8.04180401
O      3.82452631     6.73962756     6.45336133
O      3.79720495     8.89201890     9.50300761
O      5.80789995     7.82413842     3.26466483
O      3.88010298     8.94375889     4.81180627
O      3.87195266     6.70641873     1.68386529
O      5.78835788     7.82093066     7.97487427
N     -0.05198022     6.66913279    10.02893578
H     -0.03508064     7.67044922    10.31428414
H      0.82444810     6.18282206    10.31345824
H     -1.52551408     5.81678548    10.18448432
