87
CIF: 2-NH2+H+NO-NH2NO+H_ts.cif | data_image0
Ce     5.74131448    10.02490379     8.75622798
Ce     1.91501212     1.09604272     5.62711574
Ce     0.00000000     2.23543938     2.47426506
Ce    -1.89123058    10.02540149     8.83694769
Ce     5.78021801     1.10503712     5.61821627
Ce     3.87189458     2.23543938     2.47426506
Ce     7.65040120     0.03361776     8.83368199
Ce     9.65138867     1.10520805     5.61930559
Ce     7.74390532     2.23543938     2.47426506
Ce     9.59953289     3.27307720     8.75786260
Ce    -0.01147559     4.44237663     5.61320784
Ce    -1.93600537     5.58869904     2.47426506
Ce     1.91978932     3.17885656     8.82405356
Ce     3.82862399     4.48545032     5.65784515
Ce     1.93588921     5.58869904     2.47426506
Ce     5.75176102     3.36600314     8.75212993
Ce     7.72639720     4.48062795     5.61104467
Ce     5.80789995     5.58869904     2.47426506
Ce     7.68029751     6.70556454     8.77584238
Ce    -1.96114031     7.81625563     5.62232728
Ce    -3.87195266     8.94185811     2.47426506
Ce     1.92986069     7.82329308     5.62838024
Ce    -0.00005808     8.94185811     2.47426506
Ce     3.85606726     6.73015035     8.90818513
Ce     5.77222033     7.81771943     5.62782025
Ce     3.87195266     8.94185811     2.47426506
Fe     0.00946397     6.64964088     8.22337316
O      5.77047061    10.05126590     6.43363621
O     -0.10178028     2.20333877     9.43087351
O      1.93594729     1.11771969     3.26466483
O     -0.01598816     2.21296981     4.80236582
O      0.00000000     0.00000000     1.68386529
O      1.90773870     1.06450894     7.99606925
O     -1.97046689     9.97333711     6.46973151
O      3.86450251     2.17700138     9.51988323
O      5.80795803     1.11771969     3.26466483
O      3.84173537     2.21885877     4.84559975
O      3.87189458     0.00000000     1.68386529
O      5.78724507     1.16510459     7.87381304
O      1.91019087     9.98208964     6.45087652
O      7.69540441     2.27125881     9.54810900
O      9.67985261     1.11771969     3.26466483
O      7.72440793     2.22947031     4.84404901
O      7.74390532     0.00000000     1.68386529
O      9.59382303     1.12525680     7.93222424
O     -1.88674066     3.35102735     6.43611263
O     -2.58011031     5.18768276    10.20630185
O      0.00000000     4.47087876     3.26466483
O     -1.96251626     5.57378288     4.81372850
O      9.67985261     3.35315907     1.68386529
O     -0.03619240     4.72922746     8.11661125
O      1.84422922     3.31727138     6.45536431
O      2.62949068     4.96231061    10.56940482
O      3.87201074     4.47087876     3.26466483
O      1.92759213     5.56512285     4.81559429
O      1.93594729     3.35315907     1.68386529
O      3.72264640     4.44166270     8.00808089
O      5.75678297     3.40485524     6.43286761
O      5.89269990     5.51149888     9.55078704
O      7.74390532     4.47087876     3.26466483
O      5.78568776     5.59866154     4.82512152
O      5.80795803     3.35315907     1.68386529
O      7.78736724     4.47694814     7.89288086
O     -3.88832387     6.74098040     6.43724910
O     -3.84183120     8.85537506     9.52848040
O     -1.93600537     7.82413842     3.26466483
O     -3.89716348     8.94120501     4.81052846
O      7.74384724     6.70641873     1.68386529
O     -1.74560672     7.58529652     8.05452400
O     -0.01069522     6.67625574     6.31423634
O     -0.02674576     9.50352770     9.84575847
O      1.93600537     7.82413842     3.26466483
O     -0.02364983     8.94252982     4.81104220
O     -0.00005808     6.70641873     1.68386529
O      1.62008240     7.66619012     8.10270022
O      3.81137654     6.73969995     6.43680976
O      3.81937105     9.06422573     9.56426247
O      5.80789995     7.82413842     3.26466483
O      3.85727170     8.94601304     4.80670100
O      3.87195266     6.70641873     1.68386529
O      5.78582782     7.82572800     7.99409534
O      1.65498452     3.25991960    11.42229901
N     -0.05670100     6.63950810    10.04970734
N      2.23811490     4.34514927    11.66226142
H     -0.85991626     6.08060477    10.39935556
H     -0.09793117     7.62558388    10.37861784
H      8.50133583     4.91226236    10.97710217
