85
CIF: NH3.cif | data_image0
Ce     5.81424734    10.02584680     8.73982474
Ce     1.91126979     1.12976874     5.62424813
Ce     0.00000000     2.23543938     2.47426506
Ce    -1.97425477    10.01555280     8.72326184
Ce     5.81093457     1.09364819     5.60984123
Ce     3.87189458     2.23543938     2.47426506
Ce     1.98533103    10.01660887     8.72254480
Ce     9.71089473     1.12983282     5.62443408
Ce     7.74390532     2.23543938     2.47426506
Ce     9.60870577     3.35982843     8.85081382
Ce     0.00300724     4.52874672     5.68086892
Ce    -1.93600537     5.58869904     2.47426506
Ce     2.01932969     3.35924860     8.85083652
Ce     3.87440849     4.45784609     5.60887253
Ce     1.93588921     5.58869904     2.47426506
Ce     5.81371106     3.28332806     8.74081444
Ce     7.74806381     4.45773126     5.60921569
Ce     5.80789995     5.58869904     2.47426506
Ce     7.73850503     6.58137107     8.82384818
Ce    -1.97345415     7.81057573     5.60347474
Ce    -3.87195266     8.94185811     2.47426506
Ce     1.98017057     7.81046687     5.60335584
Ce    -0.00005808     8.94185811     2.47426506
Ce     3.89009261     6.58093474     8.82296844
Ce     5.81170099     7.79820883     5.63729248
Ce     3.87195266     8.94185811     2.47426506
Fe     0.00604609     6.99318833     8.26187252
O      5.81176039    10.04407985     6.43898167
O      0.00581019     2.35795873     9.46307314
O      1.93594729     1.11771969     3.26466483
O      0.00230490     2.23713605     4.82301286
O      0.00000000     0.00000000     1.68386529
O      1.93141774     1.08521951     7.96723414
O     -1.95864155     9.98365580     6.45704266
O      3.89401830     2.14113222     9.55062658
O      5.80795803     1.11771969     3.26466483
O      3.84058351     2.21242494     4.83706058
O      3.87189458     0.00000000     1.68386529
O      5.81286991     1.11846295     7.93069153
O      1.96568980     9.98343431     6.45760658
O      7.73344123     2.14121698     9.55119126
O      9.67985261     1.11771969     3.26466483
O      7.77965502     2.21251642     4.83782750
O      7.74390532     0.00000000     1.68386529
O      9.69396391     1.08583332     7.96610628
O     -1.84489775     3.38026263     6.49370098
O     -2.45593639     5.21660719     9.90867465
O      0.00000000     4.47087876     3.26466483
O     -1.92882877     5.58441841     4.82332173
O     -1.93594729     3.35315907     1.68386529
O      0.00545085     5.07318657     8.04974538
O      1.85157431     3.37976292     6.49349283
O      2.46975807     5.21756824     9.90921951
O      3.87201074     4.47087876     3.26466483
O      1.93288420     5.58428147     4.82407522
O      1.93594729     3.35315907     1.68386529
O      3.92376218     4.39882577     7.88709105
O      5.81158509     3.31295987     6.36320392
O      5.81425339     5.49562684     9.55447402
O      7.74390532     4.47087876     3.26466483
O      5.80943335     5.57302856     4.80669992
O      5.80795803     3.35315907     1.68386529
O      7.70069186     4.39797257     7.88736995
O      7.72706710     6.69984323     6.41936931
O     -3.81286052     8.91917277     9.52110556
O     -1.93600537     7.82413842     3.26466483
O     -3.88670878     8.95211321     4.81128898
O     -3.87195266     6.70641873     1.68386529
O     -1.85647425     7.47786178     8.02393483
O      0.00359824     6.87997887     6.32994621
O      0.00586114     8.80192039     9.05168885
O      1.93600537     7.82413842     3.26466483
O      0.00244697     8.98333722     4.78079435
O     -0.00005808     6.70641873     1.68386529
O      1.86453976     7.47668226     8.02074844
O      3.89796681     6.69960433     6.41974903
O      3.82571857     8.91660888     9.51672265
O      5.80789995     7.82413842     3.26466483
O      3.89159302     8.95315101     4.81246154
O      3.87195266     6.70641873     1.68386529
O      5.81455263     7.80382483     8.01287220
N      0.00778050     6.49802568    10.17446922
H      0.00920670     7.34522218    10.74480592
H      0.89117790     5.94635851    10.29875078
H     -0.87583353     5.94720010    10.30092769
