84
CIF: Y-Fe-CeO2-CO.cif | data_image0
Ce     1.93038582     1.11050507     0.88387043
Ce    -0.01902709     2.22841411     4.03864639
Ce    -5.76912401    10.05309451     7.23987105
Ce     5.81181033     1.12175166     0.90127712
Ce     3.82619596     2.17852666     3.95916728
Ce    -1.87635272    10.01098782     7.29903427
Ce     9.66901012     1.12377363     0.90450652
Ce     7.73332640     2.23414553     4.15207286
Ce     1.96717850    10.00513114     7.33404103
Ce    -0.00709724     4.47602159     0.89067279
Ce    -1.93693135     5.58001973     4.07297846
Ce    -1.87293660     3.34132706     7.27554093
Ce     3.86254305     4.47635356     0.87798423
Ce     1.94674105     5.57880030     4.03759909
Ce     1.85795535     3.30025895     7.18673981
Ce     7.74213807     4.46545905     0.90125422
Ce     5.83293742     5.65497111     3.96811376
Ce    -1.94645625     7.83004003     0.90010904
Ce    -3.85800122     8.93450444     4.09506788
Ce    -3.78826087     6.69541792     7.30319226
Ce     1.92815559     7.82745473     0.89060408
Ce     0.01380749     8.94682931     4.08253007
Ce     0.03546875     6.67903053     7.23140153
Ce     5.81127600     7.83258510     0.88371011
Ce     3.86029525     8.96181766     4.06192547
Ce     3.88260514     6.78930373     7.21337719
Fe     4.83744408     3.90728028     6.36921082
Y      6.36719891     3.06785862     8.29325508
O     11.61334069     0.00154917     0.10141687
O      1.92427367     1.08955474     3.22217591
O      0.04728205     2.21822895     6.41009863
O     -0.00785227     2.23805103     1.69392277
O     -5.76894938    10.04280090     4.90032592
O      2.01203971     1.15495239     8.00375061
O     -1.93899312    10.05733740     0.10496691
O      5.72726413     1.08088218     3.24963849
O      3.94349739     2.33526502     6.38165270
O      3.86763657     2.23577757     1.68132582
O      3.84842585     0.01973755     4.92867335
O      5.71863599     0.97588380     8.37612503
O      7.73821774     0.00761509     0.10924988
O      9.73714189     1.08912716     3.26190430
O      7.73428307     2.32663331     6.77315492
O      7.74357843     2.23531483     1.71563532
O      1.93851749     9.99182239     4.90625462
O      9.91285435     1.13925647     8.11401141
O      9.67032270     3.35425987     0.10911246
O     -0.00078566     4.47644170     3.23948664
O     -1.92850975     5.59934562     6.46050753
O     -1.94403436     5.59119430     1.70564938
O     -1.88196851     3.37977983     4.94154169
O      0.05941413     4.44594857     8.03715861
O      1.92738314     3.35244915     0.09928684
O      3.84473460     4.49370747     3.19382072
O      2.01339262     5.51098912     6.43837585
O      1.92862022     5.59252216     1.67404250
O      1.92667947     3.31964976     4.84384956
O      4.13346489     4.31904733     7.99995084
O      5.81155478     3.35101064     0.10766953
O      7.73810462     4.55533651     3.25587800
O      5.79994387     5.44017691     6.41730753
O      5.80528807     5.59217007     1.68114259
O      5.65779561     3.43350530     4.82706206
O      7.98823685     4.55589719     8.39345604
O     -3.87155109     6.71022987     0.10512724
O     -1.93773347     7.82235125     3.28652976
O     -3.82569654     8.91627070     6.50051893
O     -3.87509971     8.94378428     1.69355631
O      7.72064043     6.71888203     4.93344159
O     -1.91648649     7.79307307     8.10222776
O     -0.01209783     6.71325780     0.10434852
O      1.93606812     7.80558056     3.24521093
O     -0.04779978     8.89225598     6.46451217
O     -0.00628994     8.94736548     1.70514550
O      0.03427125     6.67566214     4.90262398
O      1.98232217     7.63817323     8.07770187
O      3.86815347     6.71410280     0.09951587
O      5.82109912     7.84228612     3.23235569
O      3.95907943     8.90689485     6.45774167
O      3.86556896     8.94715423     1.69389986
O      3.89664948     6.72025770     4.87663648
O      5.84707568     7.71714503     8.03239776
O      4.99499787     3.91155408    11.80560339
C      5.48234722     3.61299079    10.81949316
