85
CIF: Y-Fe-CeO2-O-CO.cif | data_image0
Ce     1.93038582     1.11050507     0.88387043
Ce    -0.01583603     2.22694185     4.03296527
Ce    -5.78859746    10.04989395     7.21980746
Ce     5.81181033     1.12175166     0.90127712
Ce     3.82502836     2.19282463     3.96443241
Ce    -1.86497038     9.99715177     7.27095198
Ce     9.66901012     1.12377363     0.90450652
Ce     7.73517864     2.23691049     4.11831193
Ce     1.95805860    10.01276566     7.27989502
Ce    -0.00709724     4.47602159     0.89067279
Ce    -1.93676198     5.58167715     4.08158802
Ce    -1.88162940     3.33227683     7.27383040
Ce     3.86254305     4.47635356     0.87798423
Ce     1.94969009     5.57864421     4.04443094
Ce     1.86005188     3.29193211     7.19392313
Ce     7.74213807     4.46545905     0.90125422
Ce     5.83203420     5.65482784     3.97646147
Ce    -1.94645625     7.83004003     0.90010904
Ce    -3.85616465     8.93004343     4.09436225
Ce    -3.79597594     6.68233032     7.34205174
Ce     1.92815559     7.82745473     0.89060408
Ce     0.00962463     8.94495483     4.06438596
Ce     0.04157820     6.68011065     7.21600107
Ce     5.81127600     7.83258510     0.88371011
Ce     3.86799995     8.96023082     4.04153529
Ce     3.87935320     6.81430453     7.20719043
Fe     4.85790322     3.89649961     6.36918465
Y      6.39106864     3.00974082     8.29996949
O     11.61334069     0.00154917     0.10141687
O      1.92528577     1.09935553     3.21421825
O      0.02920404     2.22739275     6.37763844
O     -0.00785227     2.23805103     1.69392277
O     -5.78856923    10.05645674     4.85354984
O      1.99247563     1.16742906     7.99466487
O     -1.93899312    10.05733740     0.10496691
O      5.79871692     1.14059582     3.24859279
O      3.95185484     2.32545165     6.35984697
O      3.86763657     2.23577757     1.68132582
O      3.86906010     0.02662203     4.87571128
O      5.73972219     0.92775571     8.34331027
O      7.73821774     0.00761509     0.10924988
O      9.67477286     1.12702620     3.24353513
O      7.66627619     2.32486177     6.64089045
O      7.74357843     2.23531483     1.71563532
O      7.74977414     0.05508038     4.83221041
O      9.85737977     1.14429856     8.09047385
O      9.67032270     3.35425987     0.10911246
O     -0.00975066     4.46464115     3.24600553
O     -1.86488517     5.54400614     6.41454129
O     -1.94403436     5.59119430     1.70564938
O      9.64065433     3.30922825     4.87970560
O      0.08587632     4.42798570     8.04134311
O      1.92738314     3.35244915     0.09928684
O      3.84979891     4.48512477     3.19279758
O      2.02467044     5.50949971     6.42332699
O      1.92862022     5.59252216     1.67404250
O      1.92836494     3.31642840     4.83210679
O      5.81155478     3.35101064     0.10766953
O      7.72960276     4.45770846     3.25589733
O      5.77793880     5.45020683     6.39809618
O      5.80528807     5.59217007     1.68114259
O      5.70444512     3.41264742     4.81240866
O      8.07647623     4.35454829     8.44777918
O     -3.87155109     6.71022987     0.10512724
O     -1.92562800     7.82262063     3.27097568
O     -3.83557228     8.96448098     6.45989602
O     -3.87509971     8.94378428     1.69355631
O      7.72995351     6.70064117     4.85160037
O     -1.78285195     7.85799488     8.07881945
O     -0.01209783     6.71325780     0.10434852
O      1.93956924     7.82289834     3.24360136
O     -0.00695012     8.90641654     6.37311928
O     -0.00628994     8.94736548     1.70514550
O      0.04457528     6.67851598     4.86571671
O      1.97698740     7.66114033     8.05017848
O      3.86815347     6.71410280     0.09951587
O      5.81304434     7.84374002     3.21821668
O      3.91665265     8.93016399     6.37144929
O      3.86556896     8.94715423     1.69389986
O      3.89810902     6.72097381     4.84480848
O      5.69655078     7.83434663     8.04457847
O      4.17188523     4.28212722     7.99983182
O      7.00625472     2.45567682    10.80125307
O      8.23542003     0.86663269    12.02147391
C      7.62573339     1.65247629    11.40734725
