81
CIF: Rh-Cr-CeO2-Ov.cif | data_image0
Ce     1.93038582     1.11050507     0.88387043
Ce    -0.01090495     2.23371067     4.02214330
Ce    -5.80245476    10.05759728     7.24412741
Ce     5.81181033     1.12175166     0.90127712
Ce     3.80883872     2.20428063     3.94628190
Ce     3.91792971     0.00438559     7.39654081
Ce     9.66901012     1.12377363     0.90450652
Ce     7.80438924     2.21157950     4.04317539
Ce     1.95474316    10.04258594     7.24156227
Ce    -0.00709724     4.47602159     0.89067279
Ce    -1.94761893     5.58646779     4.07808414
Ce    -1.93944145     3.35958588     7.23695683
Ce     3.86254305     4.47635356     0.87798423
Ce     1.94765958     5.58937108     4.07708026
Ce     1.65750940     3.30106712     7.22140273
Ce     7.74213807     4.46545905     0.90125422
Ce     5.79586925     5.63581672     4.02782644
Ce    -1.94645625     7.83004003     0.90010904
Ce    -3.87703494     8.94766307     4.12009030
Ce    -3.78235643     6.75901865     7.31437377
Ce     1.92815559     7.82745473     0.89060408
Ce     0.00104641     8.96297379     4.08176665
Ce    -0.00487864     6.73250732     7.24585442
Ce     5.81127600     7.83258510     0.88371011
Ce     3.87115635     8.92889410     4.04262321
Ce     3.81489156     6.89729805     7.28701548
Cr     5.42565847     3.57587655     6.65548065
Rh     6.80360292     2.83385796     8.14444183
O     11.61334069     0.00154917     0.10141687
O      1.92202286     1.11027097     3.20732001
O     -0.07961179     2.23872819     6.37980088
O     -0.00785227     2.23805103     1.69392277
O      0.02193390     0.01591768     4.88315131
O      1.80316427     1.22639986     8.04375680
O     -1.93899312    10.05733740     0.10496691
O      5.79714126     1.14533030     3.23240083
O      3.95666097     2.71541961     6.91524777
O      3.86763657     2.23577757     1.68132582
O      3.86026054     0.17539295     4.93247913
O      6.03586139     0.97928983     8.33223687
O      7.73821774     0.00761509     0.10924988
O      9.69759599     1.11289513     3.24306044
O      7.87121712     2.17804062     6.37834880
O      7.74357843     2.23531483     1.71563532
O      1.93283061    10.04262064     4.82651160
O      9.72790021     1.11703031     8.08744978
O      9.67032270     3.35425987     0.10911246
O      0.02583130     4.47401140     3.25222793
O     -1.91009964     5.59707455     6.42272249
O     -1.94403436     5.59119430     1.70564938
O     -1.91190947     3.37527994     4.83974444
O     -0.06037550     4.43937702     8.10059420
O      1.92738314     3.35244915     0.09928684
O      3.80243755     4.41820806     3.23657191
O      1.96878560     5.46333621     6.56641436
O      1.92862022     5.59252216     1.67404250
O      1.93968591     3.26557917     4.91390089
O      5.81155478     3.35101064     0.10766953
O      7.77282054     4.43715890     3.25688852
O      5.57878489     5.28618248     6.71675462
O      5.80528807     5.59217007     1.68114259
O      5.77237412     3.25002477     4.96565484
O      7.92768605     4.53183817     8.23233485
O     -3.87155109     6.71022987     0.10512724
O     -1.94851363     7.84731486     3.31499697
O     -3.84190242     8.95639554     6.45564921
O     -3.87509971     8.94378428     1.69355631
O      7.72217315     6.70556721     4.99647276
O     -1.91221105     7.73464450     8.12166125
O     -0.01209783     6.71325780     0.10434852
O      1.91853381     7.81125093     3.23397300
O     -0.00211120     8.93799835     6.39568523
O     -0.00628994     8.94736548     1.70514550
O      0.04824833     6.68396021     4.90224505
O      1.80996642     7.87383637     8.09085117
O      3.86815347     6.71410280     0.09951587
O      5.81993533     7.90107078     3.23643786
O      3.87829888     9.01871634     6.42665403
O      3.86556896     8.94715423     1.69389986
O      3.80727324     6.75199796     4.88810784
O      5.92778675     7.84906951     8.02871231
