85
CIF: Rh-Cr-CeO2-O-CO.cif | data_image0
Ce     1.93038582     1.11050507     0.88387043
Ce    -0.00581457     2.22813348     4.03151625
Ce    -5.77399838    10.05746680     7.22587819
Ce     5.81181033     1.12175166     0.90127712
Ce     3.84069512     2.21845848     4.02602965
Ce    -1.90218515    10.04597433     7.31203800
Ce     9.66901012     1.12377363     0.90450652
Ce     7.74651384     2.24305388     4.06535185
Ce     2.01115369     9.96188399     7.24108217
Ce    -0.00709724     4.47602159     0.89067279
Ce    -1.94287437     5.58228941     4.05596036
Ce    -1.83107752     3.34851990     7.23147010
Ce     3.86254305     4.47635356     0.87798423
Ce     1.93486402     5.58642623     4.05064524
Ce     1.85842285     3.32226298     7.20877323
Ce     7.74213807     4.46545905     0.90125422
Ce     5.80391625     5.61198989     4.04131963
Ce    -1.94645625     7.83004003     0.90010904
Ce    -3.86460017     8.94501582     4.07608262
Ce    -3.81698494     6.71416187     7.23042619
Ce     1.92815559     7.82745473     0.89060408
Ce    -0.00289731     8.95180643     4.07490259
Ce     0.00441355     6.69022240     7.20479840
Ce     5.81127600     7.83258510     0.88371011
Ce     3.88322253     8.94648892     4.03376190
Ce     3.87165092     6.76679465     7.20479607
Cr     5.16879265     3.72102617     6.79296842
Rh     6.69108353     2.86985015     8.04478136
O     11.61334069     0.00154917     0.10141687
O      1.92869525     1.11718873     3.23285966
O     -0.00369804     2.24231168     6.38760875
O     -0.00785227     2.23805103     1.69392277
O      0.00942055     0.01864998     4.87911996
O      1.84131268     1.20373890     8.04494868
O     -1.93899312    10.05733740     0.10496691
O      5.81807074     1.16203885     3.26543977
O      3.92214907     2.36045398     6.46820329
O      3.86763657     2.23577757     1.68132582
O      3.88137020     0.02929468     4.86325062
O      6.07063011     0.98954798     8.26718792
O      7.73821774     0.00761509     0.10924988
O      9.67143970     1.12316204     3.24370887
O      7.75233006     2.24041315     6.54671196
O      7.74357843     2.23531483     1.71563532
O      7.76679377     0.04021480     4.88748023
O      9.74589560     1.09350865     8.03027684
O      9.67032270     3.35425987     0.10911246
O     -0.00586172     4.46514825     3.24939274
O     -1.89963042     5.54514197     6.41011442
O     -1.94403436     5.59119430     1.70564938
O      9.66213055     3.31109961     4.88882685
O      0.01979491     4.44305082     8.06128390
O      1.92738314     3.35244915     0.09928684
O      3.80999362     4.42978687     3.23158541
O      1.90297652     5.58030979     6.42371905
O      1.92862022     5.59252216     1.67404250
O      1.92339797     3.32782834     4.87755021
O      5.81155478     3.35101064     0.10766953
O      7.77594403     4.41321101     3.25854280
O      5.77047774     5.46125098     6.52183053
O      5.80528807     5.59217007     1.68114259
O      5.73875324     3.34519636     5.04909953
O      7.93165946     4.44329722     8.18611038
O     -3.87155109     6.71022987     0.10512724
O     -1.93813072     7.82794262     3.25785915
O     -3.88301172     8.92552775     6.45331595
O     -3.87509971     8.94378428     1.69355631
O     -3.82988184     6.72203214     4.93112645
O     -1.92840273     7.67864659     8.05772546
O     -0.01209783     6.71325780     0.10434852
O      1.92939997     7.83457239     3.24693026
O      0.07411557     8.89271815     6.43372542
O     -0.00628994     8.94736548     1.70514550
O     -0.00835819     6.70439774     4.85480650
O      2.00315476     7.78947351     8.06321705
O      3.86815347     6.71410280     0.09951587
O      5.81215777     7.90224467     3.23557044
O      3.90590621     8.93968252     6.41792150
O      3.86556896     8.94715423     1.69389986
O      3.82325108     6.74147102     4.90470966
O      5.82247155     7.78176477     8.00245965
O      3.88472240     4.46177755     7.87681720
O      5.73665809     3.43364298    10.00486291
O      5.96684213     3.34808962    12.34295018
C      5.86662615     3.38257568    11.17656786
