85
CIF: 1-NH3-NH2+H_fs.cif | data_image0
Ce     5.78405910    10.05823919     8.75638004
Ce     1.93212311     1.09135588     5.62718268
Ce     0.00000000     2.23543938     2.47426506
Ce     3.93822269     0.01354089     8.84724482
Ce     5.80347943     1.12229615     5.61299022
Ce     3.87189458     2.23543938     2.47426506
Ce     7.63041375     0.08730589     8.86880451
Ce     9.65151690     1.12088485     5.63457486
Ce     7.74390532     2.23543938     2.47426506
Ce     9.57465986     3.31748510     8.83306519
Ce    -0.03510891     4.44026663     5.60301648
Ce    -1.93600537     5.58869904     2.47426506
Ce     1.91954650     3.27233916     8.75325287
Ce     3.85315924     4.48334632     5.61951573
Ce     1.93588921     5.58869904     2.47426506
Ce     5.76320851     3.39147519     8.74730772
Ce     7.73974024     4.47500917     5.61945010
Ce     5.80789995     5.58869904     2.47426506
Ce     7.73109156     6.70026969     8.80637234
Ce    -1.90541631     7.80758239     5.66205087
Ce    -3.87195266     8.94185811     2.47426506
Ce     1.93106975     7.86338791     5.60572303
Ce    -0.00005808     8.94185811     2.47426506
Ce     3.91167941     6.75929934     8.75318045
Ce     5.81749300     7.84152528     5.61305875
Ce     3.87195266     8.94185811     2.47426506
Pt     0.23286723     6.54986631     8.41468789
O     11.59548885     0.01057978     6.43812228
O      0.02280076     2.21541902     9.54023741
O      1.93594729     1.11771969     3.26466483
O      0.00422386     2.22327511     4.81070232
O      0.00000000     0.00000000     1.68386529
O      1.92942688     1.09845387     7.96490858
O     -1.94666773     9.98592978     6.46951188
O      3.81157973     2.28645052     9.56073947
O      5.80795803     1.11771969     3.26466483
O      3.83752760     2.23254833     4.84444727
O      3.87189458     0.00000000     1.68386529
O      5.78494699     1.19649978     7.89432194
O      7.75090213     0.01526278     6.40946372
O      7.66716226     2.28982900     9.59535715
O      9.67985261     1.11771969     3.26466483
O      7.73028775     2.24214263     4.80112405
O      7.74390532     0.00000000     1.68386529
O      9.64324316     1.11655311     8.02380163
O      9.65695406     3.31660590     6.41116322
O     -2.47269868     5.33664547    10.05429628
O      0.00000000     4.47087876     3.26466483
O     -1.94173108     5.58359061     4.82206080
O     -1.93594729     3.35315907     1.68386529
O     -0.36349082     4.61274378     8.10978031
O      1.84708370     3.37167509     6.48549093
O      1.90890879     5.59109765     9.06610918
O      3.87201074     4.47087876     3.26466483
O      1.97549294     5.55905648     4.78735045
O      1.93594729     3.35315907     1.68386529
O      3.91947630     4.44768931     7.93154117
O      5.80950158     3.38068603     6.37863361
O      5.75626551     5.64002777     9.55026997
O      7.74390532     4.47087876     3.26466483
O      5.79161041     5.62600279     4.83957124
O      5.80795803     3.35315907     1.68386529
O      7.71748773     4.48858750     7.94545811
O     -3.82911831     6.75535223     6.46346481
O     -3.81553332     8.86947659     9.48536384
O     -1.93600537     7.82413842     3.26466483
O     -3.87753802     8.94480111     4.82108348
O     -3.87195266     6.70641873     1.68386529
O     -1.59229498     7.59121754     8.04991762
O      0.11591937     6.62814394     6.29291247
O     -0.08011231     9.61157142     9.93571543
O      1.93600537     7.82413842     3.26466483
O     -0.00395528     8.94311385     4.81727023
O     -0.00005808     6.70641873     1.68386529
O      1.58081214     8.03886616     8.11107377
O      3.79531203     6.77394078     6.48286065
O      3.88997647     8.89022619     9.54220080
O      5.80789995     7.82413842     3.26466483
O      3.88115372     8.94104559     4.80740751
O      3.87195266     6.70641873     1.68386529
O      5.80673780     7.83366547     7.94299928
N     -0.14333117     6.64942519    10.38635671
H     -0.14580783     7.66737944    10.58371937
H      0.67049779     6.25263430    10.87458901
H     -1.60880943     5.82621794    10.34124977
