87
CIF: 3-NH2NO+H-NHNO+2H_is.cif | data_image0
Ce     5.80093313    10.05634924     8.79650943
Ce     1.94292980     1.10692245     5.62043132
Ce     0.00000000     2.23543938     2.47426506
Ce    -1.88963937    10.01885901     8.81342469
Ce     5.80411983     1.11879323     5.61352153
Ce     3.87189458     2.23543938     2.47426506
Ce     7.65362297     0.04967289     8.84630625
Ce     9.66706449     1.11092873     5.63737796
Ce     7.74390532     2.23543938     2.47426506
Ce     9.61327705     3.28001282     8.79608893
Ce    -0.00900785     4.43392027     5.58660392
Ce    -1.93600537     5.58869904     2.47426506
Ce     1.98046875     3.23041902     8.77597891
Ce     3.86440038     4.48947468     5.63162763
Ce     1.93588921     5.58869904     2.47426506
Ce     5.80192508     3.38135255     8.74845249
Ce     7.74743033     4.47993578     5.62388390
Ce     5.80789995     5.58869904     2.47426506
Ce    -3.86217827     6.78446635     8.77602931
Ce    -1.95566386     7.83785716     5.67903752
Ce    -3.87195266     8.94185811     2.47426506
Ce     1.95702864     7.84232643     5.59503283
Ce    -0.00005808     8.94185811     2.47426506
Ce     3.99587070     6.74473027     8.82236934
Ce     5.80603445     7.82686789     5.60776250
Ce     3.87195266     8.94185811     2.47426506
Pt     0.87331189     6.16407492     8.16878023
O     11.59829901     0.01116544     6.43278405
O      0.00470323     2.21123638     9.55940468
O      1.93594729     1.11771969     3.26466483
O     -0.00109418     2.23502145     4.80756411
O      0.00000000     0.00000000     1.68386529
O      1.94867746     1.08663350     7.97244179
O      3.88661714     0.00488574     6.40950964
O      3.85741395     2.26471119     9.56872857
O      5.80795803     1.11771969     3.26466483
O      3.86490428     2.24863195     4.81860040
O      3.87189458     0.00000000     1.68386529
O      5.80627632     1.20257474     7.89252861
O      1.93279836    10.01351464     6.44940251
O      7.71393653     2.26780753     9.59274162
O      9.67985261     1.11771969     3.26466483
O      7.74599557     2.22902896     4.82604202
O      7.74390532     0.00000000     1.68386529
O      9.63851432     1.13536050     7.98923478
O     -1.91790450     3.33997489     6.42821376
O     -2.26215773     5.38883940     9.95623562
O      0.00000000     4.47087876     3.26466483
O     -1.91550488     5.58718024     4.82854604
O     -1.93594729     3.35315907     1.68386529
O     -0.08232583     4.46462359     8.04533249
O      1.91583288     3.33563821     6.44636938
O      1.87792431     5.48446991     9.70750292
O      3.87201074     4.47087876     3.26466483
O      1.92882983     5.58727669     4.81248738
O      1.93594729     3.35315907     1.68386529
O      3.86540927     4.48978448     7.98976493
O      5.80461029     3.40531660     6.41225174
O      5.83334831     5.60487700     9.52193527
O      7.74390532     4.47087876     3.26466483
O      5.79520343     5.59944221     4.80451952
O      5.80795803     3.35315907     1.68386529
O      7.78354025     4.47312367     7.96585059
O      7.72056774     6.69529056     6.40430575
O     -3.93029309     8.94951883     9.62600515
O     -1.93600537     7.82413842     3.26466483
O     -3.87770838     8.94619000     4.82342716
O     -3.87195266     6.70641873     1.68386529
O     -2.06865701     7.87274831     7.98230719
O      0.00056228     6.70639242     6.45957894
O     -0.00287513     9.45621039     9.77733530
O      1.93600537     7.82413842     3.26466483
O      0.00884013     8.91993873     4.82111500
O     -0.00005808     6.70641873     1.68386529
O      1.90786671     7.81099501     8.08893549
O      3.87473848     6.73825910     6.43260514
O      3.89557703     8.95315865     9.51859730
O      5.80789995     7.82413842     3.26466483
O      3.86529404     8.94566967     4.80460210
O      3.87195266     6.70641873     1.68386529
O      5.82670679     7.83915289     7.96362755
O      4.56961963     7.32142128    12.36499703
H     -1.43863690     5.84769961    10.21122039
H      2.36001740     6.66702159    13.03040571
H      1.94636923     6.09763922    11.29816008
N      2.56389091     6.52216575    12.03494780
N      3.74645392     6.85115468    11.57172930
