87
CIF: 4-NHNO+2H-N2+OH_is.cif | data_image0
Ce    -5.80325787    10.05403825     8.79207555
Ce     1.94645929     1.09810371     5.60891853
Ce     0.00000000     2.23543938     2.47426506
Ce    -1.87813523     9.98993760     8.81226452
Ce     5.80021189     1.11734910     5.61025617
Ce     3.87189458     2.23543938     2.47426506
Ce     7.65997861     0.05946763     8.83771506
Ce     9.67095597     1.11263135     5.63391007
Ce     7.74390532     2.23543938     2.47426506
Ce     9.61397061     3.28234021     8.78643464
Ce    -0.00916282     4.42673461     5.57832416
Ce    -1.93600537     5.58869904     2.47426506
Ce     1.99044068     3.16730115     8.76975167
Ce     3.85733227     4.50647945     5.65715114
Ce     1.93588921     5.58869904     2.47426506
Ce     5.80119289     3.37151556     8.74721581
Ce     7.74764049     4.48234769     5.62103969
Ce     5.80789995     5.58869904     2.47426506
Ce    -3.83994742     6.77767846     8.77182155
Ce    -1.95795619     7.83832686     5.66633250
Ce    -3.87195266     8.94185811     2.47426506
Ce     1.97362653     7.84298388     5.59827428
Ce    -0.00005808     8.94185811     2.47426506
Ce     4.04618313     6.77538747     8.96470680
Ce     5.79588446     7.81894304     5.62209586
Ce     3.87195266     8.94185811     2.47426506
Pt     0.81335208     6.19577952     8.16199581
O     11.59844377     0.00031869     6.43292085
O      0.03683094     2.19498523     9.55661948
O      1.93594729     1.11771969     3.26466483
O      0.00670031     2.22795618     4.80087951
O      0.00000000     0.00000000     1.68386529
O      1.95200994     1.06909458     7.95187463
O     -1.91951526    10.05442584     6.39928959
O      3.84567222     2.22635008     9.56435380
O      5.80795803     1.11771969     3.26466483
O      3.86306934     2.25233057     4.82380604
O      3.87189458     0.00000000     1.68386529
O      5.80720272     1.19913837     7.88205188
O      1.94036110    10.00903425     6.44828214
O      7.71865062     2.26825746     9.58514666
O      9.67985261     1.11771969     3.26466483
O      7.73856921     2.23244837     4.83164724
O      7.74390532     0.00000000     1.68386529
O      9.65277802     1.17250453     7.96323402
O     -1.89735888     3.34619413     6.40337815
O     -2.28346323     5.37044077     9.98039324
O      0.00000000     4.47087876     3.26466483
O     -1.91606394     5.59186641     4.82368683
O     -1.93594729     3.35315907     1.68386529
O     -0.08431200     4.47520892     8.07279415
O      1.90601021     3.33033390     6.45725518
O      1.80660127     5.53321385     9.80384851
O      3.87201074     4.47087876     3.26466483
O      1.93547654     5.58335566     4.81719241
O      1.93594729     3.35315907     1.68386529
O      3.79561088     4.50384332     8.06075776
O      5.78258284     3.42351988     6.42981975
O      5.90794716     5.52075441     9.44909441
O      7.74390532     4.47087876     3.26466483
O      5.79007555     5.59937687     4.80976122
O      5.80795803     3.35315907     1.68386529
O      7.82937904     4.45605130     7.93500088
O      7.71502961     6.69967093     6.40468617
O     -3.88157279     8.94860911     9.60169807
O     -1.93600537     7.82413842     3.26466483
O     -3.88016512     8.94316165     4.81898697
O     -3.87195266     6.70641873     1.68386529
O     -2.03869431     7.84245514     7.96356770
O      0.01450160     6.69486111     6.43247378
O      0.00203097     9.43481816     9.76532446
O      1.93600537     7.82413842     3.26466483
O      0.01343176     8.91947264     4.81922309
O     -0.00005808     6.70641873     1.68386529
O      1.88634845     7.79631773     8.11604500
O      3.87432608     6.74380509     6.44966700
O      3.85159208     9.04543826     9.45115655
O      5.80789995     7.82413842     3.26466483
O      3.86850539     8.94515904     4.80359396
O      3.87195266     6.70641873     1.68386529
O      5.83553028     7.84136565     8.00340168
O      3.73983074     6.64707667    11.32761626
H     -1.49576628     5.82780745    10.32876719
H      4.85450456     7.37726045    13.20172951
H      1.52370459     5.94856910    10.64062927
N      5.43915085     7.68698037    12.38890428
N      4.88844976     7.31957120    11.33255332
