84
CIF: CO+Olatt—CO2.cif | data_image0
Ce     1.93596140     1.11772783     0.89035214
Ce    -0.00210058     2.24442931     4.06752959
Ce    -5.80436414    10.05601720     7.19239412
Ce     5.80789581     1.11772783     0.89035214
Ce     3.81631380     2.20519742     3.95599013
Ce    -2.06029811     9.94176468     7.17875105
Ce     9.67981860     1.11772783     0.89035214
Ce     7.77480669     2.23875799     4.02717934
Ce     2.05352062    10.02503435     7.32465049
Ce     0.00000000     4.47091133     0.89035214
Ce    -1.93753028     5.58987515     4.08328724
Ce    -1.78800009     3.37988506     7.33900217
Ce     3.87193441     4.47091133     0.89035214
Ce     1.95839687     5.58884652     4.08160107
Ce     1.93810685     3.35287919     7.27356434
Ce     7.74385721     4.47091133     0.89035214
Ce     5.81542414     5.61122675     3.99818403
Ce    -1.93596721     7.82410489     0.89035214
Ce    -3.88190808     8.91912057     4.00696985
Ce    -3.79097301     6.75141674     7.27524431
Ce     1.93596721     7.82410489     0.89035214
Ce     0.00764811     8.96971408     4.08685931
Ce     0.06369848     6.71195941     7.26027325
Ce     5.80789000     7.82410489     0.89035214
Ce     3.87880678     8.94667480     4.06489764
Ce     3.89187992     6.70792229     7.28256287
Mo     5.63837554     3.31300864     6.79494352
O      0.00000000     0.00000000     0.09999685
O      1.91675211     1.10259686     3.19941946
O      0.05074817     2.19577114     6.37956904
O      0.00000000     2.23545567     1.68070743
O     -5.79584755    10.04568061     4.82685066
O      2.01281560     0.97069329     7.99285498
O      3.87192279     0.00000000     0.09999685
O      5.81176345     1.11918166     3.23104947
O      4.16816294     2.18251634     6.37504612
O      3.87192279     2.23545567     1.68070743
O      3.82666561     0.00979872     4.82134585
O      5.82750807     2.11926870     8.37550421
O      7.74385721     0.00000000     0.09999685
O      9.67794104     1.11798424     3.23086749
O      7.41416870     2.60643506     6.49908381
O      7.74385721     2.23545567     1.68070743
O      7.75961473     0.09494070     4.89345459
O      9.83017012     1.06507538     8.07292033
O     -1.93596140     3.35318350     0.09999685
O     -0.00034736     4.48909855     3.27922786
O     -1.97802628     5.64435770     6.41346645
O     -1.93596721     5.58864923     1.68070743
O      9.64985437     3.32239085     4.85845901
O      0.07791278     4.62645407     8.08086411
O      1.93596140     3.35318350     0.09999685
O      3.87796407     4.47261551     3.20244069
O      1.96461436     5.59884144     6.35517641
O      1.93595559     5.58864923     1.68070743
O      2.00384816     3.30885105     4.82156974
O      5.80789581     3.35318350     0.09999685
O      7.73233714     4.45854420     3.24171560
O      6.03090242     5.17247873     6.47961957
O      5.80789000     5.58864923     1.68070743
O      5.70859383     3.34100971     4.80343197
O      8.31831357     4.81781658     8.84776374
O     -3.87192860     6.70637706     0.09999685
O     -1.93274471     7.81520856     3.25039650
O     -3.84169085     8.89868190     6.34382347
O     -3.87192860     8.94183273     1.68070743
O      7.68586892     6.69158301     4.85653215
O     -1.97142162     7.86857825     8.06752852
O     -0.00000581     6.70637706     0.09999685
O      1.94839479     7.84368859     3.28250551
O     -0.07365252     9.10539368     6.49841500
O     -0.00000581     8.94183273     1.68070743
O      0.00003488     6.77040825     4.89737458
O      3.87192860     6.70637706     0.09999685
O      5.80895642     7.82671540     3.20437940
O      3.91951922     8.93929272     6.39649984
O      3.87192860     8.94183273     1.68070743
O      3.98589532     6.66986728     4.85457163
O      5.98458759     7.77533810     7.98371409
O      4.19732662     4.22036128     7.96351892
O      1.86072734     7.77657877     8.09005009
O      4.21615393     4.26456576    10.64533452
Pt     6.76263108     3.78812337     9.14417748
C      5.04322272     4.03207352     9.85359269
