83
CIF: O2—Olatt+Osur.cif | data_image0
Ce     1.93596140     1.11772783     0.89035214
Ce    -0.00656996     2.23672793     4.06545732
Ce     5.81707214    10.03964115     7.18972200
Ce     5.80789581     1.11772783     0.89035214
Ce     3.83258024     2.20088483     3.96071395
Ce    -2.06172629     9.93027296     7.16299174
Ce     9.67981860     1.11772783     0.89035214
Ce     7.77745369     2.22486630     4.01430164
Ce     2.09218413     9.96937319     7.31253068
Ce     0.00000000     4.47091133     0.89035214
Ce    -1.94298933     5.57954691     4.08653806
Ce    -1.79797317     3.36081057     7.37294382
Ce     3.87193441     4.47091133     0.89035214
Ce     1.96302136     5.58540955     4.08918444
Ce     1.89096587     3.34595030     7.25808255
Ce     7.74385721     4.47091133     0.89035214
Ce     5.80925357     5.60163451     3.99099433
Ce    -1.93596721     7.82410489     0.89035214
Ce    -3.87992430     8.91465288     3.99947284
Ce    -3.77735263     6.76210257     7.27546753
Ce     1.93596721     7.82410489     0.89035214
Ce     0.01113191     8.95921196     4.08501630
Ce     0.06032425     6.69979529     7.26112122
Ce     5.80789000     7.82410489     0.89035214
Ce     3.88237927     8.92603776     4.06707114
Ce     3.90698696     6.67363193     7.35695936
Mo     5.69437987     3.33163671     6.79246174
O      0.00000000     0.00000000     0.09999685
O      1.92008364     1.10263357     3.20041522
O      0.02248892     2.19279999     6.37282282
O      0.00000000     2.23545567     1.68070743
O     -5.79282972    10.03853671     4.82460456
O      2.00880611     0.97459582     7.96140808
O      3.87192279     0.00000000     0.09999685
O      5.81545884     1.10223918     3.22560655
O      4.25879290     2.14831737     6.42618102
O      3.87192279     2.23545567     1.68070743
O      3.83276261     0.01414456     4.82045710
O      5.80237720     2.48081390     8.55744519
O      7.74385721     0.00000000     0.09999685
O      9.68325476     1.11262853     3.22821774
O      7.39294658     2.52085359     6.53548809
O      7.74385721     2.23545567     1.68070743
O      7.77032030     0.07252656     4.88485923
O      9.83764606     1.03404043     8.08643386
O     -1.93596140     3.35318350     0.09999685
O      0.00181969     4.47765062     3.28921608
O     -1.98944670     5.62304286     6.42767543
O     -1.93596721     5.58864923     1.68070743
O      9.62884636     3.30937142     4.86808847
O      0.06931975     4.59513773     8.08495352
O      1.93596140     3.35318350     0.09999685
O      3.87133042     4.46233214     3.20373364
O      1.93364837     5.60296086     6.35256696
O      1.93595559     5.58864923     1.68070743
O      2.01858064     3.28816566     4.83914829
O      5.80789581     3.35318350     0.09999685
O      7.74011275     4.45656265     3.23184579
O      6.01544596     5.17344900     6.43831345
O      5.80789000     5.58864923     1.68070743
O      5.73890780     3.32461400     4.77035962
O      8.37881425     4.93858870     9.02228229
O     -3.87192860     6.70637706     0.09999685
O     -1.93402301     7.81426203     3.24919484
O     -3.82381351     8.88800153     6.32725017
O     -3.87192860     8.94183273     1.68070743
O      7.68864988     6.68307890     4.85227739
O     -1.96289881     7.86582191     8.06543205
O     -0.00000581     6.70637706     0.09999685
O      1.94794530     7.83122744     3.28246228
O     -0.06439019     9.09795095     6.50590211
O     -0.00000581     8.94183273     1.68070743
O     -0.01529553     6.76732839     4.89916453
O      3.87192860     6.70637706     0.09999685
O      5.80863639     7.82040318     3.20285322
O      3.92775768     8.90996488     6.39701462
O      3.87192860     8.94183273     1.68070743
O      3.98302718     6.65007243     4.85744322
O      6.00849953     7.80805898     7.96395547
O      1.85618829     7.74995766     8.11048363
O      4.01835666     4.23499191     7.81906916
O      4.98612785     4.94825405     9.26261523
Pt     6.68652809     4.15451540     9.08361631
