84
CIF: Pt-Mo-CeO2-Ov-CO2.cif | data_image0
Ce     1.93596140     1.11772783     0.89035214
Ce     0.00588193     2.25425574     4.07617088
Ce     0.00629929     0.00528780     7.20264814
Ce     5.80789581     1.11772783     0.89035214
Ce     3.81878865     2.21648224     3.95045346
Ce    -2.03407254     9.98885701     7.20127190
Ce     9.67981860     1.11772783     0.89035214
Ce     7.81107110     2.20490241     3.96841948
Ce     2.06388272    10.01841332     7.31889450
Ce     0.00000000     4.47091133     0.89035214
Ce    -1.94668406     5.58148085     4.10242598
Ce    -1.80883027     3.41013320     7.38182452
Ce     3.87193441     4.47091133     0.89035214
Ce     1.95540797     5.58698841     4.09195989
Ce     1.87681849     3.36969576     7.31098935
Ce     7.74385721     4.47091133     0.89035214
Ce     5.81009414     5.59496090     3.99727954
Ce    -1.93596721     7.82410489     0.89035214
Ce    -3.88367629     8.92005908     4.03467652
Ce    -3.77484956     6.78207700     7.36513819
Ce     1.93596721     7.82410489     0.89035214
Ce     0.01348752     8.96843110     4.08558728
Ce     0.04872493     6.72936916     7.26722440
Ce     5.80789000     7.82410489     0.89035214
Ce     3.88269148     8.92785806     4.06147742
Ce     3.86737917     6.75614692     7.30957325
Mo     5.79822101     3.15427999     6.71104998
O      0.00000000     0.00000000     0.09999685
O      1.92339737     1.09715924     3.20385237
O      0.04234366     2.22836786     6.40690598
O      0.00000000     2.23545567     1.68070743
O     -5.78850031    10.05274700     4.84196830
O      2.03095974     1.00094029     7.98943173
O      3.87192279     0.00000000     0.09999685
O      5.80909730     1.08715833     3.20502959
O      4.10759837     2.40937751     6.37424438
O      3.87192279     2.23545567     1.68070743
O      3.83833148     0.06690089     4.85703991
O      5.67104143     2.02978044     8.28962403
O      7.74385721     0.00000000     0.09999685
O      9.70250786     1.10836677     3.21855750
O      7.47832525     2.41031441     6.40669416
O      7.74385721     2.23545567     1.68070743
O      7.77117201     0.04880834     4.84959091
O      9.83359919     1.06746994     8.07842683
O     -1.93596140     3.35318350     0.09999685
O     -0.00671508     4.49490784     3.28194129
O     -1.96071844     5.65757439     6.42695915
O     -1.93596721     5.58864923     1.68070743
O      9.64711659     3.32572268     4.86274742
O      0.04091396     4.63812681     8.11176102
O      1.93596140     3.35318350     0.09999685
O      3.88009192     4.46899979     3.21610916
O      1.98967336     5.57607229     6.39405884
O      1.93595559     5.58864923     1.68070743
O      1.97871199     3.31316949     4.81091892
O      5.80789581     3.35318350     0.09999685
O      7.75389355     4.47371118     3.22267877
O      5.72073217     5.01466817     6.54691859
O      5.80789000     5.58864923     1.68070743
O      5.82324867     3.27123881     4.70968119
O      8.08371075     5.03713733     8.80444204
O     -3.87192860     6.70637706     0.09999685
O     -1.95376653     7.81578836     3.28608529
O     -3.81472310     8.92179136     6.36034288
O     -3.87192860     8.94183273     1.68070743
O      7.62108662     6.64323149     4.92939301
O     -1.93340738     7.91322349     8.08173430
O     -0.00000581     6.70637706     0.09999685
O      1.94754266     7.82597597     3.27136548
O     -0.06887896     9.12394609     6.48290026
O     -0.00000581     8.94183273     1.68070743
O      0.01840248     6.76501337     4.91000828
O      3.87192860     6.70637706     0.09999685
O      5.82261812     7.82078734     3.20969267
O      3.91737717     8.94550470     6.39526848
O      3.87192860     8.94183273     1.68070743
O      3.98046681     6.67696684     4.85002221
O      5.95340674     7.81607909     7.97399977
O      3.88251737     4.51051432     8.78658748
O      1.84336650     7.79178001     8.08472661
O      4.67318519     4.18034685    10.91781185
Pt     6.62752983     3.75230632     9.00210297
C      4.73914824     4.21568209     9.70454075
