83
CIF: Sc-Mo-CeO2-O.cif | data_image0
Ce     1.93596140     1.11772783     0.89035214
Ce    -0.01275657     2.22111479     4.04895516
Ce    -5.64878238     9.93536055     7.16172646
Ce     5.80789581     1.11772783     0.89035214
Ce     3.81077936     2.18948050     3.97597912
Ce    -2.00957341     9.90587240     7.27458504
Ce     9.67981860     1.11772783     0.89035214
Ce     7.72168414     2.25303430     4.04452469
Ce     7.79097870     0.03786354     7.21825337
Ce     0.00000000     4.47091133     0.89035214
Ce    -1.93995318     5.59572472     4.04044462
Ce    -1.87388195     3.46191802     7.17691073
Ce     3.87193441     4.47091133     0.89035214
Ce     1.94274180     5.58124197     4.07260451
Ce     1.86693168     3.30204783     7.28717271
Ce     7.74385721     4.47091133     0.89035214
Ce     5.83719624     5.60842406     4.01170105
Ce    -1.93596721     7.82410489     0.89035214
Ce    -3.85212382     8.89226461     4.02501224
Ce    -3.77527657     6.60781995     7.43119554
Ce     1.93596721     7.82410489     0.89035214
Ce     0.00904970     8.96103857     4.07809489
Ce     0.03577896     6.72260426     7.23004998
Ce     5.80789000     7.82410489     0.89035214
Ce     3.88754052     8.96640403     4.03718009
Ce     3.82693530     6.79832267     7.23950782
Mo     5.52788535     3.38086892     6.87281879
O      0.00000000     0.00000000     0.09999685
O      1.91343854     1.10970285     3.20196160
O     -0.17244638     2.08472519     6.48334871
O      0.00000000     2.23545567     1.68070743
O     -5.75155794    10.02012113     4.82900572
O      1.83668359     0.99577654     8.05134637
O      3.87192279     0.00000000     0.09999685
O      5.79472954     1.12776332     3.23181111
O      4.15340728     2.18314547     6.41135427
O      3.87192279     2.23545567     1.68070743
O     -1.97260097    10.05172412     4.80563207
O      5.97259642     2.42095971     8.39635982
O      7.74385721     0.00000000     0.09999685
O      9.70102590     1.11057338     3.23163683
O      7.43953839     2.54724855     6.32874149
O      7.74385721     2.23545567     1.68070743
O      7.77754475     0.05958520     4.81999606
O      8.98531280     1.71388810     8.56351129
O     -1.93596140     3.35318350     0.09999685
O      0.02563925     4.47158180     3.25543369
O     -1.91968561     5.57998931     6.33610154
O     -1.93596721     5.58864923     1.68070743
O      9.67939333     3.33445238     4.80910102
O     -0.02977633     4.52387840     7.98445981
O      1.93596140     3.35318350     0.09999685
O      3.83863965     4.49640414     3.22611764
O      1.99076015     5.63336521     6.40028785
O      1.93595559     5.58864923     1.68070743
O      1.92803512     3.27407815     4.89326959
O      5.80789581     3.35318350     0.09999685
O      7.71571424     4.44748714     3.23052610
O      6.12128603     5.13459285     6.47432221
O      5.80789000     5.58864923     1.68070743
O      5.63328691     3.37286319     4.81565352
O      8.27716009     4.48736463     8.61741034
O     -3.87192860     6.70637706     0.09999685
O     -1.91422884     7.81396258     3.23140586
O     -3.86872292     8.84425834     6.41106713
O     -3.87192860     8.94183273     1.68070743
O      7.70689325     6.68116452     4.77558114
O     -1.75013060     7.71659867     8.13416999
O     -0.00000581     6.70637706     0.09999685
O      1.97878204     7.81338636     3.27572182
O      0.04147269     9.01624928     6.44251185
O     -0.00000581     8.94183273     1.68070743
O      0.01976512     6.73506564     4.85753278
O      3.87192860     6.70637706     0.09999685
O      5.78801156     7.82287217     3.20363361
O      3.91721141     9.08752600     6.46246859
O      3.87192860     8.94183273     1.68070743
O      3.99906572     6.72853087     4.95642303
O      5.69022105     7.74266551     8.00103073
O      2.01792032     7.76546423     8.06573365
O      4.14490815     4.36718779     7.75171565
O      7.45479392     2.67065660    11.49650422
Sc     7.66613033     2.86017168     9.53961712
