85
CIF: 1-NH3-NH2+H_fs.cif | data_image0
Ce    -5.79800483    10.05224723     8.74637293
Ce     1.93840971     1.12276424     5.63271005
Ce     0.00196288     2.22593185     2.45226062
Ce     3.90752434     0.09955722     8.85160080
Ce     5.81183150     1.11073197     5.60907533
Ce     3.87602056     2.23838981     2.45666305
Ce     7.67078881     0.04537804     8.86503129
Ce     9.67705657     1.10804833     5.63108669
Ce     7.74269559     2.24057702     2.46383019
Ce     9.61290890     3.25789509     8.82656138
Ce    -0.00489117     4.46632829     5.54764653
Ce    -1.94883684     5.58401827     2.44038413
Ce     2.01753741     3.36739758     8.81756913
Ce     3.86687422     4.48317441     5.59628335
Ce     1.94527315     5.58586347     2.42453786
Ce     5.81485939     3.37017680     8.73633946
Ce     7.75592591     4.47981391     5.63571170
Ce     5.81336405     5.59167545     2.46571120
Ce     7.71514285     6.68523496     8.90456295
Ce    -1.94439245     7.82011350     5.57241937
Ce    -3.87953998     8.94771376     2.46319312
Ce     1.93780705     7.82945315     5.53652052
Ce    -0.00323216     8.95533918     2.43382558
Ce     3.89978872     6.62962900     8.83888704
Ce     5.81238393     7.82319049     5.65306805
Ce     3.88603893     8.95110759     2.45066257
Ru     0.04813451     6.69189469     8.36339203
O      0.00668884     0.01031143     6.43750448
O     -0.01449157     2.29009878     9.47023509
O      1.93955069     1.11978005     3.24882678
O      0.00583798     2.21499787     4.78570315
O      0.00234460     0.00226297     1.65325813
O      1.95993674     1.17231047     7.94519624
O     -1.93771927     9.95861334     6.48183378
O      3.88387064     2.26929743     9.58330306
O      5.80481388     1.14944340     3.25929419
O      3.83916196     2.21831808     4.84190714
O      3.88153594     0.00235381     1.66545391
O      5.80539594     1.20422025     7.87832223
O      1.92868158     9.95884915     6.47008459
O      7.73395257     2.20263313     9.59602751
O      9.68704866     1.11538327     3.25256582
O      7.77929235     2.20597546     4.83626694
O      7.73738902     0.01120131     1.66570329
O      9.65205993     1.08798753     7.97802805
O     -1.85137946     3.35506386     6.45460423
O     -2.36037348     5.12495643    10.12215239
O     -0.00185681     4.46187058     3.24059695
O     -1.95623947     5.56649455     4.76852560
O      9.66702679     3.35835449     1.66773670
O     -0.11280895     4.85126692     8.11020468
O      1.83945767     3.42379495     6.46126013
O      2.34192777     5.31788563     9.74273179
O      3.89833368     4.45441925     3.24911056
O      1.96595183     5.57780806     4.73320976
O      1.94438867     3.35790170     1.65962136
O      3.92674366     4.42026857     7.85877076
O      5.82891284     3.37215781     6.33954476
O      5.71453013     5.51356708     9.58893443
O      7.71924707     4.46024675     3.27449604
O      5.79787907     5.63544444     4.83492161
O      5.81407316     3.35475952     1.65502057
O      7.75285195     4.39833454     7.93911047
O     -3.81465225     6.75072281     6.43987750
O     -3.83913040     9.06856848     9.52597211
O     -1.94801267     7.82390691     3.25614403
O     -3.88409643     8.96171789     4.79962841
O      7.74310310     6.69630299     1.66699262
O     -1.58564819     7.58273380     8.12537143
O      0.01790679     6.70108940     6.21207028
O     -0.03394330     9.52578310     9.83193131
O      1.94409030     7.83489645     3.23785847
O     -0.00333840     8.97377498     4.75221860
O     -0.00355948     6.70953813     1.66751691
O      1.58673529     7.65340249     8.10995556
O      3.78033476     6.75198364     6.47031845
O      3.75535232     8.88077090     9.51197227
O      5.81337792     7.83337075     3.25834211
O      3.88565219     8.94913883     4.79340240
O      3.87706321     6.70480532     1.66529787
O      5.76367593     7.84401002     7.98489368
N     -0.06532684     6.68624533    10.29092690
H     -0.23757897     7.62757697    10.67478983
H      0.73029606     6.19994432    10.72625480
H     -1.53997340     5.62373514    10.40829449
