85
CIF: 1-NH3-NH2+H_is.cif | data_image0
Ce    -5.80745148    10.05943839     8.76183839
Ce     1.93921849     1.11935214     5.65753516
Ce     0.00000000     2.23543938     2.47426506
Ce     3.92245664     0.05720252     8.86038135
Ce     5.80806042     1.11077518     5.61737071
Ce     3.87189458     2.23543938     2.47426506
Ce     7.69425128     0.05710989     8.86031387
Ce     9.67701187     1.11945546     5.65739348
Ce     7.74390532     2.23543938     2.47426506
Ce     9.60590393     3.36840055     8.86034941
Ce     0.00002043     4.45700938     5.58657172
Ce    -1.93600537     5.58869904     2.47426506
Ce     2.01041081     3.36827498     8.86034499
Ce     3.86585086     4.47447003     5.61717624
Ce     1.93588921     5.58869904     2.47426506
Ce     5.80819674     3.35324269     8.74133243
Ce     7.75006693     4.47438766     5.61738541
Ce     5.80789995     5.58869904     2.47426506
Ce     7.71965429     6.63448975     8.86040690
Ce    -1.94777574     7.83104114     5.58662807
Ce    -3.87195266     8.94185811     2.47426506
Ce     1.94808021     7.83114842     5.58658796
Ce    -0.00005808     8.94185811     2.47426506
Ce     3.89617282     6.63443094     8.86037281
Ce     5.80815825     7.82055448     5.65752628
Ce     3.87195266     8.94185811     2.47426506
Ru     0.00042155     6.70643603     8.26265138
O     -5.80731854    10.05926943     6.46482221
O      0.00027875     2.32267238     9.51558428
O      1.93594729     1.11771969     3.26466483
O     -0.00012919     2.21582399     4.82062117
O      0.00000000     0.00000000     1.68386529
O      1.94150580     1.12108918     8.01301639
O     -1.94768115     9.98881628     6.49011254
O      3.89151737     2.24700359     9.58848002
O      5.80795803     1.11771969     3.26466483
O      3.84194044     2.21781632     4.84079443
O      3.87189458     0.00000000     1.68386529
O      5.80808732     1.18386900     7.89867549
O      1.94767482     9.98952996     6.48973591
O      7.72497734     2.24690757     9.58825621
O      9.67985261     1.11771969     3.26466483
O      7.77416961     2.21808636     4.84077809
O      7.74390532     0.00000000     1.68386529
O      9.67523378     1.12065530     8.01260470
O     -1.86927446     3.37832245     6.48981653
O     -2.41734320     5.31120887     9.84824229
O      0.00000000     4.47087876     3.26466483
O     -1.97099858     5.56810182     4.79117049
O     -1.93594729     3.35315907     1.68386529
O     -0.00062514     4.83538343     8.09714401
O      1.86928380     3.37807348     6.48948296
O      2.41702988     5.31102615     9.84810214
O      3.87201074     4.47087876     3.26466483
O      1.97090743     5.56859025     4.79111145
O      1.93594729     3.35315907     1.68386529
O      3.92870455     4.43824781     7.89842201
O      5.80807716     3.35320122     6.35352363
O      5.80766286     5.56604437     9.58859455
O      7.74390532     4.47087876     3.26466483
O      5.80824324     5.62354904     4.84082790
O      5.80795803     3.35315907     1.68386529
O      7.68679898     4.43802540     7.89866893
O     -3.81627751     6.75215970     6.49020115
O     -3.79606846     8.89821640     9.51521902
O     -1.93600537     7.82413842     3.26466483
O     -3.88835543     8.95131850     4.82058013
O     -3.87195266     6.70641873     1.68386529
O     -1.61929474     7.64206723     8.09720892
O      0.00024188     6.70622357     6.17370293
O      0.00042925     9.49847173     9.84859737
O      1.93600537     7.82413842     3.26466483
O      0.00024459     8.98252110     4.79120621
O     -0.00005808     6.70641873     1.68386529
O      1.62020749     7.64274470     8.09686699
O      3.81715420     6.75182803     6.48946453
O      3.79678411     8.89836161     9.51548592
O      5.80789995     7.82413842     3.26466483
O      3.88892797     8.95186702     4.82063291
O      3.87195266     6.70641873     1.68386529
O      5.80784611     7.81775782     8.01303736
N     -0.00043188     6.70826915    10.33250804
H      0.00051210     7.70401994    10.61884678
H      0.86060451     6.21004489    10.62160216
H     -0.86309522     6.21211805    10.62035756
