87
CIF: 3-NH2NO+H-NHNO+2H_ts.cif | data_image0
Ce    11.60204635     0.00374009     8.75209220
Ce     1.93146739     1.09708244     5.61079745
Ce     0.00000000     2.23543939     2.47426508
Ce     3.88247050     0.11980102     8.86735354
Ce     5.81335319     1.11681881     5.61911361
Ce     3.87189459     2.23543939     2.47426508
Ce     7.66221948     0.08603703     8.88767601
Ce     9.65712871     1.11544517     5.62514939
Ce     7.74390535     2.23543939     2.47426508
Ce     9.60309413     3.29080098     8.80798953
Ce    -0.03283374     4.45327283     5.58891595
Ce    -1.93600538     5.58869906     2.47426508
Ce     1.92498536     3.30002858     8.71982062
Ce     3.86196618     4.48777325     5.62206111
Ce     1.93588922     5.58869906     2.47426508
Ce     5.78434042     3.40194689     8.74737181
Ce     7.74819726     4.48233397     5.63308128
Ce     5.80789997     5.58869906     2.47426508
Ce     7.69961702     6.70684021     8.89960667
Ce    -1.92777535     7.81106641     5.62533397
Ce    -3.87195267     8.94185814     2.47426508
Ce     1.93412635     7.85534889     5.59408395
Ce    -0.00005808     8.94185814     2.47426508
Ce     3.86865383     6.75668454     8.79600193
Ce     5.81883841     7.83222988     5.63998594
Ce     3.87195267     8.94185814     2.47426508
Ru     0.22049822     6.59853200     8.38567955
O     11.60805851     0.01066625     6.43178393
O     -0.00438219     2.25686629     9.50102793
O      1.93594730     1.11771969     3.26466486
O      0.00259102     2.21999779     4.79836818
O      0.00000000     0.00000000     1.68386530
O      1.93756093     1.14979892     7.92739750
O     -1.94500400     9.94568258     6.50221934
O      3.79853735     2.30237839     9.57572969
O      5.80795805     1.11771969     3.26466486
O      3.84481279     2.21971137     4.85098320
O      3.87189459     0.00000000     1.68386530
O      5.78720245     1.19720036     7.90551404
O      7.74629827     0.00032310     6.42626859
O      7.71838279     2.24927994     9.60295931
O      9.67985264     1.11771969     3.26466486
O      7.74658788     2.23352022     4.80804587
O      7.74390535     0.00000000     1.68386530
O      9.63805548     1.12467598     7.99268120
O     -1.92081090     3.32909477     6.41042355
O     -2.47693015     5.17541979    10.26882974
O      0.00000000     4.47087877     3.26466486
O     -1.94207739     5.58180668     4.80369836
O     -1.93594730     3.35315908     1.68386530
O     -0.34837171     4.71829207     8.09894224
O      1.83803126     3.38149732     6.44754393
O      1.91441896     5.54228217     8.79035745
O      3.87201075     4.47087877     3.26466486
O      1.95788683     5.57905635     4.79032434
O      1.93594730     3.35315908     1.68386530
O      3.94630137     4.39551701     7.89024771
O      5.83271962     3.37535621     6.36318949
O      5.63160209     5.57731468     9.59959825
O      7.74390535     4.47087877     3.26466486
O      5.79587119     5.63106730     4.84266542
O      5.80795805     3.35315908     1.68386530
O      7.74709921     4.44098474     7.95372599
O     -3.79795166     6.76662479     6.45308377
O     -3.81038393     9.06611891     9.55050030
O     -1.93600538     7.82413845     3.26466486
O     -3.87500272     8.94912193     4.80893371
O     -3.87195267     6.70641876     1.68386530
O     -1.45244022     7.55560452     8.23951280
O      0.04184204     6.65495921     6.31752117
O     -0.07426396     9.78408353    10.05839136
O      1.93600538     7.82413845     3.26466486
O     -0.00660984     8.94560425     4.80535248
O     -0.00005808     6.70641876     1.68386530
O      1.57612596     7.96571548     8.02741991
O      3.79758117     6.76595451     6.49016053
O      3.86304522     8.96003099     9.50556959
O      5.80789997     7.82413845     3.26466486
O      3.88003774     8.93902962     4.81201697
O      3.87195267     6.70641876     1.68386530
O      5.77253414     7.85149507     7.97180819
O      1.65720812     7.28810664    10.74731563
H     -2.45870145     5.05143237    11.23416306
H     -0.34135574     8.62573534    10.97426536
H     -1.37526677     7.20456895    10.66188438
N     -0.48912361     7.52103116    11.07915550
N      0.49690886     7.00922758    10.33076551
