87
CIF: 3-NH2NO+H-NHNO+2H_is.cif | data_image0
Ce     5.80304953    10.04153554     8.76910929
Ce     1.93225306     1.11973593     5.64349444
Ce    -0.00000000     2.23543940     2.47426510
Ce     3.90379177     0.12329609     8.85747364
Ce     5.81583241     1.11412940     5.61821525
Ce     3.87189461     2.23543940     2.47426510
Ce     7.68031715     0.04957923     8.87861887
Ce     9.67772888     1.10655369     5.63731466
Ce     7.74390539     2.23543940     2.47426510
Ce     9.62205517     3.24571661     8.83768392
Ce    -0.00519802     4.46523293     5.58532950
Ce    -1.93600539     5.58869909     2.47426510
Ce     2.01127093     3.35649692     8.83250106
Ce     3.86940224     4.48399996     5.61296383
Ce     1.93588923     5.58869909     2.47426510
Ce     5.81321614     3.37369605     8.74156546
Ce     7.75866205     4.48213679     5.64034368
Ce     5.80790000     5.58869909     2.47426510
Ce     7.66588771     6.68020727     8.89863665
Ce    -1.95413173     7.82585520     5.59237045
Ce    -3.87195269     8.94185819     2.47426510
Ce     1.93560885     7.83054191     5.59156991
Ce    -0.00005808     8.94185819     2.47426510
Ce     3.87441393     6.63777630     8.86608573
Ce     5.80606628     7.82278512     5.65672911
Ce     3.87195269     8.94185819     2.47426510
Ru     0.05697041     6.71057694     8.41906887
O      0.00597119     0.00524031     6.44534818
O     -0.04978153     2.26063189     9.50871325
O      1.93594731     1.11771970     3.26466489
O      0.00041426     2.22078289     4.80696734
O      0.00000000     0.00000000     1.68386532
O      1.95201619     1.16504579     7.96361649
O     -1.94357070     9.95535495     6.49336547
O      3.89307290     2.27254845     9.59577859
O      5.80795808     1.11771970     3.26466489
O      3.84431476     2.21864151     4.85137950
O      3.87189461     0.00000000     1.68386532
O      5.80551654     1.22290510     7.86626553
O      1.92994797     9.97776102     6.47299767
O      7.74463939     2.20287761     9.59945812
O      9.67985269     1.11771970     3.26466489
O      7.78162706     2.21825033     4.83849591
O      7.74390539     0.00000000     1.68386532
O      9.64727682     1.10001070     7.97180795
O     -1.84124583     3.37042097     6.47997491
O     -2.47255341     5.08790798    10.19060505
O      0.00000000     4.47087880     3.26466489
O     -1.94338651     5.57732963     4.79501130
O     -1.93594731     3.35315910     1.68386532
O     -0.06543106     4.85299377     8.23482994
O      1.83386320     3.41468302     6.47213781
O      2.40004738     5.23582452     9.72982537
O      3.87201077     4.47087880     3.26466489
O      1.93649582     5.59147574     4.78972165
O      1.93594731     3.35315910     1.68386532
O      3.94647416     4.41027003     7.84701236
O      5.84399350     3.37805805     6.33882238
O      5.69379617     5.51959562     9.60613560
O      7.74390539     4.47087880     3.26466489
O      5.80587117     5.62978322     4.84032876
O      5.80795808     3.35315910     1.68386532
O      7.76181148     4.40744685     7.95026270
O     -3.80265049     6.75526296     6.45323855
O     -3.82911766     9.04875969     9.57090737
O     -1.93600539     7.82413849     3.26466489
O     -3.88158849     8.95485037     4.81123058
O     -3.87195269     6.70641879     1.68386532
O     -1.56277160     7.62691902     8.27900537
O     -0.02492249     6.69067769     6.34145934
O     -0.03312936     9.64189312     9.85744298
O      1.93600539     7.82413849     3.26466489
O     -0.00621812     8.94576906     4.79643899
O     -0.00005808     6.70641879     1.68386532
O      1.62751037     7.69073104     8.10934478
O      3.78597937     6.74897985     6.48413757
O      3.82556372     8.92684365     9.51873204
O      5.80790000     7.82413849     3.26466489
O      3.88016965     8.94556510     4.81709307
O      3.87195269     6.70641879     1.68386532
O      5.76150321     7.83082015     7.98459502
O      1.32374762     7.28515220    10.94502892
H     -1.87624537     5.38163266    10.90599887
H     -0.61457897     7.86039727    11.93870421
H     -1.63107427     7.55667310    10.59738121
N     -0.85452839     7.21541971    11.17659829
N      0.25156722     7.04309944    10.37429348
