87
CIF: 5-NHNO+2H-N2O+3H_fs.cif | data_image0
Ce    11.60824058     0.00416326     8.76343485
Ce     1.92683286     1.13404475     5.63954690
Ce     0.00000000     2.23543938     2.47426506
Ce     3.80139943     0.12272849     8.84266269
Ce     5.80302077     1.09852327     5.65325684
Ce     3.87189458     2.23543938     2.47426506
Ce     7.72592899     0.00491367     8.91770510
Ce     9.66576499     1.10680572     5.64095526
Ce     7.74390532     2.23543938     2.47426506
Ce     9.59411806     3.23890060     8.84336501
Ce     0.00208245     4.42807786     5.57148520
Ce    -1.93600537     5.58869904     2.47426506
Ce     1.94275816     3.36590004     8.90387952
Ce     3.85422782     4.48040646     5.64747067
Ce     1.93588921     5.58869904     2.47426506
Ce     5.79958908     3.35152656     8.78332937
Ce     7.75574407     4.48057179     5.65299456
Ce     5.80789995     5.58869904     2.47426506
Ce     7.73127239     6.69500849     8.91480678
Ce    -1.98163459     7.84257772     5.57414747
Ce    -3.87195266     8.94185811     2.47426506
Ce     1.96949524     7.85105560     5.57102327
Ce    -0.00005808     8.94185811     2.47426506
Ce     3.99989504     6.70176796     8.83672187
Ce     5.82059930     7.82239226     5.63949540
Ce     3.87195266     8.94185811     2.47426506
Ru    -0.01803237     6.71540888     8.23090311
O     11.61139251     0.00150858     6.42308219
O     -0.14868480     2.23230195     9.59249114
O      1.93594729     1.11771969     3.26466483
O     -0.01023443     2.22125446     4.79953903
O      0.00000000     0.00000000     1.68386529
O      1.90394522     1.13867649     7.97211237
O     -1.98203068     9.99064880     6.47377611
O      3.92988049     2.23519840     9.63377539
O      5.80795803     1.11771969     3.26466483
O      3.86026574     2.22734524     4.85224059
O      3.87189458     0.00000000     1.68386529
O      5.74699682     1.09806635     7.96687701
O      1.93061335     9.97164158     6.44062238
O      7.71175176     2.29828917     9.63184824
O      9.67985261     1.11771969     3.26466483
O      7.75301506     2.23078592     4.85579315
O      7.74390532     0.00000000     1.68386529
O      9.67069309     1.09025173     7.96931263
O     -1.85789647     3.36126308     6.47895326
O     -2.28163656     5.22578079    10.14088538
O      0.00000000     4.47087876     3.26466483
O     -1.94026832     5.57186298     4.79964489
O     -1.93594729     3.35315907     1.68386529
O     -0.03740060     4.85445867     8.15304838
O      1.85824225     3.39246141     6.43340344
O      2.46594106     5.46137107    10.25999429
O      3.87201074     4.47087876     3.26466483
O      1.94813524     5.59545946     4.79866665
O      1.93594729     3.35315907     1.68386529
O      3.87591538     4.53054277     7.94377493
O      5.80409065     3.34884952     6.43743712
O      5.73651199     5.54124915     9.64491072
O      7.74390532     4.47087876     3.26466483
O      5.80373878     5.60011190     4.85261473
O      5.80795803     3.35315907     1.68386529
O      7.76844246     4.43663752     7.96620621
O     -3.80690180     6.74648415     6.43565074
O     -3.81925315     9.07474656     9.59724153
O     -1.93600537     7.82413842     3.26466483
O     -3.88579910     8.95399317     4.79975090
O     -3.87195266     6.70641873     1.68386529
O     -1.60971215     7.68921104     8.14498308
O     -0.00275892     6.70906911     6.28342416
O     -0.15693498     9.39566728    10.14653908
O      1.93600537     7.82413842     3.26466483
O     -0.01706509     8.95338299     4.79957200
O     -0.00005808     6.70641873     1.68386529
O      1.63810501     7.56721284     8.16499831
O      3.82626726     6.78350606     6.46910417
O      3.95077537     8.83397445     9.59048023
O      5.80789995     7.82413842     3.26466483
O      3.88557369     8.94830656     4.79858503
O      3.87195266     6.70641873     1.68386529
O      5.82738607     7.83807178     7.97057705
O     -0.29224215     6.71374030    12.02099446
H     -1.66212679     5.48527621    10.84386431
H     -0.25809260     8.74002291    10.85797637
H      2.84890738     5.28773206    11.14083052
N      1.47300936     5.96705837    13.37393142
N      0.61493437     6.32859460    12.71011437
