92
CIF: Fe-CeO2(110)-Ov+CO2.cif | data_image0
O      1.33053237     2.42632004     4.31285899
O      1.33313147     6.27766576     8.26565886
O      1.35275000     6.24576514     0.45001077
O      1.35482171     2.42917690     8.36972556
O      1.35275000     2.41961430     0.45001077
O      1.35949689     6.26081162     4.33714464
O      4.10959963     0.53535372     6.45187006
O      4.05825000     4.33269546     2.36308887
O      4.05825000     0.50653314     2.36308887
O      4.13864469     4.34883687     6.46853348
O      4.09289938     2.42828721     4.30510971
O      4.17134306     6.24247151     8.23495793
O      4.05825000     6.24576514     0.45001077
O      3.81225281     1.78440328     9.91288477
O      4.05825000     2.41961430     0.45001077
O      4.05165354     6.22128229     4.36783515
O      1.30104059     0.46264194     6.29039407
O      1.35275000     4.33269546     2.36308887
O      1.35275000     0.50653314     2.36308887
O      1.28606873     4.40622411     6.29260415
O      6.77300138     2.43490635     4.41531936
O      6.69714602     6.23887999     8.22965613
O      6.76375000     6.24576514     0.45001077
O      6.58882167     2.10016991     8.25404929
O      6.76375000     2.41961430     0.45001077
O      6.77691161     6.23198704     4.34702223
O      9.46802836     0.53220156     6.32442088
O      9.46925000     4.33269546     2.36308887
O      9.46925000     0.50653314     2.36308887
O      9.43851660     4.30300444     6.31354723
O      9.45270300     2.41448638     4.34029954
O      9.53509452     6.25031879     8.24574344
O      9.46925000     6.24576514     0.45001077
O      9.52584376     2.43028782     8.28198066
O      9.46925000     2.41961430     0.45001077
O      9.47098442     6.24188098     4.34702266
O      6.78237413     0.38630235     6.26500987
O      6.76375000     4.33269546     2.36308887
O      6.76375000     0.50653314     2.36308887
O      6.70908665     4.37350319     6.40900646
O      1.36839100    10.06808139     4.33638370
O      1.34682927    10.08776197     8.28143942
O      1.35275000    10.07192746     0.45001077
O      4.07862656     8.17673219     6.29678429
O      4.05825000     8.15884630     2.36308887
O      4.06415000    10.10680877     4.38065655
O      4.15334092     9.99652369     8.31605532
O      4.05825000    10.07192746     0.45001077
O      1.36339643     8.17904983     6.30030740
O      1.35275000     8.15884630     2.36308887
O      6.77225726    10.04543170     4.31403088
O      6.80827337     9.97188066     8.30977380
O      6.76375000    10.07192746     0.45001077
O      9.52082736     8.14248859     6.28808392
O      9.46925000     8.15884630     2.36308887
O      9.47683324    10.07469595     4.35160413
O      9.57031161    10.06335055     8.23689105
O      9.46925000    10.07192746     0.45001077
O      6.78547097     8.16402292     6.28081210
O      6.76375000     8.15884630     2.36308887
O      2.69974811     3.69153402    10.72061414
Ce    10.80716819     0.51918227     4.31890568
Ce     0.00292054     4.33733172     8.12894079
Ce     0.00000000     4.33269546     0.45001077
Ce     2.66678292     2.44053416     6.29078440
Ce     2.70550000     6.24576514     2.36308887
Ce     2.70550000     2.41961430     2.36308887
Ce     2.68430190     6.25825575     6.36216040
Ce     0.02307769     0.51253429     8.12187819
Ce     0.00000000     0.50653314     0.45001077
Ce    10.79568398     4.32058107     4.31636324
Ce     5.42131691     0.50737649     4.34395963
Ce     5.41100000     4.33269546     0.45001077
Ce     8.03515629     2.39547899     6.49538205
Ce     8.11650000     6.24576514     2.36308887
Ce     8.11650000     2.41961430     2.36308887
Ce     8.16386085     6.23706534     6.35291903
Ce     5.53678211     0.32248749     8.19012745
Ce     5.41100000     0.50653314     0.45001077
Ce     5.42036405     4.32478193     4.33578776
Ce     0.02262638     8.16433892     4.30759178
Ce     2.71680920    10.09650220     6.39386129
Ce     2.70550000    10.07192746     2.36308887
Ce     0.03357967     8.16625054     8.12372235
Ce     0.00000000     8.15884630     0.45001077
Ce     5.41878879     8.15713145     4.32420895
Ce     8.17646587    10.04901683     6.34669832
Ce     8.11650000    10.07192746     2.36308887
Ce     5.44677603     8.18856629     8.11124649
Ce     5.41100000     8.15884630     0.45001077
Fe     5.42799431     5.15472663     7.52844684
C      3.21732486     2.74244310    10.26817783
