81
CIF: Ti-Rh-CeO2-Ov.cif | data_image0
Ce     1.93038582     1.11050507     0.88387043
Ce    -0.03199279     2.23511607     4.03236598
Ce     5.81506202    10.04106998     7.23057651
Ce     5.81181033     1.12175166     0.90127712
Ce     3.84677808     2.21825157     4.00831976
Ce    -1.97391563    10.03404424     7.22594344
Ce     9.66901012     1.12377363     0.90450652
Ce     7.74250170     2.24414583     4.06161310
Ce     1.99531785     9.97666568     7.26168359
Ce    -0.00709724     4.47602159     0.89067279
Ce    -1.94440279     5.57817939     4.08772251
Ce    -1.88128408     3.34249989     7.36194522
Ce     3.86254305     4.47635356     0.87798423
Ce     1.95473311     5.58533486     4.06871542
Ce     1.80193610     3.26544747     7.14790358
Ce     7.74213807     4.46545905     0.90125422
Ce     5.81196784     5.62291273     4.02400342
Ce    -1.94645625     7.83004003     0.90010904
Ce    -3.87091644     8.95094069     4.03162156
Ce    -3.86428940     6.79967406     7.20767802
Ce     1.92815559     7.82745473     0.89060408
Ce     0.00065361     8.95455969     4.07178974
Ce     0.02041922     6.69681555     7.24835618
Ce     5.81127600     7.83258510     0.88371011
Ce     3.86934672     8.94127506     4.03410427
Ce     3.90758361     6.82221210     7.23416773
Rh     4.86771173     3.89067072     6.53786644
Ti     6.54342443     2.85769727     7.79596317
O     11.61334069     0.00154917     0.10141687
O      1.92821791     1.11463210     3.21963643
O      0.02801116     2.19992456     6.40380830
O     -0.00785227     2.23805103     1.69392277
O     -5.80168806    10.05746052     4.84162366
O      1.91867395     1.06268281     8.04385729
O     -1.93899312    10.05733740     0.10496691
O      5.80633912     1.11217410     3.24387331
O      3.80564258     2.18878764     6.47881807
O      3.86763657     2.23577757     1.68132582
O      3.86447457     0.01391827     4.86260315
O      6.10765485     1.14933170     8.37318469
O      7.73821774     0.00761509     0.10924988
O      9.66476386     1.11925172     3.24076135
O      7.67729235     2.21913512     6.49107443
O      7.74357843     2.23531483     1.71563532
O      7.74663166     0.01450223     4.87920999
O      9.71013078     0.93470339     8.06286281
O      9.67032270     3.35425987     0.10911246
O     -0.00789107     4.48875154     3.25298226
O     -2.01025099     5.62448523     6.50397324
O     -1.94403436     5.59119430     1.70564938
O      9.65761777     3.34564783     4.85321267
O      0.11638519     4.53324302     8.07627694
O      1.92738314     3.35244915     0.09928684
O      3.84240292     4.47151753     3.21867344
O      2.01400891     5.50058973     6.45712041
O      1.92862022     5.59252216     1.67404250
O      1.90738801     3.32558852     4.82850228
O      5.81155478     3.35101064     0.10766953
O      7.74106176     4.48056133     3.25021614
O      5.90889938     5.61675997     6.45743419
O      5.80528807     5.59217007     1.68114259
O      5.77283721     3.36031862     4.76720181
O      7.68584088     4.06679821     8.48702392
O     -3.87155109     6.71022987     0.10512724
O     -1.92159330     7.82329924     3.25912321
O     -3.83333273     8.94930359     6.38405982
O     -3.87509971     8.94378428     1.69355631
O     -3.86879717     6.73609878     4.85244143
O     -1.95159689     7.88183095     8.03589444
O     -0.01209783     6.71325780     0.10434852
O      1.91309477     7.82614264     3.25007895
O     -0.03030494     9.02464159     6.46066074
O     -0.00628994     8.94736548     1.70514550
O      0.01102421     6.70429739     4.93644447
O      1.84096236     7.84857266     8.04750376
O      3.86815347     6.71410280     0.09951587
O      5.81928982     7.83737089     3.21902314
O      3.89302752     8.94319522     6.36828943
O      3.86556896     8.94715423     1.69389986
O      3.88676867     6.71465307     4.79799684
O      5.95482345     7.91332979     8.07039749
