81
CIF: Fe-Cu-CeO2-Ov.cif | data_image0
Ce     1.93038582     1.11050507     0.88387043
Ce     0.00205073     2.23121513     4.02757795
Ce    -5.76503021    10.03448114     7.20706385
Ce     5.81181033     1.12175166     0.90127712
Ce     3.86931729     2.23731365     4.01324724
Ce    -1.95441679    10.03903429     7.20643604
Ce     9.66901012     1.12377363     0.90450652
Ce     7.72959593     2.24338820     4.05656197
Ce     1.98850901    10.00541285     7.23319058
Ce    -0.00709724     4.47602159     0.89067279
Ce    -1.94256994     5.58011251     4.06302556
Ce    -1.86332678     3.33422997     7.23352712
Ce     3.86254305     4.47635356     0.87798423
Ce     1.94635263     5.58237788     4.08012190
Ce     1.83290093     3.27091712     7.21375641
Ce     7.74213807     4.46545905     0.90125422
Ce     5.80482305     5.58958721     4.01349597
Ce    -1.94645625     7.83004003     0.90010904
Ce    -3.87161988     8.94141919     4.03241297
Ce    -3.86371502     6.73218401     7.20667923
Ce     1.92815559     7.82745473     0.89060408
Ce     0.00385815     8.95138102     4.06273079
Ce     0.00045818     6.70558427     7.24279932
Ce     5.81127600     7.83258510     0.88371011
Ce     3.87642777     8.94185032     4.02755778
Ce     3.89113182     6.83637889     7.21374371
Cu     5.05911862     3.78495045     6.54345279
Fe     6.71498434     2.82945574     8.00563541
O     11.61334069     0.00154917     0.10141687
O      1.93181191     1.10600090     3.21188930
O     -0.01195189     2.18915988     6.40161982
O     -0.00785227     2.23805103     1.69392277
O     -5.78538684    10.04617531     4.84426594
O      1.97031908     0.94763909     8.02714671
O     -1.93899312    10.05733740     0.10496691
O      5.80847693     1.07708239     3.23307629
O      3.96670093     2.29073359     6.50928754
O      3.86763657     2.23577757     1.68132582
O      3.85818358     0.04338829     4.87333439
O      6.09122090     1.13721813     8.34215911
O      7.73821774     0.00761509     0.10924988
O      9.68013798     1.11728057     3.24156684
O      7.73653402     2.23923357     6.46762596
O      7.74357843     2.23531483     1.71563532
O      7.75365398     0.00209595     4.86949923
O      9.71986043     1.09407287     8.02279300
O      9.67032270     3.35425987     0.10911246
O     -0.00591248     4.48775453     3.25052364
O     -2.02335484     5.57183243     6.43981809
O     -1.94403436     5.59119430     1.70564938
O      9.68257984     3.34326412     4.86950251
O     -0.11083037     4.52384368     8.05077574
O      1.92738314     3.35244915     0.09928684
O      3.82609280     4.49728418     3.21292727
O      1.99496126     5.55424857     6.49292797
O      1.92862022     5.59252216     1.67404250
O      1.93256903     3.32273671     4.81358867
O      5.81155478     3.35101064     0.10766953
O      7.77909749     4.49049918     3.23303355
O      5.80739804     5.47812074     6.51028611
O      5.80528807     5.59217007     1.68114259
O      5.79140330     3.36261655     4.61188221
O      7.86861167     4.21397365     8.34305149
O     -3.87155109     6.71022987     0.10512724
O     -1.93130121     7.82108768     3.26681576
O     -3.81496816     8.90866713     6.36361714
O     -3.87509971     8.94378428     1.69355631
O      7.69901246     6.69600311     4.87360769
O     -1.93667782     7.82427494     8.00360217
O     -0.01209783     6.71325780     0.10434852
O      1.91832662     7.82031074     3.25040229
O     -0.02937768     9.02536122     6.43965828
O     -0.00628994     8.94736548     1.70514550
O      0.00471102     6.70327076     4.93151771
O      1.83420928     7.89318464     8.05042954
O      3.86815347     6.71410280     0.09951587
O      5.81605331     7.83321581     3.21156682
O      3.90552750     8.97507234     6.40146421
O      3.86556896     8.94715423     1.69389986
O      3.89686348     6.72415103     4.81394442
O      5.97210955     7.87931273     8.02725893
