82
CIF: Fe-Cu-CeO2.cif | data_image0
Ce     1.93038582     1.11050507     0.88387043
Ce     0.00567323     2.23219727     4.03541898
Ce    -5.76339153    10.03342547     7.21154359
Ce     5.81181033     1.12175166     0.90127712
Ce     3.87034104     2.23710384     4.02277673
Ce     3.87961997     0.01313711     7.21527713
Ce     9.66901012     1.12377363     0.90450652
Ce     7.73440184     2.24051667     4.08047874
Ce     2.01335319     9.98396157     7.21690206
Ce    -0.00709724     4.47602159     0.89067279
Ce    -1.94723049     5.58769812     4.05708314
Ce    -1.83247696     3.32305674     7.21700880
Ce     3.86254305     4.47635356     0.87798423
Ce     1.92760136     5.59310235     4.03273044
Ce     1.91955206     3.36590504     7.19571156
Ce     7.74213807     4.46545905     0.90125422
Ce     5.80540035     5.58877385     4.02274773
Ce    -1.94645625     7.83004003     0.90010904
Ce    -3.87126449     8.94121352     4.05179540
Ce     7.73590849     6.69271630     7.21520726
Ce     1.92815559     7.82745473     0.89060408
Ce    -0.00509433     8.95148303     4.05692543
Ce    -0.01632850     6.71523230     7.19915392
Ce     5.81127600     7.83258510     0.88371011
Ce     3.87736602     8.93802008     4.03543965
Ce     3.85237061     6.71346469     7.19572253
Cu     4.96872081     3.83727649     6.58797530
Fe     6.79929817     2.77993499     7.98188876
O     11.61334069     0.00154917     0.10141687
O      1.93321681     1.11174073     3.22732038
O      0.04233522     2.22304369     6.39397314
O     -0.00785227     2.23805103     1.69392277
O     -5.79468371    10.05157734     4.85743352
O      1.97806977     1.08827555     7.98957468
O     -1.93899312    10.05733740     0.10496691
O      5.80894279     1.10829934     3.24801595
O      3.89925985     2.24082450     6.43078918
O      3.86763657     2.23577757     1.68132582
O      3.86641993     0.01214901     4.87659506
O      6.04073337     1.09587954     8.19778334
O      7.73821774     0.00761509     0.10924988
O      9.68000399     1.11731975     3.24981610
O      7.83643252     2.18127856     6.44447458
O      7.74357843     2.23531483     1.71563532
O      1.94694815    10.04294872     4.86376144
O      9.79122502     1.05279727     8.01011113
O      9.67032270     3.35425987     0.10911246
O     -0.00237683     4.47898631     3.23799112
O     -1.96801048     5.56771033     6.44232366
O     -1.94403436     5.59119430     1.70564938
O     -1.91662512     3.35139107     4.86385729
O      0.02429520     4.46998587     8.00419080
O      1.92738314     3.35244915     0.09928684
O      3.84560510     4.48592055     3.20313462
O      1.87183927     5.62526341     6.34388737
O      1.92862022     5.59252216     1.67404250
O      1.94661315     3.35089933     4.84614037
O      3.69387545     4.57323474     7.96400103
O      5.81155478     3.35101064     0.10766953
O      7.75212389     4.47422929     3.24789883
O      5.81662308     5.56168621     6.43085088
O      5.80528807     5.59217007     1.68114259
O      5.77269279     3.37321403     4.76686000
O      7.87865909     4.27849915     8.19797689
O     -3.87155109     6.71022987     0.10512724
O     -1.95122367     7.83273982     3.24572168
O     -3.83971560     8.92277594     6.41179059
O     -3.87509971     8.94378428     1.69355631
O      7.73027578     6.70459298     4.87653194
O     -1.93574365     7.82353004     7.99481317
O     -0.01209783     6.71325780     0.10434852
O      1.92754516     7.82160206     3.23783186
O      0.00180172     8.97915825     6.44213287
O     -0.00628994     8.94736548     1.70514550
O     -0.04674360     6.73289356     4.86448169
O      1.94849247     7.80273341     8.00426416
O      3.86815347     6.71410280     0.09951587
O      5.81154325     7.82917615     3.22712489
O      3.90348428     8.91060298     6.39394960
O      3.86556896     8.94715423     1.69389986
O      3.87901462     6.69776578     4.84612246
O      5.85407808     7.80170933     7.98965600
