82
CIF: Ta-CeO2-Ov+CO.cif | data_image0
O      0.55978923     0.45000431     0.59999690
O      2.45941785     1.61490767     3.78192032
O      0.54967795     2.61255049     6.91800703
O      0.55978923     2.65902057     2.16203261
O      0.55801209     0.43099732     5.37812549
O      2.42106005     1.89357408     8.58977544
O      4.38603242     0.45000431     0.59999690
O      6.30040875     1.55253256     3.74671656
O      4.27959310     2.57536060     6.90736064
O      4.38603242     2.65902057     2.16203261
O      4.38036170     0.43205716     5.34063712
O      6.27632252     1.42290963     8.63357950
O      8.21216082     0.45000431     0.59999690
O     10.11602221     1.55797530     3.76348582
O      8.23239979     2.64215238     6.95956678
O      8.21216082     2.65902057     2.16203261
O      8.19232753     0.45498060     5.40673131
O     10.11995183     1.60227193     8.63073434
O     -1.35327498     3.76352871     0.59999690
O      0.48999479     4.81481447     3.73907946
O     -1.34668679     5.97905235     6.98360551
O     -1.35333237     5.97264438     2.16203261
O     -1.37590753     3.76784374     5.41425542
O      1.02496862     4.86190265     8.15491147
O      2.47296821     3.76352871     0.59999690
O      4.44463643     4.81623840     3.74064079
O      3.78420347     4.79942894     8.22426655
O      2.47291082     5.97264438     2.16203261
O      2.44033351     3.83931634     5.63640621
O      6.29909662     3.76352871     0.59999690
O      8.21448616     4.88578427     3.77489631
O      6.37917899     5.99190828     7.02300041
O      6.29903923     5.97264438     2.16203261
O      6.29350434     3.74953415     5.37855484
O      8.38879434     4.89354425     8.67169396
O     -3.26639657     7.07715251     0.59999690
O     -1.33333410     8.15410486     3.75858858
O     -3.25529176     9.38016718     6.99188384
O     -3.26639657     9.28616878     2.16203261
O     -3.24974894     7.11666581     5.42092143
O     -1.35837063     8.20143370     8.62989214
O      0.55984662     7.07715251     0.59999690
O      2.47061010     8.26637727     3.72066991
O      0.49318906     9.32517630     6.91423425
O      0.55984662     9.28616878     2.16203261
O      0.60648256     7.06513452     5.50996601
O      2.32700930     8.11096278     8.46971554
O      4.38597502     7.07715251     0.59999690
O      6.28707413     8.16498600     3.77009535
O      4.38498890     9.38718188     6.98741198
O      4.38597502     9.28616878     2.16203261
O      4.36395283     7.08254717     5.48706291
O      6.40260628     8.29315448     8.67788860
O      6.37126365     3.71244384    11.89319464
Ce     2.47285343     1.55451244     1.38101475
Ce     0.52083343     2.65298161     4.55594357
Ce     0.52430720     0.48271585     7.77317663
Ce     6.29909662     1.55451244     1.38101475
Ce     4.41059320     2.65827141     4.55931613
Ce     4.39565193     0.47567931     7.73928933
Ce    10.12522502     1.55451244     1.38101475
Ce     8.19388153     2.66662095     4.56614020
Ce     8.17908131     0.46385039     7.74935642
Ce     0.55978923     4.86803684     1.38101475
Ce    -1.34917736     5.97045839     4.57328207
Ce    -1.38303190     3.73983460     7.74306486
Ce     4.38603242     4.86803684     1.38101475
Ce     2.48473025     5.98446808     4.48425174
Ce     8.21216082     4.86803684     1.38101475
Ce     6.28727817     5.97119723     4.61411944
Ce     6.27197547     3.74120570     7.81944765
Ce    -1.35333237     8.18166064     1.38101475
Ce    -3.27093978     9.29178464     4.57151728
Ce    -3.26489911     7.08305371     7.80232159
Ce     2.47291082     8.18166064     1.38101475
Ce     0.56462641     9.28311117     4.54749133
Ce     0.45147665     7.16919843     7.77948012
Ce     6.29903923     8.18166064     1.38101475
Ce     4.37487354     9.27308737     4.58236685
Ce     4.47444329     7.16022777     7.87796507
Ta     2.44333176     3.57557357     7.59884861
C      6.20425171     3.86175494    10.77395109
