83
CIF: Ta-CeO2+CO.cif | data_image0
O      0.55978923     0.45000431     0.59999690
O      2.47133390     1.59837188     3.78252433
O      0.43259840     2.59396501     6.87640119
O      0.55978923     2.65902057     2.16203261
O      0.56010353     0.41377848     5.37626455
O      2.47121515     1.98090315     8.43457525
O      4.38603242     0.45000431     0.59999690
O      6.29395591     1.56162510     3.75364378
O      4.55408504     2.56875264     6.87591298
O      4.38603242     2.65902057     2.16203261
O      4.37800393     0.40593147     5.37500445
O      6.31138558     1.53590510     8.64139418
O      8.21216082     0.45000431     0.59999690
O     10.12997118     1.56269068     3.75132538
O      8.20917272     2.65216368     6.98526643
O      8.21216082     2.65902057     2.16203261
O      8.21314906     0.47634060     5.40088399
O     10.12769592     1.55122220     8.62385385
O     -1.35327498     3.76352871     0.59999690
O      0.50745393     4.80892760     3.77379679
O     -1.28174588     5.92935334     7.04077368
O     -1.35333237     5.97264438     2.16203261
O     -1.40957174     3.77751263     5.40273950
O      0.88493719     4.62719352     8.47767509
O      2.47296821     3.76352871     0.59999690
O      4.43608096     4.80758693     3.77274726
O      2.45244875     6.10408235     6.98446949
O      2.47291082     5.97264438     2.16203261
O      2.48007447     3.71348355     5.70471360
O      3.98913688     4.61996412     8.45888541
O      6.29909662     3.76352871     0.59999690
O      8.21402387     4.89298942     3.74529684
O      6.22476600     5.90998264     7.07502179
O      6.29903923     5.97264438     2.16203261
O      6.35797147     3.78393362     5.39432270
O      8.25026685     4.87846081     8.58908269
O     -3.26639657     7.07715251     0.59999690
O     -1.38714590     8.17305401     3.73655650
O     -3.27026691     9.37713576     7.02988651
O     -3.26639657     9.28616878     2.16203261
O     -3.27400156     7.07910374     5.48216191
O     -1.34679013     8.19957828     8.56734632
O      0.55984662     7.07715251     0.59999690
O      2.47179425     8.25708564     3.74513682
O      0.57550014     9.31446383     6.95785710
O      0.55984662     9.28616878     2.16203261
O      0.46475047     7.13629311     5.41313818
O      2.47911118     8.23494761     8.62148002
O      4.38597502     7.07715251     0.59999690
O      6.32599971     8.17255737     3.73921235
O      4.37176782     9.31322113     6.95518931
O      4.38597502     9.28616878     2.16203261
O      4.47781447     7.12646514     5.42232471
O      6.28462960     8.19731749     8.56657711
O      5.62295372     4.99720047    11.51574499
Ce     2.47285343     1.55451244     1.38101475
Ce     0.53216583     2.65408844     4.56526947
Ce     0.51725057     0.47673796     7.72609722
Ce     6.29909662     1.55451244     1.38101475
Ce     4.41713543     2.65578437     4.57231832
Ce     4.43108342     0.47707626     7.72531463
Ce    10.12522502     1.55451244     1.38101475
Ce     8.20937906     2.66320793     4.55649128
Ce     8.21458873     0.46016270     7.78490593
Ce     0.55978923     4.86803684     1.38101475
Ce    -1.35275584     5.97208281     4.57064697
Ce    -1.35445308     3.72567042     7.74692244
Ce     4.38603242     4.86803684     1.38101475
Ce     2.47174142     5.98337235     4.58232914
Ce     8.21216082     4.86803684     1.38101475
Ce     6.29636251     5.96441597     4.57255589
Ce     6.30532724     3.71033713     7.77354571
Ce    -1.35333237     8.18166064     1.38101475
Ce    -3.26864156     9.28856479     4.56299515
Ce    -3.26605455     7.07766230     7.79545859
Ce     2.47291082     8.18166064     1.38101475
Ce     0.56438075     9.28614521     4.54510521
Ce     0.59207435     7.12058504     7.73310521
Ce     6.29903923     8.18166064     1.38101475
Ce     4.37801836     9.28700061     4.54455984
Ce     4.33991873     7.11534206     7.72957793
Ta     2.43310556     3.77155340     7.69020874
C      5.89406255     4.47081591    10.53859740
