81
CIF: Ta-CeO2.cif | data_image0
O      0.55978538     0.45000321     0.60000009
O      2.47227300     1.59894703     3.78308269
O      0.40022570     2.57107784     6.86297578
O      0.55978538     2.65901948     2.16203581
O      0.56392976     0.40318602     5.37052015
O      2.47300767     1.98276088     8.41882116
O      4.38602857     0.45000321     0.60000009
O      6.29396402     1.56123032     3.75127995
O      4.54609562     2.57003680     6.86310568
O      4.38602857     2.65901948     2.16203581
O      4.38198839     0.40410603     5.37047281
O      6.30811645     1.54721861     8.62911338
O      8.21215698     0.45000321     0.60000009
O     10.13010929     1.56168690     3.75212582
O      8.21207892     2.64409305     6.96958687
O      8.21215698     2.65901948     2.16203581
O      8.21086990     0.46925385     5.39486824
O     10.11693394     1.54924484     8.62940405
O     -1.35327882     3.76352761     0.60000009
O      0.51033492     4.80682663     3.77101868
O     -1.28309096     5.92032962     7.05289082
O     -1.35333621     5.97264328     2.16203581
O     -1.41206304     3.78402072     5.39647694
O      0.90482972     4.61281363     8.46703653
O      2.47296437     3.76352761     0.60000009
O      4.43626455     4.80732898     3.77154110
O      2.47358698     6.09197460     6.99490892
O      2.47290698     5.97264328     2.16203581
O      2.47280006     3.71377312     5.70921102
O      4.04029389     4.61021366     8.46682141
O      6.29909277     3.76352761     0.60000009
O      8.21180050     4.89120083     3.74414339
O      6.23104847     5.91950678     7.05329978
O      6.29903538     5.97264328     2.16203581
O      6.35680569     3.78190957     5.39624376
O      8.21318621     4.85608192     8.58267554
O     -3.26640042     7.07715142     0.60000009
O     -1.38033615     8.17010105     3.73754936
O     -3.26696645     9.37404611     7.02504387
O     -3.26640042     9.28616768     2.16203581
O     -3.26586918     7.07702303     5.47831556
O     -1.34577703     8.19548508     8.56168444
O      0.55984277     7.07715142     0.60000009
O      2.47334693     8.25068438     3.74243911
O      0.57349152     9.31121828     6.95579481
O      0.55984277     9.28616768     2.16203581
O      0.47037967     7.12802999     5.42175701
O      2.47053324     8.23246100     8.61893406
O      4.38597118     7.07715142     0.60000009
O      6.32717416     8.16932207     3.73718273
O      4.36983397     9.31397156     6.95646047
O      4.38597118     9.28616768     2.16203581
O      4.47744737     7.12926394     5.42318332
O      6.28980686     8.19649888     8.56031598
Ce     2.47284958     1.55451135     1.38101795
Ce     0.53065592     2.65238176     4.56543119
Ce     0.51529875     0.47449696     7.72255981
Ce     6.29909277     1.55451135     1.38101795
Ce     4.41495542     2.65188029     4.56574516
Ce     4.42938257     0.47421754     7.72242294
Ce    10.12522118     1.55451135     1.38101795
Ce     8.21189027     2.66024798     4.55124728
Ce     8.21146917     0.45769572     7.78391579
Ce     0.55978538     4.86803574     1.38101795
Ce    -1.35100579     5.96900290     4.57002259
Ce    -1.35928863     3.71441292     7.74663161
Ce     4.38602857     4.86803574     1.38101795
Ce     2.47302795     5.97872536     4.58490323
Ce     8.21215698     4.86803574     1.38101795
Ce     6.29761136     5.96898443     4.57064791
Ce     6.30505778     3.71383780     7.74620525
Ce    -1.35333621     8.18165955     1.38101795
Ce    -3.26639478     9.28534754     4.56270432
Ce    -3.26656301     7.07253538     7.79482082
Ce     2.47290698     8.18165955     1.38101795
Ce     0.56730471     9.28243263     4.54370092
Ce     0.59700139     7.11443292     7.73613409
Ce     6.29903538     8.18165955     1.38101795
Ce     4.37854482     9.28274103     4.54417483
Ce     4.34800379     7.11395951     7.73488321
Ta     2.47223707     3.78321183     7.69457975
