80
CIF: Ta-CeO2-Ov.cif | data_image0
O      0.55978923     0.45000431     0.59999690
O      2.45293398     1.61763228     3.78407369
O      0.53776541     2.62414254     6.92181094
O      0.55978923     2.65902057     2.16203261
O      0.54509979     0.43830996     5.38161230
O      2.41015485     1.89335045     8.58671458
O      4.38603242     0.45000431     0.59999690
O      6.29025498     1.55928697     3.74557958
O      4.26907448     2.58074004     6.90777866
O      4.38603242     2.65902057     2.16203261
O      4.37088533     0.43879839     5.34012958
O      6.26387367     1.43315132     8.61813028
O      8.21216082     0.45000431     0.59999690
O     10.11064893     1.56086365     3.76210052
O      8.22672273     2.64054528     6.95467902
O      8.21216082     2.65902057     2.16203261
O      8.18041608     0.45810645     5.40183527
O     10.10806452     1.60636334     8.62619908
O     -1.35327498     3.76352871     0.59999690
O      0.48406863     4.81638137     3.73914467
O     -1.35637919     5.97883247     6.98448675
O     -1.35333237     5.97264438     2.16203261
O     -1.38679883     3.77132832     5.41046771
O      1.03440928     4.88090737     8.14739726
O      2.47296821     3.76352871     0.59999690
O      4.44166741     4.81723981     3.74416163
O      3.79296867     4.78943582     8.24810220
O      2.47291082     5.97264438     2.16203261
O      2.43608526     3.84479924     5.64066364
O      6.29909662     3.76352871     0.59999690
O      8.20348998     4.88680026     3.77208850
O      6.35790370     5.99809653     7.01932391
O      6.29903923     5.97264438     2.16203261
O      6.28809818     3.75061563     5.39481455
O      8.35409396     4.89415466     8.65121524
O     -3.26639657     7.07715251     0.59999690
O     -1.34219425     8.15859846     3.75743682
O     -3.26872325     9.38363009     6.98575879
O     -3.26639657     9.28616878     2.16203261
O     -3.25911845     7.11540969     5.41983156
O     -1.37525570     8.20399349     8.62405549
O      0.55984662     7.07715251     0.59999690
O      2.46375996     8.26965913     3.72080100
O      0.48010548     9.32601525     6.91054103
O      0.55984662     9.28616878     2.16203261
O      0.59342420     7.06916986     5.50424299
O      2.31302371     8.11852600     8.47097297
O      4.38597502     7.07715251     0.59999690
O      6.28135209     8.16877636     3.77333917
O      4.37001914     9.38885746     6.98833625
O      4.38597502     9.28616878     2.16203261
O      4.35079517     7.08739770     5.48709755
O      6.38592963     8.29764863     8.67256100
Ce     2.47285343     1.55451244     1.38101475
Ce     0.51390642     2.65769270     4.55914641
Ce     0.51001790     0.48797479     7.77257416
Ce     6.29909662     1.55451244     1.38101475
Ce     4.40076254     2.66086711     4.55971830
Ce     4.38343744     0.47962138     7.73951677
Ce    10.12522502     1.55451244     1.38101475
Ce     8.18769790     2.66751487     4.56371888
Ce     8.16525305     0.46621734     7.74821792
Ce     0.55978923     4.86803684     1.38101475
Ce    -1.35763718     5.97310473     4.57179149
Ce    -1.40081428     3.74258560     7.73847597
Ce     4.38603242     4.86803684     1.38101475
Ce     2.47570635     5.98840468     4.48442125
Ce     8.21216082     4.86803684     1.38101475
Ce     6.27890792     5.97589630     4.61580999
Ce     6.26707268     3.74697956     7.80888894
Ce    -1.35333237     8.18166064     1.38101475
Ce    -3.28089180     9.29543127     4.57298192
Ce    -3.27931077     7.08610125     7.79796911
Ce     2.47291082     8.18166064     1.38101475
Ce     0.55556098     9.28638063     4.54638453
Ce     0.43942451     7.17349371     7.77705875
Ce     6.29903923     8.18166064     1.38101475
Ce     4.36456635     9.27674205     4.58452466
Ce     4.45750498     7.16309347     7.88184462
Ta     2.44310867     3.58111694     7.60400761
