84
CIF: Ti-Y-CeO2-Ov-CO2.cif | data_image0
Ce     1.93596140     1.11772783     0.89035214
Ce    -0.00196942     2.22420753     4.03598207
Ce    -5.66438647     9.97771783     7.25317639
Ce     5.80789581     1.11772783     0.89035214
Ce     3.86556588     2.23332042     4.03147189
Ce    -2.02813961    10.02091274     7.20075168
Ce     9.67981860     1.11772783     0.89035214
Ce     7.77093259     2.21973231     4.01121752
Ce     1.90600058     9.97909352     7.20735475
Ce     0.00000000     4.47091133     0.89035214
Ce    -1.94084999     5.58619181     4.04785702
Ce    -1.87858296     3.42007711     7.20615795
Ce     3.87193441     4.47091133     0.89035214
Ce     1.94379759     5.58484883     4.09077667
Ce     1.81229407     3.26971279     7.20950178
Ce     7.74385721     4.47091133     0.89035214
Ce     5.80589096     5.59564790     4.03250581
Ce    -1.93596721     7.82410489     0.89035214
Ce    -3.88498876     8.94933637     3.98999610
Ce    -3.88488782     6.80381975     7.20057124
Ce     1.93596721     7.82410489     0.89035214
Ce    -0.00021904     8.94729937     4.04813976
Ce     0.01130132     6.70006937     7.29089762
Ce     5.80789000     7.82410489     0.89035214
Ce     3.88057181     8.94991778     4.03666421
Ce     3.88216440     6.85803260     7.21268521
Y      5.93245621     3.28153366     6.88579340
O      0.00000000     0.00000000     0.09999685
O      1.94196173     1.11610165     3.20126177
O     -0.07310730     2.16296942     6.49812740
O      0.00000000     2.23545567     1.68070743
O     -5.77702998    10.04291870     4.78616839
O      2.10561918     0.98833559     8.15247899
O      3.87192279     0.00000000     0.09999685
O      5.79578120     1.09297308     3.22696495
O      4.02334001     2.28627076     6.56543120
O      3.87192279     2.23545567     1.68070743
O      3.83379532     0.05062232     4.84981489
O      6.13657625     1.55583845     8.67441154
O      7.74385721     0.00000000     0.09999685
O      9.68793844     1.11312808     3.22828207
O      7.74507852     2.23474179     6.33314516
O      7.74385721     2.23545567     1.68070743
O      1.93007402    10.01481629     4.77974811
O      8.96257883     1.53518540     8.95093294
O     -1.93596140     3.35318350     0.09999685
O      0.01989459     4.50136455     3.24761415
O     -2.09230924     5.61236417     6.47027262
O     -1.93596721     5.58864923     1.68070743
O     -1.89913875     3.37981257     4.77976127
O     -0.01602650     4.63303932     8.11864735
O      1.93596140     3.35318350     0.09999685
O      3.84839597     4.48502614     3.25340256
O      2.04756711     5.52220205     6.44565450
O      1.93595559     5.58864923     1.68070743
O      1.91936540     3.27683315     4.83702592
O      5.80789581     3.35318350     0.09999685
O      7.75916652     4.49340054     3.22728072
O      5.84331277     5.43190395     6.56374049
O      5.80789000     5.58864923     1.68070743
O      5.81865831     3.34543648     4.70499815
O      7.53575570     3.97399260     8.67094331
O     -3.87192860     6.70637706     0.09999685
O     -1.92900430     7.82041903     3.25142925
O     -3.81873636     8.91011664     6.35487641
O     -3.87192860     8.94183273     1.68070743
O      7.68083071     6.71439439     4.84910701
O     -1.98388662     7.85118982     8.08115854
O     -0.00000581     6.70637706     0.09999685
O      1.91996696     7.79209915     3.24788383
O     -0.09838123     9.06552422     6.47218017
O     -0.00000581     8.94183273     1.68070743
O     -0.00616784     6.71056541     4.94400994
O      3.87192860     6.70637706     0.09999685
O      5.81166438     7.82054645     3.20172507
O      3.89705099     9.04902678     6.49366507
O      3.87192860     8.94183273     1.68070743
O      3.93005933     6.75860775     4.84089948
O      6.00162532     7.74095864     8.15159968
O      4.38195916     4.18581068    10.70236455
O      1.79057905     7.75629240     8.11910048
O      6.34117965     3.05914964    11.36107561
Ti     7.50123192     2.38073434     9.45787855
C      5.35577414     3.62549886    11.01375154
