85
CIF: Ti-Y-CeO2-O-CO.cif | data_image0
Ce     1.93596140     1.11772783     0.89035214
Ce    -0.00035136     2.22301051     4.05599352
Ce    -5.70287821     9.99901149     7.24420781
Ce     5.80789581     1.11772783     0.89035214
Ce     3.87764364     2.22345923     4.02824517
Ce    -2.03043036    10.02353348     7.18064987
Ce     9.67981860     1.11772783     0.89035214
Ce     7.74293877     2.23602399     4.07107843
Ce     1.93023198     9.97355764     7.18423697
Ce     0.00000000     4.47091133     0.89035214
Ce    -1.94102516     5.59219844     4.04088384
Ce    -1.86423295     3.40136616     7.18408953
Ce     3.87193441     4.47091133     0.89035214
Ce     1.94123108     5.58562499     4.03556523
Ce     1.97543410     3.36502311     7.20734011
Ce     7.74385721     4.47091133     0.89035214
Ce     5.82118367     5.58984271     4.02808364
Ce    -1.93596721     7.82410489     0.89035214
Ce    -3.88144169     8.94734459     3.98856201
Ce    -3.88783425     6.80607936     7.18045142
Ce     1.93596721     7.82410489     0.89035214
Ce    -0.00561649     8.94451411     4.04101211
Ce     0.02699045     6.69080126     7.23806143
Ce     5.80789000     7.82410489     0.89035214
Ce     3.88246304     8.94841421     4.05601437
Ce     3.88144628     6.66647158     7.20719167
Y      5.71353244     3.40800881     7.01074959
O      0.00000000     0.00000000     0.09999685
O      1.93778684     1.12509818     3.21702400
O     -0.00451886     2.19975697     6.48281890
O      0.00000000     2.23545567     1.68070743
O     -5.78646795    10.04713648     4.80539976
O      2.08881862     1.14347866     8.08289912
O      3.87192279     0.00000000     0.09999685
O      5.79678137     1.10167744     3.24095617
O      3.98804885     2.13624209     6.43060474
O      3.87192279     2.23545567     1.68070743
O     -1.96866359    10.03563530     4.82689131
O      6.12296609     1.53330189     8.65669870
O      7.74385721     0.00000000     0.09999685
O      9.68723689     1.11340715     3.24807330
O      7.68540006     2.26910578     6.35507286
O      7.74385721     2.23545567     1.68070743
O      1.93158690    10.01435231     4.79197117
O      8.97420176     1.52563170     8.87915974
O     -1.93596140     3.35318350     0.09999685
O      0.02608098     4.48800191     3.24767123
O     -2.05533478     5.61162728     6.49835250
O     -1.93596721     5.58864923     1.68070743
O     -1.89899582     3.37954951     4.79171932
O      0.13509386     4.56882523     8.04252935
O      1.93596140     3.35318350     0.09999685
O      3.84461458     4.48668834     3.22802618
O      1.94781805     5.58162300     6.33278164
O      1.93595559     5.58864923     1.68070743
O      1.95953039     3.30463395     4.89027011
O      5.80789581     3.35318350     0.09999685
O      7.75214430     4.48873713     3.24106130
O      5.95176168     5.53802997     6.43026210
O      5.80789000     5.58864923     1.68070743
O      5.76177852     3.37998610     4.76025983
O      7.54303530     3.99168352     8.65541851
O     -3.87192860     6.70637706     0.09999685
O     -1.92570526     7.81815471     3.22011367
O     -3.84734508     8.92771689     6.39001279
O     -3.87192860     8.94183273     1.68070743
O     -3.86738991     6.74658656     4.82675958
O     -1.99610927     7.85872157     8.07443799
O     -0.00000581     6.70637706     0.09999685
O      1.93423058     7.79309827     3.24775838
O     -0.07948965     9.03430463     6.49877227
O     -0.00000581     8.94183273     1.68070743
O     -0.04178485     6.73063089     4.91114210
O      3.87192860     6.70637706     0.09999685
O      5.80231609     7.81899134     3.21706154
O      3.90034983     8.96395145     6.48338738
O      3.87192860     8.94183273     1.68070743
O      3.92537601     6.71045939     4.88999717
O      5.86222097     7.67916480     8.08272594
O      1.91865548     7.65820615     8.04233243
O      3.83714571     4.49148922     7.93906175
O      7.39990041     2.44731707    11.61942890
O      7.63571485     2.34260948    13.95197083
Ti     7.49989856     2.37812449     9.38980482
C      7.52226687     2.39198592    12.79226765
