89
CIF: CH2CCH2+O2.cif | data_image0
O      0.00261135     0.00382715     0.19995339
O      1.93190683     1.06169563     3.32618091
O     -0.12442346     2.13874409     6.39399591
O      0.00261135     2.21285656     1.76196664
O      5.75999307     9.89298057     4.93411235
O      3.82876252     0.00382715     0.19995339
O      5.74067889     1.10276244     3.33022870
O      3.56738877     2.45856654     7.06230860
O      3.82876252     2.21285656     1.76196664
O      3.87095766     0.13379590     5.06831967
O      5.76831484     1.10525718     8.11921301
O      7.65492518     0.00382715     0.19995339
O      9.54967374     1.10431561     3.34328877
O      7.65902107     2.21038605     6.50971154
O      7.65492518     2.21285656     1.76196664
O      7.64930595     0.00074762     4.97030638
O      9.52451246     1.09753944     8.16716563
O     -1.91046424     3.31737126     0.19995339
O     -0.02541067     4.45282972     3.33281359
O     -1.86858755     5.53271421     6.54968172
O     -1.91046998     5.52641062     1.76196664
O      9.52589259     3.35509169     4.93899906
O      0.03035114     4.37191451     8.13829841
O      1.91568694     3.31737126     0.19995339
O      3.87109817     4.44354076     3.33019271
O      2.12075667     5.29364633     6.77986121
O      1.91568120     5.52641062     1.76196664
O      1.92293717     3.30887450     4.78541860
O      4.52124696     4.86760793     8.72372400
O      5.74184959     3.31737126     0.19995339
O      7.62083564     4.42280783     3.35617804
O      5.74701012     5.51004807     6.49426423
O      5.74184385     5.52641062     1.76196664
O      5.65927493     3.24995967     5.04813623
O      7.67990547     4.41622531     8.12152207
O     -3.82354556     6.63092532     0.19995339
O     -1.87326224     7.75362954     3.39173912
O     -3.76572335     8.87827590     6.51213367
O     -3.82354556     8.83995473     1.76196664
O     -3.80394816     6.63146173     4.99442197
O     -1.86587111     7.72429221     8.16724960
O      0.00260561     6.63092532     0.19995339
O      1.90683612     7.73466975     3.33857841
O      0.00620763     8.81879729     6.53093113
O      0.00260561     8.83995473     1.76196664
O      0.10921557     6.58112543     5.05742483
O      1.92420414     7.74739905     8.12395037
O      3.82876826     6.63092532     0.19995339
O      5.74943247     7.70985974     3.34442680
O      3.84013075     8.86933159     6.50845118
O      3.82876826     8.83995473     1.76196664
O      3.79613634     6.63797378     4.99182206
O      5.78205387     7.76277172     8.10324982
O      1.97406932     0.58004339     8.68701467
O      1.14631646     1.73479345     8.64895274
Ce     1.91568694     1.10834185     0.98097142
Ce     0.00831057     2.21490204     4.15049714
Ce    -0.00960215     0.03820811     7.31022219
Ce     5.74184959     1.10834185     0.98097142
Ce     3.78099401     2.24204639     4.14450277
Ce    -1.85364858     9.92244883     7.38326758
Ce     9.56800076     1.10834185     0.98097142
Ce     7.63562006     2.21058170     4.14597537
Ce     7.67214228     0.00780220     7.32826216
Ce     0.00261135     4.42188597     0.98097142
Ce    -1.89617887     5.52287767     4.16677474
Ce     9.58311518     3.27346903     7.29686879
Ce     3.82877400     4.42188597     0.98097142
Ce     1.93392068     5.46956124     4.16909842
Ce     7.65492518     4.42188597     0.98097142
Ce     5.74296453     5.52442404     4.15859257
Ce     5.76598648     3.31649982     7.38091254
Ce    -1.91046998     7.73544003     0.98097142
Ce    -3.81294295     8.84685423     4.16602352
Ce    -3.78942061     6.63227339     7.33809585
Ce     1.91569268     7.73544003     0.98097142
Ce     0.02755864     8.84999329     4.16415141
Ce     0.05492038     6.60043223     7.36422401
Ce     5.74184385     7.73544003     0.98097142
Ce     3.83050345     8.83668019     4.13009010
Ce     3.90018958     6.70454432     7.32578355
Pd     1.80257265     3.44148902     7.70715664
C      3.49395236     4.95691351     9.66357452
C      2.42443163     3.91261844     9.58477277
C      1.82262949     3.39429335    10.64854450
H      2.97681129     5.95516064     9.59349882
H      3.89976036     4.92781743    10.69506878
H      0.97147245     2.71906632    10.59851037
H      2.21486018     3.64580943    11.64073190
