89
CIF: CH2CO+Olat.cif | data_image0
O      0.00261135     0.00382715     0.19995339
O      1.90939806     1.06485515     3.34026152
O      0.05942965     2.07366714     6.61702172
O      0.00261135     2.21285656     1.76196664
O      5.71805028     9.90625360     4.95236760
O      3.82876252     0.00382715     0.19995339
O      5.74373886     1.11148010     3.34918827
O      3.63518261     2.17255158     6.70475400
O      3.82876252     2.21285656     1.76196664
O     -1.90406399     9.93519460     4.95048501
O      5.78951139     0.99815967     8.57469841
O      7.65492518     0.00382715     0.19995339
O      9.56153787     1.11807955     3.33264348
O      7.63479566     2.13893826     6.58080393
O      7.65492518     2.21285656     1.76196664
O      1.93055520     9.93577886     4.94971454
O      9.54020972     1.06367146     8.20604533
O     -1.91046424     3.31737126     0.19995339
O     -0.04904103     4.44967451     3.33990187
O     -1.89731888     5.51615844     6.48499110
O     -1.91046998     5.52641062     1.76196664
O      9.58323246     3.27635707     5.02421749
O     -0.01645153     4.44612050     8.09975705
O      1.91568694     3.31737126     0.19995339
O      3.86212718     4.44302045     3.34433719
O      2.03477594     5.52165925     6.55128817
O      1.91568120     5.52641062     1.76196664
O      1.88877738     3.31868351     4.75831830
O      3.94482338     4.64175072     8.71706503
O      5.74184959     3.31737126     0.19995339
O      7.65910645     4.43021800     3.37945964
O      5.68739377     5.55876913     6.57474781
O      5.74184385     5.52641062     1.76196664
O      5.70763205     3.30000597     4.99550887
O      7.77615913     4.49972642     8.17136480
O     -3.82354556     6.63092532     0.19995339
O     -1.91055503     7.72253121     3.35005698
O     -3.84575634     9.00602462     6.65903028
O     -3.82354556     8.83995473     1.76196664
O     -3.84027139     6.68671378     5.03906990
O     -1.87172073     7.67597174     8.07293108
O      0.00260561     6.63092532     0.19995339
O      1.90765122     7.73592660     3.32047785
O      0.03959963     8.93761755     6.54893714
O      0.00260561     8.83995473     1.76196664
O      0.03941274     6.65394949     5.00675413
O      1.93088570     7.75533086     8.15562814
O      3.82876826     6.63092532     0.19995339
O      5.75673438     7.72426597     3.32523982
O      3.80946311     8.86247644     6.49898540
O      3.82876826     8.83995473     1.76196664
O      3.83539518     6.66746913     4.94916746
O      5.69712703     7.77768479     8.14517098
O      3.23995819     0.63519398     9.40353095
O      3.68795770     1.45262668    11.47014124
Ce     1.91568694     1.10834185     0.98097142
Ce     0.01850951     2.21179671     4.16416675
Ce     5.61734632     9.91765877     7.30064658
Ce     5.74184959     1.10834185     0.98097142
Ce     3.79047092     2.23010437     4.20073928
Ce    -1.88293609     9.90035541     7.30835085
Ce     9.56800076     1.10834185     0.98097142
Ce     7.63982232     2.20611001     4.17277594
Ce     1.96712977     9.92219406     7.34286775
Ce     0.00261135     4.42188597     0.98097142
Ce    -1.90617466     5.52605039     4.15956877
Ce    -1.88615416     3.31803312     7.35095336
Ce     3.82877400     4.42188597     0.98097142
Ce     1.92529865     5.50501514     4.14832868
Ce     7.65492518     4.42188597     0.98097142
Ce     5.73297658     5.52415404     4.17036042
Ce     5.73930442     3.34534337     7.40465169
Ce    -1.91046998     7.73544003     0.98097142
Ce    -3.82810402     8.84838629     4.14562555
Ce    -3.80324143     6.62017260     7.36390331
Ce     1.91569268     7.73544003     0.98097142
Ce     0.01245346     8.85339638     4.13447119
Ce     0.02975802     6.60388970     7.31514099
Ce     5.74184385     7.73544003     0.98097142
Ce     3.82214745     8.84093829     4.09417145
Ce     3.83285309     6.70814210     7.31626340
Pd     1.77182707     3.47265400     7.38344597
C      2.77393358     4.11007204     9.08244783
C      4.04058997     1.07154397    10.35836835
C      5.54121222     1.09426350     9.98444132
H      2.04000410     4.81150929     9.51615171
H      2.81801533     3.13349834     9.59782659
H      6.01951035     0.25574102    10.52372815
H      5.97181887     2.02189051    10.40487022
