92
CIF: W-CeO2(110)-Ov.cif | data_image0
O      1.33279769     2.42038089     4.30977732
O      1.32294513     6.27821724     8.25719922
O      1.35275000     6.24576514     0.45001077
O      1.35518926     2.43960441     8.36250342
O      1.35275000     2.41961430     0.45001077
O      1.35961628     6.26973858     4.34335882
O      4.08138996     0.52685759     6.42041290
O      4.05825000     4.33269546     2.36308887
O      4.05825000     0.50653314     2.36308887
O      4.17091849     4.35022417     6.41257534
O      4.08330557     2.43552987     4.30843969
O      4.12466562     5.94146827     8.37686329
O      4.05825000     6.24576514     0.45001077
O      3.58627241     1.41640431    10.35175529
O      4.05825000     2.41961430     0.45001077
O      4.04944673     6.21439369     4.36822243
O      1.30778315     0.44476374     6.30851776
O      1.35275000     4.33269546     2.36308887
O      1.35275000     0.50653314     2.36308887
O      1.31690570     4.40070776     6.29102669
O      6.74545007     2.43586441     4.31416192
O      6.70671870     5.94380581     8.38309095
O      6.76375000     6.24576514     0.45001077
O      5.41385080     3.19327699     8.82927520
O      6.76375000     2.41961430     0.45001077
O      6.77659474     6.21796304     4.37175723
O      9.51744365     0.43842684     6.31169647
O      9.46925000     4.33269546     2.36308887
O      9.46925000     0.50653314     2.36308887
O      9.51068402     4.40831507     6.29298032
O      9.49240644     2.42149960     4.31214757
O      9.51020411     6.27976384     8.26518531
O      9.46925000     6.24576514     0.45001077
O      9.51865592     2.44068582     8.33335537
O      9.46925000     2.41961430     0.45001077
O      9.46483428     6.27222716     4.34271593
O      6.74305485     0.52620228     6.42399270
O      6.76375000     4.33269546     2.36308887
O      6.76375000     0.50653314     2.36308887
O      6.66029314     4.35447132     6.41366444
O      1.36701522    10.06480648     4.32932919
O      1.29343155    10.07240486     8.30656026
O      1.35275000    10.07192746     0.45001077
O      4.05326016     8.07748903     6.36749574
O      4.05825000     8.15884630     2.36308887
O      4.06794277    10.06605519     4.40823862
O      4.03050109    10.02641794     8.34271660
O      4.05825000    10.07192746     0.45001077
O      1.33400468     8.18167019     6.30570059
O      1.35275000     8.15884630     2.36308887
O      6.75785067    10.06576095     4.41023104
O      6.78990289    10.04256830     8.37735376
O      6.76375000    10.07192746     0.45001077
O      9.49333954     8.18490943     6.30998730
O      9.46925000     8.15884630     2.36308887
O      9.45763781    10.06469211     4.32879095
O      9.53489928    10.07376259     8.31585566
O      9.46925000    10.07192746     0.45001077
O      6.77627103     8.08676128     6.37516065
O      6.76375000     8.15884630     2.36308887
O      2.84142741     3.58977061    10.85650909
Ce     0.00020758     0.47541093     4.31874870
Ce     0.01044180     4.32921702     8.14091242
Ce     0.00000000     4.33269546     0.45001077
Ce     2.63935611     2.40436663     6.28083360
Ce     2.70550000     6.24576514     2.36308887
Ce     2.70550000     2.41961430     2.36308887
Ce     2.63138626     6.27477077     6.34943286
Ce     0.00867348     0.50880794     8.14025814
Ce     0.00000000     0.50653314     0.45001077
Ce     0.00056645     4.34281394     4.30445150
Ce     5.41480563     0.50440199     4.39409559
Ce     5.41100000     4.33269546     0.45001077
Ce     8.19103155     2.40503328     6.28928043
Ce     8.11650000     6.24576514     2.36308887
Ce     8.11650000     2.41961430     2.36308887
Ce     8.20034841     6.27680863     6.35354887
Ce     5.39464649     0.33646117     8.31960441
Ce     5.41100000     0.50653314     0.45001077
Ce     5.41285229     4.31544243     4.27077059
Ce    10.82172314     8.19587615     4.31064527
Ce     2.73365954    10.07691407     6.44511374
Ce     2.70550000    10.07192746     2.36308887
Ce     0.00354199     8.19043638     8.14401209
Ce     0.00000000     8.15884630     0.45001077
Ce     5.41375506     8.15268183     4.38081268
Ce     8.08896066    10.08449420     6.46141375
Ce     8.11650000    10.07192746     2.36308887
Ce     5.41570532     8.18413106     8.29776537
Ce     5.41100000     8.15884630     0.45001077
W      5.41771366     4.71045163     7.86703972
C      3.20695908     2.51689751    10.56137630
