93
CIF: W-CeO2(110)+CO2.cif | data_image0
O      1.35826808     2.40984318     4.33484736
O      1.32255846     6.36977373     8.23767102
O      1.35275000     6.24576514     0.45001077
O      1.19207061     2.28657330     8.27401298
O      1.35275000     2.41961430     0.45001077
O      1.35905123     6.23695297     4.35200528
O      4.03771790     0.40721365     6.19780528
O      4.05825000     4.33269546     2.36308887
O      4.05825000     0.50653314     2.36308887
O      4.17690214     4.37507186     6.49792886
O      4.05673913     2.46653444     4.39326865
O      4.12865976     6.03634638     8.44813976
O      4.05825000     6.24576514     0.45001077
O      5.80203704     3.76885450     9.34981238
O      4.05825000     2.41961430     0.45001077
O      4.04931507     6.21189788     4.37512164
O      1.31362059     0.48083737     6.28152685
O      1.35275000     4.33269546     2.36308887
O      1.35275000     0.50653314     2.36308887
O      1.38735381     4.30907097     6.31548637
O      6.77572673     2.45908098     4.33750547
O      6.68318796     6.18297918     8.20039845
O      6.76375000     6.24576514     0.45001077
O      6.76375000     2.41961430     0.45001077
O      6.76490962     6.19184360     4.40475407
O      9.46624368     0.48145538     6.22194233
O      9.46925000     4.33269546     2.36308887
O      9.46925000     0.50653314     2.36308887
O      9.46264719     4.36684382     6.24827124
O      9.47818212     2.42397916     4.33111582
O      9.42531775     6.39368891     8.21702805
O      9.46925000     6.24576514     0.45001077
O      9.24337282     2.31031977     8.20513177
O      9.46925000     2.41961430     0.45001077
O      9.47008470     6.26221953     4.32714076
O      6.72118234     0.68598036     6.41335338
O      6.76375000     4.33269546     2.36308887
O      6.76375000     0.50653314     2.36308887
O      6.68466406     4.23886284     6.53377467
O      1.35417726    10.07400102     4.32022510
O      1.22866921    10.05367034     8.23483769
O      1.35275000    10.07192746     0.45001077
O      4.01364308     8.10217097     6.36281680
O      4.05825000     8.15884630     2.36308887
O      4.05608103    10.01374738     4.32999305
O      3.96251538    10.14010549     8.29763982
O      4.05825000    10.07192746     0.45001077
O      1.29643961     8.16154273     6.24733365
O      1.35275000     8.15884630     2.36308887
O      6.74258375    10.12388924     4.39852468
O      6.67092659    10.18309155     8.26597594
O      6.76375000    10.07192746     0.45001077
O      9.45063225     8.21464721     6.24156103
O      9.46925000     8.15884630     2.36308887
O      9.45171022    10.07579136     4.30272333
O      9.43594594    10.09163812     8.24692665
O      9.46925000    10.07192746     0.45001077
O      6.74355347     8.17364663     6.31416354
O      6.76375000     8.15884630     2.36308887
O      4.02324811     2.11226315     8.18343066
O      5.64668813     1.17244076    10.81667652
O      4.98506686     3.01140134    12.12189269
Ce     0.01377257     0.49028209     4.29989587
Ce    10.76598690     4.33943046     8.20821195
Ce     0.00000000     4.33269546     0.45001077
Ce     2.68465953     2.36056521     6.45513455
Ce     2.70550000     6.24576514     2.36308887
Ce     2.70550000     2.41961430     2.36308887
Ce     2.62107387     6.24150174     6.39715717
Ce    10.74581972     0.48745604     8.10663079
Ce     0.00000000     0.50653314     0.45001077
Ce     0.03326202     4.33352088     4.32985762
Ce     5.39390662     0.51559203     4.34317687
Ce     5.41100000     4.33269546     0.45001077
Ce     8.20416705     2.42340320     6.25775732
Ce     8.11650000     6.24576514     2.36308887
Ce     8.11650000     2.41961430     2.36308887
Ce     8.17491758     6.29922139     6.33020112
Ce     5.25445123     0.40944566     8.17178631
Ce     5.41100000     0.50653314     0.45001077
Ce     5.39051477     4.32419536     4.33476475
Ce    10.80887257     8.17809722     4.29843098
Ce     2.65588225    10.04416168     6.36852337
Ce     2.70550000    10.07192746     2.36308887
Ce    10.78048208     8.18769853     8.10331757
Ce     0.00000000     8.15884630     0.45001077
Ce     5.39009607     8.15429305     4.37331215
Ce     8.05965506    10.10606589     6.39365245
Ce     8.11650000    10.07192746     2.36308887
Ce     5.36147519     8.25887562     8.25651034
Ce     5.41100000     8.15884630     0.45001077
W      5.45087635     4.81106145     7.98700038
C      5.31507192     2.12923033    11.42972992
