84
CIF: Os-W-CeO2-Ov-CO2.cif | data_image0
Ce     1.93596140     1.11772783     0.89035214
Ce    -0.01515025     2.23184798     4.02941208
Ce    11.58218273     0.01419524     7.30813215
Ce     5.80789581     1.11772783     0.89035214
Ce     3.79937050     2.16586023     3.90620098
Ce    -1.99647021    10.02773496     7.46923463
Ce     9.67981860     1.11772783     0.89035214
Ce     7.80194314     2.19922439     4.01756556
Ce     2.00710647     9.87822101     7.30378331
Ce     0.00000000     4.47091133     0.89035214
Ce    -1.94734818     5.58454918     4.15105119
Ce    -1.78591048     3.37054426     7.32255900
Ce     3.87193441     4.47091133     0.89035214
Ce     1.96877050     5.57267369     4.11798865
Ce     1.65098855     3.32312517     7.28469011
Ce     7.74385721     4.47091133     0.89035214
Ce     5.82733453     5.69674413     3.92150217
Ce    -1.93596721     7.82410489     0.89035214
Ce    -3.88033085     8.95408825     4.15436704
Ce    -3.85393348     6.86385994     7.47973022
Ce     1.93596721     7.82410489     0.89035214
Ce     0.00528049     8.95229285     4.13670100
Ce    -0.06284200     6.75388331     7.32884978
Ce     5.80789000     7.82410489     0.89035214
Ce     3.86846577     8.93668241     4.05667663
Ce     3.78925996     6.92418790     7.40554155
W      5.28148040     3.68711460     6.86184368
Os     6.90260012     2.67855375     8.10704112
O      0.00000000     0.00000000     0.09999685
O      1.92415932     1.09885110     3.20178386
O     -0.00682778     2.25115252     6.35367834
O      0.00000000     2.23545567     1.68070743
O     -5.78016331    10.05216512     4.85174400
O      1.73728464     1.22722097     8.13461640
O      3.87192279     0.00000000     0.09999685
O      5.73152135     1.11734206     3.23449324
O      3.86106512     2.67189654     7.39551018
O      3.87192279     2.23545567     1.68070743
O      3.83204707     0.21008479     4.98500108
O      6.02579099     1.19701753     8.76911757
O      7.74385721     0.00000000     0.09999685
O      9.74916808     1.07687202     3.22640809
O      7.77652414     2.18768161     6.54488406
O      7.74385721     2.23545567     1.68070743
O      1.92439277     9.98689969     4.85408899
O      9.79362302     1.05009608     8.12781807
O     -1.93596140     3.35318350     0.09999685
O      0.04978538     4.47510729     3.28156931
O     -1.97041488     5.63414491     6.50313144
O     -1.93596721     5.58864923     1.68070743
O     -1.89655000     3.40485284     4.86121501
O      0.05186397     4.53183970     8.20271939
O      1.93596140     3.35318350     0.09999685
O      3.90833194     4.44168967     3.23130427
O      2.04227737     5.44261049     6.51703239
O      1.93595559     5.58864923     1.68070743
O      2.04382000     3.25035555     4.92599583
O      5.80789581     3.35318350     0.09999685
O      7.69738633     4.54301837     3.24795699
O      5.62434270     5.42098643     7.30524852
O      5.80789000     5.58864923     1.68070743
O      5.71942033     3.37892926     5.11201441
O      7.77941558     4.13129764     8.81389616
O     -3.87192860     6.70637706     0.09999685
O     -1.96056064     7.84400833     3.36783849
O     -3.84128408     8.97135466     6.47802810
O     -3.87192860     8.94183273     1.68070743
O      7.57120196     6.66899112     4.98078115
O     -1.84538401     7.81907070     8.27927442
O     -0.00000581     6.70637706     0.09999685
O      1.95021978     7.77454833     3.27834354
O     -0.06827235     8.96848357     6.46365516
O     -0.00000581     8.94183273     1.68070743
O      0.04595347     6.68013359     4.94276856
O      3.87192860     6.70637706     0.09999685
O      5.82122030     7.84407674     3.21181234
O      3.89105970     8.93644950     6.36627848
O      3.87192860     8.94183273     1.68070743
O      3.98545310     6.63089844     4.90147040
O      5.77627421     8.05440383     8.21882131
O      3.36996708     4.82072714     9.61589553
O      1.75568896     7.73991725     8.21263172
O      4.15243674     4.12930910    11.72275045
C      3.76558970     4.47240128    10.67511876
