84
CIF: Co-Mo-CeO2-CO.cif | data_image0
Ce     1.93596140     1.11772783     0.89035214
Ce    -0.00170728     2.23991408     4.03895389
Ce     5.81215175    10.03921427     7.18389144
Ce     5.80789581     1.11772783     0.89035214
Ce     3.80726375     2.19916257     3.95906379
Ce    -2.07160755     9.92369864     7.16424798
Ce     9.67981860     1.11772783     0.89035214
Ce     7.76743870     2.24469007     4.02103664
Ce     7.79484288     0.02396749     7.32725172
Ce     0.00000000     4.47091133     0.89035214
Ce    -1.93083842     5.59717616     4.05182693
Ce    -1.77869052     3.41887273     7.24780916
Ce     3.87193441     4.47091133     0.89035214
Ce     1.95612055     5.59396153     4.08138391
Ce     1.90423664     3.32372548     7.23686690
Ce     7.74385721     4.47091133     0.89035214
Ce     5.81506028     5.60140829     4.04097388
Ce    -1.93596721     7.82410489     0.89035214
Ce    -3.88488196     8.90697522     4.00929430
Ce    -3.82409937     6.64888417     7.26213155
Ce     1.93596721     7.82410489     0.89035214
Ce     0.00155712     8.97134465     4.07411724
Ce     0.05462606     6.73623569     7.22855720
Ce     5.80789000     7.82410489     0.89035214
Ce     3.87692730     8.95168872     4.07046444
Ce     3.89391205     6.74330693     7.27229690
Mo     5.44128111     3.31243799     6.85364545
O      0.00000000     0.00000000     0.09999685
O      1.91287205     1.09864246     3.19733876
O      0.02491780     2.21359144     6.35031020
O      0.00000000     2.23545567     1.68070743
O      5.81294992    10.04660236     4.82566300
O      1.95390164     0.94516292     7.99046179
O      3.87192279     0.00000000     0.09999685
O      5.81269278     1.13066381     3.22390996
O      3.97786710     2.14209997     6.33595685
O      3.87192279     2.23545567     1.68070743
O     -1.97880456    10.04142561     4.79874041
O      5.78794772     1.84886299     8.09382108
O      7.74385721     0.00000000     0.09999685
O      9.66848981     1.11827212     3.22456548
O      7.51614562     2.80744228     6.69566618
O      7.74385721     2.23545567     1.68070743
O      7.74396666     0.14357330     4.91270498
O      9.77857975     1.22498111     8.00155009
O     -1.93596140     3.35318350     0.09999685
O     -0.00985277     4.48851896     3.25869198
O     -1.91533028     5.61300059     6.35385847
O     -1.93596721     5.58864923     1.68070743
O      9.64875824     3.31120118     4.85474734
O     -0.00871239     4.55344628     8.04338489
O      1.93596140     3.35318350     0.09999685
O      3.89389949     4.46722898     3.22257622
O      1.93561584     5.59710185     6.36794357
O      1.93595559     5.58864923     1.68070743
O      1.96547972     3.32671942     4.78602909
O      5.80789581     3.35318350     0.09999685
O      7.71871462     4.44293427     3.24690534
O      6.01696104     5.24862996     6.46263821
O      5.80789000     5.58864923     1.68070743
O      5.70790475     3.28654744     4.89394260
O      8.28602645     4.61426845     8.47934060
O     -3.87192860     6.70637706     0.09999685
O     -1.92987398     7.81100160     3.23169058
O     -3.85786804     8.88237534     6.33260604
O     -3.87192860     8.94183273     1.68070743
O      7.71333324     6.68158690     4.83863651
O     -1.97256623     7.82267734     8.02525977
O     -0.00000581     6.70637706     0.09999685
O      1.95265079     7.86389203     3.28036525
O     -0.08213602     9.06636148     6.46491285
O     -0.00000581     8.94183273     1.68070743
O      0.01334349     6.77281197     4.86245610
O      3.87192860     6.70637706     0.09999685
O      5.80344194     7.81989978     3.21600372
O      3.89936995     8.97597221     6.41743644
O      3.87192860     8.94183273     1.68070743
O      3.96033500     6.69158477     4.85356625
O      5.96281100     7.80153837     7.97925474
O      4.17643539     4.23512234     7.82980865
O      1.82518321     7.79820942     8.08304985
O      5.79681454     3.96109088    11.00366860
Co     7.10105138     3.20803330     8.53914146
C      6.36569027     3.64777100    10.03833049
