81
CIF: Co-Mo-CeO2-Ov.cif | data_image0
Ce     1.93596140     1.11772783     0.89035214
Ce    -0.00520337     2.24591520     4.05671634
Ce     0.01660660     0.00193495     7.22451505
Ce     5.80789581     1.11772783     0.89035214
Ce     3.84521343     2.21801357     3.97694075
Ce    -2.06101693     9.95527466     7.22280473
Ce     9.67981860     1.11772783     0.89035214
Ce     7.78568875     2.22529602     4.02570980
Ce     2.08217227     9.99435741     7.31046041
Ce     0.00000000     4.47091133     0.89035214
Ce    -1.94391190     5.57344963     4.10659488
Ce    -1.83023366     3.40850861     7.38018252
Ce     3.87193441     4.47091133     0.89035214
Ce     1.96086227     5.58897377     4.08672215
Ce     1.82573201     3.31046452     7.24262888
Ce     7.74385721     4.47091133     0.89035214
Ce     5.81108321     5.60545215     3.96545326
Ce    -1.93596721     7.82410489     0.89035214
Ce    -3.88731615     8.93266191     4.03835696
Ce    -3.77673495     6.77664050     7.36678573
Ce     1.93596721     7.82410489     0.89035214
Ce     0.01842103     8.97063350     4.09631040
Ce     0.05133205     6.71641546     7.28124177
Ce     5.80789000     7.82410489     0.89035214
Ce     3.87973065     8.94695459     4.03833647
Ce     3.86368504     6.82501442     7.26034756
Mo     5.81029548     3.20865844     6.86000862
O      0.00000000     0.00000000     0.09999685
O      1.93405379     1.09794046     3.21394602
O      0.04339117     2.20247271     6.41003788
O      0.00000000     2.23545567     1.68070743
O     -5.76852366    10.04033331     4.86234460
O      1.99718481     0.98372472     8.03930178
O      3.87192279     0.00000000     0.09999685
O      5.73404574     1.07708125     3.23563905
O      4.14931789     2.34431426     6.59195836
O      3.87192279     2.23545567     1.68070743
O      3.82068469     0.07404351     4.90607864
O      5.69950711     2.37656094     8.62495445
O      7.74385721     0.00000000     0.09999685
O      9.76054267     1.07756145     3.23081802
O      7.43545878     2.38023037     6.54735279
O      7.74385721     2.23545567     1.68070743
O      1.95055270     9.99944593     4.89256147
O      9.84522333     1.05079640     8.09825283
O     -1.93596140     3.35318350     0.09999685
O      0.01488236     4.50195576     3.27989213
O     -1.95110349     5.70355525     6.45307553
O     -1.93596721     5.58864923     1.68070743
O     -1.89543608     3.39536629     4.91143930
O      0.05192020     4.62508766     8.13170170
O      1.93596140     3.35318350     0.09999685
O      3.87471034     4.46774250     3.21578902
O      2.02189817     5.55726061     6.43935427
O      1.93595559     5.58864923     1.68070743
O      1.99938784     3.30014148     4.83875602
O      5.80789581     3.35318350     0.09999685
O      7.74476530     4.56013613     3.22430094
O      5.61025191     5.03206129     6.87374980
O      5.80789000     5.58864923     1.68070743
O      5.75084126     3.38261533     4.86591180
O      8.08075997     4.84222214     8.68846317
O     -3.87192860     6.70637706     0.09999685
O     -1.96412975     7.81378990     3.31533694
O     -3.81600331     8.90729724     6.38485931
O     -3.87192860     8.94183273     1.68070743
O      7.56877507     6.62888174     5.00799896
O     -1.96872288     7.88669322     8.14681201
O     -0.00000581     6.70637706     0.09999685
O      1.94728474     7.80822685     3.25873363
O     -0.09147057     9.11199030     6.55249612
O     -0.00000581     8.94183273     1.68070743
O      0.04729615     6.76420755     4.93859497
O      3.87192860     6.70637706     0.09999685
O      5.83066876     7.82687142     3.20751723
O      3.94215314     8.94601800     6.40810294
O      3.87192860     8.94183273     1.68070743
O      3.98182110     6.68219770     4.85690031
O      5.97445158     7.81208450     8.02145470
O      1.86098224     7.78033407     8.12517353
Co     6.88210769     3.64372686     9.05823243
