84
CIF: Pd-Sc-CeO2-Ov-CO2.cif | data_image0
Ce     1.93038582     1.11050507     0.88387043
Ce    -0.01700008     2.23010067     4.03397611
Ce    -5.79723563    10.05309348     7.21513390
Ce     5.81181033     1.12175166     0.90127712
Ce     3.85036071     2.21969237     4.02255644
Ce     3.90416239     0.01391657     7.28533455
Ce     9.66901012     1.12377363     0.90450652
Ce     7.74368658     2.23517680     4.07143856
Ce     7.70937062     0.03985112     7.23151492
Ce    -0.00709724     4.47602159     0.89067279
Ce    -1.94899170     5.58472149     4.07083557
Ce     9.62710500     3.36215706     7.23122780
Ce     3.86254305     4.47635356     0.87798423
Ce     1.94486830     5.58344642     4.04939285
Ce     1.83819981     3.26684492     7.17107567
Ce     7.74213807     4.46545905     0.90125422
Ce     5.81060602     5.61539369     4.02251925
Ce    -1.94645625     7.83004003     0.90010904
Ce    -3.86810888     8.93968399     4.09303455
Ce     7.74666304     6.67133021     7.28526337
Ce     1.92815559     7.82745473     0.89060408
Ce    -0.00316327     8.95459360     4.07072705
Ce    -0.00804969     6.71063367     7.25411297
Ce     5.81127600     7.83258510     0.88371011
Ce     3.86779657     8.95883714     4.03405160
Ce     3.89794510     6.83423571     7.17107727
Sc     5.71583397     3.40817772     6.72518980
Pd     6.58055160     2.90324727     9.06282994
O     11.61334069     0.00154917     0.10141687
O      1.92540823     1.10380198     3.23988610
O     -0.00504463     2.19451196     6.43990089
O     -0.00785227     2.23805103     1.69392277
O     -5.78414060    10.04566541     4.89913834
O      1.94529257     1.14409597     8.01612619
O     -1.93899312    10.05733740     0.10496691
O      5.72131063     1.05029475     3.24459338
O      3.93619511     2.35361753     6.45212409
O      3.86763657     2.23577757     1.68132582
O      3.83694367     0.02688540     4.93483277
O      5.80264939     0.97935633     8.29273907
O      7.73821774     0.00761509     0.10924988
O      9.75113593     1.07624976     3.24216679
O      7.57969676     2.32897316     6.50413361
O      7.74357843     2.23531483     1.71563532
O      1.93875872     9.99316978     4.92291435
O      9.62157183     1.15127747     7.99683826
O      9.67032270     3.35425987     0.10911246
O      0.00461726     4.49045560     3.24432991
O     -1.98631489     5.59573029     6.45394943
O     -1.94403436     5.59119430     1.70564938
O     -1.87771106     3.38350976     4.92363343
O      0.00568341     4.46740397     7.96412686
O      1.92738314     3.35244915     0.09928684
O      3.81714280     4.50229998     3.22575974
O      2.14477666     5.46820284     6.53571695
O      1.92862022     5.59252216     1.67404250
O      1.89668425     3.32951046     4.86844828
O      4.22749119     4.26551201     8.49171139
O      5.81155478     3.35101064     0.10766953
O      7.75891689     4.57957724     3.24439750
O      5.73735642     5.47522997     6.45187666
O      5.80528807     5.59217007     1.68114259
O      5.72528187     3.40132950     4.71750963
O      7.85673108     4.54149113     8.29029962
O     -3.87155109     6.71022987     0.10512724
O     -1.93223831     7.82193775     3.29757279
O     -3.86642364     8.93849639     6.49535430
O     -3.87509971     8.94378428     1.69355631
O      7.70284026     6.72325836     4.93445106
O     -1.89910238     7.80246869     8.04099375
O     -0.01209783     6.71325780     0.10434852
O      1.92121756     7.81005081     3.24389251
O     -0.03159413     8.98052713     6.45336345
O     -0.00628994     8.94736548     1.70514550
O      0.05595260     6.67357908     4.96190733
O      1.94238474     7.82005936     7.96478525
O      3.86815347     6.71410280     0.09951587
O      5.81467984     7.84040359     3.23948283
O      3.90493573     8.96586894     6.43987808
O      3.86556896     8.94715423     1.69389986
O      3.87249176     6.75206599     4.86843831
O      5.78921350     7.80291241     8.01702829
O      4.70345497     3.97359942    10.72870956
C      4.88763064     3.87847788     9.53185435
