83
CIF: Co-CeO2-Ov+CO2.cif | data_image0
O      0.35488078     0.50490664     0.54999716
O      2.26540150     1.64176817     3.70402872
O      0.20251516     2.72262622     6.92697798
O      0.35488078     2.71392291     2.11203287
O      0.37241849     0.53131235     5.31382965
O      2.23311872     1.15582880     8.72944889
O      4.18112397     0.50490664     0.54999716
O      6.08645014     1.60389862     3.67921842
O      4.08139442     2.78319436     6.92518009
O      4.18112397     2.71392291     2.11203287
O      4.17232131     0.53851152     5.34103209
O      6.07318918     1.66020941     8.52996419
O      8.00725238     0.50490664     0.54999716
O      9.92580042     1.60902406     3.69699616
O      7.98485369     2.67373988     6.84351249
O      8.00725238     2.71392291     2.11203287
O      8.00175725     0.49044862     5.31487055
O      9.82438934     1.61429610     8.59987242
O     -1.55818342     3.81843104     0.54999716
O      0.37372174     4.90870619     3.72080278
O     -1.48078188     5.89098287     6.99687270
O     -1.55824081     6.02754671     2.11203287
O     -1.61146577     3.80999488     5.28328483
O      0.02165889     4.88548578     9.77542949
O      2.26805977     3.81843104     0.54999716
O      4.17685955     4.93090717     3.69469218
O      2.26561667     5.91485326     6.96364150
O      2.26800238     6.02754671     2.11203287
O      2.31594091     3.85774722     5.41121756
O      4.13620305     4.91703494     8.40182450
O      6.09418818     3.81843104     0.54999716
O      7.98807945     4.92224234     3.68496849
O      6.10698947     6.02818387     6.88337058
O      6.09413078     6.02754671     2.11203287
O      6.08006472     3.79236585     5.33645975
O      7.96056504     4.84931935     8.53864856
O     -3.47130501     7.13205484     0.54999716
O     -1.56005887     8.23735960     3.70221766
O     -3.50367205     9.29020758     6.81085372
O     -3.47130501     9.34107111     2.11203287
O     -3.41888585     7.07690993     5.35047795
O     -1.68584856     8.26108136     8.56095985
O      0.35493818     7.13205484     0.54999716
O      2.27259803     8.24004261     3.68628297
O      0.33103757     9.39659965     6.91111270
O      0.35493818     9.34107111     2.11203287
O      0.36444481     7.14931531     5.31391335
O      2.39146860     8.30918209     8.55808675
O      4.18106658     7.13205484     0.54999716
O      6.10135907     8.21954281     3.71678719
O      4.21271383     9.38920728     6.87287441
O      4.18106658     9.34107111     2.11203287
O      4.15067737     7.14471244     5.35755065
O      6.09443844     8.19831419     8.53782813
O      0.61120210     4.25626861    11.96382938
Ce     2.26794499     1.60941478     1.33101501
Ce     0.34948139     2.71238095     4.57795375
Ce     0.39534736     0.54227417     7.74095735
Ce     6.09418818     1.60941478     1.33101501
Ce     4.18081482     2.70047685     4.48481170
Ce     4.07039033     0.49837702     7.77283531
Ce     9.92031658     1.60941478     1.33101501
Ce     7.99127364     2.69757337     4.46345581
Ce     7.99481679     0.49688653     7.72311731
Ce     0.35488078     4.92293917     1.33101501
Ce    -1.54555229     6.01799768     4.52813739
Ce    -1.67327686     3.68606705     7.62738432
Ce     4.18112397     4.92293917     1.33101501
Ce     2.25806856     6.05527853     4.49261094
Ce     8.00725238     4.92293917     1.33101501
Ce     6.09711705     6.01833900     4.51836296
Ce     6.10987644     3.78147986     7.71022729
Ce    -1.55824081     8.23656298     1.33101501
Ce    -3.46523603     9.34320251     4.51056978
Ce    -3.46670576     7.11394776     7.71367762
Ce     2.26800238     8.23656298     1.33101501
Ce     0.34590055     9.34683896     4.52204531
Ce     0.35397166     7.24898174     7.73371286
Ce     6.09413078     8.23656298     1.33101501
Ce     4.18745361     9.35525858     4.50958512
Ce     4.22307072     7.22492576     7.70590828
Co     3.05378768     4.28419529     7.07873562
C      0.32251280     4.56131455    10.87487681
