82
CIF: Co-CeO2-Ov+O2.cif | data_image0
O      0.42318360     0.48660586     0.59999690
O      2.33613781     1.61827202     3.75966287
O      0.28922026     2.66673631     6.96809043
O      0.42318360     2.69562213     2.16203261
O      0.44311475     0.48919227     5.37067196
O      2.33031700     1.10086555     8.76765712
O      4.24942679     0.48660586     0.59999690
O      6.16151898     1.58865722     3.72938224
O      4.14514063     2.77836591     6.97285747
O      4.24942679     2.69562213     2.16203261
O      4.24973479     0.52458465     5.39410073
O      6.14806899     1.63240558     8.54267493
O      8.07555519     0.48660586     0.59999690
O      9.99741164     1.58908901     3.75647748
O      8.07460575     2.66633958     6.90513607
O      8.07555519     2.69562213     2.16203261
O      8.07259273     0.47306585     5.37017305
O      9.89657002     1.54665243     8.62443900
O     -1.48988060     3.80013026     0.59999690
O      0.44649041     4.89560410     3.77047156
O     -1.35908612     5.92831406     7.03761867
O     -1.48993800     6.00924593     2.16203261
O     -1.52325611     3.80851495     5.34838836
O      2.33636259     3.80013026     0.59999690
O      4.24872347     4.90818997     3.74399132
O      2.29227125     5.90155557     7.01709192
O      2.33630519     6.00924593     2.16203261
O      2.38202997     3.84140846     5.45831263
O      4.21712838     4.90838178     8.42074189
O      6.16249099     3.80013026     0.59999690
O      8.06229121     4.89990252     3.73546785
O      6.17390124     6.01672736     6.91485181
O      6.16243360     6.00924593     2.16203261
O      6.15401897     3.77090898     5.38915010
O      8.03116303     4.87080993     8.54312272
O     -3.40300220     7.11375407     0.59999690
O     -1.48336747     8.21863077     3.75442518
O     -3.41438820     9.24767628     6.86253489
O     -3.40300220     9.32277033     2.16203261
O     -3.34622127     7.04793026     5.39818363
O     -1.50559566     8.21909522     8.55660427
O      0.42324099     7.11375407     0.59999690
O      2.33932790     8.22202699     3.73518878
O      0.40055681     9.34477657     6.94375165
O      0.42324099     9.32277033     2.16203261
O      0.44621532     7.13727994     5.38877640
O      2.35410631     8.24916501     8.53491559
O      4.24936940     7.11375407     0.59999690
O      6.16997663     8.19601924     3.76632020
O      4.27346419     9.33915794     6.92745899
O      4.24936940     9.32277033     2.16203261
O      4.21221949     7.11341032     5.40726588
O      6.16394390     8.16261241     8.57505232
O     -0.28646020     4.49768492     9.74567368
O      0.38989088     5.62050517     9.58896335
Ce     2.33624780     1.59111400     1.38101475
Ce     0.41793877     2.68863231     4.64166340
Ce     0.46730527     0.50765125     7.80352605
Ce     6.16249099     1.59111400     1.38101475
Ce     4.25161399     2.68113275     4.53558520
Ce     4.15459724     0.48857465     7.81737512
Ce     9.98861940     1.59111400     1.38101475
Ce     8.07755959     2.68760970     4.53218488
Ce     8.06814820     0.49178927     7.75925939
Ce     0.42318360     4.90463839     1.38101475
Ce    -1.47153085     5.99374632     4.57683701
Ce    -1.54399447     3.67748047     7.75324999
Ce     4.24942679     4.90463839     1.38101475
Ce     2.32876404     6.03183831     4.53869219
Ce     8.07555519     4.90463839     1.38101475
Ce     6.16828800     5.99604340     4.56520944
Ce     6.19539548     3.77106478     7.74803430
Ce    -1.48993800     8.21826220     1.38101475
Ce    -3.39500905     9.32013674     4.56524704
Ce    -3.38937831     7.08420143     7.75685964
Ce     2.33630519     8.21826220     1.38101475
Ce     0.41861740     9.33479486     4.55915294
Ce     0.41741522     7.23749498     7.75823569
Ce     6.16243360     8.21826220     1.38101475
Ce     4.26029231     9.33114551     4.56422591
Ce     4.28447944     7.18657578     7.75082432
Co     3.10757497     4.26918656     7.13018528
