85
CIF: 1-NH3-NH2+H_ts.cif | data_image0
Ce     0.00635920     0.01255857     8.77855150
Ce     1.93557951     1.12287101     5.64400355
Ce     0.00000000     2.23543938     2.47426506
Ce     3.91274464     0.07176470     8.81860578
Ce     5.81367150     1.11459087     5.61630256
Ce     3.87189458     2.23543938     2.47426506
Ce     1.95446433    10.04015716     8.78530099
Ce     9.68429048     1.11115790     5.60948741
Ce     7.74390532     2.23543938     2.47426506
Ce     9.64579483     3.27208193     8.77062274
Ce     0.01062162     4.47869051     5.60126733
Ce    -1.93600537     5.58869904     2.47426506
Ce     2.02634274     3.39342282     8.83085330
Ce     3.87394638     4.47500781     5.61474380
Ce     1.93588921     5.58869904     2.47426506
Ce     5.82938630     3.35774741     8.74182435
Ce     7.74717101     4.47011503     5.61442455
Ce     5.80789995     5.58869904     2.47426506
Ce     7.65134845     6.71511337     8.76890209
Ce    -1.92848263     7.83106310     5.60039514
Ce    -3.87195266     8.94185811     2.47426506
Ce     1.92592168     7.81811999     5.70277117
Ce    -0.00005808     8.94185811     2.47426506
Ce     3.86385922     6.71202310     8.79037350
Ce     5.80176183     7.83123345     5.61241120
Ce     3.87195266     8.94185811     2.47426506
Cr    -0.65199548     6.33613344     8.46482593
O      0.02022059     0.01237783     6.43524919
O     -0.01287540     2.27868063     9.51646549
O      1.93594729     1.11771969     3.26466483
O      0.00837981     2.23702098     4.81088173
O      0.00000000     0.00000000     1.68386529
O      1.97265432     1.15003719     7.99879985
O     -1.94140504    10.00770937     6.47256606
O      3.90303639     2.25406074     9.58442763
O      5.80795803     1.11771969     3.26466483
O      3.84967858     2.22386090     4.83409163
O      3.87189458     0.00000000     1.68386529
O      5.81400671     1.15897630     7.92222630
O      7.73741788     0.00829362     6.41171751
O      7.76926486     2.24674943     9.56012556
O      9.67985261     1.11771969     3.26466483
O      7.76532712     2.24007142     4.81098245
O      7.74390532     0.00000000     1.68386529
O      9.68127471     1.09804758     7.95234288
O     -1.89706900     3.35806118     6.44875384
O     -2.03143438     5.54155017     9.48535378
O      0.00000000     4.47087876     3.26466483
O     -1.93607331     5.59022375     4.80961969
O      9.67985261     3.35315907     1.68386529
O     -0.06629029     4.66662545     8.06055750
O      1.88549298     3.38898630     6.47500335
O      2.37413779     5.35796881     9.78433547
O      3.87201074     4.47087876     3.26466483
O      1.91649330     5.59567990     4.82499683
O      1.93594729     3.35315907     1.68386529
O      3.93860926     4.44179287     7.90015905
O      5.82507514     3.34879653     6.37367762
O      5.84067764     5.59666223     9.56257113
O      7.74390532     4.47087876     3.26466483
O      5.82255939     5.60087185     4.81534816
O      5.80795803     3.35315907     1.68386529
O      7.71237710     4.44999155     7.93441162
O     -3.85075283     6.73766299     6.45084753
O     -3.84217952     8.92752283     9.51296137
O     -1.93600537     7.82413842     3.26466483
O     -3.86920312     8.94931605     4.81210178
O      7.74384724     6.70641873     1.68386529
O     -1.80294268     7.68572175     8.05719815
O     -0.05341343     6.67773409     6.49822857
O     -0.00767178     9.38268648     9.82249067
O      1.93600537     7.82413842     3.26466483
O     -0.00580336     8.92304358     4.82817201
O     -0.00005808     6.70641873     1.68386529
O      2.02759094     7.88697029     8.01181468
O      3.87046042     6.69614139     6.41347767
O      3.94206169     8.99556263     9.61919873
O      5.80789995     7.82413842     3.26466483
O      3.87592803     8.94420850     4.82825698
O      3.87195266     6.70641873     1.68386529
O      5.78889443     7.83686644     7.95883089
N      0.13638180     6.88716324    10.11369091
H      0.10177773     8.08463456    10.05941291
H      1.10264593     6.44504800    10.11402088
H     -0.40126440     6.52091532    10.90736188
