85
CIF: 6-OH+2H-H2O+H_is.cif | data_image0
Ce    -5.79285511    10.05754893     8.78658921
Ce     1.93667662     1.10605516     5.60357124
Ce     0.00000000     2.23543938     2.47426506
Ce     3.73182824     0.02329490     8.80001043
Ce     5.79730875     1.08293979     5.62653301
Ce     3.87189458     2.23543938     2.47426506
Ce     7.94228592     0.06375806     8.68139161
Ce     9.70812042     1.12396406     5.56305393
Ce     7.74390532     2.23543938     2.47426506
Ce     9.69263056     3.31538420     8.74517651
Ce     0.01681560     4.48884043     5.61429742
Ce    -1.93600537     5.58869904     2.47426506
Ce     1.98036535     3.32591442     8.78489851
Ce     3.86996009     4.47577960     5.65011725
Ce     1.93588921     5.58869904     2.47426506
Ce     5.83164967     3.22786640     8.78365299
Ce     7.74276363     4.46854156     5.63597427
Ce     5.80789995     5.58869904     2.47426506
Ce     7.66659070     6.70123260     8.86052355
Ce    -1.96451083     7.82585906     5.61070345
Ce    -3.87195266     8.94185811     2.47426506
Ce     1.95575127     7.83130191     5.65420810
Ce    -0.00005808     8.94185811     2.47426506
Ce     3.78735628     6.80377516     8.85898235
Ce     5.79430276     7.79895916     5.63232688
Ce     3.87195266     8.94185811     2.47426506
Cr    -0.59421349     6.42994693     8.46656420
O      5.82592392    10.01809998     6.41419600
O      0.00457539     2.29427791     9.50984112
O      1.93594729     1.11771969     3.26466483
O      0.01621135     2.24091937     4.80697592
O      0.00000000     0.00000000     1.68386529
O      1.90994474     1.15130599     7.93857183
O     -1.95317944    10.03901744     6.39968128
O      3.87823624     2.30834585     9.56848594
O      5.80795803     1.11771969     3.26466483
O      3.85808355     2.22939871     4.81234912
O      3.87189458     0.00000000     1.68386529
O      5.88515683     0.91643288     8.11626495
O      7.76841498     0.05248010     6.35475666
O      7.84815888     2.19770190     9.57584788
O      9.67985261     1.11771969     3.26466483
O      7.75342426     2.25972762     4.81297348
O      7.74390532     0.00000000     1.68386529
O      9.72565889     1.14994223     7.88186920
O     -1.86736951     3.38533869     6.43225488
O     -1.87971019     5.53345533     9.39816820
O      0.00000000     4.47087876     3.26466483
O     -1.91713886     5.59942251     4.82175727
O     -1.93594729     3.35315907     1.68386529
O      0.03435705     4.68096707     8.05356870
O      1.92556297     3.38509559     6.45489082
O      2.17766048     5.25876529     9.99868200
O      3.87201074     4.47087876     3.26466483
O      1.88636110     5.60541923     4.82707124
O      1.93594729     3.35315907     1.68386529
O      3.91926091     4.56558270     8.01986445
O      5.75851434     3.24486987     6.46086877
O      6.07763478     5.20092095     9.95597988
O      7.74390532     4.47087876     3.26466483
O      5.81548905     5.54610816     4.83424019
O      5.80795803     3.35315907     1.68386529
O      7.69993624     4.36139715     7.92202441
O     -3.87955544     6.72550278     6.41052706
O     -4.03666114     9.01240550     9.62032315
O     -1.93600537     7.82413842     3.26466483
O     -3.87478584     8.93911986     4.79658839
O     -3.87195266     6.70641873     1.68386529
O     -1.84499578     7.72809043     8.03766253
O     -0.06227979     6.70234038     6.60415491
O      0.26789289     7.15020796     9.60534013
O      1.93600537     7.82413842     3.26466483
O     -0.00033628     8.90360138     4.83493443
O     -0.00005808     6.70641873     1.68386529
O      2.12880781     7.97218346     7.94149940
O      3.84972536     6.68535984     6.33524380
O      3.89486388     9.14781897     9.61001702
O      5.80789995     7.82413842     3.26466483
O      3.87361028     8.94873563     4.80559761
O      3.87195266     6.70641873     1.68386529
O      5.66585202     7.74579006     8.02009409
O      4.32621315     6.64924604    11.05888739
H      5.44114808     5.64366299    10.62983769
H      1.37133977     5.77804079    10.20916112
H      3.65757877     6.15774734    11.56983237
