82
CIF: 1-O2 — 2Olat.cif | data_image0
O      0.37318325     0.57320900     0.59999690
O      2.28927023     1.70664051     3.75707588
O      0.23804379     2.74152530     6.95540313
O      0.37318325     2.78222527     2.16203261
O      0.39497202     0.57389193     5.35552050
O      2.27137351     1.18999933     8.76843020
O      4.19942644     0.57320900     0.59999690
O      6.11056990     1.67198339     3.73409016
O      4.10280404     2.84118971     6.95710139
O      4.19942644     2.78222527     2.16203261
O      4.19960371     0.60606014     5.39555958
O      6.09202656     1.71782991     8.53922418
O      8.02555485     0.57320900     0.59999690
O      9.94016686     1.67632367     3.75711232
O      8.01893786     2.74620011     6.89193777
O      8.02555485     2.78222527     2.16203261
O      8.01760749     0.55095669     5.36971355
O      9.85428557     1.65221159     8.63615273
O     -1.53988095     3.88673340     0.59999690
O      0.39657162     4.98180984     3.75785294
O     -1.45711688     6.04605286     7.00278795
O     -1.53993834     6.09584907     2.16203261
O     -1.57353007     3.90341911     5.35230925
O      2.28636224     3.88673340     0.59999690
O      4.19318186     4.99648861     3.74238908
O      2.24414399     5.99454109     7.03524438
O      2.28630485     6.09584907     2.16203261
O      2.31273904     3.92450916     5.44844968
O      4.20820565     4.98976563     8.44151333
O      6.11249065     3.88673340     0.59999690
O      8.01538075     4.98741060     3.72872684
O      6.12136445     6.13156570     6.90288835
O      6.11243325     6.09584907     2.16203261
O      6.10083952     3.87026939     5.37956360
O      7.94841879     4.94728301     8.52441055
O     -3.45300254     7.20035721     0.59999690
O     -1.52834802     8.30208832     3.75153858
O     -3.48080023     9.33089913     6.86144569
O     -3.45300254     9.40937347     2.16203261
O     -3.38416500     7.13390099     5.39613548
O     -1.59187280     8.33169002     8.57874308
O      0.37324065     7.20035721     0.59999690
O      2.28496313     8.30580543     3.73310390
O      0.34414207     9.42126368     6.96270574
O      0.37324065     9.40937347     2.16203261
O      0.40062030     7.20447966     5.40369196
O      2.34655414     8.39560961     8.53675188
O      4.19936905     7.20035721     0.59999690
O      6.11920652     8.27972648     3.76879701
O      4.24218082     9.43108081     6.92064072
O      4.19936905     9.40937347     2.16203261
O      4.14658720     7.19273164     5.41270568
O      6.11007237     8.24879302     8.60060307
O      1.56180161     5.93703827     9.32222619
O     -0.61080521     5.45459026     9.01789304
Ce     2.28624746     1.67771714     1.38101475
Ce     0.36096753     2.77048675     4.63977884
Ce     0.41723646     0.59622725     7.80039567
Ce     6.11249065     1.67771714     1.38101475
Ce     4.20410436     2.76577050     4.52877899
Ce     4.10343941     0.56831085     7.82517559
Ce     9.93861905     1.67771714     1.38101475
Ce     8.02252910     2.77407000     4.53152638
Ce     8.00753924     0.58116281     7.75708857
Ce     0.37318325     4.99124153     1.38101475
Ce    -1.51947151     6.08356344     4.55094083
Ce    -1.58933429     3.74929758     7.74961032
Ce     4.19942644     4.99124153     1.38101475
Ce     2.27276762     6.12631767     4.52746071
Ce     8.02555485     4.99124153     1.38101475
Ce     6.12046471     6.08857996     4.56503452
Ce     6.13750044     3.86346611     7.74324774
Ce    -1.53993834     8.30486534     1.38101475
Ce    -3.44363242     9.40563527     4.56745195
Ce    -3.45797420     7.18011949     7.78072293
Ce     2.28630485     8.30486534     1.38101475
Ce     0.36741909     9.40986602     4.58072565
Ce     0.34930485     7.29669301     7.84732150
Ce     6.11243325     8.30486534     1.38101475
Ce     4.20825495     9.41449777     4.56885374
Ce     4.24069793     7.27469084     7.77096113
Cu     3.07460856     4.35591388     7.11241158
