84
CIF: CO+O2+Olat — CO2+O2.cif | data_image0
O      0.37318325     0.57320900     0.59999690
O      2.28500700     1.69394294     3.76082722
O      0.24839914     2.71403884     6.97186352
O      0.37318325     2.78222527     2.16203261
O      0.37916357     0.55573388     5.37381953
O      2.32237477     1.19972197     8.86106561
O      4.19942644     0.57320900     0.59999690
O      6.11410232     1.67939264     3.73021472
O      4.12143424     2.81355656     6.97618189
O      4.19942644     2.78222527     2.16203261
O      4.21304627     0.59819571     5.38589825
O      6.11018531     1.68921322     8.52854075
O      8.02555485     0.57320900     0.59999690
O      9.94153800     1.67369753     3.75773320
O      8.04130449     2.77137676     6.92823594
O      8.02555485     2.78222527     2.16203261
O      8.01507080     0.56907373     5.37339668
O      9.86584611     1.59836942     8.61223139
O     -1.53988095     3.88673340     0.59999690
O      0.38926228     4.98556376     3.76396216
O     -1.45353280     6.05798150     6.97597720
O     -1.53993834     6.09584907     2.16203261
O     -1.56050512     3.89709882     5.35627922
O      2.28636224     3.88673340     0.59999690
O      4.19911173     4.99084304     3.74212555
O      2.21910535     6.01323153     7.00961392
O      2.28630485     6.09584907     2.16203261
O      2.31001224     3.90623485     5.42180154
O      4.21662129     5.01624398     8.46342691
O      6.11249065     3.88673340     0.59999690
O      8.01513836     4.99282877     3.74233511
O      6.12439248     6.11626267     6.89610883
O      6.11243325     6.09584907     2.16203261
O      6.10462414     3.86390445     5.39209402
O      7.97337158     5.00435473     8.53315451
O     -3.45300254     7.20035721     0.59999690
O     -1.53314771     8.30672019     3.74874876
O     -3.45498363     9.39361456     6.90342344
O     -3.45300254     9.40937347     2.16203261
O     -3.41330891     7.17795125     5.39062253
O     -1.52072270     8.28398696     8.55682505
O      0.37324065     7.20035721     0.59999690
O      2.28685644     8.30820400     3.73250441
O      0.35439945     9.40892850     6.93067622
O      0.37324065     9.40937347     2.16203261
O      0.39645354     7.22196937     5.38316586
O      2.26646201     8.31182457     8.53285085
O      4.19936905     7.20035721     0.59999690
O      6.11300665     8.28781093     3.75786136
O      4.19791593     9.40885685     6.92005099
O      4.19936905     9.40937347     2.16203261
O      4.15855788     7.18895498     5.39762109
O      6.09694476     8.27284758     8.55335510
O      0.15050848     5.10865883     9.07551124
O     -0.69568702     4.57921136     9.96382626
O      2.84739681     2.61247012    10.92188345
Ce     2.28624746     1.67771714     1.38101475
Ce     0.36327639     2.77315431     4.64082946
Ce     0.35433439     0.58464205     7.78611317
Ce     6.11249065     1.67771714     1.38101475
Ce     4.20261493     2.76836572     4.53925749
Ce     4.18226256     0.55667752     7.78640541
Ce     9.93861905     1.67771714     1.38101475
Ce     8.03147632     2.78109027     4.54831576
Ce     8.02110155     0.57748939     7.75552707
Ce     0.37318325     4.99124153     1.38101475
Ce    -1.52888289     6.08503233     4.56865288
Ce    -1.55598334     3.80049953     7.78719980
Ce     4.19942644     4.99124153     1.38101475
Ce     2.27634883     6.10803045     4.53756381
Ce     8.02555485     4.99124153     1.38101475
Ce     6.11532252     6.09049678     4.55728596
Ce     6.14262711     3.87999798     7.74932418
Ce    -1.53993834     8.30486534     1.38101475
Ce    -3.44871681     9.41226290     4.56667887
Ce    -3.45154440     7.18781853     7.74465255
Ce     2.28630485     8.30486534     1.38101475
Ce     0.37185361     9.42131782     4.54376525
Ce     0.36405225     7.29099741     7.73124141
Ce     6.11243325     8.30486534     1.38101475
Ce     4.20129256     9.41178352     4.55650427
Ce     4.21544270     7.23873754     7.74793264
Cu     3.06336490     4.34694201     7.12047238
C      1.90746794     2.19666422    10.37113351
