84
CIF: Cu-CeO2+CO2.cif | data_image0
O      0.37318325     0.57320900     0.59999690
O      2.28595630     1.70570264     3.75335888
O      0.28316976     2.73862696     6.99999471
O      0.37318325     2.78222527     2.16203261
O      0.37849746     0.58859423     5.38053945
O      2.28851449     1.19363966     8.77773556
O      4.19942644     0.57320900     0.59999690
O      6.11559229     1.67117963     3.74119391
O      4.12747905     2.83213484     6.97506056
O      4.19942644     2.78222527     2.16203261
O      4.20265382     0.60659191     5.39687599
O      6.11669730     1.68990701     8.53378454
O      8.02555485     0.57320900     0.59999690
O      9.93901235     1.67797132     3.75350871
O      8.05007751     2.78435439     6.93877667
O      8.02555485     2.78222527     2.16203261
O      8.01231672     0.56738698     5.38966730
O      9.92088812     1.64162908     8.56215352
O     -1.53988095     3.88673340     0.59999690
O      0.39852063     4.97576051     3.75326975
O     -1.59712759     6.11622712     6.86898050
O     -1.53993834     6.09584907     2.16203261
O     -1.52761128     3.88155938     5.38393142
O      2.28636224     3.88673340     0.59999690
O      4.18282632     4.97886739     3.75242817
O      2.30371294     6.01224856     6.97338095
O      2.28630485     6.09584907     2.16203261
O      2.29265026     3.89154989     5.48080522
O      4.19434963     4.98308675     8.46303464
O      6.11249065     3.88673340     0.59999690
O      8.02205004     4.97440369     3.74289511
O      6.11829754     6.09788421     6.90772707
O      6.11243325     6.09584907     2.16203261
O      6.10903791     3.85952295     5.39092832
O      7.98456560     5.00068732     8.58051868
O     -3.45300254     7.20035721     0.59999690
O     -1.52974914     8.30841378     3.75590964
O     -3.45429130     9.34266138     6.85875253
O     -3.45300254     9.40937347     2.16203261
O     -3.47397804     7.18470660     5.32426671
O     -1.58117856     8.28294627     8.58967284
O      0.37324065     7.20035721     0.59999690
O      2.28253898     8.31089148     3.74147060
O      0.33537690     9.38949913     6.95528546
O      0.37324065     9.40937347     2.16203261
O      0.40455148     7.18549778     5.39789448
O      2.30316800     8.30378398     8.53375867
O      4.19936905     7.20035721     0.59999690
O      6.09819378     8.30879663     3.74220238
O      4.20986116     9.41641354     6.92156554
O      4.19936905     9.40937347     2.16203261
O      4.17845100     7.20451034     5.38433409
O      6.09853999     8.26828540     8.57999288
O     -0.01676695     5.25472533     8.77758011
O     -1.27064741     3.66307988    10.86355656
O      0.60238069     4.70682215    11.83312749
Ce     2.28624746     1.67771714     1.38101475
Ce     0.35725853     2.77625415     4.60745916
Ce     0.43495156     0.55641595     7.81034963
Ce     6.11249065     1.67771714     1.38101475
Ce     4.21339766     2.75634521     4.53934541
Ce     4.13912597     0.53527597     7.81760846
Ce     9.93861905     1.67771714     1.38101475
Ce     8.03609805     2.78225090     4.56525193
Ce     8.00705513     0.55918504     7.74493813
Ce     0.37318325     4.99124153     1.38101475
Ce    -1.54068892     6.08842543     4.55777815
Ce    -1.52187756     3.94371462     7.84609106
Ce     4.19942644     4.99124153     1.38101475
Ce     2.27344140     6.12000417     4.53902872
Ce     8.02555485     4.99124153     1.38101475
Ce     6.11059240     6.09259922     4.55362816
Ce     6.16899291     3.86277331     7.74880321
Ce    -1.53993834     8.30486534     1.38101475
Ce    -3.45552460     9.40947104     4.55158271
Ce    -3.46932423     7.18773758     7.73055813
Ce     2.28630485     8.30486534     1.38101475
Ce     0.36489904     9.40512820     4.58365755
Ce     0.31609838     7.17446711     7.81227096
Ce     6.11243325     8.30486534     1.38101475
Ce     4.20410936     9.41571098     4.56099876
Ce     4.21121003     7.25748559     7.74659363
Cu     3.09285884     4.35183177     7.11197164
C     -0.32355263     4.19938878    11.32398150
