82
CIF: Cu-CeO2+O.cif | data_image0
O      0.37318325     0.57320900     0.59999690
O      2.28752608     1.70551618     3.75835506
O      0.24897800     2.72389095     6.94501192
O      0.37318325     2.78222527     2.16203261
O      0.38860254     0.55908334     5.36001365
O      2.27245440     1.17857664     8.76671887
O      4.19942644     0.57320900     0.59999690
O      6.11224761     1.66770943     3.73422543
O      4.10594228     2.81825795     6.94190704
O      4.19942644     2.78222527     2.16203261
O      4.19581641     0.59822723     5.38993887
O      6.10625668     1.70593607     8.52809094
O      8.02555485     0.57320900     0.59999690
O      9.94111657     1.67072453     3.75796871
O      8.03480545     2.75239371     6.88691040
O      8.02555485     2.78222527     2.16203261
O      8.01763849     0.55299274     5.37077398
O      9.86207912     1.66216000     8.62547695
O     -1.53988095     3.88673340     0.59999690
O      0.40013604     4.98100036     3.75548542
O     -1.52156012     6.07131139     6.96338049
O     -1.53993834     6.09584907     2.16203261
O     -1.56059152     3.90099729     5.35089097
O      2.28636224     3.88673340     0.59999690
O      4.19238714     4.99190774     3.73825640
O      2.27691771     5.98661961     7.07268031
O      2.28630485     6.09584907     2.16203261
O      2.31427675     3.93177805     5.45112476
O      4.23723062     4.91768637     8.44641973
O      6.11249065     3.88673340     0.59999690
O      8.01736062     4.98315950     3.72908794
O      6.11736595     6.11565661     6.91315992
O      6.11243325     6.09584907     2.16203261
O      6.10494550     3.86541595     5.37576001
O      7.96952662     4.94367015     8.53857177
O     -3.45300254     7.20035721     0.59999690
O     -1.52374549     8.29729277     3.75582906
O     -3.47902883     9.32346236     6.86478739
O     -3.45300254     9.40937347     2.16203261
O     -3.41629375     7.14327998     5.37298304
O     -1.58712763     8.30667910     8.58582926
O      0.37324065     7.20035721     0.59999690
O      2.28518515     8.30310024     3.73639837
O      0.33390688     9.40860617     6.95133848
O      0.37324065     9.40937347     2.16203261
O      0.41433369     7.18626806     5.41530665
O      2.29951054     8.44618905     8.55909742
O      4.19936905     7.20035721     0.59999690
O      6.10837641     8.27959826     3.76217930
O      4.22649574     9.40619653     6.93810302
O      4.19936905     9.40937347     2.16203261
O      4.14927422     7.18072447     5.41977417
O      6.09985643     8.23394863     8.61024903
O      2.18230022     6.52484941     9.30586110
O     -0.32120219     5.37059558     8.87116734
Ce     2.28624746     1.67771714     1.38101475
Ce     0.36224928     2.76639855     4.63786647
Ce     0.40878158     0.58908472     7.79807789
Ce     6.11249065     1.67771714     1.38101475
Ce     4.20656176     2.75932788     4.52695631
Ce     4.10019092     0.55284703     7.82190305
Ce     9.93861905     1.67771714     1.38101475
Ce     8.02895829     2.77455723     4.52602653
Ce     8.00856511     0.61432579     7.73963797
Ce     0.37318325     4.99124153     1.38101475
Ce    -1.52422707     6.08156303     4.55572513
Ce    -1.55613031     3.77737157     7.75343767
Ce     4.19942644     4.99124153     1.38101475
Ce     2.27918092     6.12120061     4.52305872
Ce     8.02555485     4.99124153     1.38101475
Ce     6.11604422     6.08594338     4.56186463
Ce     6.15785244     3.85378330     7.73864052
Ce    -1.53993834     8.30486534     1.38101475
Ce    -3.44877371     9.39957919     4.56534056
Ce    -3.46224348     7.16771929     7.76849442
Ce     2.28630485     8.30486534     1.38101475
Ce     0.36576597     9.40583121     4.58180384
Ce     0.32018268     7.26735091     7.83199157
Ce     6.11243325     8.30486534     1.38101475
Ce     4.20745036     9.40445305     4.57546631
Ce     4.25156639     7.24233067     7.80088440
Cu     3.08668149     4.33143366     7.11642422
