80
CIF: Cu-CeO2-Ov.cif | data_image0
O      0.37318325     0.57320900     0.59999690
O      2.28119875     1.68352510     3.75248196
O      0.22220500     2.77778469     6.98595371
O      0.37318325     2.78222527     2.16203261
O      0.38655413     0.57946600     5.38367024
O      2.25501132     1.21091843     8.76484652
O      4.19942644     0.57320900     0.59999690
O      6.10743549     1.67957865     3.72567566
O      4.14931143     2.79699209     6.95984845
O      4.19942644     2.78222527     2.16203261
O      4.19617282     0.59118024     5.37668884
O      6.11013147     1.70526776     8.56998399
O      8.02555485     0.57320900     0.59999690
O      9.94207523     1.67476693     3.75581609
O      8.00429298     2.74761449     6.89530345
O      8.02555485     2.78222527     2.16203261
O      8.02048075     0.56345016     5.36897107
O      9.83685087     1.66534238     8.64567593
O     -1.53988095     3.88673340     0.59999690
O      0.37207295     4.99594811     3.76182054
O     -1.32492565     5.96721068     7.11947752
O     -1.53993834     6.09584907     2.16203261
O     -1.59464337     3.89600160     5.35074434
O      2.28636224     3.88673340     0.59999690
O      4.20366851     5.00396112     3.74252287
O      2.16420640     6.06700428     7.04367850
O      2.28630485     6.09584907     2.16203261
O      2.29424228     3.91341435     5.36999828
O      4.27495150     5.07371619     8.51665222
O      6.11249065     3.88673340     0.59999690
O      8.01543953     4.99048884     3.72866350
O      6.14969804     6.11243927     6.90072468
O      6.11243325     6.09584907     2.16203261
O      6.10351514     3.87140112     5.38076717
O      8.00858926     4.95070117     8.54739156
O     -3.45300254     7.20035721     0.59999690
O     -1.53947841     8.30292875     3.73667695
O     -3.45922797     9.33894041     6.87015610
O     -3.45300254     9.40937347     2.16203261
O     -3.35963044     7.12788871     5.41804463
O     -1.53364111     8.29461199     8.56044563
O      0.37324065     7.20035721     0.59999690
O      2.28961677     8.30601603     3.74026986
O      0.35757291     9.45035552     6.92243110
O      0.37324065     9.40937347     2.16203261
O      0.36471420     7.24563213     5.36900969
O      2.26761928     8.35561379     8.58566047
O      4.19936905     7.20035721     0.59999690
O      6.12215648     8.28285580     3.77526772
O      4.20760714     9.42261370     6.95047473
O      4.19936905     9.40937347     2.16203261
O      4.16105209     7.18852298     5.41727742
O      6.13374193     8.24573377     8.57742553
Ce     2.28624746     1.67771714     1.38101475
Ce     0.37932852     2.77950496     4.62788654
Ce     0.41690407     0.58390882     7.79753458
Ce     6.11249065     1.67771714     1.38101475
Ce     4.18752504     2.77645915     4.55226926
Ce     4.10616323     0.60656629     7.80535002
Ce     9.93861905     1.67771714     1.38101475
Ce     8.01129301     2.76978041     4.51806973
Ce     8.00939715     0.58029606     7.77800095
Ce     0.37318325     4.99124153     1.38101475
Ce    -1.52383765     6.08315255     4.55280508
Ce    -1.64506870     3.73485196     7.67736352
Ce     4.19942644     4.99124153     1.38101475
Ce     2.27880530     6.10482523     4.55231857
Ce     8.02555485     4.99124153     1.38101475
Ce     6.11818710     6.08200620     4.56414712
Ce     6.09822027     3.87685264     7.75724184
Ce    -1.53993834     8.30486534     1.38101475
Ce    -3.44316300     9.40692755     4.56328359
Ce    -3.43732052     7.17692939     7.76438847
Ce     2.28630485     8.30486534     1.38101475
Ce     0.36631068     9.43410690     4.53374519
Ce     0.39220743     7.37688076     7.68363663
Ce     6.11243325     8.30486534     1.38101475
Ce     4.20314964     9.41573752     4.57468070
Ce     4.23398516     7.23448205     7.76707147
Cu     3.04275073     4.35515564     7.15417272
