83
CIF: Ni-Ti-CeO2-Ov-O2.cif | data_image0
Ce     1.93038582     1.11050507     0.88387043
Ce    -0.00929006     2.24083063     4.06852907
Ce    -5.76318980    10.03399755     7.19689226
Ce     5.81181033     1.12175166     0.90127712
Ce     3.81084340     2.23161826     3.99166337
Ce    -1.92301591    10.03276421     7.25133976
Ce     9.66901012     1.12377363     0.90450652
Ce     7.76675385     2.22843893     4.02263054
Ce     1.92992664    10.02741556     7.27913917
Ce    -0.00709724     4.47602159     0.89067279
Ce    -1.95650836     5.57916993     4.07577222
Ce    -1.91262265     3.36445442     7.30586534
Ce     3.86254305     4.47635356     0.87798423
Ce     1.93519503     5.58431191     4.09567720
Ce     1.84239437     3.29628180     7.28389415
Ce     7.74213807     4.46545905     0.90125422
Ce     5.78606763     5.63741375     4.01449961
Ce    -1.94645625     7.83004003     0.90010904
Ce    -3.87508439     8.93901993     4.05609284
Ce    -3.82678925     6.72229865     7.25192606
Ce     1.92815559     7.82745473     0.89060408
Ce    -0.00750057     8.95797195     4.06575060
Ce     0.00510236     6.69268884     7.25428942
Ce     5.81127600     7.83258510     0.88371011
Ce     3.86460677     8.94134015     4.05904598
Ce     3.86300296     6.81305305     7.26188333
Ti     5.63453291     3.42508556     6.57331662
Ni     6.80665991     2.76584754     8.43377569
O     11.61334069     0.00154917     0.10141687
O      1.91552821     1.10541614     3.22181802
O     -0.02371937     2.18840596     6.46952173
O     -0.00785227     2.23805103     1.69392277
O      0.01280962     0.00635477     4.88455070
O      2.01973276     0.97056893     8.01002763
O     -1.93899312    10.05733740     0.10496691
O      5.80508675     1.09346673     3.23054287
O      4.05530052     2.42605158     6.42818786
O      3.86763657     2.23577757     1.68132582
O      3.85484480     0.06994293     4.89904133
O      5.97423821     1.04792290     8.27526201
O      7.73821774     0.00761509     0.10924988
O      9.68005513     1.11979517     3.24629096
O      7.41882347     2.43077062     6.58925626
O      7.74357843     2.23531483     1.71563532
O      7.74913308     0.06694944     4.91869487
O      9.58933403     1.15697941     8.00668502
O      9.67032270     3.35425987     0.10911246
O     -0.02700699     4.47366844     3.27361537
O     -1.99219453     5.58233462     6.45284577
O     -1.94403436     5.59119430     1.70564938
O      9.63657555     3.30250133     4.93389291
O     -0.10789632     4.53256168     8.09006187
O      1.92738314     3.35244915     0.09928684
O      3.78547642     4.44960865     3.22486811
O      1.97204955     5.55012341     6.50193381
O      1.92862022     5.59252216     1.67404250
O      1.90553865     3.30600588     4.85203999
O      5.81155478     3.35101064     0.10766953
O      7.80957522     4.44461969     3.23678357
O      5.73055073     5.27131718     6.49696573
O      5.80528807     5.59217007     1.68114259
O      5.80196205     3.30492248     4.70683599
O      7.91228904     4.31235461     8.34518280
O     -3.87155109     6.71022987     0.10512724
O     -1.93742610     7.82959174     3.27889991
O     -3.82153390     8.92888771     6.39176965
O     -3.87509971     8.94378428     1.69355631
O      7.73200774     6.71301620     4.93349318
O     -1.94757056     7.83063249     8.03485804
O     -0.01209783     6.71325780     0.10434852
O      1.90492069     7.84611890     3.26197154
O     -0.04313578     8.98604288     6.42770420
O     -0.00628994     8.94736548     1.70514550
O     -0.00126816     6.70026036     4.92122366
O      1.82342044     7.88953832     8.06742632
O      3.86815347     6.71410280     0.09951587
O      5.80977672     7.90700361     3.22183500
O      3.90063097     8.99248052     6.45763850
O      3.86556896     8.94715423     1.69389986
O      3.83325880     6.76630371     4.85838569
O      5.97438452     7.82259510     7.98583475
O      4.59657582     3.96588747     8.56908732
O      5.49815575     3.49858655     9.49593497
