81
CIF: Ni-Ti-CeO2-Ov.cif | data_image0
Ce     1.93038582     1.11050507     0.88387043
Ce    -0.00932139     2.23798469     4.06190197
Ce    -5.75732641    10.03462966     7.21188387
Ce     5.81181033     1.12175166     0.90127712
Ce     3.80406902     2.23237605     3.97565402
Ce    -1.91122123    10.03577409     7.28595398
Ce     9.66901012     1.12377363     0.90450652
Ce     7.78035266     2.22744625     4.02185939
Ce     1.93415919    10.03360001     7.28519819
Ce    -0.00709724     4.47602159     0.89067279
Ce    -1.95485983     5.57764796     4.08274523
Ce    -1.89757415     3.37665532     7.31152129
Ce     3.86254305     4.47635356     0.87798423
Ce     1.93357012     5.59113980     4.08947445
Ce     1.80675285     3.29362073     7.25222365
Ce     7.74213807     4.46545905     0.90125422
Ce     5.78148411     5.63444126     4.02721369
Ce    -1.94645625     7.83004003     0.90010904
Ce    -3.87646759     8.93787925     4.07408166
Ce    -3.79631928     6.72155173     7.29315517
Ce     1.92815559     7.82745473     0.89060408
Ce    -0.00139066     8.96460984     4.07020912
Ce     0.01294949     6.69892090     7.25482560
Ce     5.81127600     7.83258510     0.88371011
Ce     3.87109936     8.94690337     4.05103566
Ce     3.84823190     6.85004519     7.23030005
Ti     5.72518737     3.33872891     6.55134999
Ni     7.04387042     2.66240363     8.43561403
O     11.61334069     0.00154917     0.10141687
O      1.91986508     1.10067566     3.21744364
O     -0.02634370     2.18342435     6.46434333
O     -0.00785227     2.23805103     1.69392277
O      0.02825379     0.00800847     4.89278643
O      2.01514037     0.97834120     8.03636904
O     -1.93899312    10.05733740     0.10496691
O      5.79987750     1.09135947     3.22608287
O      4.09692112     2.48986772     6.62908134
O      3.86763657     2.23577757     1.68132582
O      3.85647502     0.12504993     4.93696674
O      6.03288664     1.03334401     8.32808425
O      7.73821774     0.00761509     0.10924988
O      9.69034876     1.11767955     3.24586993
O      7.47102214     2.41526443     6.47703292
O      7.74357843     2.23531483     1.71563532
O      7.74976601     0.04641214     4.90157117
O      9.60726170     1.15375479     8.02775961
O      9.67032270     3.35425987     0.10911246
O     -0.01374978     4.47542897     3.27458938
O     -1.96788472     5.59819582     6.45347579
O     -1.94403436     5.59119430     1.70564938
O      9.66716246     3.31601304     4.91926375
O     -0.08925416     4.54071995     8.10255401
O      1.92738314     3.35244915     0.09928684
O      3.76474780     4.44130464     3.22210661
O      1.96898253     5.55200816     6.49870004
O      1.92862022     5.59252216     1.67404250
O      1.92229171     3.28546294     4.86215514
O      5.81155478     3.35101064     0.10766953
O      7.82272259     4.43956457     3.24199323
O      5.63087446     5.15008602     6.69740795
O      5.80528807     5.59217007     1.68114259
O      5.78129887     3.28833372     4.69958298
O      7.98884941     4.31802285     8.38544770
O     -3.87155109     6.71022987     0.10512724
O     -1.94621921     7.84055103     3.30114202
O     -3.79717501     8.93166456     6.41633908
O     -3.87509971     8.94378428     1.69355631
O      7.71704649     6.70087598     4.98703736
O     -1.93748155     7.83057631     8.07474852
O     -0.01209783     6.71325780     0.10434852
O      1.90771414     7.84204787     3.25677931
O     -0.05186120     8.98784564     6.43153814
O     -0.00628994     8.94736548     1.70514550
O      0.00812966     6.70684864     4.91665118
O      1.82824336     7.88541247     8.07269327
O      3.86815347     6.71410280     0.09951587
O      5.81808956     7.92507210     3.22310384
O      3.90958626     9.01153059     6.45138484
O      3.86556896     8.94715423     1.69389986
O      3.82952764     6.77877880     4.86639610
O      5.97561726     7.81939892     7.99270035
