84
CIF: CO+Olatt—CO2.cif | data_image0
Ce     1.93596140     1.11772783     0.89035214
Ce    -0.01561270     2.22548639     4.04317309
Ce    -5.63674653     9.99189346     7.16714137
Ce     5.80789581     1.11772783     0.89035214
Ce     3.86216006     2.22565825     4.05174857
Ce     3.89894111     0.01857963     7.30686016
Ce     9.67981860     1.11772783     0.89035214
Ce     7.73382080     2.22898121     4.03397189
Ce     1.91195581    10.01854685     7.15585157
Ce     0.00000000     4.47091133     0.89035214
Ce    -1.94140555     5.56618786     4.03904561
Ce     9.64736295     3.33335587     7.21449885
Ce     3.87193441     4.47091133     0.89035214
Ce     1.93403670     5.58707191     4.04522887
Ce     1.89719083     3.33487948     7.20673834
Ce     7.74385721     4.47091133     0.89035214
Ce     5.81724632     5.60311101     4.03180007
Ce    -1.93596721     7.82410489     0.89035214
Ce    -3.83622482     8.94422679     4.01248785
Ce    -3.83807189     6.74559311     7.18689141
Ce     1.93596721     7.82410489     0.89035214
Ce    -0.00591875     8.93964174     4.04554423
Ce     0.00462568     6.67254706     7.21301883
Ce     5.80789000     7.82410489     0.89035214
Ce     3.88727035     8.94694276     4.03227774
Ce     3.88896885     6.74119206     7.21929799
Y      5.72142091     3.41774343     6.98886625
Y      7.25279143     2.36687064     9.56031491
O      0.00000000     0.00000000     0.09999685
O      1.93308664     1.12274502     3.22521898
O     -0.06599532     2.09157715     6.46461473
O      0.00000000     2.23545567     1.68070743
O     -5.75605223    10.01566466     4.83528684
O      1.85043472     1.15636922     8.08657518
O      3.87192279     0.00000000     0.09999685
O      5.80705705     1.10331466     3.23555974
O      3.87201701     2.29418480     6.42520939
O      3.87192279     2.23545567     1.68070743
O      3.87704970     0.00189007     4.82176627
O      6.01333639     1.20012195     8.33502644
O      7.74385721     0.00000000     0.09999685
O      9.69370105     1.09260725     3.23625191
O      7.64559883     2.16485151     6.28178713
O      7.74385721     2.23545567     1.68070743
O      1.95467716     9.99095050     4.80870122
O      8.87723462     1.35509014     8.68863465
O     -1.93596140     3.35318350     0.09999685
O      0.01630452     4.48045807     3.23023102
O     -2.04147677     5.57051995     6.42349401
O     -1.93596721     5.58864923     1.68070743
O     -1.91860123     3.34579244     4.78153093
O      0.10586373     4.51605327     7.98846092
O      1.93596140     3.35318350     0.09999685
O      3.83614006     4.50053048     3.25151464
O      2.01639340     5.57085520     6.38895415
O      1.93595559     5.58864923     1.68070743
O      1.87729728     3.32295414     4.88188540
O      5.80789581     3.35318350     0.09999685
O      7.74401613     4.48991288     3.23013120
O      5.87750004     5.57802238     6.43192151
O      5.80789000     5.58864923     1.68070743
O      5.77120773     3.39065342     4.74879813
O      7.59304641     4.06775952     8.41057550
O     -3.87192860     6.70637706     0.09999685
O     -1.91921340     7.81100686     3.22918638
O     -3.84325943     8.90790661     6.42134625
O     -3.87192860     8.94183273     1.68070743
O     -3.86961421     6.73247478     4.83616681
O     -1.92752863     7.66462041     8.06872565
O     -0.00000581     6.70637706     0.09999685
O      1.93908364     7.79411032     3.23459324
O      0.03485450     8.94903719     6.43966591
O     -0.00000581     8.94183273     1.68070743
O     -0.01291531     6.68497708     4.89607849
O      3.87192860     6.70637706     0.09999685
O      5.81076878     7.82243129     3.21359437
O      3.92892938     9.10540900     6.51861811
O      3.87192860     8.94183273     1.68070743
O      3.90991108     6.77595913     4.91001491
O      5.85471853     7.81337882     8.02214597
O      3.86539502     4.53698639     8.15101655
O      1.97901637     7.79126042     7.98324122
O      4.29533479     4.06631655    10.60370670
C      4.79609127     3.79096956     9.57097839
