89
CIF: CH2+CO2.cif | data_image0
O      0.00261135     0.00382715     0.19995339
O      1.90990008     1.12616089     3.34037883
O      0.03627775     2.32616604     6.51972026
O      0.00261135     2.21285656     1.76196664
O      0.03942747     0.04042024     5.00783669
O      1.80218594     1.30066171     8.20988099
O      3.82876252     0.00382715     0.19995339
O      5.75022924     1.09237983     3.33591725
O      3.77967789     2.40221291     6.63984406
O      3.82876252     2.21285656     1.76196664
O      3.81720603     0.08588443     4.97528206
O      5.89512895     1.07832947     8.29895127
O      7.65492518     0.00382715     0.19995339
O      9.57613017     1.08806157     3.34613539
O      7.69051399     2.18554011     6.50037210
O      7.65492518     2.21285656     1.76196664
O      1.91643883     9.92179455     4.97030958
O      9.63317034     1.00605668     8.22941103
O     -1.91046424     3.31737126     0.19995339
O      0.00198794     4.41958084     3.31568399
O     -1.88595781     5.61089465     6.61400597
O     -1.91046998     5.52641062     1.76196664
O     -1.91240737     3.33942664     4.91656430
O      1.91568694     3.31737126     0.19995339
O      3.83771770     4.41727172     3.31443235
O      1.78013543     4.93379373     7.56936678
O      1.91568120     5.52641062     1.76196664
O      1.92561860     3.35306924     4.97439010
O      4.33896139     4.44090251     9.23925754
O      5.74184959     3.31737126     0.19995339
O      7.64919140     4.44292071     3.35166235
O      5.70131222     5.51794773     6.57531771
O      5.74184385     5.52641062     1.76196664
O      5.74853354     3.29716064     4.93198263
O      7.66581535     4.55472031     8.32170864
O     -3.82354556     6.63092532     0.19995339
O     -1.88402710     7.72590405     3.41405022
O     -3.78984003     8.79482967     6.59631979
O     -3.82354556     8.83995473     1.76196664
O      7.63458814     6.61060816     4.99317104
O     -1.95600372     7.61975213     8.71783172
O      0.00260561     6.63092532     0.19995339
O      1.91817122     7.74487011     3.31197852
O     -0.02829171     8.82631134     6.54003582
O      0.00260561     8.83995473     1.76196664
O      0.16716897     6.54990373     5.03644313
O      1.93720354     7.89317201     8.29575834
O      3.82876826     6.63092532     0.19995339
O      5.71028370     7.72259164     3.40248621
O      3.88265942     8.84947133     6.51255965
O      3.82876826     8.83995473     1.76196664
O      3.66289617     6.54712264     5.05934366
O      5.82013582     7.80175403     8.29739105
O     -1.10128399     4.64482824     9.81013049
O     -2.82109098     5.16718185    11.32963834
Ce     1.91568694     1.10834185     0.98097142
Ce    -0.02271340     2.21001502     4.11885991
Ce     5.73703860     9.93843401     7.40273360
Ce     5.74184959     1.10834185     0.98097142
Ce     3.86341962     2.20929708     4.12901458
Ce     3.86069307     0.12520462     7.45895466
Ce     9.56800076     1.10834185     0.98097142
Ce     7.65753758     2.21455814     4.13769991
Ce     1.93185433     9.93715714     7.39859383
Ce     0.00261135     4.42188597     0.98097142
Ce    -1.90127298     5.52859898     4.21069819
Ce     9.48692777     3.28476817     7.35554410
Ce     3.82877400     4.42188597     0.98097142
Ce     1.92158312     5.53204247     4.03847359
Ce     7.65492518     4.42188597     0.98097142
Ce     5.72494755     5.51158919     4.19528308
Ce     5.88186118     3.27080624     7.40369899
Ce    -1.91046998     7.73544003     0.98097142
Ce    -3.81370635     8.85258449     4.21511563
Ce     7.55888151     6.58557409     7.35580639
Ce     1.91569268     7.73544003     0.98097142
Ce     0.01234665     8.84085718     4.20608781
Ce     0.09176872     6.69096504     7.42952072
Ce     5.74184385     7.73544003     0.98097142
Ce     3.81986644     8.82374614     4.18961803
Ce     3.84195606     6.72656925     7.51132719
Zr     1.87946167     3.01534614     7.03442297
C     -2.04260201     8.33079773     9.85837532
C     -1.99737887     4.90889629    10.54243808
C      3.56851511     3.91263959    10.06241121
H     -3.01693082     8.41464152    10.35438068
H     -1.12058401     8.56210534    10.40623572
H      3.79577680     2.91952296    10.49297144
H      2.63133061     4.41913016    10.36037313
