89
CIF: CH2CO+Olat→CH2+CO2.cif | data_image0
O      0.00261135     0.00382715     0.19995339
O      1.90854960     1.12375167     3.33718429
O      0.04044092     2.33568653     6.52311912
O      0.00261135     2.21285656     1.76196664
O      0.03669559     0.04586996     5.00801017
O      1.81577706     1.29409053     8.20283468
O      3.82876252     0.00382715     0.19995339
O      5.74971086     1.09089608     3.32851292
O      3.78415848     2.40357590     6.62566698
O      3.82876252     2.21285656     1.76196664
O      3.81976279     0.08867135     4.97234063
O      5.88563318     1.07152593     8.29996123
O      7.65492518     0.00382715     0.19995339
O      9.57561596     1.08803043     3.34299271
O      7.68572094     2.18760978     6.50370652
O      7.65492518     2.21285656     1.76196664
O      1.91380861     9.92464947     4.96852972
O      9.63372374     1.01325067     8.22241409
O     -1.91046424     3.31737126     0.19995339
O      0.00191911     4.41707836     3.31300268
O     -1.88634459     5.61745083     6.58354622
O     -1.91046998     5.52641062     1.76196664
O     -1.91618215     3.33715035     4.91286330
O      1.91568694     3.31737126     0.19995339
O      3.83478283     4.41919611     3.31000944
O      1.82152379     4.94119531     7.54775717
O      1.91568120     5.52641062     1.76196664
O      1.92592375     3.34949287     4.96591954
O      4.33731051     4.46820190     9.26370038
O      5.74184959     3.31737126     0.19995339
O      7.64750726     4.44128781     3.34461065
O      5.68841558     5.51839746     6.55961948
O      5.74184385     5.52641062     1.76196664
O      5.74878695     3.29619645     4.92312214
O      7.66007996     4.57260294     8.29762895
O     -3.82354556     6.63092532     0.19995339
O     -1.88436912     7.72943638     3.41213667
O     -3.79122699     8.79202235     6.57398364
O     -3.82354556     8.83995473     1.76196664
O      7.62743036     6.60817099     4.97774473
O     -1.95718953     7.70117470     8.64990233
O      0.00260561     6.63092532     0.19995339
O      1.91803894     7.74793561     3.30681517
O     -0.02668632     8.82232215     6.53062472
O      0.00260561     8.83995473     1.76196664
O      0.17129028     6.55009408     5.02689052
O      1.93676156     7.89427663     8.29130475
O      3.82876826     6.63092532     0.19995339
O      5.70878775     7.72663353     3.39896836
O      3.88050902     8.85814179     6.51197850
O      3.82876826     8.83995473     1.76196664
O      3.65831676     6.55665564     5.05380544
O      5.82307046     7.80781747     8.28654257
O     -0.97657530     4.89970221     9.61633776
O     -2.50873965     5.03398186    11.40198760
Ce     1.91568694     1.10834185     0.98097142
Ce    -0.02410556     2.21080223     4.11755746
Ce    11.47437057     0.00285027     7.39882285
Ce     5.74184959     1.10834185     0.98097142
Ce     3.86428978     2.21027138     4.12383744
Ce     3.86435824     0.11861948     7.42560047
Ce     9.56800076     1.10834185     0.98097142
Ce     7.65545967     2.21442735     4.13583596
Ce     7.66857841     0.00009646     7.39785131
Ce     0.00261135     4.42188597     0.98097142
Ce    -1.90199546     5.52792100     4.20281244
Ce     9.48346684     3.29343257     7.35060745
Ce     3.82877400     4.42188597     0.98097142
Ce     1.92194231     5.53231685     4.03618865
Ce     7.65492518     4.42188597     0.98097142
Ce     5.72142199     5.51115671     4.18622676
Ce     5.87688112     3.27306855     7.40527547
Ce    -1.91046998     7.73544003     0.98097142
Ce    -3.81750741     8.85407637     4.20620534
Ce     7.55081074     6.58510110     7.32764307
Ce     1.91569268     7.73544003     0.98097142
Ce     0.01431597     8.84012780     4.19900292
Ce     0.10303142     6.68140757     7.41805619
Ce     5.74184385     7.73544003     0.98097142
Ce     3.81784264     8.82664624     4.18778065
Ce     3.84101660     6.73089636     7.50242707
Zr     1.88973445     3.01539558     7.02688039
C     -2.04273418     7.79857001     9.98189858
C     -1.77828878     5.07814463    10.48521150
C      3.52688845     3.99466558    10.07781657
H     -3.03665787     7.84626616    10.44336106
H     -1.16358803     8.14477519    10.54140441
H      3.66049084     2.97294099    10.48196700
H      2.64390957     4.57912106    10.39930612
