80
CIF: Zr-CeO2-Ov.cif | data_image0
O      0.00261135     0.00382715     0.19995339
O      1.91030943     1.10217753     3.32805651
O      0.14867135     2.48334938     6.68120297
O      0.00261135     2.21285656     1.76196664
O     -0.00738686     0.10814735     5.02418723
O      2.01569636     1.25501712     8.07662186
O      3.82876252     0.00382715     0.19995339
O      5.75847554     1.09687632     3.32054752
O      3.86318104     2.19010696     6.41980537
O      3.82876252     2.21285656     1.76196664
O     -1.91462849     9.92223545     4.94513619
O      5.71407978     1.12074259     8.19215978
O      7.65492518     0.00382715     0.19995339
O      9.57620139     1.10310947     3.33211837
O      7.59989783     2.16748830     6.52325933
O      7.65492518     2.21285656     1.76196664
O      1.92767009     9.93566093     4.95502474
O      9.60290987     0.97621620     8.16205140
O     -1.91046424     3.31737126     0.19995339
O      0.01122912     4.41547565     3.36828134
O     -1.89993984     5.51734408     6.61475100
O     -1.91046998     5.52641062     1.76196664
O      9.55123388     3.29106540     4.94281231
O      1.91568694     3.31737126     0.19995339
O      3.83052123     4.42758266     3.32776151
O      1.75181535     5.26057811     6.68171575
O      1.91568120     5.52641062     1.76196664
O      2.00041100     3.26701275     4.95015369
O      3.74835156     4.25666660     8.07760149
O      5.74184959     3.31737126     0.19995339
O      7.65437955     4.44023920     3.34454198
O      5.68309502     5.53986731     6.52200018
O      5.74184385     5.52641062     1.76196664
O      5.75763934     3.32813021     4.94492017
O      7.49087221     4.47568261     8.21613138
O     -3.82354556     6.63092532     0.19995339
O     -1.92797664     7.72473115     3.34477263
O     -3.86784143     8.87863605     6.52199076
O     -3.82354556     8.83995473     1.76196664
O     -3.82140741     6.62718893     5.00673413
O     -2.04256907     7.84495041     8.21603044
O      0.00260561     6.63092532     0.19995339
O      1.92306813     7.72928156     3.33213569
O      0.01105642     8.90531707     6.52336491
O      0.00260561     8.83995473     1.76196664
O      0.01600611     6.65493347     4.94245494
O      2.04357556     7.76644755     8.16258507
O      3.82876826     6.63092532     0.19995339
O      5.72520710     7.74312072     3.38725712
O      3.86168361     8.81701022     6.47846931
O      3.82876826     8.83995473     1.76196664
O      3.73108392     6.58315313     5.02403184
O      5.71525453     7.74639368     8.16664177
Ce     1.91568694     1.10834185     0.98097142
Ce    -0.00118858     2.23172560     4.17258348
Ce     0.01071933     0.03401315     7.35295314
Ce     5.74184959     1.10834185     0.98097142
Ce     3.87015794     2.18706214     4.08039538
Ce     3.82142007     0.01336629     7.37152675
Ce     9.56800076     1.10834185     0.98097142
Ce     7.65919414     2.21406317     4.13873062
Ce     1.94136697     9.92618963     7.33705638
Ce     0.00261135     4.42188597     0.98097142
Ce    -1.91829486     5.52885039     4.19752703
Ce     9.43738499     3.26012382     7.34286545
Ce     3.82877400     4.42188597     0.98097142
Ce     1.89603883     5.51733856     4.17209471
Ce     7.65492518     4.42188597     0.98097142
Ce     5.73291621     5.51736765     4.16512828
Ce     5.72691159     3.31327094     7.37174366
Ce    -1.91046998     7.73544003     0.98097142
Ce    -3.82212235     8.84916722     4.16506191
Ce     7.62159090     6.64612139     7.37789313
Ce     1.91569268     7.73544003     0.98097142
Ce     0.00212128     8.83228459     4.13924005
Ce    -0.01702867     6.76658954     7.34356356
Ce     5.74184385     7.73544003     0.98097142
Ce     3.81589941     8.84546644     4.15812166
Ce     3.80292212     6.60315439     7.35297803
Zr     2.17437391     3.16492744     7.04052464
