83
CIF: O2—Olatt+Osur.cif | data_image0
Ce     1.93038582     1.11050507     0.88387043
Ce     0.00167933     2.22890973     4.03693860
Ce    -5.64853704     9.95552935     7.17175631
Ce     5.81181033     1.12175166     0.90127712
Ce     3.86985520     2.24418008     4.05777402
Ce     3.89327296     0.01397055     7.21177932
Ce     9.66901012     1.12377363     0.90450652
Ce     7.74058043     2.24356404     4.04862421
Ce     7.73666466     0.02442841     7.12655632
Ce    -0.00709724     4.47602159     0.89067279
Ce    -1.95016578     5.60019117     4.05342756
Ce    -1.93429924     3.36849123     7.14508543
Ce     3.86254305     4.47635356     0.87798423
Ce     1.91750696     5.60427226     4.04240367
Ce     1.89008453     3.36502645     7.22018816
Ce     7.74213807     4.46545905     0.90125422
Ce     5.80594407     5.58351354     4.07809446
Ce    -1.94645625     7.83004003     0.90010904
Ce    -3.86546498     8.92349248     4.03607329
Ce     7.72296275     6.64754751     7.29011826
Ce     1.92815559     7.82745473     0.89060408
Ce    -0.01012981     8.95467032     4.02912111
Ce    -0.00976485     6.73872273     7.20074010
Ce     5.81127600     7.83258510     0.88371011
Ce     3.87836893     8.95018484     4.03288284
Ce     3.83565520     6.74144787     7.20867603
Sc     5.40022212     3.55606468     7.04579475
Y      7.22352067     2.52278244     9.45019675
O     11.61334069     0.00154917     0.10141687
O      1.93951678     1.12504461     3.22580739
O     -0.11282831     2.10954731     6.50416313
O     -0.00785227     2.23805103     1.69392277
O     -5.75281797    10.03011409     4.84319741
O      1.96862764     1.08105609     8.01252480
O     -1.93899312    10.05733740     0.10496691
O      5.78542997     1.13901652     3.24381807
O      3.87851390     2.25317137     6.44813180
O      3.86763657     2.23577757     1.68132582
O      3.85936680     0.02194568     4.86725616
O      6.01710378     1.32062637     8.08108225
O      7.73821774     0.00761509     0.10924988
O      9.70073498     1.11279459     3.24991283
O      7.98949113     2.11080413     6.22423359
O      7.74357843     2.23531483     1.71563532
O      1.92197540     9.99187769     4.76892478
O      8.98824283     1.48528310     8.60110122
O      9.67032270     3.35425987     0.10911246
O      0.02913538     4.49114966     3.22554568
O     -1.93244758     5.56206438     6.43664314
O     -1.94403436     5.59119430     1.70564938
O     -1.86421040     3.40714993     4.78861803
O      0.02800164     4.45973106     7.99435891
O      1.92738314     3.35244915     0.09928684
O      3.84801830     4.48480413     3.25962909
O      1.88695025     5.61861177     6.36066329
O      1.92862022     5.59252216     1.67404250
O      1.88505444     3.32093118     4.90292314
O      5.81155478     3.35101064     0.10766953
O      7.71869844     4.47146114     3.25156733
O      5.73649382     5.53258964     6.45786972
O      5.80528807     5.59217007     1.68114259
O      5.76633629     3.36233665     4.92701530
O      7.74310288     4.15877285     8.13126567
O     -3.87155109     6.71022987     0.10512724
O     -1.95116494     7.83668924     3.23402381
O     -3.82061787     8.93738867     6.42306109
O     -3.87509971     8.94378428     1.69355631
O      7.71861932     6.69437609     4.84845123
O     -1.79616220     7.91332705     8.04399468
O     -0.01209783     6.71325780     0.10434852
O      1.93611227     7.79314139     3.21819374
O     -0.00382656     9.03822737     6.40568439
O     -0.00628994     8.94736548     1.70514550
O     -0.03405482     6.74811045     4.86062915
O      1.93796602     7.83382693     7.95908369
O      3.86815347     6.71410280     0.09951587
O      5.80114357     7.81793813     3.22650662
O      3.90163282     9.12649669     6.46162822
O      3.86556896     8.94715423     1.69389986
O      3.87215210     6.77366637     4.89752483
O      5.72049811     7.88150241     8.02299362
O      3.75493845     4.50329694     7.89425064
O      5.60537076     3.48813301    10.10147301
