83
CIF: Y-Sc-CeO2-O.cif | data_image0
Ce     1.93038582     1.11050507     0.88387043
Ce    -0.00330500     2.22237156     4.05633624
Ce    -5.67206914     9.97116767     7.17505612
Ce     5.81181033     1.12175166     0.90127712
Ce     3.85437692     2.22971255     4.04201366
Ce     3.90967659     0.02238704     7.23112025
Ce     9.66901012     1.12377363     0.90450652
Ce     7.72602290     2.24575703     4.04246335
Ce     7.71000938     0.01365361     7.13836618
Ce    -0.00709724     4.47602159     0.89067279
Ce    -1.95671111     5.59526715     4.06420757
Ce     9.65770453     3.36872328     7.16509098
Ce     3.86254305     4.47635356     0.87798423
Ce     1.91970031     5.59802154     4.04840927
Ce     1.97306088     3.37692531     7.23742915
Ce     7.74213807     4.46545905     0.90125422
Ce     5.80627567     5.61560960     4.04168840
Ce    -1.94645625     7.83004003     0.90010904
Ce    -3.85716956     8.92350110     4.04584684
Ce     7.71299675     6.66312884     7.31558093
Ce     1.92815559     7.82745473     0.89060408
Ce    -0.01169375     8.95268211     4.03527528
Ce    -0.00654559     6.71776727     7.22014338
Ce     5.81127600     7.83258510     0.88371011
Ce     3.87517994     8.95850771     4.04679456
Ce     3.85338953     6.68398050     7.21470644
Sc     5.68835113     3.46587406     6.82855244
Y      7.29635218     2.42203862     9.52828734
O     11.61334069     0.00154917     0.10141687
O      1.92824611     1.12497175     3.22531912
O     -0.14406537     2.10428868     6.50907614
O     -0.00785227     2.23805103     1.69392277
O     -5.75365838    10.03144715     4.84908689
O      2.00685658     1.13293628     7.98576394
O     -1.93899312    10.05733740     0.10496691
O      5.78519102     1.11704610     3.23753911
O      4.01783925     2.23366641     6.41275447
O      3.86763657     2.23577757     1.68132582
O      3.84892996     0.00392945     4.85779411
O      5.97485612     1.18904957     8.28823102
O      7.73821774     0.00761509     0.10924988
O      9.70151784     1.11406895     3.25068556
O      7.63009467     2.27528599     6.27945398
O      7.74357843     2.23531483     1.71563532
O      1.93561346    10.03930921     4.79964632
O      9.01218778     1.49325820     8.47922819
O      9.67032270     3.35425987     0.10911246
O      0.01532973     4.47722742     3.25469973
O     -1.96709919     5.52629489     6.45130578
O     -1.94403436     5.59119430     1.70564938
O     -1.91601470     3.35265648     4.84019179
O      0.02324011     4.45850930     7.97179657
O      1.92738314     3.35244915     0.09928684
O      3.81707421     4.49901696     3.24214585
O      1.92185595     5.59111773     6.37307370
O      1.92862022     5.59252216     1.67404250
O      1.90404311     3.29845678     4.92612650
O      5.81155478     3.35101064     0.10766953
O      7.74412485     4.48047253     3.24051291
O      5.79124885     5.48319248     6.38545363
O      5.80528807     5.59217007     1.68114259
O      5.75318162     3.39156566     4.76448552
O      7.60427276     4.15041484     8.25628662
O     -3.87155109     6.71022987     0.10512724
O     -1.93232888     7.82661342     3.23555835
O     -3.83805017     8.95512898     6.44702369
O     -3.87509971     8.94378428     1.69355631
O      7.73673820     6.71667005     4.82730833
O     -1.77838490     7.90019556     8.02964730
O     -0.01209783     6.71325780     0.10434852
O      1.92940592     7.80362987     3.23645859
O     -0.00187152     9.05441016     6.39376080
O     -0.00628994     8.94736548     1.70514550
O     -0.03376345     6.73389610     4.88877875
O      1.93150685     7.82675834     7.92832995
O      3.86815347     6.71410280     0.09951587
O      5.79522184     7.83343807     3.22286590
O      3.89293272     9.15591903     6.45861854
O      3.86556896     8.94715423     1.69389986
O      3.87584167     6.77528546     4.90249276
O      5.68915677     7.85829122     8.00712045
O      3.82748651     4.47915317     7.91915287
O      7.15545998     2.60029285    11.65011780
