82
CIF: Y-Sc-CeO2.cif | data_image0
Ce     1.93038582     1.11050507     0.88387043
Ce    -0.02156117     2.21344762     4.06187404
Ce    -5.62656986     9.92839836     7.17809047
Ce     5.81181033     1.12175166     0.90127712
Ce     3.82035480     2.19753159     3.99155183
Ce    -1.85008569    10.04721238     7.27638809
Ce     9.66901012     1.12377363     0.90450652
Ce     7.70828042     2.26097463     4.07813481
Ce     1.94068364     9.94321313     7.23204263
Ce    -0.00709724     4.47602159     0.89067279
Ce    -1.94427385     5.59199752     4.05909121
Ce    -1.82959856     3.46060813     7.25435117
Ce     3.86254305     4.47635356     0.87798423
Ce     1.92714167     5.58943667     4.04135259
Ce     1.97888012     3.32302314     7.20779412
Ce     7.74213807     4.46545905     0.90125422
Ce     5.81634178     5.63473656     4.02400987
Ce    -1.94645625     7.83004003     0.90010904
Ce    -3.83623418     8.91220559     4.04757369
Ce    -3.81983053     6.65825458     7.35570414
Ce     1.92815559     7.82745473     0.89060408
Ce     0.00300386     8.95419618     4.04494891
Ce     0.04440846     6.71088366     7.20964362
Ce     5.81127600     7.83258510     0.88371011
Ce     3.88264865     8.96515087     4.05957378
Ce     3.90585807     6.66309884     7.20239215
Sc     5.48046383     3.47905387     6.69113887
Y      7.28852720     2.52392874     9.07133196
O     11.61334069     0.00154917     0.10141687
O      1.91657312     1.10928625     3.21092618
O     -0.08824250     2.10874852     6.53340700
O     -0.00785227     2.23805103     1.69392277
O     -5.73890549    10.03878449     4.85278703
O      2.01908950     1.09952399     8.02209896
O     -1.93899312    10.05733740     0.10496691
O      5.80239874     1.11306957     3.23113141
O      3.91899026     2.20252468     6.33350234
O      3.86763657     2.23577757     1.68132582
O     -1.93911367    10.04317832     4.83228934
O      5.76593489     1.09449478     8.39524857
O      7.73821774     0.00761509     0.10924988
O      9.69219191     1.12539598     3.25005170
O      7.38012589     2.57444616     6.69826670
O      7.74357843     2.23531483     1.71563532
O      7.76891327     0.08505388     4.85067159
O      9.06241291     1.57672092     8.61003065
O      9.67032270     3.35425987     0.10911246
O     -0.01819304     4.45381855     3.25691784
O     -1.87482132     5.56340496     6.41449651
O     -1.94403436     5.59119430     1.70564938
O      9.63368661     3.29585270     4.91632053
O      0.08626064     4.45651758     8.01473441
O      1.92738314     3.35244915     0.09928684
O      3.80986474     4.49646767     3.21974604
O      1.96169527     5.54283459     6.35012047
O      1.92862022     5.59252216     1.67404250
O      1.87963475     3.28993143     4.88513814
O      3.88139626     4.40966115     7.90576923
O      5.81155478     3.35101064     0.10766953
O      7.75314765     4.46357394     3.24760889
O      5.81880656     5.48653497     6.37478389
O      5.80528807     5.59217007     1.68114259
O      5.71992029     3.37617198     4.68669083
O      8.11640142     4.42790189     8.56223168
O     -3.87155109     6.71022987     0.10512724
O     -1.91994186     7.81531292     3.23361959
O     -3.80430877     8.93391798     6.44851618
O     -3.87509971     8.94378428     1.69355631
O     -3.86051052     6.70562244     4.81721378
O     -1.74915147     7.88123611     8.08440186
O     -0.01209783     6.71325780     0.10434852
O      1.94690020     7.83725690     3.25094921
O     -0.00608434     8.95637562     6.38185175
O     -0.00628994     8.94736548     1.70514550
O      0.00859003     6.71362189     4.85027346
O      1.98472097     7.66370553     8.00871977
O      3.86815347     6.71410280     0.09951587
O      5.80186087     7.83975307     3.22416711
O      3.98331638     9.03311427     6.44978159
O      3.86556896     8.94715423     1.69389986
O      3.88939520     6.75051401     4.87633787
O      5.75196084     7.83050156     8.06709063
