84
CIF: CO+Olatt—CO2.cif | data_image0
Ce     1.94226049     1.09282224     0.90031368
Ce     0.00603246     2.21783728     4.04091656
Ce    -5.76714716    10.04024402     7.22970408
Ce     5.82200739     1.10346528     0.89777139
Ce     3.85848148     2.19357913     4.01635605
Ce    -1.86281284    10.04801545     7.33537750
Ce     9.68320966     1.11564743     0.90752828
Ce     7.75983442     2.22622362     4.08536249
Ce     2.00383294    10.04182298     7.26478920
Ce     0.00429785     4.47192499     0.92985920
Ce    -1.92008340     5.56565934     4.08037221
Ce    -1.88547856     3.31862367     7.23160033
Ce     3.85930889     4.47807140     0.90276436
Ce     1.95723108     5.57560312     4.08646346
Ce     1.85533985     3.27977601     7.21831104
Ce     7.76315857     4.46563776     0.89777139
Ce     5.82532955     5.61783875     4.00564536
Ce    -1.91064809     7.80937103     0.92910338
Ce    -3.83611904     8.92802110     4.10847283
Ce    -3.80639581     6.65942030     7.24824140
Ce     1.93713212     7.81969216     0.92985920
Ce     0.02394681     8.94231203     4.10927137
Ce     0.03101990     6.68177804     7.24898504
Ce     5.83249646     7.83092871     0.90031368
Ce     3.88733754     8.94277501     4.05245414
Ce     3.90225312     6.79502225     7.23184349
Ti     5.28203076     3.67007284     6.70112267
Co     6.67291203     2.91036206     8.02412441
O     -5.78044606    10.04359322     0.13048124
O      1.93976962     1.09429904     3.23570177
O      0.00586748     2.22258092     6.37588874
O      0.00677782     2.23321623     1.69921067
O     -5.77791709    10.04269535     4.87204151
O      1.85956511     1.19247592     8.03134915
O     -1.91500402    10.04279851     0.13836004
O      5.82404148     1.11782024     3.25670515
O      3.89520685     2.36820794     6.39753346
O      3.86865961     2.21488768     1.68688858
O      3.89456402     0.01728135     4.86954949
O      6.07987729     1.10337655     8.15548037
O      7.74938804     0.00376228     0.13526807
O      9.69208627     1.10377867     3.24299265
O      7.83224889     2.22504275     6.52584081
O      7.75322707     2.22991669     1.72337386
O      7.77268803     0.02905552     4.88334799
O      9.79683241     1.06635620     8.04052447
O      9.67921963     3.34632864     0.13526807
O      0.00280960     4.45554648     3.26957388
O     -1.90415051     5.54488181     6.40099248
O     -1.91234400     5.57324758     1.72534356
O      9.67485126     3.32003544     4.85388808
O      0.03861794     4.43562737     8.01587557
O      1.93995476     3.37549136     0.14946824
O      3.87654820     4.46898753     3.23670568
O      2.07152415     5.50303431     6.49184099
O      1.90130318     5.60852652     1.74584219
O      1.92679887     3.32612894     4.84828998
O      4.13367822     4.35691618     8.19283264
O      5.81901632     3.34664049     0.15052180
O      7.74508625     4.46463112     3.25063221
O      5.73634778     5.52304280     6.37438795
O      5.82396465     5.60157535     1.68688858
O      5.78645709     3.36631968     4.84474488
O      7.85549834     4.42514720     8.07884700
O     -3.84703099     6.69642963     0.13836004
O     -1.90520318     7.80148098     3.29535145
O     -3.85772732     8.88440279     6.45696059
O     -3.83681490     8.92143725     1.72353418
O      7.74179364     6.67233907     4.89730852
O     -1.88451538     7.64705377     8.06098749
O      0.00691721     6.70226419     0.13879521
O      1.95091592     7.83418792     3.28005314
O      0.08225357     8.89159731     6.44707789
O      0.02504366     8.92890145     1.72534356
O      0.05712145     6.66585091     4.91235043
O      2.01186654     7.77047617     8.04490438
O      3.85449995     6.69158091     0.14949114
O      5.83169377     7.82889937     3.23948653
O      3.90917519     8.92851785     6.41203324
O      3.87715076     8.93689882     1.69921067
O      3.88473308     6.72518056     4.85704608
O      5.82066213     7.76224603     8.00803221
O      5.12766368     3.78140527    10.29737198
C      5.31878730     3.67429422     9.12854493
