85
CIF: Co-Ti-CeO2-O-CO.cif | data_image0
Ce     1.93038582     1.11050507     0.88387043
Ce    -0.01056247     2.22508910     4.03875015
Ce    -5.76851868    10.03677805     7.17875366
Ce     5.81181033     1.12175166     0.90127712
Ce     3.83298342     2.19528144     3.99178702
Ce    -1.90361329    10.02181138     7.32791356
Ce     9.66901012     1.12377363     0.90450652
Ce     7.71304938     2.25353546     4.07621848
Ce     2.01205920     9.92421301     7.24532790
Ce    -0.00709724     4.47602159     0.89067279
Ce    -1.94617655     5.58809138     4.07920118
Ce    -1.78041672     3.35519160     7.24344735
Ce     3.86254305     4.47635356     0.87798423
Ce     1.94163506     5.58550396     4.04860793
Ce     1.98085586     3.32815166     7.19439895
Ce     7.74213807     4.46545905     0.90125422
Ce     5.82285606     5.64242468     3.99149313
Ce    -1.94645625     7.83004003     0.90010904
Ce    -3.84523990     8.92596718     4.08270123
Ce    -3.82372553     6.69457676     7.32874449
Ce     1.92815559     7.82745473     0.89060408
Ce    -0.00485774     8.95130794     4.07967000
Ce     0.02326711     6.69293948     7.23684766
Ce     5.81127600     7.83258510     0.88371011
Ce     3.87529895     8.95660194     4.03906902
Ce     3.91544653     6.68033744     7.19454271
Ti     5.48503027     3.54012380     6.63799415
Co     7.05946610     2.63464816     8.50249070
O     11.61334069     0.00154917     0.10141687
O      1.91565433     1.11060202     3.22401066
O      0.04460875     2.23887023     6.35986887
O     -0.00785227     2.23805103     1.69392277
O     -5.79483302    10.05148381     4.85680925
O      1.89136594     1.22382700     8.00848579
O     -1.93899312    10.05733740     0.10496691
O      5.81297751     1.11673610     3.24855473
O      4.09768742     2.25847898     6.37910134
O      3.86763657     2.23577757     1.68132582
O     -1.93888252    10.04691394     4.83396034
O      6.29062324     1.04094122     8.56353206
O      7.73821774     0.00761509     0.10924988
O      9.67746574     1.11845142     3.23724315
O      7.25004486     2.52550024     6.50169976
O      7.74357843     2.23531483     1.71563532
O      7.77950844     0.08869500     4.90716658
O      9.68447605     1.11558935     7.86045971
O      9.67032270     3.35425987     0.10911246
O     -0.00731093     4.46041952     3.26826232
O     -1.90703778     5.48911510     6.43333441
O     -1.94403436     5.59119430     1.70564938
O      9.62353553     3.27805394     4.90547569
O      0.08464434     4.41766223     8.02718466
O      1.92738314     3.35244915     0.09928684
O      3.82562558     4.49768546     3.18555193
O      1.94713743     5.58235394     6.38730923
O      1.92862022     5.59252216     1.67404250
O      1.98150828     3.32336481     4.86206317
O      5.81155478     3.35101064     0.10766953
O      7.74715006     4.46675298     3.24847964
O      5.89971783     5.38269720     6.37753502
O      5.80528807     5.59217007     1.68114259
O      5.68155715     3.42572998     4.71025829
O      8.05253680     4.09961145     8.56351493
O     -3.87155109     6.71022987     0.10512724
O     -1.92246382     7.81634089     3.24972205
O     -3.87582430     8.94315997     6.46742887
O     -3.87509971     8.94378428     1.69355631
O     -3.86243425     6.71492891     4.83364581
O     -1.74710673     7.71379650     8.08959116
O     -0.01209783     6.71325780     0.10434852
O      1.94119690     7.83614119     3.26891911
O      0.09989767     8.96702397     6.43382409
O     -0.00628994     8.94736548     1.70514550
O     -0.01461262     6.71476696     4.87782663
O      2.02320556     7.77787669     8.02927613
O      3.86815347     6.71410280     0.09951587
O      5.80390665     7.84574927     3.22308739
O      3.89032817     8.90128783     6.36028086
O      3.86556896     8.94715423     1.69389986
O      3.92043119     6.68190805     4.86217110
O      5.69370717     7.80956597     8.00932020
O      4.00081592     4.39730642     7.75930684
O      5.19357320     3.69490026    10.84007842
O      5.92931340     3.38896193    13.05465782
C      5.56245272     3.54155457    11.94786278
