81
CIF: Ti-CeO2.cif | data_image0
Ce     1.93596140     1.11772783     0.89035214
Ce    -0.02649414     2.23053361     4.06400205
Ce    11.61044256     0.00308339     7.16185743
Ce     5.80789581     1.11772783     0.89035214
Ce     3.83393529     2.19092561     3.99729654
Ce    -1.86241539     9.99020750     7.24151418
Ce     9.67981860     1.11772783     0.89035214
Ce     7.72225316     2.24792497     4.05552982
Ce     1.86371858    10.00820442     7.29502342
Ce     0.00000000     4.47091133     0.89035214
Ce    -1.93017268     5.58681748     4.02746496
Ce    -1.92761325     3.44142907     7.29501831
Ce     3.87193441     4.47091133     0.89035214
Ce     1.95131241     5.57978132     4.03153362
Ce     1.98682445     3.33007168     7.18350425
Ce     7.74385721     4.47091133     0.89035214
Ce     5.82745504     5.64380740     3.99729744
Ce    -1.93596721     7.82410489     0.89035214
Ce    -3.85747953     8.93349198     4.05792446
Ce    -3.77509421     6.67736483     7.24150743
Ce     1.93596721     7.82410489     0.89035214
Ce     0.00448348     8.93772928     4.02746458
Ce     0.05118253     6.67683017     7.16194555
Ce     5.80789000     7.82410489     0.89035214
Ce     3.86294219     8.96723703     4.06400517
Ce     3.91737693     6.67387077     7.18350580
Ti     5.60089314     3.47268954     6.62161950
O      0.00000000     0.00000000     0.09999685
O      1.91181532     1.11047023     3.22712730
O      0.01452698     2.23676823     6.39268913
O      0.00000000     2.23545567     1.68070743
O     11.61180910     0.00229146     4.85699173
O      1.98492715     1.16146142     7.92337594
O      3.87192279     0.00000000     0.09999685
O      5.81134382     1.12045848     3.23011004
O      4.14203993     2.22405300     6.37510407
O      3.87192279     2.23545567     1.68070743
O     -1.94558528    10.05428998     4.83166301
O      5.79601258     0.50880702     8.24921424
O      7.74385721     0.00000000     0.09999685
O      9.66790036     1.12460757     3.23680856
O      7.21222977     2.54238654     6.63943325
O      7.74385721     2.23545567     1.68070743
O      7.75279283     0.12289712     4.92498070
O      9.58899164     1.17016864     7.88690151
O     -1.93596140     3.35318350     0.09999685
O     -0.01051339     4.42738728     3.25489766
O     -1.84697861     5.60492950     6.28954300
O     -1.93596721     5.58864923     1.68070743
O      9.57784840     3.28399897     4.92498101
O      0.06876357     4.46939160     7.97472297
O      1.93596140     3.35318350     0.09999685
O      3.84477099     4.48659472     3.20114402
O      1.95672886     5.57665308     6.35238848
O      1.93595559     5.58864923     1.68070743
O      1.97964472     3.30601976     4.86748606
O      3.98361434     4.40641700     7.74263938
O      5.80789581     3.35318350     0.09999685
O      7.74321250     4.46656342     3.23011261
O      5.95281731     5.36041104     6.37509676
O      5.80789000     5.58864923     1.68070743
O      5.70917740     3.41017548     4.72102966
O      8.26525580     4.78566473     8.24920911
O     -3.87192860     6.70637706     0.09999685
O     -1.93239301     7.82203910     3.22619024
O     -3.87123273     8.94143643     6.41550979
O     -3.87192860     8.94183273     1.68070743
O     -3.87218125     6.71734015     4.83167077
O     -1.88077255     7.79223387     7.96294369
O     -0.00000581     6.70637706     0.09999685
O      1.96840156     7.85496965     3.25488793
O      0.03039277     8.85663015     6.28954590
O     -0.00000581     8.94183273     1.68070743
O      0.03925712     6.68371268     4.76881030
O      1.97166903     7.76531005     7.97472636
O      3.87192860     6.70637706     0.09999685
O      5.80209841     7.84864229     3.22713177
O      3.87806382     8.92859053     6.39269559
O      3.87192860     8.94183273     1.68070743
O      3.93461313     6.69212104     4.86749111
O      5.79451341     7.75981078     7.92335734
