90
CIF: CH2CHCH2→CH2CCH2+H.cif | data_image0
O      0.00261135     0.00382715     0.19995339
O      1.91518982     1.11245017     3.36087988
O      0.21085260     2.20944437     6.60336384
O      0.00261135     2.21285656     1.76196664
O     11.46278552     0.01424469     4.97543332
O      1.91679963     0.59607234     8.63741700
O      3.82876252     0.00382715     0.19995339
O      5.74060199     1.11119965     3.34830154
O      3.72054776     2.18579671     6.60814169
O      3.82876252     2.21285656     1.76196664
O     -1.89643668     9.93932164     4.96629809
O      5.74063968     0.99333927     8.21967055
O      7.65492518     0.00382715     0.19995339
O      9.56493894     1.10533393     3.32601426
O      7.63783701     2.16347901     6.56008315
O      7.65492518     2.21285656     1.76196664
O      1.92808217     9.94003887     4.95496336
O      9.61204318     0.96682752     8.19396944
O     -1.91046424     3.31737126     0.19995339
O     -0.00130446     4.42555772     3.33065116
O     -1.78731197     5.53763749     6.55217037
O     -1.91046998     5.52641062     1.76196664
O     -1.88218448     3.28124495     4.98242489
O      0.30550602     4.35265880     8.26119805
O      1.91568694     3.31737126     0.19995339
O      3.82327561     4.41253228     3.35112046
O      1.98655692     5.40811976     6.53783622
O      1.91568120     5.52641062     1.76196664
O      1.86654373     3.35393624     4.95391934
O      4.08926597     4.72933855     8.66772512
O      5.74184959     3.31737126     0.19995339
O      7.66334129     4.42008209     3.36068234
O      5.66874721     5.54381978     6.51058251
O      5.74184385     5.52641062     1.76196664
O      5.72775323     3.30133137     4.97801237
O      7.65473341     4.56451145     8.19435285
O     -3.82354556     6.63092532     0.19995339
O     -1.90788858     7.72227004     3.35405062
O     -3.81995654     8.86706575     6.52869137
O     -3.82354556     8.83995473     1.76196664
O     -3.80222256     6.60705825     5.01087794
O     -1.84728427     7.73306363     8.14486166
O      0.00260561     6.63092532     0.19995339
O      1.91747260     7.74783814     3.31105961
O      0.02580261     8.84740128     6.49188346
O      0.00260561     8.83995473     1.76196664
O      0.06101911     6.64009196     4.96968456
O      1.91294179     7.70923859     8.12970308
O      3.82876826     6.63092532     0.19995339
O      5.75990454     7.73000788     3.35292859
O      3.82867023     8.82282690     6.50088370
O      3.82876826     8.83995473     1.76196664
O      3.80358750     6.64766027     4.94125642
O      5.72999784     7.73850075     8.15235950
Ce     1.91568694     1.10834185     0.98097142
Ce    -0.01814389     2.18746175     4.13022065
Ce     5.72757800     9.89182959     7.36729509
Ce     5.74184959     1.10834185     0.98097142
Ce     3.83286913     2.20306224     4.22276643
Ce     3.86809088     0.02362982     7.35199838
Ce     9.56800076     1.10834185     0.98097142
Ce     7.65221759     2.21287806     4.17576853
Ce     7.66167761     0.00599271     7.34098989
Ce     0.00261135     4.42188597     0.98097142
Ce    -1.89377232     5.50915427     4.17329225
Ce     9.53634632     3.27571701     7.42531742
Ce     3.82877400     4.42188597     0.98097142
Ce     1.93375517     5.55429463     4.10148560
Ce     7.65492518     4.42188597     0.98097142
Ce     5.74223191     5.51400849     4.16774677
Ce     5.70943109     3.28325095     7.40016089
Ce    -1.91046998     7.73544003     0.98097142
Ce    -3.81748030     8.83648351     4.16786561
Ce    -3.80330002     6.60696763     7.36278795
Ce     1.91569268     7.73544003     0.98097142
Ce     0.00858601     8.85242077     4.12803401
Ce     0.01241467     6.72119877     7.30423776
Ce     5.74184385     7.73544003     0.98097142
Ce     3.83352175     8.84431412     4.13458395
Ce     3.86270812     6.68219289     7.31543468
Mn     1.42108249     3.62456130     6.76200145
C      3.44642750     4.72078494     9.92501018
C      2.23025478     3.85102766    10.02995577
C      2.00503132     2.86320493    10.89019415
H      3.14618801     5.75307504    10.21841957
H      4.16612458     4.38763002    10.71022495
H      1.03097679     4.20691248     9.06601774
H      1.97002504     1.41169566     9.17830428
H      1.04498304     2.33977815    10.95615459
H      2.77896844     2.52652910    11.59946108
