90
CIF: H+OH→H2O.cif | data_image0
O      0.00261135     0.00382715     0.19995339
O      1.92261626     1.09549285     3.33104026
O     -0.01042362     2.35414313     6.44300327
O      0.00261135     2.21285656     1.76196664
O     -0.00268045     0.03560106     4.97307963
O      1.51395848     1.67018277     8.33336513
O      3.82876252     0.00382715     0.19995339
O      5.74155694     1.10176128     3.32196975
O      3.64381087     2.21241250     6.64791805
O      3.82876252     2.21285656     1.76196664
O      3.86597468     0.01980635     4.98206453
O      5.71729864     0.96451008     8.21380982
O      7.65492518     0.00382715     0.19995339
O      9.55597019     1.10471228     3.31962908
O      7.66092640     2.18998519     6.53784404
O      7.65492518     2.21285656     1.76196664
O      7.65169006     0.00392822     4.95055774
O      9.57020659     1.09162889     8.14505652
O     -1.91046424     3.31737126     0.19995339
O      0.00602862     4.41525652     3.35330247
O     -1.81267537     5.42599755     6.59948094
O     -1.91046998     5.52641062     1.76196664
O      9.51699400     3.30560548     4.93552595
O     -0.01898182     3.55007166     8.91619278
O      1.91568694     3.31737126     0.19995339
O      3.82615825     4.42370037     3.35720245
O      2.03922516     5.46082910     6.62445200
O      1.91568120     5.52641062     1.76196664
O      1.92403072     3.25894902     4.94973343
O      4.29357346     4.77896929     8.77840342
O      5.74184959     3.31737126     0.19995339
O      7.64175192     4.45480873     3.36281569
O      5.72237080     5.58210931     6.53783722
O      5.74184385     5.52641062     1.76196664
O      5.70785047     3.29292589     4.96891661
O      7.76167928     4.48231528     8.22049015
O     -3.82354556     6.63092532     0.19995339
O     -1.91577696     7.73587126     3.35274580
O     -3.81437352     9.02395772     6.59888436
O     -3.82354556     8.83995473     1.76196664
O     -3.77121594     6.67416607     5.06170410
O     -1.99893297     7.78683649     8.19917184
O      0.00260561     6.63092532     0.19995339
O      1.92528178     7.73062408     3.33858425
O      0.01338713     8.82988663     6.50505294
O      0.00260561     8.83995473     1.76196664
O      0.03501992     6.61633036     4.95598396
O      2.02893968     7.86532934     8.19787550
O      3.82876826     6.63092532     0.19995339
O      5.77128315     7.73752512     3.36238135
O      3.84712675     8.86467962     6.48922356
O      3.82876826     8.83995473     1.76196664
O      3.82850129     6.65387421     4.96032052
O      5.77537479     7.82794646     8.15618451
Ce     1.91568694     1.10834185     0.98097142
Ce    -0.03667118     2.21643476     4.09273098
Ce    11.41243483     0.02142701     7.33130457
Ce     5.74184959     1.10834185     0.98097142
Ce     3.85388293     2.21053915     4.13260558
Ce    -1.80449281     9.88307727     7.34435652
Ce     9.56800076     1.10834185     0.98097142
Ce     7.62822802     2.21888550     4.14810398
Ce     1.91784347     9.93675950     7.32970820
Ce     0.00261135     4.42188597     0.98097142
Ce    -1.89226543     5.52613733     4.18335133
Ce     9.45893068     3.28856463     7.32436061
Ce     3.82877400     4.42188597     0.98097142
Ce     1.93574491     5.52441566     4.22622908
Ce     7.65492518     4.42188597     0.98097142
Ce     5.74157577     5.52967239     4.18934456
Ce     5.73030787     3.32136142     7.44832273
Ce    -1.91046998     7.73544003     0.98097142
Ce    -3.81249788     8.86251132     4.16922574
Ce    -3.81085639     6.65314766     7.38997205
Ce     1.91569268     7.73544003     0.98097142
Ce     0.01873542     8.82226107     4.13497824
Ce     0.10911528     6.64780211     7.38520613
Ce     5.74184385     7.73544003     0.98097142
Ce     3.82946026     8.83981148     4.13252176
Ce     3.83005393     6.68850291     7.36599833
Mn     1.83527631     2.69076139     6.77042967
C      3.25951104     7.05964922    11.16941285
C      3.08108409     6.00114141    10.41087723
C      3.73093160     4.72274965    10.07324502
H      2.61202439     7.93891504    11.09857951
H      4.08658326     7.11199579    11.89567201
H     -0.07033378     3.71144488     9.87433028
H      0.72066328     2.60142536     8.75439751
H      3.01143848     3.88107878    10.15464590
H      4.52898478     4.53794454    10.83482046
