84
CIF: 1-NH3-NH2+H_ts.cif | data_image0
Ce    11.57689110     0.01939219     8.75989879
Ce     1.94300339     1.10128271     5.62751690
Ce     0.00000000     2.23543938     2.47426506
Ce     3.96826766     0.00067787     8.85908929
Ce     5.80317723     1.11223852     5.61935702
Ce     3.87189458     2.23543938     2.47426506
Ce     7.69392197     0.06092019     8.83809398
Ce     9.67653306     1.12018891     5.62301409
Ce     7.74390532     2.23543938     2.47426506
Ce     9.60228028     3.31324784     8.81692486
Ce     0.01386143     4.45366475     5.59745910
Ce    -1.93600537     5.58869904     2.47426506
Ce     1.94184098     3.19125773     8.78634584
Ce     3.86330060     4.48405374     5.65995743
Ce     1.93588921     5.58869904     2.47426506
Ce     5.78707201     3.37904015     8.77821457
Ce     7.75039227     4.48782751     5.62513492
Ce     5.80789995     5.58869904     2.47426506
Ce    -3.85433869     6.68043342     8.84284691
Ce    -1.93075543     7.82701861     5.60463034
Ce    -3.87195266     8.94185811     2.47426506
Ce     1.96155713     7.83111353     5.59171339
Ce    -0.00005808     8.94185811     2.47426506
Ce     4.00333292     6.79778993     8.79819733
Ce     5.82284991     7.83385725     5.62046291
Ce     3.87195266     8.94185811     2.47426506
Ti     0.04244804     6.69838786     8.25411859
O     11.60345241     0.01486755     6.41897594
O     -0.14058735     2.20191406     9.55628216
O      1.93594729     1.11771969     3.26466483
O     -0.00444609     2.22596536     4.79946142
O      0.00000000     0.00000000     1.68386529
O      1.93182826     1.04334765     7.99076346
O     -1.92874083     9.97946109     6.47348787
O      3.97953145     2.16932713     9.61572566
O      5.80795803     1.11771969     3.26466483
O      3.86651179     2.21521690     4.83571967
O      3.87189458     0.00000000     1.68386529
O      5.83369590     1.18075320     7.88216508
O      1.93779672     9.96559193     6.45840858
O      7.72644772     2.25690146     9.58309429
O      9.67985261     1.11771969     3.26466483
O      7.75108042     2.23845593     4.85085391
O      7.74390532     0.00000000     1.68386529
O      9.62932712     1.13901081     7.92626246
O     -1.85095573     3.39294046     6.46667782
O     -2.29523843     5.33167783     9.91225589
O      0.00000000     4.47087876     3.26466483
O     -1.94816127     5.57863460     4.80140279
O      9.67985261     3.35315907     1.68386529
O      0.08294964     4.82660552     8.09055059
O      1.89597209     3.32757879     6.40714554
O      3.87201074     4.47087876     3.26466483
O      1.96149090     5.57546964     4.81007470
O      1.93594729     3.35315907     1.68386529
O      3.81383636     4.51251030     8.05539199
O      5.76477372     3.40167360     6.41868541
O      5.92831280     5.56661897     9.61073595
O      7.74390532     4.47087876     3.26466483
O      5.82640972     5.61055460     4.83009633
O      5.80795803     3.35315907     1.68386529
O      7.74562689     4.45247371     7.91742753
O     -3.80736623     6.75115292     6.46898965
O     -3.74099832     8.84242784     9.55483246
O     -1.93600537     7.82413842     3.26466483
O     -3.86823634     8.94420583     4.80835665
O      7.74384724     6.70641873     1.68386529
O     -1.59805309     7.61412725     8.09246128
O      0.01916453     6.70540043     6.25395521
O      0.04262474     9.42609395     9.79837388
O      1.93600537     7.82413842     3.26466483
O      0.00167157     8.96025278     4.79410083
O     -0.00005808     6.70641873     1.68386529
O      1.67851135     7.58985929     8.10681536
O      3.87099045     6.76294875     6.40386205
O      3.85955445     9.08185185     9.56943087
O      5.80789995     7.82413842     3.26466483
O      3.88229626     8.95751531     4.79546826
O      3.87195266     6.70641873     1.68386529
O      5.86251551     7.87449563     7.97396094
N     -0.05665272     6.43640475    10.33634395
H     -0.04501686     7.34701859    10.81410020
H      0.48331378     5.77237957    10.89555952
H     -1.30233150     5.86576476    10.22967053
