86
CIF: 2-NH2+H+NO-NH2NO+H_ts.cif | data_image0
Ce    11.56655323     0.00514895     8.78117963
Ce     1.93285710     1.09848254     5.64208533
Ce     0.00000000     2.23543938     2.47426506
Ce     3.95525683     0.01939961     8.86255169
Ce     5.80397791     1.11450348     5.62795009
Ce     3.87189458     2.23543938     2.47426506
Ce     7.69357084     0.03891189     8.82136306
Ce     9.68033869     1.11044514     5.61385630
Ce     7.74390532     2.23543938     2.47426506
Ce     9.61543057     3.26740916     8.80299803
Ce     0.00960875     4.45282679     5.60208543
Ce    -1.93600537     5.58869904     2.47426506
Ce     1.93719993     3.20536651     8.82136232
Ce     3.86118639     4.48215855     5.67342580
Ce     1.93588921     5.58869904     2.47426506
Ce     5.78930685     3.37704558     8.79201686
Ce     7.74424406     4.48273629     5.62486331
Ce     5.80789995     5.58869904     2.47426506
Ce     7.69543690     6.71075618     8.82181738
Ce    -1.92959318     7.82072662     5.60911345
Ce    -3.87195266     8.94185811     2.47426506
Ce     1.95213073     7.82555137     5.60318700
Ce    -0.00005808     8.94185811     2.47426506
Ce     3.93966188     6.78988718     8.83027476
Ce     5.80787938     7.83561819     5.62158263
Ce     3.87195266     8.94185811     2.47426506
Ti     0.05189538     6.69492485     8.26123283
O     11.60768885     0.00632042     6.41380375
O     -0.17454226     2.24858051     9.57194763
O      1.93594729     1.11771969     3.26466483
O     -0.00063830     2.22429681     4.80205012
O      0.00000000     0.00000000     1.68386529
O      1.94143586     1.05197403     8.01336521
O     -1.93488547     9.95965994     6.49056553
O      3.99168124     2.16970010     9.63369109
O      5.80795803     1.11771969     3.26466483
O      3.86472705     2.21682752     4.85343024
O      3.87189458     0.00000000     1.68386529
O      5.81953238     1.17730656     7.88438688
O      1.93246246     9.98196023     6.44196159
O      7.72956199     2.24118767     9.56361939
O      9.67985261     1.11771969     3.26466483
O      7.74515474     2.23898304     4.84518296
O      7.74390532     0.00000000     1.68386529
O      9.62686159     1.13056586     7.91749425
O     -1.86014632     3.37189498     6.45169060
O     -2.42712014     5.27338972    10.09330085
O      0.00000000     4.47087876     3.26466483
O     -1.94734398     5.58440944     4.80984702
O      9.67985261     3.35315907     1.68386529
O      0.00959310     4.83155700     8.12271284
O      1.87586518     3.33553187     6.42599175
O      3.87201074     4.47087876     3.26466483
O      1.94997198     5.57121606     4.81480331
O      1.93594729     3.35315907     1.68386529
O      3.80999450     4.49875530     8.05453731
O      5.78103541     3.40562261     6.43769447
O      5.90370444     5.56296900     9.60493150
O      7.74390532     4.47087876     3.26466483
O      5.82032786     5.60494765     4.83104280
O      5.80795803     3.35315907     1.68386529
O      7.78665761     4.48053896     7.93990754
O     -3.82441710     6.76340947     6.46306928
O     -3.75101323     8.80933783     9.55579619
O     -1.93600537     7.82413842     3.26466483
O     -3.86677503     8.94442153     4.80912956
O      7.74384724     6.70641873     1.68386529
O     -1.59330933     7.54540281     8.15624696
O      0.01477039     6.69271520     6.29529915
O      0.01483463     9.37531039     9.77948616
O      1.93600537     7.82413842     3.26466483
O     -0.00733953     8.94998144     4.80156396
O     -0.00005808     6.70641873     1.68386529
O      1.66361893     7.63608262     8.03780519
O      3.85580031     6.74881674     6.40815211
O      3.79709410     9.06426657     9.57049478
O      5.80789995     7.82413842     3.26466483
O      3.87844463     8.95160936     4.79917786
O      3.87195266     6.70641873     1.68386529
O      5.82462509     7.84337681     7.97870265
O      1.16075686     5.32434358    13.03824337
N      0.63548637     6.47428421    10.40886918
N      1.35689052     6.38101479    12.55517431
H      0.39363385     7.44340374    10.66750184
H     -0.08733875     5.85193410    10.78366988
H     -1.95915356     5.59822693    10.87526967
