86
CIF: 4-NHNO+2H-N2+H2O+H_fs.cif | data_image0
Ce    -0.00259322     0.02969035     8.76428299
Ce     1.95235057     1.09519858     5.64928389
Ce     0.00000000     2.23543938     2.47426506
Ce     3.88751401     0.08829631     8.97770770
Ce     5.81125688     1.10635812     5.65176539
Ce     3.87189458     2.23543938     2.47426506
Ce     7.78180150     0.10415354     8.80894713
Ce     9.67466384     1.12810345     5.60042653
Ce     7.74390532     2.23543938     2.47426506
Ce     9.68098838     3.29933334     8.78991467
Ce    -0.01305529     4.44292607     5.58465008
Ce    -1.93600537     5.58869904     2.47426506
Ce     1.92276009     3.35569485     8.77159321
Ce     3.85990976     4.49152245     5.65383074
Ce     1.93588921     5.58869904     2.47426506
Ce     5.78780270     3.37545587     8.78883959
Ce     7.75206393     4.47800747     5.64337736
Ce     5.80789995     5.58869904     2.47426506
Ce     7.57415590     6.74028199     8.81548272
Ce    -1.92684689     7.82980821     5.54382509
Ce    -3.87195266     8.94185811     2.47426506
Ce     1.93872292     7.84622998     5.62359080
Ce    -0.00005808     8.94185811     2.47426506
Ce     3.76284198     6.75095901     8.87349539
Ce     5.79190641     7.84238513     5.63373677
Ce     3.87195266     8.94185811     2.47426506
Ti     0.26498546     6.46331121     8.35921292
O     -5.79830612    10.05490170     6.42037167
O      0.10445474     2.20348400     9.60385276
O      1.93594729     1.11771969     3.26466483
O      0.01814410     2.21961982     4.80690413
O      0.00000000     0.00000000     1.68386529
O      1.93175738     1.13966112     7.96119475
O     -1.93157321     9.86523101     6.52437435
O      3.85386199     2.37786640     9.64180074
O      5.80795803     1.11771969     3.26466483
O      3.87409764     2.19773302     4.86687294
O      3.87189458     0.00000000     1.68386529
O      5.82891014     1.11809171     7.95450056
O      1.95758070    10.05294134     6.41680129
O      7.65548933     2.26327316     9.60379261
O      9.67985261     1.11771969     3.26466483
O      7.71977627     2.23550987     4.81503352
O      7.74390532     0.00000000     1.68386529
O      9.69860694     1.13141988     7.93486248
O      9.66383346     3.35423348     6.34673094
O     -2.84944047     5.14337977    10.75108964
O      0.00000000     4.47087876     3.26466483
O     -1.94793098     5.60648002     4.79725467
O     -1.93594729     3.35315907     1.68386529
O     -0.05975285     4.58363240     7.91757753
O      1.91197409     3.36549466     6.42768467
O      3.87201074     4.47087876     3.26466483
O      1.92476431     5.58812306     4.80876364
O      1.93594729     3.35315907     1.68386529
O      3.86222683     4.47452483     7.96209222
O      5.82305306     3.36959752     6.43795162
O      5.88730338     5.55613899     9.70539589
O      7.74390532     4.47087876     3.26466483
O      5.82793334     5.62263246     4.86530571
O      5.80795803     3.35315907     1.68386529
O      7.75415099     4.58928311     7.98531982
O     -3.76118185     6.83537311     6.51948504
O     -3.93020553     8.84202109     9.56781134
O     -1.93600537     7.82413842     3.26466483
O     -3.87162337     8.94262974     4.78805360
O     -3.87195266     6.70641873     1.68386529
O     -1.36132073     7.04997924     8.88341414
O     -0.00706456     6.70234663     6.41550298
O      0.16233909     9.63956648    10.26339425
O      1.93600537     7.82413842     3.26466483
O      0.00322338     8.94307210     4.79930686
O     -0.00005808     6.70641873     1.68386529
O      1.62678574     7.86992649     8.06761620
O      3.79423272     6.75585156     6.42541807
O      3.83004872     9.11395930     9.60579006
O      5.80789995     7.82413842     3.26466483
O      3.88101664     8.94859788     4.80270448
O      3.87195266     6.70641873     1.68386529
O      5.77428610     7.82693841     7.96691089
O      1.65645200     5.59325742     9.48436727
N     -0.32923315     6.18716917    12.23036932
N      0.72262554     6.52520876    12.38533346
H      0.27078402     9.29462447    11.16443234
H     -2.22291742     5.55404229    11.38219280
H      7.99674225     4.80000110    11.24873910
