82
CIF: O2.cif | data_image0
Ce    -5.80640768    10.05701913     8.78942626
Ce     1.93700912     1.11620001     5.59539087
Ce     0.00000000     2.23543938     2.47426506
Ce     3.84111012     0.00169525     8.74640596
Ce     5.81135539     1.11487609     5.62396706
Ce     3.87189458     2.23543938     2.47426506
Ce     1.97781315    10.02255406     8.73737533
Ce     9.68850071     1.11144355     5.60506133
Ce     7.74390532     2.23543938     2.47426506
Ce    -1.88412020     3.33043607     8.73706596
Ce     0.00591299     4.46011072     5.66605455
Ce    -1.93600537     5.58869904     2.47426506
Ce     1.92585222     3.26893009     8.74318544
Ce     3.88049629     4.46557470     5.63161767
Ce     1.93588921     5.58869904     2.47426506
Ce     5.82891397     3.34113659     8.77818276
Ce     7.74782075     4.46771518     5.62379877
Ce     5.80789995     5.58869904     2.47426506
Ce     7.72841458     6.73118838     8.74573139
Ce    -1.94716083     7.82964877     5.60888949
Ce    -3.87195266     8.94185811     2.47426506
Ce     1.94641135     7.82143417     5.66748929
Ce    -0.00005808     8.94185811     2.47426506
Ce     3.93814077     6.75444232     8.74264847
Ce     5.80903514     7.82310437     5.59530959
Ce     3.87195266     8.94185811     2.47426506
Ti    -0.37208361     6.92426396     8.64177267
O     -5.80570943    10.05771486     6.40190029
O     -0.00839828     2.17542169     9.59880037
O      1.93594729     1.11771969     3.26466483
O     -0.00027737     2.24646516     4.81655665
O      0.00000000     0.00000000     1.68386529
O      1.92364811     1.10167986     7.94769447
O      3.87859739     0.03830746     6.39767297
O      3.87620662     2.19895355     9.55096039
O      5.80795803     1.11771969     3.26466483
O      3.89130685     2.24047562     4.79868779
O      3.87189458     0.00000000     1.68386529
O      5.82988113     1.08914211     8.00074116
O      7.74300344     0.01638842     6.41604314
O      7.77541760     2.21466814     9.54839702
O      9.67985261     1.11771969     3.26466483
O      7.74104196     2.23553586     4.80678219
O      7.74390532     0.00000000     1.68386529
O      9.68636127     1.11208799     7.95145815
O      9.66178554     3.34270159     6.41466125
O     -1.80522030     5.82605631     9.32235055
O      0.00000000     4.47087876     3.26466483
O     -1.89813453     5.60419295     4.83824252
O     -1.93594729     3.35315907     1.68386529
O      0.03299085     4.28789249     7.93560300
O      1.98031453     3.32859103     6.39723751
O      3.87201074     4.47087876     3.26466483
O      1.89017815     5.61445297     4.86186567
O      1.93594729     3.35315907     1.68386529
O      3.87791773     4.46682311     8.00028088
O      5.81969422     3.34608157     6.44940488
O      5.84185917     5.60143611     9.55005816
O      7.74390532     4.47087876     3.26466483
O      5.81211954     5.56998055     4.79965115
O      5.80795803     3.35315907     1.68386529
O      7.77998894     4.46424550     8.00217631
O      7.71568480     6.68023642     6.39858317
O     -3.90222830     8.95807993     9.58518881
O     -1.93600537     7.82413842     3.26466483
O     -3.86506886     8.93714472     4.80466266
O     -3.87195266     6.70641873     1.68386529
O     -2.08175484     7.91035353     7.88607326
O     -0.06067205     6.73833145     6.71499429
O     -0.13852767     8.71246572     9.32693001
O      1.93600537     7.82413842     3.26466483
O      0.00424195     8.89962426     4.83915733
O     -0.00005808     6.70641873     1.68386529
O      2.09929998     7.87816722     7.94048835
O      3.91277938     6.68090753     6.39865480
O      3.91579744     8.97391355     9.59548523
O      5.80789995     7.82413842     3.26466483
O      3.86179423     8.93488628     4.81685915
O      3.87195266     6.70641873     1.68386529
O      5.81569171     7.84065857     7.94700518
O      2.06451755     5.51256018     9.59028780
O      0.86721699     6.18782685     9.97488319
