85
CIF: Rh-Sc-CeO2-O-CO.cif | data_image0
Ce     1.93038582     1.11050507     0.88387043
Ce    -0.00397053     2.23124607     4.03802215
Ce    -5.76837132    10.04562727     7.19561036
Ce     5.81181033     1.12175166     0.90127712
Ce     3.85569841     2.22039428     3.99840168
Ce    -1.94483335    10.03855053     7.19073559
Ce     9.66901012     1.12377363     0.90450652
Ce     7.72337352     2.25301955     4.07429075
Ce     1.99603147     9.98265091     7.23801885
Ce    -0.00709724     4.47602159     0.89067279
Ce    -1.94368355     5.59115223     4.06340455
Ce    -1.80924082     3.34304343     7.25015855
Ce     3.86254305     4.47635356     0.87798423
Ce     1.94466221     5.59587993     4.05580019
Ce     1.96200751     3.34132682     7.18207810
Ce     7.74213807     4.46545905     0.90125422
Ce     5.80500936     5.61317881     4.02952629
Ce    -1.94645625     7.83004003     0.90010904
Ce    -3.86606528     8.93928591     4.02770935
Ce    -3.85009377     6.74573017     7.21478718
Ce     1.92815559     7.82745473     0.89060408
Ce    -0.00420021     8.95292830     4.05187085
Ce     0.01247391     6.71538351     7.20648033
Ce     5.81127600     7.83258510     0.88371011
Ce     3.87817591     8.94221329     4.05910913
Ce     3.89638821     6.68651882     7.27100151
Sc     5.42843614     3.53986313     6.80517420
Rh     7.11954998     2.62395496     8.55239180
O     11.61334069     0.00154917     0.10141687
O      1.92127797     1.11725035     3.21337737
O      0.05412126     2.22994845     6.38541839
O     -0.00785227     2.23805103     1.69392277
O     -5.79162802    10.05844131     4.84547449
O      1.99187588     1.09315230     7.98697587
O     -1.93899312    10.05733740     0.10496691
O      5.82019030     1.11744183     3.23858114
O      3.96359535     2.15028681     6.36223689
O      3.86763657     2.23577757     1.68132582
O     -1.94366376    10.04391554     4.81476367
O      6.02832721     0.99959764     8.38989638
O      7.73821774     0.00761509     0.10924988
O      9.67208818     1.12644462     3.24601325
O      7.55037231     2.35827300     6.62138706
O      7.74357843     2.23531483     1.71563532
O      7.75676159     0.06519000     4.89599157
O      9.76732154     1.09959783     7.98993569
O      9.67032270     3.35425987     0.10911246
O     -0.01225326     4.46915902     3.26040675
O     -1.96366220     5.57753026     6.43849684
O     -1.94403436     5.59119430     1.70564938
O      9.64194834     3.31127777     4.90358811
O      0.03447731     4.45622347     8.02779195
O      1.92738314     3.35244915     0.09928684
O      3.84497572     4.48431234     3.19966903
O      1.86439934     5.58101081     6.36683111
O      1.92862022     5.59252216     1.67404250
O      1.96873338     3.33581083     4.84314289
O      5.81155478     3.35101064     0.10766953
O      7.75292034     4.46940675     3.25202513
O      5.94101112     5.49300359     6.43786628
O      5.80528807     5.59217007     1.68114259
O      5.74693312     3.38235870     4.75203102
O      8.03885476     4.34345995     8.41655039
O     -3.87155109     6.71022987     0.10512724
O     -1.93681605     7.81626598     3.23041891
O     -3.82121716     8.94514520     6.37515071
O     -3.87509971     8.94378428     1.69355631
O     -3.86693304     6.72408099     4.85217268
O     -1.93232309     7.84288781     8.00380209
O     -0.01209783     6.71325780     0.10434852
O      1.93233035     7.84116406     3.25850569
O     -0.01871067     9.01106288     6.41046823
O     -0.00628994     8.94736548     1.70514550
O     -0.03242379     6.73626185     4.86700023
O      1.82889972     7.86096886     8.03974113
O      3.86815347     6.71410280     0.09951587
O      5.81046059     7.83598949     3.22258569
O      3.90292004     8.96357437     6.39893524
O      3.86556896     8.94715423     1.69389986
O      3.90292216     6.68967484     4.82844683
O      5.98434763     7.87264284     8.02861068
O      3.83932901     4.33047748     7.86915467
O      6.53960569     2.98191767    10.64070482
O      6.44563962     2.03502809    12.79069356
C      6.49610037     2.48778708    11.71230725
