84
CIF: Rh-Sc-CeO2-CO.cif | data_image0
Ce     1.93038582     1.11050507     0.88387043
Ce    -0.00837732     2.23046525     4.03627540
Ce    -5.77760943    10.04191421     7.20993308
Ce     5.81181033     1.12175166     0.90127712
Ce     3.85150134     2.22695906     4.01658280
Ce    -1.91162774    10.05099873     7.22775197
Ce     9.66901012     1.12377363     0.90450652
Ce     7.71713845     2.25068843     4.10637863
Ce     1.97753383     9.99031583     7.22464084
Ce    -0.00709724     4.47602159     0.89067279
Ce    -1.94594559     5.59093538     4.05117193
Ce    -1.85533641     3.35151610     7.22460265
Ce     3.86254305     4.47635356     0.87798423
Ce     1.92542901     5.59455493     4.03039522
Ce     1.91179375     3.34630819     7.18160150
Ce     7.74213807     4.46545905     0.90125422
Ce     5.80491017     5.61040463     4.01653617
Ce    -1.94645625     7.83004003     0.90010904
Ce    -3.86876662     8.93991629     4.05831926
Ce    -3.85247795     6.68936193     7.22770604
Ce     1.92815559     7.82745473     0.89060408
Ce    -0.00709342     8.94907390     4.05105754
Ce    -0.00095254     6.70679213     7.18542287
Ce     5.81127600     7.83258510     0.88371011
Ce     3.87197082     8.95136269     4.03632144
Ce     3.86567907     6.73049138     7.18162112
Sc     5.32182705     3.63366306     6.83366215
Rh     6.96215164     2.68664866     8.45320712
O     11.61334069     0.00154917     0.10141687
O      1.92716033     1.11258666     3.22598774
O      0.03033491     2.22774467     6.38462519
O     -0.00785227     2.23805103     1.69392277
O     -5.79824848    10.05381833     4.85717229
O      1.96271596     1.10524693     7.98592313
O     -1.93899312    10.05733740     0.10496691
O      5.80687625     1.12356166     3.25241676
O      3.88720474     2.22999943     6.39932940
O      3.86763657     2.23577757     1.68132582
O      3.86683695     0.00315418     4.86465983
O      5.94240243     0.89119169     8.18862288
O      7.73821774     0.00761509     0.10924988
O      9.67197168     1.12210239     3.24928300
O      7.66889410     2.27845989     6.54120514
O      7.74357843     2.23531483     1.71563532
O      7.75136200     0.03021825     4.87542818
O      9.74762739     1.07844407     7.97642799
O      9.67032270     3.35425987     0.10911246
O     -0.01147602     4.46596253     3.23796703
O     -1.92611945     5.59579672     6.39320816
O     -1.94403436     5.59119430     1.70564938
O      9.65712572     3.33135586     4.87543819
O      0.03814488     4.46718021     7.98993182
O      1.92738314     3.35244915     0.09928684
O      3.84596829     4.48587288     3.20522384
O      1.89097271     5.61452499     6.34551536
O      1.92862022     5.59252216     1.67404250
O      1.93938479     3.34956983     4.84073882
O      3.78341954     4.52188141     7.85965028
O      5.81155478     3.35101064     0.10766953
O      7.73800000     4.46860885     3.25229455
O      5.82015180     5.57790439     6.39927475
O      5.80528807     5.59217007     1.68114259
O      5.74076701     3.39178817     4.79411182
O      8.00720279     4.46743079     8.18845128
O     -3.87155109     6.71022987     0.10512724
O     -1.94904027     7.83160709     3.24035252
O     -3.84588141     8.92661875     6.41898151
O     -3.87509971     8.94378428     1.69355631
O      7.73844839     6.70899905     4.86459654
O     -1.92847265     7.81966722     7.99614163
O     -0.01209783     6.71325780     0.10434852
O      1.93439421     7.83623531     3.23781455
O     -0.00138163     8.92953961     6.39318985
O     -0.00628994     8.94736548     1.70514550
O     -0.02174716     6.71879161     4.82924852
O      1.95812719     7.79273401     7.98998452
O      3.86815347     6.71410280     0.09951587
O      5.80790013     7.83417473     3.22577773
O      3.89366900     8.91918082     6.38470490
O      3.86556896     8.94715423     1.69389986
O      3.87670229     6.70509528     4.84071637
O      5.83198031     7.80685640     7.98594918
O      5.71637639     3.40908556    11.07602054
C      6.22288064     3.11474266    10.06944344
