84
CIF: Rh-Sc-CeO2-Ov-CO2.cif | data_image0
Ce     1.93038582     1.11050507     0.88387043
Ce    -0.01425221     2.22330617     4.06177303
Ce    -5.60848151     9.94471685     7.17695956
Ce     5.81181033     1.12175166     0.90127712
Ce     3.81979889     2.21412887     4.00517675
Ce    -1.86233050    10.02676864     7.23075693
Ce     9.66901012     1.12377363     0.90450652
Ce     7.73404666     2.24114086     4.04105039
Ce     1.91037110     9.99196476     7.28213972
Ce    -0.00709724     4.47602159     0.89067279
Ce    -1.93354093     5.57341663     4.04873399
Ce    -1.88984190     3.40950630     7.28227262
Ce     3.86254305     4.47635356     0.87798423
Ce     1.94613963     5.58272638     4.09285366
Ce     1.85646255     3.25805557     7.25635004
Ce     7.74213807     4.46545905     0.90125422
Ce     5.80021435     5.64435851     4.00552761
Ce    -1.94645625     7.83004003     0.90010904
Ce    -3.84195998     8.92456186     4.02589088
Ce    -3.80678419     6.65906593     7.23097336
Ce     1.92815559     7.82745473     0.89060408
Ce     0.01438324     8.94729768     4.04858952
Ce     0.03486218     6.68647402     7.23231033
Ce     5.81127600     7.83258510     0.88371011
Ce     3.87538432     8.96047537     4.06173006
Ce     3.91468032     6.82332822     7.25596675
Sc     5.59530570     3.47585032     6.59830354
Rh     7.04687167     2.63798687     8.52430717
O     11.61334069     0.00154917     0.10141687
O      1.92221446     1.10062963     3.20998681
O     -0.06660187     2.10216577     6.52304832
O     -0.00785227     2.23805103     1.69392277
O     -5.75592769    10.02955139     4.84888531
O      2.04051529     0.92370780     8.02894636
O     -1.93899312    10.05733740     0.10496691
O      5.81772351     1.09079950     3.23060819
O      3.97145290     2.29379012     6.38488759
O      3.86763657     2.23577757     1.68132582
O      3.87695601     0.02178501     4.84551977
O      5.92066348     0.88347726     8.29629191
O      7.73821774     0.00761509     0.10924988
O      9.68111717     1.11703476     3.24545264
O      7.38812033     2.44111030     6.53498045
O      7.74357843     2.23531483     1.71563532
O      7.77526303     0.05894053     4.90261558
O      9.14048475     1.42948592     8.22559241
O      9.67032270     3.35425987     0.10911246
O     -0.01937735     4.46277492     3.25259015
O     -1.94933139     5.59371186     6.37485098
O     -1.94403436     5.59119430     1.70564938
O      9.64448146     3.29666675     4.90271732
O     -0.06981328     4.53522960     8.04772666
O      1.92738314     3.35244915     0.09928684
O      3.81546343     4.50366707     3.22872512
O      2.04275114     5.52728450     6.46875343
O      1.92862022     5.59252216     1.67404250
O      1.87768511     3.29497693     4.83373999
O      4.45370207     4.13320809     8.61041496
O      5.81155478     3.35101064     0.10766953
O      7.77193204     4.47584655     3.23055033
O      5.80646593     5.47278689     6.38552648
O      5.80528807     5.59217007     1.68114259
O      5.76557608     3.37757734     4.60004353
O      8.00342054     4.49066223     8.29649297
O     -3.87155109     6.71022987     0.10512724
O     -1.91733081     7.81320475     3.25188532
O     -3.78352044     8.89097290     6.35488724
O     -3.87509971     8.94378428     1.69355631
O      7.72717365     6.69101826     4.84592986
O     -1.89613528     7.80116578     7.99535078
O     -0.01209783     6.71325780     0.10434852
O      1.93331575     7.84484460     3.25241952
O     -0.01101056     8.95120670     6.37469690
O     -0.00628994     8.94736548     1.70514550
O      0.03900578     6.68391820     4.88617272
O      1.84538680     7.85309814     8.04758929
O      3.86815347     6.71410280     0.09951587
O      5.81594023     7.84453443     3.20978981
O      3.95417844     9.06671809     6.52314449
O      3.86556896     8.94715423     1.69389986
O      3.89337830     6.78639542     4.83362830
O      6.02833617     7.83094951     8.02876082
O      5.83316277     3.33797312    10.32672945
C      5.44217427     3.56347573     9.16967620
