83
CIF: O2—Olatt+Osur.cif | data_image0
Ce     1.93038582     1.11050507     0.88387043
Ce    -0.01045525     2.23312396     4.01389940
Ce     0.00869782     0.00484869     7.22250353
Ce     5.81181033     1.12175166     0.90127712
Ce     3.82018644     2.19977471     3.99716798
Ce    -1.95797510    10.01327492     7.29724619
Ce     9.66901012     1.12377363     0.90450652
Ce     7.75290457     2.22583613     4.05932921
Ce     1.99188589    10.00945752     7.28535820
Ce    -0.00709724     4.47602159     0.89067279
Ce    -1.94719615     5.58038785     4.08737312
Ce    -1.83932781     3.31983206     7.23784478
Ce     3.86254305     4.47635356     0.87798423
Ce     1.94813053     5.58395982     4.06787422
Ce     1.82252593     3.28292075     7.21641622
Ce     7.74213807     4.46545905     0.90125422
Ce     5.80993771     5.65691046     3.99087151
Ce    -1.94645625     7.83004003     0.90010904
Ce    -3.86934878     8.93663921     4.09063856
Ce    -3.85298340     6.71006775     7.32395130
Ce     1.92815559     7.82745473     0.89060408
Ce     0.00050042     8.95131649     4.09688424
Ce    -0.00827391     6.70574418     7.25367970
Ce     5.81127600     7.83258510     0.88371011
Ce     3.85854158     8.95846607     4.03321964
Ce     3.85262262     6.86823419     7.24523522
Cr     5.13338004     3.76352911     6.57817191
Os     6.46613705     2.97970087     8.05654831
O     11.61334069     0.00154917     0.10141687
O      1.92729047     1.11054189     3.21295859
O      0.00924874     2.25621474     6.34238635
O     -0.00785227     2.23805103     1.69392277
O     -0.00288314     0.00867765     4.83040354
O      1.83256583     1.20860118     8.03983805
O     -1.93899312    10.05733740     0.10496691
O      5.79908894     1.15630692     3.25249537
O      3.87197481     2.40906350     6.40766580
O      3.86763657     2.23577757     1.68132582
O      3.85467065     0.04244561     4.84599968
O      5.89106677     1.22465568     8.32977993
O      7.73821774     0.00761509     0.10924988
O      9.67282278     1.12694105     3.21977395
O      7.74723919     2.27390032     6.63984858
O      7.74357843     2.23531483     1.71563532
O      7.75629549     0.06385796     4.83626506
O      9.86379831     1.16288216     8.05659433
O      9.67032270     3.35425987     0.10911246
O     -0.01801084     4.47822602     3.24281395
O     -1.90696914     5.50714507     6.41310925
O     -1.94403436     5.59119430     1.70564938
O      9.63327729     3.30066785     4.86424909
O      0.02630935     4.42672997     8.04459633
O      1.92738314     3.35244915     0.09928684
O      3.88369325     4.46984612     3.23788189
O      2.10808686     5.47184004     6.48890944
O      1.92862022     5.59252216     1.67404250
O      1.91170780     3.33607769     4.81439888
O      5.81155478     3.35101064     0.10766953
O      7.71374352     4.45838408     3.24926226
O      5.62386482     5.51243108     6.39308381
O      5.80528807     5.59217007     1.68114259
O      5.79474543     3.37120186     4.93189250
O      7.84013144     4.32602313     8.24969747
O     -3.87155109     6.71022987     0.10512724
O     -1.92824188     7.81301379     3.28719008
O     -3.90713229     8.94844752     6.43175924
O     -3.87509971     8.94378428     1.69355631
O      7.70288511     6.68201492     4.85844483
O     -1.79728507     7.71976459     8.10127872
O     -0.01209783     6.71325780     0.10434852
O      1.91590034     7.82837144     3.24400682
O      0.02728309     8.92826897     6.40779610
O     -0.00628994     8.94736548     1.70514550
O      0.04747169     6.66665947     4.90930219
O      1.95556287     7.70806853     8.07783247
O      3.86815347     6.71410280     0.09951587
O      5.80879036     7.83383104     3.21959806
O      3.88833822     8.94782670     6.37833590
O      3.86556896     8.94715423     1.69389986
O      3.85792294     6.74903970     4.82335584
O      5.67541913     7.87033743     8.06857326
O      4.12036797     4.37717315     8.25287625
O      5.20270941     3.90289693     9.19912743
