84
CIF: 1-NH3-NH2+H_is.cif | data_image0
Ce     5.80710908    10.05638466     8.79684650
Ce     1.93224403     1.08997382     5.58627161
Ce     0.00000000     2.23543938     2.47426506
Ce    -1.90060806    10.00001021     8.79594890
Ce     5.78538612     1.11902893     5.61831214
Ce     3.87189458     2.23543938     2.47426506
Ce     7.66949074     0.05060085     8.82025365
Ce     9.66766276     1.12263603     5.65104839
Ce     7.74390532     2.23543938     2.47426506
Ce     9.59534693     3.38663127     8.81916089
Ce    -0.01620139     4.45535473     5.62394877
Ce    -1.93600537     5.58869904     2.47426506
Ce     1.88641833     3.15011088     8.70310398
Ce     3.83622332     4.48920592     5.61739561
Ce     1.93588921     5.58869904     2.47426506
Ce     5.76694847     3.37270117     8.78348682
Ce     7.72927578     4.48642971     5.61789364
Ce     5.80789995     5.58869904     2.47426506
Ce    -3.80691418     6.70011640     8.79483863
Ce    -1.92494260     7.81530216     5.67414332
Ce    -3.87195266     8.94185811     2.47426506
Ce     1.93915979     7.84265273     5.62371568
Ce    -0.00005808     8.94185811     2.47426506
Ce     4.01926130     6.84559040     8.70226530
Ce     5.82792923     7.83825786     5.58618398
Ce     3.87195266     8.94185811     2.47426506
Cu     0.46110556     6.43649970     8.23292040
O     11.59277208     0.01158988     6.42185288
O      0.03191138     2.17938087     9.59634565
O      1.93594729     1.11771969     3.26466483
O     -0.01048575     2.23098378     4.80881037
O      0.00000000     0.00000000     1.68386529
O      1.92367652     1.06491022     7.94086964
O     -1.93486889    10.05312618     6.41055044
O      3.83884104     2.23979188     9.52635390
O      5.80795803     1.11771969     3.26466483
O      3.86124946     2.23978863     4.80209708
O      3.87189458     0.00000000     1.68386529
O      5.80233292     1.17591048     7.89672137
O      1.93356347    10.02455538     6.45462294
O      7.65946770     2.28016395     9.57910652
O      9.67985261     1.11771969     3.26466483
O      7.72042829     2.24711258     4.85190717
O      7.74390532     0.00000000     1.68386529
O      9.64475348     1.13535821     8.01120115
O     -1.90920047     3.36924577     6.45306401
O     -2.35468225     5.32747809     9.80506542
O      0.00000000     4.47087876     3.26466483
O     -1.93551157     5.57860252     4.82265140
O     -1.93594729     3.35315907     1.68386529
O      0.06116877     4.50273889     8.08462853
O      1.92584306     3.30535552     6.41553841
O      3.87201074     4.47087876     3.26466483
O      1.95636650     5.57564456     4.81696283
O      1.93594729     3.35315907     1.68386529
O      3.58824782     4.63232353     8.16456971
O      5.67437826     3.42717184     6.47371655
O      5.78469072     5.61084078     9.52410918
O      7.74390532     4.47087876     3.26466483
O      5.79722665     5.59361700     4.80228084
O      5.80795803     3.35315907     1.68386529
O      7.68733803     4.44089004     7.89578426
O     -3.86793728     6.70531036     6.41068112
O     -3.88672268     8.94600210     9.60886365
O     -1.93600537     7.82413842     3.26466483
O     -3.87254960     8.94050837     4.80880596
O     -3.87195266     6.70641873     1.68386529
O     -1.96484576     7.83800087     7.99209087
O      0.05480811     6.67294105     6.35271405
O      0.01414574     9.42857938     9.80644159
O      1.93600537     7.82413842     3.26466483
O      0.00808340     8.94399213     4.82282105
O     -0.00005808     6.70641873     1.68386529
O      1.93479811     7.74990460     8.08543006
O      3.90538467     6.73598254     6.41557976
O      3.93268270     8.93766755     9.59553364
O      5.80789995     7.82413842     3.26466483
O      3.86963108     8.95129159     4.80917461
O      3.87195266     6.70641873     1.68386529
O      5.84352134     7.85774579     7.93980395
N      0.08840821     6.64823041    10.16350720
H     -0.85425526     6.18812174    10.24612217
H      0.01714079     7.69428211    10.24957637
H      0.70642909     6.28838586    10.89359834
