89
CIF: CH2COCH2→CH2+CH2CO.cif | data_image0
O      0.00261135     0.00382715     0.19995339
O      1.92307389     1.11186931     3.34715353
O      0.09805662     2.27670602     6.61714097
O      0.00261135     2.21285656     1.76196664
O     -0.01219674     0.03848812     4.99456408
O      1.94071327     1.03918568     8.04456378
O      3.82876252     0.00382715     0.19995339
O      5.74269595     1.10254228     3.33722449
O      3.80341143     2.29163695     6.62567946
O      3.82876252     2.21285656     1.76196664
O      3.84594201     0.03397547     5.00791119
O      5.76684401     1.08565540     8.16958450
O      7.65492518     0.00382715     0.19995339
O      9.57182785     1.11209115     3.33166495
O      7.68743886     2.21565793     6.54504819
O      7.65492518     2.21285656     1.76196664
O      7.65497075     0.01532957     4.97312539
O      9.59761468     1.07894894     8.15689598
O     -1.91046424     3.31737126     0.19995339
O      0.02871899     4.40807737     3.35723666
O     -1.96068777     5.57664938     6.43935138
O     -1.91046998     5.52641062     1.76196664
O     -1.87571425     3.29829205     4.98685069
O      1.91568694     3.31737126     0.19995339
O      3.81454150     4.40772086     3.36654963
O      1.97007376     5.66397200     6.54447039
O      1.91568120     5.52641062     1.76196664
O      1.93275629     3.26746926     5.06427155
O      4.68226462     4.74126462     9.02449895
O      5.74184959     3.31737126     0.19995339
O      7.65603579     4.41149147     3.34420743
O      5.63594150     5.47890207     6.55786841
O      5.74184385     5.52641062     1.76196664
O      5.75771592     3.28543519     4.97689355
O      7.67305233     4.45257029     8.13601423
O     -3.82354556     6.63092532     0.19995339
O     -1.92328945     7.74856914     3.35889997
O     -3.82693203     8.80005699     6.49327124
O     -3.82354556     8.83995473     1.76196664
O      7.59238437     6.61538293     4.96396272
O     -1.94697361     7.75927696     8.16077963
O      0.00260561     6.63092532     0.19995339
O      1.91450617     7.73622833     3.35114283
O      0.02677017     8.81424883     6.53600607
O      0.00260561     8.83995473     1.76196664
O     -0.00002497     6.62196215     4.96124147
O      1.96242615     7.79962969     8.23931576
O      3.82876826     6.63092532     0.19995339
O      5.74279690     7.75653971     3.33252035
O      3.81023390     8.83664451     6.50780068
O      3.82876826     8.83995473     1.76196664
O      3.85365873     6.66218156     4.94493483
O      5.72008771     7.77315032     8.14196958
O     -0.48772292     4.71727832     8.40015724
O      2.15917817     3.80555243     8.66774409
Ce     1.91568694     1.10834185     0.98097142
Ce    -0.00172474     2.22472524     4.14950606
Ce     5.71037246     9.92626091     7.34640752
Ce     5.74184959     1.10834185     0.98097142
Ce     3.84995365     2.21075841     4.14659086
Ce    -1.86589945     9.87948277     7.34482649
Ce     9.56800076     1.10834185     0.98097142
Ce     7.67190807     2.20952818     4.15553459
Ce     7.67199441     0.00759532     7.36556446
Ce     0.00261135     4.42188597     0.98097142
Ce    -1.91165842     5.52362689     4.15051273
Ce    -1.87722135     3.39781370     7.40114273
Ce     3.82877400     4.42188597     0.98097142
Ce     1.91830350     5.53521746     4.22567610
Ce     7.65492518     4.42188597     0.98097142
Ce     5.72794773     5.52193277     4.15951931
Ce     5.84343591     3.27619583     7.33583283
Ce    -1.91046998     7.73544003     0.98097142
Ce    -3.83207985     8.84119749     4.15529424
Ce     7.63229944     6.63045022     7.32492287
Ce     1.91569268     7.73544003     0.98097142
Ce     0.01055716     8.83079301     4.15976230
Ce    -0.00293918     6.59088009     7.38509465
Ce     5.74184385     7.73544003     0.98097142
Ce     3.82444146     8.84756417     4.13024347
Ce     3.77742388     6.72203305     7.32961246
Mn     1.94178704     2.54429597     6.88272341
C      1.50985159     3.87899483    11.07277651
C      2.04552517     3.83892276     9.86776713
C      4.36332030     4.42640139    10.22910167
H      0.41957737     3.95200416    11.13107650
H      2.09993317     3.89440150    11.98563564
H      4.57745148     3.41139414    10.60652267
H      4.09819178     5.21073164    10.95109804
