85
CIF: 1-NH3-NH2+H_fs.cif | data_image0
Ce    11.57211201     0.00734009     8.79526423
Ce     1.91547491     1.12040353     5.60382309
Ce     0.00000000     2.23543938     2.47426506
Ce     3.75246948     0.12140640     8.75518283
Ce     5.81166340     1.10961359     5.62082879
Ce     3.87189458     2.23543938     2.47426506
Ce     2.00504653    10.03350339     8.72047257
Ce     9.68181707     1.10829263     5.57376411
Ce     7.74390532     2.23543938     2.47426506
Ce    -1.87232956     3.26563049     8.70614398
Ce     0.00498345     4.50909663     5.66099004
Ce    -1.93600537     5.58869904     2.47426506
Ce     1.91485295     3.40523823     8.77048301
Ce     3.87167886     4.47089294     5.61345365
Ce     1.93588921     5.58869904     2.47426506
Ce     5.82789021     3.33936008     8.76423486
Ce     7.75468630     4.47556069     5.62462409
Ce     5.80789995     5.58869904     2.47426506
Ce     7.56716120     6.75277593     8.76540262
Ce    -1.89412404     7.79886174     5.61859949
Ce    -3.87195266     8.94185811     2.47426506
Ce     1.90080396     7.79693388     5.65835425
Ce    -0.00005808     8.94185811     2.47426506
Ce     3.79608272     6.68578604     8.77054902
Ce     5.79202371     7.83529144     5.60394815
Ce     3.87195266     8.94185811     2.47426506
Co    -0.80960426     7.39919731     9.63824485
O      5.81113238    10.05284876     6.42370494
O     -0.06722326     2.18143502     9.62924807
O      1.93594729     1.11771969     3.26466483
O     -0.00081633     2.22933527     4.81316135
O      0.00000000     0.00000000     1.68386529
O      1.88990170     1.16027151     7.97604437
O     -1.97932012    10.01824068     6.47635109
O      3.87749221     2.23049987     9.55506304
O      5.80795803     1.11771969     3.26466483
O      3.88475562     2.21826966     4.83317506
O      3.87189458     0.00000000     1.68386529
O      5.79172561     1.04826594     8.01108245
O      7.74204273     0.02858015     6.40964403
O      7.76333204     2.21728869     9.51429173
O      9.67985261     1.11771969     3.26466483
O      7.73553282     2.23880698     4.79893601
O      7.74390532     0.00000000     1.68386529
O      9.68400351     1.09816245     7.93825096
O      9.64828623     3.32566930     6.40761367
O     -1.97493722     5.84710643     9.97068463
O      0.00000000     4.47087876     3.26466483
O     -1.99014115     5.57587274     4.81780862
O     -1.93594729     3.35315907     1.68386529
O     -0.04717640     4.33891876     7.98933048
O      1.94229540     3.36407995     6.41485587
O      2.32303945     5.33054925     9.79493013
O      3.87201074     4.47087876     3.26466483
O      1.96385470     5.56917189     4.80974265
O      1.93594729     3.35315907     1.68386529
O      3.91725431     4.44478335     7.91615145
O      5.87328752     3.33427450     6.47183349
O      5.81192080     5.58612529     9.56695793
O      7.74390532     4.47087876     3.26466483
O      5.82968445     5.58872873     4.82891974
O      5.80795803     3.35315907     1.68386529
O      7.83921417     4.54610355     8.05435946
O     -3.86604463     6.76337114     6.48431807
O     -3.96054704     8.97292640     9.55393725
O     -1.93600537     7.82413842     3.26466483
O     -3.87228683     8.93973606     4.80427298
O     -3.87195266     6.70641873     1.68386529
O     -1.88755725     7.76891124     8.20991086
O     -0.02493405     6.71687434     6.20819171
O     -0.24664849     9.01820091     9.82898241
O      1.93600537     7.82413842     3.26466483
O     -0.01757336     8.99188880     4.81596857
O     -0.00005808     6.70641873     1.68386529
O      2.02508315     7.91379625     7.98263572
O      3.86138732     6.68860519     6.41350641
O      3.86091917     9.00450564     9.63464991
O      5.80789995     7.82413842     3.26466483
O      3.87425125     8.94126056     4.81146124
O      3.87195266     6.70641873     1.68386529
O      5.73266050     7.82986446     7.97798412
N      0.35244336     6.73713340    10.84439398
H      0.83690891     7.45105921    11.39806202
H      1.06330658     6.01103228    10.48441765
H     -1.78153575     5.67659439    10.91322957
