85
CIF: 1-NH3-NH2+H_ts.cif | data_image0
Ce    11.60086898     0.01590066     8.79430090
Ce     1.92448879     1.13017405     5.60743047
Ce     0.00000000     2.23543938     2.47426506
Ce     3.77546228     0.16147132     8.75911768
Ce     5.81983730     1.11501138     5.62150971
Ce     3.87189458     2.23543938     2.47426506
Ce     2.03509170    10.04175008     8.72831136
Ce     9.69076674     1.11582617     5.57945094
Ce     7.74390532     2.23543938     2.47426506
Ce    -1.86059246     3.29227035     8.72221356
Ce     0.01030598     4.51659438     5.66150478
Ce    -1.93600537     5.58869904     2.47426506
Ce     1.92395166     3.43387111     8.77478427
Ce     3.87796480     4.47693036     5.61521064
Ce     1.93588921     5.58869904     2.47426506
Ce     5.84743393     3.34967546     8.76918363
Ce     7.75909000     4.47615830     5.62395131
Ce     5.80789995     5.58869904     2.47426506
Ce     7.58676165     6.72752961     8.77653626
Ce    -1.89577139     7.80782575     5.59723466
Ce    -3.87195266     8.94185811     2.47426506
Ce     1.90912762     7.80513377     5.66227698
Ce    -0.00005808     8.94185811     2.47426506
Ce     3.80874333     6.69513239     8.77838219
Ce     5.79928311     7.83662968     5.61217927
Ce     3.87195266     8.94185811     2.47426506
Co    -0.87716070     7.39117816     9.54771105
O     -5.78944670    10.05536209     6.43219883
O     -0.04458293     2.19555924     9.62501858
O      1.93594729     1.11771969     3.26466483
O      0.00432746     2.23278015     4.81613936
O      0.00000000     0.00000000     1.68386529
O      1.91448935     1.18065898     7.98148729
O     -1.96918469    10.03874222     6.47296155
O      3.89341653     2.25228014     9.57230415
O      5.80795803     1.11771969     3.26466483
O      3.88910270     2.22403290     4.83087513
O      3.87189458     0.00000000     1.68386529
O      5.80160091     1.04672937     8.03249487
O      7.75108023     0.04087725     6.41469051
O      7.78452367     2.22483886     9.51585369
O      9.67985261     1.11771969     3.26466483
O      7.74443334     2.24089241     4.79719002
O      7.74390532     0.00000000     1.68386529
O      9.70558966     1.11091065     7.94220874
O      9.65452232     3.33848914     6.41304907
O     -1.97513898     5.84094386     9.88232653
O      0.00000000     4.47087876     3.26466483
O     -1.98564150     5.58098169     4.81282588
O      9.67985261     3.35315907     1.68386529
O     -0.02938099     4.34791259     7.98299720
O      1.95167342     3.37531238     6.41426525
O      2.32206731     5.37855720     9.77110856
O      3.87201074     4.47087876     3.26466483
O      1.96826036     5.57686722     4.81081805
O      1.93594729     3.35315907     1.68386529
O      3.93346938     4.45255956     7.91942553
O      5.87775485     3.32718346     6.47011824
O      5.82962491     5.58462699     9.57950360
O      7.74390532     4.47087876     3.26466483
O      5.83317912     5.59015081     4.83077725
O      5.80795803     3.35315907     1.68386529
O      7.82233224     4.53604295     8.04253063
O     -3.85386559     6.76021408     6.48560210
O     -3.90854640     8.97515342     9.53460783
O     -1.93600537     7.82413842     3.26466483
O     -3.86679061     8.94189081     4.80394719
O      7.74384724     6.70641873     1.68386529
O     -1.85965856     7.82499176     8.14304714
O     -0.02431443     6.72791122     6.20935860
O     -0.19706316     8.94055828     9.85428110
O      1.93600537     7.82413842     3.26466483
O     -0.01319054     8.99657313     4.81380488
O     -0.00005808     6.70641873     1.68386529
O      2.03827134     7.93135046     7.98380909
O      3.86935299     6.69777965     6.41570304
O      3.89341175     9.01715922     9.62945054
O      5.80789995     7.82413842     3.26466483
O      3.88101852     8.94790416     4.81578175
O      3.87195266     6.70641873     1.68386529
O      5.75643920     7.82658719     7.98675576
N      0.05459119     6.43424699    10.91109140
H      0.30259793     7.04685931    11.69508574
H      0.94097035     6.00879732    10.49872594
H     -1.12945553     5.79638027    10.68081819
