87
CIF: 2-NH2+H+NO-NH2NO+H_fs.cif | data_image0
Ce     5.79026598    10.05563053     8.77910359
Ce     1.92721355     1.12515617     5.61663586
Ce     0.00000000     2.23543938     2.47426506
Ce     3.81522123     0.06008547     8.76237763
Ce     5.81040007     1.11314145     5.61247616
Ce     3.87189458     2.23543938     2.47426506
Ce     7.79419285     0.04374876     8.74787827
Ce     9.68438575     1.11852661     5.59563138
Ce     7.74390532     2.23543938     2.47426506
Ce    -1.88906631     3.29963500     8.76026335
Ce    -0.00257995     4.46437040     5.68920109
Ce    -1.93600537     5.58869904     2.47426506
Ce     1.91873806     3.37500947     8.79686409
Ce     3.86914783     4.47585874     5.62065825
Ce     1.93588921     5.58869904     2.47426506
Ce     5.81990996     3.33962938     8.74386804
Ce     7.75067728     4.47287759     5.62220473
Ce     5.80789995     5.58869904     2.47426506
Ce     7.67167051     6.70200208     8.78609922
Ce    -1.95797567     7.82663880     5.60298502
Ce    -3.87195266     8.94185811     2.47426506
Ce     1.95451427     7.81598318     5.60509937
Ce    -0.00005808     8.94185811     2.47426506
Ce     3.86255923     6.63035624     8.85731314
Ce     5.79296866     7.82325415     5.63339900
Ce     3.87195266     8.94185811     2.47426506
Co    -0.00868421     7.65402953     8.15065319
O      5.80934684    10.03929919     6.42795412
O     -0.03849305     2.15458756     9.62657480
O      1.93594729     1.11771969     3.26466483
O      0.00144813     2.23499904     4.82439860
O      0.00000000     0.00000000     1.68386529
O      1.91314303     1.12957731     7.96786497
O     -1.96276209    10.03693097     6.44718655
O      3.89748497     2.19531476     9.56028381
O      5.80795803     1.11771969     3.26466483
O      3.87732016     2.22269196     4.81866869
O      3.87189458     0.00000000     1.68386529
O      5.80635705     1.13091370     7.94441833
O      1.95497100    10.03707536     6.43010514
O      7.75632293     2.20640059     9.53421308
O      9.67985261     1.11771969     3.26466483
O      7.73817649     2.22040972     4.80464919
O      7.74390532     0.00000000     1.68386529
O      9.69989526     1.13665059     7.92550690
O      9.65280249     3.34535534     6.38692446
O     -2.28149139     5.39330317     9.95169201
O      0.00000000     4.47087876     3.26466483
O     -1.92304238     5.61058869     4.83384771
O     -1.93594729     3.35315907     1.68386529
O     -0.03981823     4.31549938     7.97601330
O      1.94579528     3.36080070     6.40816711
O      2.29477679     5.28447587     9.80037899
O      3.87201074     4.47087876     3.26466483
O      1.91107872     5.60394306     4.82760921
O      1.93594729     3.35315907     1.68386529
O      3.91598390     4.44417970     7.91068710
O      5.83656151     3.34868550     6.40570272
O      5.82595737     5.55129355     9.54630271
O      7.74390532     4.47087876     3.26466483
O      5.80989720     5.60201011     4.82528673
O      5.80795803     3.35315907     1.68386529
O      7.77216210     4.48860775     7.96316619
O     -3.86768788     6.74226138     6.45733894
O     -3.86893722     8.92528004     9.51407762
O     -1.93600537     7.82413842     3.26466483
O     -3.87776416     8.94063719     4.80765811
O     -3.87195266     6.70641873     1.68386529
O     -1.83334896     7.76125190     8.04578738
O     -0.00634348     6.77126798     6.50214011
O     -0.01211225     8.93770442     9.43786585
O      1.93600537     7.82413842     3.26466483
O     -0.00658878     8.94003983     4.81191654
O     -0.00005808     6.70641873     1.68386529
O      1.81089740     7.77240249     8.03415155
O      3.84057559     6.72811002     6.44373280
O      3.82876696     8.99515331     9.46937953
O      5.80789995     7.82413842     3.26466483
O      3.87497510     8.93916290     4.80478122
O      3.87195266     6.70641873     1.68386529
O      5.78240938     7.79175301     8.00276221
O      4.55107583     7.68286740    12.34514233
N      2.74603011     6.47047142    12.09453664
N      3.82988736     7.01224184    11.59528541
H      2.25509856     5.87118908    11.37042216
H      2.53580941     6.60240835    13.09080055
H     -1.48144201     5.86904485    10.24643711
