87
CIF: 4-NHNO+2H-N2+H2O+H_is.cif | data_image0
Ce     5.79495240    10.03739806     8.77406137
Ce     1.92811536     1.10910391     5.59887077
Ce     0.00000000     2.23543938     2.47426506
Ce     3.81877860     0.02631182     8.75065450
Ce     5.80208582     1.11013875     5.60482485
Ce     3.87189458     2.23543938     2.47426506
Ce     7.77704614     0.05313682     8.73553509
Ce     9.68587944     1.11637572     5.59522804
Ce     7.74390532     2.23543938     2.47426506
Ce    -1.89806852     3.30038301     8.74658507
Ce     0.00063574     4.45924707     5.67814472
Ce    -1.93600537     5.58869904     2.47426506
Ce     1.89218999     3.28253053     8.76189708
Ce     3.86153976     4.49219095     5.65155152
Ce     1.93588921     5.58869904     2.47426506
Ce     5.80303492     3.32880471     8.73656776
Ce     7.75110822     4.47478689     5.62175037
Ce     5.80789995     5.58869904     2.47426506
Ce     7.69646594     6.69213121     8.78651289
Ce    -1.95260427     7.81933568     5.59781736
Ce    -3.87195266     8.94185811     2.47426506
Ce     1.96875606     7.80792795     5.61926436
Ce    -0.00005808     8.94185811     2.47426506
Ce     3.93585492     6.69549319     8.98331419
Ce     5.78771313     7.81350411     5.63615060
Ce     3.87195266     8.94185811     2.47426506
Co     0.00741564     7.63389675     8.14164866
O      5.80226366    10.02635936     6.42544515
O     -0.00104740     2.13940141     9.61725662
O      1.93594729     1.11771969     3.26466483
O      0.00438067     2.22794512     4.81657937
O      0.00000000     0.00000000     1.68386529
O      1.90320211     1.10392857     7.94149745
O     -1.96187480    10.02325804     6.43782472
O      3.85405721     2.17142669     9.53158469
O      5.80795803     1.11771969     3.26466483
O      3.87947432     2.22127221     4.82042161
O      3.87189458     0.00000000     1.68386529
O      5.79580964     1.12348646     7.93137720
O      1.95422193    10.03080383     6.43052873
O      7.74541846     2.20916326     9.52085574
O      9.67985261     1.11771969     3.26466483
O      7.72822654     2.22400502     4.81496262
O      7.74390532     0.00000000     1.68386529
O      9.70705563     1.16122917     7.91347639
O      9.67046404     3.34874051     6.36783395
O     -2.28449604     5.37426403     9.96371054
O      0.00000000     4.47087876     3.26466483
O     -1.92212432     5.60849830     4.82946181
O     -1.93594729     3.35315907     1.68386529
O     -0.01587061     4.29544361     7.97916743
O      1.94543251     3.33666373     6.40084688
O      2.21750157     5.25646234     9.98356668
O      3.87201074     4.47087876     3.26466483
O      1.91876720     5.59752719     4.83490710
O      1.93594729     3.35315907     1.68386529
O      3.81247404     4.48333672     7.97935060
O      5.80572386     3.36924980     6.42963701
O      5.87678356     5.45522362     9.46198564
O      7.74390532     4.47087876     3.26466483
O      5.80958940     5.59635101     4.82801633
O      5.80795803     3.35315907     1.68386529
O      7.82202259     4.47434034     7.93849561
O     -3.86851042     6.74006308     6.45738325
O     -3.83259630     8.92087483     9.46830217
O     -1.93600537     7.82413842     3.26466483
O     -3.87639288     8.93527465     4.80433004
O     -3.87195266     6.70641873     1.68386529
O     -1.82112177     7.72804670     8.03168989
O      0.00555447     6.75766005     6.49294786
O     -0.01181031     8.92246362     9.42196366
O      1.93600537     7.82413842     3.26466483
O     -0.00297403     8.93933766     4.81276610
O     -0.00005808     6.70641873     1.68386529
O      1.82401352     7.73764209     8.05328013
O      3.86151599     6.73539981     6.45077911
O      3.80105352     9.05732560     9.42121874
O      5.80789995     7.82413842     3.26466483
O      3.87347416     8.93898941     4.80318812
O      3.87195266     6.70641873     1.68386529
O      5.79315320     7.78810628     8.02089514
O      3.95261035     6.82777237    11.38437897
H     -1.51331622     5.84054991    10.33827152
H      5.35657579     7.57550466    13.03076083
H      2.07822889     5.48690443    10.91930587
N      5.82911659     7.82694788    12.12799997
N      5.10454155     7.44240289    11.18021963
