87
CIF: 5-NHNO+2H-N2O+3H_ts.cif | data_image0
Ce     5.79948121    10.03556354     8.76705737
Ce     1.93118250     1.11117296     5.60002733
Ce     0.00000000     2.23543938     2.47426506
Ce     3.82509997     0.02917128     8.76970021
Ce     5.81320847     1.11413002     5.61904021
Ce     3.87189458     2.23543938     2.47426506
Ce     7.81101540     0.07084127     8.75918624
Ce     9.69046159     1.12265231     5.59060635
Ce     7.74390532     2.23543938     2.47426506
Ce    -1.87711857     3.31129392     8.74960384
Ce     0.00906206     4.46577879     5.68274151
Ce    -1.93600537     5.58869904     2.47426506
Ce     1.91057384     3.26078325     8.77847781
Ce     3.86572300     4.47483466     5.63888584
Ce     1.93588921     5.58869904     2.47426506
Ce     5.82120619     3.34874625     8.74843692
Ce     7.75746216     4.47765559     5.61630009
Ce     5.80789995     5.58869904     2.47426506
Ce     7.68841777     6.69117457     8.78429559
Ce    -1.94911255     7.82416755     5.59802705
Ce    -3.87195266     8.94185811     2.47426506
Ce     1.96292074     7.82112005     5.60073712
Ce    -0.00005808     8.94185811     2.47426506
Ce     3.87081286     6.67675084     8.85428669
Ce     5.79685952     7.81615543     5.62720613
Ce     3.87195266     8.94185811     2.47426506
Co    -0.00480770     7.66881051     8.14488882
O      5.80614582    10.04358979     6.40703400
O      0.01104003     2.14927526     9.61767483
O      1.93594729     1.11771969     3.26466483
O      0.00190329     2.23734468     4.80994802
O      0.00000000     0.00000000     1.68386529
O      1.91640819     1.09032755     7.94974322
O     -1.94746593    10.02944259     6.44431222
O      3.86712312     2.14399287     9.57142833
O      5.80795803     1.11771969     3.26466483
O      3.88620965     2.22204520     4.81904926
O      3.87189458     0.00000000     1.68386529
O      5.82078591     1.13860284     7.95478034
O      1.96193373    10.04832625     6.43358929
O      7.77160066     2.22130388     9.54123052
O      9.67985261     1.11771969     3.26466483
O      7.73812488     2.22797937     4.81078748
O      7.74390532     0.00000000     1.68386529
O      9.70985319     1.15580974     7.91843376
O     -1.92968748     3.35928520     6.38383029
O     -2.28515466     5.36361081     9.98582184
O      0.00000000     4.47087876     3.26466483
O     -1.90979362     5.60927916     4.82443040
O      9.67985261     3.35315907     1.68386529
O      0.01173777     4.31906022     8.00935586
O      1.93773174     3.32903028     6.39666359
O      2.35579933     5.13141729    10.14176031
O      3.87201074     4.47087876     3.26466483
O      1.91055591     5.59933943     4.83104778
O      1.93594729     3.35315907     1.68386529
O      3.83552904     4.40688958     7.96300742
O      5.82624043     3.36491416     6.42187105
O      5.90727402     5.49365600     9.56617850
O      7.74390532     4.47087876     3.26466483
O      5.81415237     5.59193608     4.81822951
O      5.80795803     3.35315907     1.68386529
O      7.81540032     4.47802042     7.94657036
O     -3.85318502     6.73211819     6.43804615
O     -3.84927538     8.92085166     9.54294105
O     -1.93600537     7.82413842     3.26466483
O     -3.86900310     8.93769217     4.80096963
O      7.74384724     6.70641873     1.68386529
O     -1.83043243     7.74987414     8.04633535
O     -0.00079715     6.77100226     6.50727711
O     -0.00771242     8.93857213     9.44073654
O      1.93600537     7.82413842     3.26466483
O      0.00279359     8.94316796     4.81154354
O     -0.00005808     6.70641873     1.68386529
O      1.80958956     7.80412114     8.03230707
O      3.84955631     6.71976605     6.40527830
O      3.86731461     9.08760886     9.53088352
O      5.80789995     7.82413842     3.26466483
O      3.87154247     8.94407737     4.79614806
O      3.87195266     6.70641873     1.68386529
O      5.82582957     7.81016956     7.98173920
O      2.98964157     7.36554989    12.18001129
H     -1.52116238     5.83757068    10.36309569
H      5.05598492     5.86385671    12.50204587
H      1.81480522     5.42978291    10.89480842
N      5.25170740     6.87912982    12.30520957
N      4.21197672     7.53500309    12.16657076
