87
CIF: 5-NHNO+2H-N2O+3H_fs.cif | data_image0
Ce     5.80956597    10.03488302     8.77942070
Ce     1.93197275     1.11450841     5.59317187
Ce     0.00000000     2.23543938     2.47426506
Ce     3.81018823     0.04598525     8.76730835
Ce     5.80883988     1.10213547     5.59737689
Ce     3.87189458     2.23543938     2.47426506
Ce     7.80691034     0.05012293     8.77127301
Ce     9.68552445     1.11428678     5.59565628
Ce     7.74390532     2.23543938     2.47426506
Ce     9.71995647     3.28200474     8.75328626
Ce     0.00283022     4.47118652     5.68344289
Ce    -1.93600537     5.58869904     2.47426506
Ce     1.89676395     3.27786371     8.76067315
Ce     3.86945107     4.48060822     5.63700068
Ce     1.93588921     5.58869904     2.47426506
Ce     5.80727933     3.25528243     8.71083023
Ce     7.74752340     4.47752149     5.63454601
Ce     5.80789995     5.58869904     2.47426506
Ce    -3.81174234     6.73803879     8.83030133
Ce    -1.95595986     7.82105923     5.59356462
Ce    -3.87195266     8.94185811     2.47426506
Ce     1.95954785     7.82138273     5.59622577
Ce    -0.00005808     8.94185811     2.47426506
Ce     3.81222535     6.73816279     8.84880647
Ce     5.80492787     7.81240833     5.65416547
Ce     3.87195266     8.94185811     2.47426506
Co     0.00572631     7.69512221     8.15306772
O      5.80708047    10.02972819     6.42036930
O      0.00531408     2.15612806     9.62056763
O      1.93594729     1.11771969     3.26466483
O      0.00099313     2.23978757     4.82917183
O      0.00000000     0.00000000     1.68386529
O      1.91149889     1.12849186     7.92808510
O     -1.95738268    10.03814293     6.42806535
O      3.87528231     2.17811161     9.55651587
O      5.80795803     1.11771969     3.26466483
O      3.87502133     2.22351191     4.81034215
O      3.87189458     0.00000000     1.68386529
O      5.81017116     1.11827948     7.94314427
O      1.96030406    10.03983525     6.43169045
O      7.74116319     2.18745000     9.56279005
O      9.67985261     1.11771969     3.26466483
O      7.74180920     2.22502051     4.81278001
O      7.74390532     0.00000000     1.68386529
O      9.70511018     1.13381740     7.92760022
O      9.65963005     3.36174176     6.40456693
O     -2.18082597     5.25602876    10.02558931
O      0.00000000     4.47087876     3.26466483
O     -1.90011123     5.60067555     4.82769095
O     -1.93594729     3.35315907     1.68386529
O      0.00219948     4.30222643     7.99456964
O      1.96324896     3.36191315     6.41037276
O      2.23802037     5.21727299    10.07112136
O      3.87201074     4.47087876     3.26466483
O      1.90454246     5.59860063     4.82917851
O      1.93594729     3.35315907     1.68386529
O      3.92310661     4.44180370     7.99524519
O      5.80798266     3.32884141     6.39672642
O      5.82984069     5.46603282     9.98739590
O      7.74390532     4.47087876     3.26466483
O      5.80473700     5.58814733     4.83279517
O      5.80795803     3.35315907     1.68386529
O      7.69954825     4.43107580     7.98517455
O     -3.83586633     6.72862968     6.41041430
O     -3.84132195     9.07992115     9.60246533
O     -1.93600537     7.82413842     3.26466483
O     -3.87331626     8.94741269     4.80120670
O     -3.87195266     6.70641873     1.68386529
O     -1.81203750     7.80640772     8.04603910
O      0.00122444     6.77711222     6.52209110
O     -0.00196788     8.94974626     9.47110964
O      1.93600537     7.82413842     3.26466483
O      0.00189181     8.93832451     4.80329059
O     -0.00005808     6.70641873     1.68386529
O      1.82086286     7.80587726     8.05105259
O      3.83778234     6.72645908     6.40821205
O      3.84606140     9.09058453     9.60104845
O      5.80789995     7.82413842     3.26466483
O      3.87479882     8.94507164     4.80136183
O      3.87195266     6.70641873     1.68386529
O      5.80418833     7.79020273     8.03228256
O      3.64225198     7.27375827    12.38952824
H     -1.37339177     5.68703790    10.36004964
H      5.95260231     5.30524758    10.94208646
H      1.53015719     5.60453558    10.61805974
N      5.69123633     6.44980331    13.17818883
N      4.68775938     6.85437412    12.79865247
