83
CIF: O2.cif | data_image0
Ce     5.80741500    10.05946313     8.82509916
Ce     1.93381873     1.11678291     5.59857716
Ce     0.00000000     2.23543938     2.47426506
Ce    -2.00130079    10.04891222     8.73367702
Ce     5.80811842     1.12253522     5.62681498
Ce     3.87189458     2.23543938     2.47426506
Ce     2.00099570    10.04792077     8.73330252
Ce     9.68203049     1.11644485     5.59822851
Ce     7.74390532     2.23543938     2.47426506
Ce    -1.89190684     3.30026472     8.73352866
Ce     0.00041305     4.47503648     5.64425776
Ce    -1.93600537     5.58869904     2.47426506
Ce     1.89308692     3.30116358     8.73413409
Ce     3.87551588     4.46928381     5.62713355
Ce     1.93588921     5.58869904     2.47426506
Ce     5.80818396     3.35413454     8.81398297
Ce     7.74092153     4.46938300     5.62699933
Ce     5.80789995     5.58869904     2.47426506
Ce    -3.89522328     6.77135757     8.73377641
Ce    -1.93224081     7.82266749     5.64365833
Ce    -3.87195266     8.94185811     2.47426506
Ce     1.93255601     7.82233668     5.64336622
Ce    -0.00005808     8.94185811     2.47426506
Ce     3.89477834     6.77004824     8.73366629
Ce     5.80778036     7.82660399     5.59815668
Ce     3.87195266     8.94185811     2.47426506
Co     0.00182724     6.71197596     8.77232490
O     11.61568753     0.00016825     6.41104763
O     -0.00078474     2.17063118     9.65778606
O      1.93594729     1.11771969     3.26466483
O      0.00031622     2.24959005     4.81860595
O      0.00000000     0.00000000     1.68386529
O      1.92010209     1.10906562     7.96981169
O      3.88981419     0.08122569     6.39578471
O      3.85535206     2.22592868     9.55583199
O      5.80795803     1.11771969     3.26466483
O      3.90043973     2.25249842     4.79253507
O      3.87189458     0.00000000     1.68386529
O      5.80778778     1.03515229     8.07585243
O      7.72617347     0.08141508     6.39536315
O      7.75984795     2.22734754     9.55569736
O      9.67985261     1.11771969     3.26466483
O      7.71579551     2.25221973     4.79272199
O      7.74390532     0.00000000     1.68386529
O      9.69517184     1.10905117     7.96959347
O      9.60172985     3.32768785     6.39590002
O     -1.53291047     5.82379338     9.28948544
O      0.00000000     4.47087876     3.26466483
O     -1.90264171     5.60802247     4.84489233
O     -1.93594729     3.35315907     1.68386529
O      0.00056010     4.07723997     7.84225050
O      2.01466889     3.32853436     6.39603416
O      1.53834260     5.82374340     9.28782628
O      3.87201074     4.47087876     3.26466483
O      1.90311261     5.60742325     4.84429448
O      1.93594729     3.35315907     1.68386529
O      3.79689186     4.51410293     8.07818313
O      5.80870370     3.35481877     6.52117544
O      5.80904775     5.60782800     9.55500539
O      7.74390532     4.47087876     3.26466483
O      5.80796953     5.55594574     4.79224048
O      5.80795803     3.35315907     1.68386529
O      7.82136934     4.51551873     8.07831440
O      7.68266339     6.65114314     6.39582649
O     -3.92767807     8.97398586     9.65771227
O     -1.93600537     7.82413842     3.26466483
O     -3.85997116     8.93527774     4.81851470
O     -3.87195266     6.70641873     1.68386529
O     -2.27771870     8.02224904     7.84121391
O      0.00063494     6.70770631     6.69961620
O      0.00277342     8.49167000     9.28272723
O      1.93600537     7.82413842     3.26466483
O     -0.00032107     8.90417780     4.84407164
O     -0.00005808     6.70641873     1.68386529
O      2.27885241     8.02189507     7.83959459
O      3.93327074     6.65033618     6.39546142
O      3.92729164     8.97437273     9.65775684
O      5.80789995     7.82413842     3.26466483
O      3.86006848     8.93493555     4.81844435
O      3.87195266     6.70641873     1.68386529
O      5.80785661     7.84268632     7.96956521
O      0.31333046     6.24691158    12.65676797
O     -0.35267539     7.24812746    12.37796195
