    86
 Tv_1:  11.598200   0.000000   0.000000 Tv_2:  -5.799100  10.044336   0.000000 Tv_3:   0.000000   0.000000  22.891600
Ce      2.14531905      1.20773094      3.19108904
Ce      0.19743616      2.33086849      9.70409261
Ce      0.21989607      0.09227731      6.40335281
Ce      6.01134706      1.20773094      3.19108904
Ce      4.07807790      0.11352108      6.42207814
Ce      9.87749105      1.20773094      3.19108904
Ce      7.99543954      2.28649261      9.68712994
Ce      7.94153110      0.08700404      6.41594319
Ce      0.21230505      4.55580941      3.19108904
Ce     -1.70336384      5.61105728      9.74332882
Ce     -1.72785344      3.43668960      6.42056729
Ce      4.07833306      4.55580941      3.19108904
Ce      2.14286603      3.41379855      6.49473608
Ce      7.94447705      4.55580941      3.19108904
Ce      6.11144533      5.63247181      9.65338772
Ce      5.98746637      3.42200478      6.40710703
Ce     -1.72076694      7.90398831      3.19108904
Ce     -3.63891205      9.02200325      9.68316969
Ce     -3.63043377      6.79322539      6.43443960
Ce      2.14526106      7.90398831      3.19108904
Ce      0.15168706      9.17956874      9.69390585
Ce      0.19349857      6.79297428      6.41118174
Ce      6.01140505      7.90398831      3.19108904
Ce      4.16857865      9.08124474      9.62960335
Ce      4.10350695      6.78704812      6.38897689
Zn      3.44928728      2.01255344      9.54009719
O       0.21230505      2.32375710      2.40201559
O       1.96528020      1.03237693     10.60931804
O       2.12702869      1.18766236      5.60750344
O       0.15059683      2.30514494      7.19059493
O       0.21946114      0.07501110      8.79650935
O       0.21230505      0.09170479      3.98039141
O       4.07833306      2.32375710      2.40201559
O       6.38644445      1.08577262     10.71040735
O       6.03287912      1.16957251      5.58474919
O       4.10735755      2.33184279      7.06654535
O       4.07178007      0.21997095      8.87862152
O       4.07833306      0.09170479      3.98039141
O       7.94436106      2.32375710      2.40201559
O       9.90483380      1.14749506     10.48540581
O       9.85961822      1.17906441      5.59516487
O       7.91941333      2.31208558      7.21341786
O       7.98831244      0.09687762      8.79078645
O       7.94436106      0.09170479      3.98039141
O      -1.72076694      5.67193600      2.40201559
O      -0.30962555      4.29720794     10.76051706
O       0.24814929      4.59320447      5.63321071
O      -1.67054674      5.71536771      7.28204688
O      -1.77861876      3.41824820      8.77641052
O      -1.72070895      3.43978325      3.98039141
O       2.14526106      5.67193600      2.40201559
O       4.74220243      3.20086868     10.50255162
O       4.04983048      4.61550289      5.61851430
O       2.16206106      5.77148542      7.45336761
O       2.07975443      3.19779511      8.76599485
O       2.14531905      3.43978325      3.98039141
O       6.01128907      5.67193600      2.40201559
O       7.90890537      4.57224194     10.53476010
O       7.94097439      4.57740473      5.62224563
O       5.99880361      5.71035559      7.29800232
O       6.11286610      3.47841377      8.80559731
O       6.01134706      3.43978325      3.98039141
O      -3.65378095      9.02001447      2.40201559
O      -1.67576013      7.95026257     10.43392261
O      -1.71246263      7.90390796      5.59280704
O      -3.62587568      9.00048828      7.26226853
O      -3.63337391      6.74498245      8.86745042
O      -3.65378095      6.78796216      3.98039141
O       0.21224706      9.02001447      2.40201559
O       2.17619926      7.92125453     10.31175014
O       2.13847612      7.87859623      5.61079983
O       0.18356471      8.98915827      7.30425173
O       0.39103331      6.72000218      8.97865781
O       0.21224706      6.78796216      3.98039141
O       4.07827507      9.02001447      2.40201559
O       5.99900078      7.83525492     10.43820333
O       6.02581581      7.89341163      5.59399740
O       4.09835155      8.95862349      7.25853720
O       3.97536424      6.69886890      8.95226380
O       4.07827507      6.78796216      3.98039141
Fe      2.17082929      6.55494361      9.16602556
H       5.38509065      2.46449833     10.78741469
H       1.37357483      5.24760299     11.10553926
H       2.83251820      4.52002144     10.27757298
H       3.06915628      5.90611969     11.48881332
C       2.41395076      5.39462194     10.78059300
