    86
 Tv_1:  11.598200   0.000000   0.000000 Tv_2:  -5.799100  10.044336   0.000000 Tv_3:   0.000000   0.000000  22.891600
Ce      2.14531905      1.20773094      3.19108904
Ce      0.14521526      2.24230758      9.82683737
Ce      0.22024402      0.09900702      6.44075768
Ce      6.01134706      1.20773094      3.19108904
Ce      4.06275088      0.13201271      6.42837333
Ce      9.87749105      1.20773094      3.19108904
Ce      7.90407472      2.32117570      9.59922619
Ce      7.92978213      0.07607580      6.41981187
Ce      0.21230505      4.55580941      3.19108904
Ce     -1.72473353      5.57500816      9.71965890
Ce     -1.70120078      3.42861395      6.43102875
Ce      4.07833306      4.55580941      3.19108904
Ce      2.17472629      3.41289456      6.40834318
Ce      7.94447705      4.55580941      3.19108904
Ce      6.05159281      5.58021113      9.60920693
Ce      6.00805897      3.43649875      6.39753834
Ce     -1.72076694      7.90398831      3.19108904
Ce     -3.72074895      8.97891305      9.71187576
Ce     -3.64459517      6.79406912      6.42892273
Ce      2.14526106      7.90398831      3.19108904
Ce      0.13076971      9.02375096      9.66366605
Ce      0.17854269      6.76986227      6.42132272
Ce      6.01140505      7.90398831      3.19108904
Ce      4.07295149      9.01772436      9.64690940
Ce      4.08515280      6.78685728      6.40140702
Cu      4.24978925      1.85687628      9.91703028
O       0.21230505      2.32375710      2.40201559
O       1.64298361      0.83111857     10.92563417
O       2.11289629      1.19381954      5.59026607
O       0.30310736      2.38882430      7.33268310
O       0.15486497      0.05372715      8.81470817
O       0.21230505      0.09170479      3.98039141
O       4.07833306      2.32375710      2.40201559
O       5.92196553      1.20030818     10.46581060
O       6.02046904      1.16073349      5.59054077
O       4.06972139      2.35647150      7.04122724
O       4.02278348      0.23460555      8.98330480
O       4.07833306      0.09170479      3.98039141
O       7.94436106      2.32375710      2.40201559
O       9.77957324      1.13477893     10.48497087
O       9.91660598      1.19835958      5.62064322
O       7.95672474      2.26343082      7.17012984
O       7.88348791      0.08313697      8.82638289
O       7.94436106      0.09170479      3.98039141
O      -1.72076694      5.67193600      2.40201559
O      -0.30523563      4.23261281     10.74243270
O       0.25184911      4.55999789      5.60358898
O      -1.68833258      5.67881637      7.26055166
O      -1.79987827      3.38024043      8.77073341
O      -1.72070895      3.43978325      3.98039141
O       2.14526106      5.67193600      2.40201559
O       4.57997840      3.44028547     10.90411607
O       4.03764657      4.60962696      5.58454317
O       2.13372085      5.60907855      7.43986157
O       2.51848534      2.36420564      9.46780552
O       2.14531905      3.43978325      3.98039141
O       6.01128907      5.67193600      2.40201559
O       7.88672961      4.51764093     10.52120828
O       7.95658557      4.56820412      5.61659141
O       5.97692360      5.73750543      7.22745041
O       6.18839358      3.53757490      8.67573327
O       6.01134706      3.43978325      3.98039141
O      -3.65378095      9.02001447      2.40201559
O      -1.73255651      7.88513510     10.42895513
O      -1.72794623      7.90796587      5.59795765
O      -3.62406056      9.02167178      7.29076858
O      -3.66406855      6.71777234      8.84176604
O      -3.65378095      6.78796216      3.98039141
O       0.21224706      9.02001447      2.40201559
O       2.12343325      7.89360247     10.34851405
O       2.11790671      7.86327862      5.63261553
O       0.13086829      8.99061470      7.29795654
O       0.30862230      6.71711946      8.91039506
O       0.21224706      6.78796216      3.98039141
O       4.07827507      9.02001447      2.40201559
O       5.96774943      7.79542913     10.43110694
O       6.02025448      7.92640727      5.60230705
O       4.05735771      8.98306136      7.25389021
O       3.98025288      6.70100834      8.88967816
O       4.07827507      6.78796216      3.98039141
Ni      2.14283124      6.56683611      9.05513865
H       5.17260003      3.08395261     11.59793757
H       1.38690116      5.29872866     10.97979570
H       2.72133786      4.46315041     10.03132804
H       3.14806463      5.78843021     11.24023343
C       2.40013731      5.35988862     10.57021919
