84
CIF: 6-OH+2H-H2O+H_fs.cif | data_image0
Ce    11.60070133     0.02028110     8.77574418
Ce     1.91754496     1.12769719     5.61862932
Ce     0.00000000     2.23543938     2.47426506
Ce     3.80181840     0.01339216     8.78569780
Ce     5.81197834     1.08676027     5.65305553
Ce     3.87189458     2.23543938     2.47426506
Ce     7.80578727     0.00509062     8.84359526
Ce     9.68702133     1.12110471     5.62636759
Ce     7.74390532     2.23543938     2.47426506
Ce     9.62354283     3.32312114     8.81048987
Ce     0.00997735     4.47740278     5.60836325
Ce    -1.93600537     5.58869904     2.47426506
Ce     1.96811380     3.27641959     8.84741616
Ce     3.86997591     4.47928851     5.66435556
Ce     1.93588921     5.58869904     2.47426506
Ce     5.81411326     3.31993335     8.78018730
Ce     7.75013682     4.47594106     5.61501496
Ce     5.80789995     5.58869904     2.47426506
Ce     7.69578430     6.67424818     8.81655041
Ce    -1.98127058     7.82156040     5.57934428
Ce    -3.87195266     8.94185811     2.47426506
Ce     1.98734680     7.83387337     5.60137121
Ce    -0.00005808     8.94185811     2.47426506
Ce     4.04465553     6.75009674     8.84797982
Ce     5.81312907     7.81802846     5.61021350
Ce     3.87195266     8.94185811     2.47426506
Ir    -0.02309834     7.15670489     8.28119952
O     11.61270588     0.00365150     6.41432308
O     -0.12847101     2.31138024     9.54621806
O      1.93594729     1.11771969     3.26466483
O      0.00041903     2.23232077     4.80063815
O      0.00000000     0.00000000     1.68386529
O      1.93132015     1.09235471     7.97138291
O     -1.96608638     9.97705258     6.47256633
O      3.93099443     2.12313050     9.66220391
O      5.80795803     1.11771969     3.26466483
O      3.85803171     2.22193243     4.86045456
O      3.87189458     0.00000000     1.68386529
O      5.76219587     1.09783303     7.98423931
O      1.94552602     9.98665132     6.42957574
O      7.74607233     2.34170882     9.61745427
O      9.67985261     1.11771969     3.26466483
O      7.75821917     2.23130008     4.84833849
O      7.74390532     0.00000000     1.68386529
O      9.68332370     1.15683881     7.92963492
O     -1.83383442     3.39994733     6.47134400
O     -2.48141990     5.25549388    10.21832240
O      0.00000000     4.47087876     3.26466483
O     -1.93234146     5.59010039     4.79925710
O     -1.93594729     3.35315907     1.68386529
O     -0.05632708     5.13025390     8.16253533
O      1.85197364     3.38371237     6.45660136
O      3.87201074     4.47087876     3.26466483
O      1.94766751     5.58892967     4.81324634
O      1.93594729     3.35315907     1.68386529
O      3.88977144     4.46574698     8.03406665
O      5.81088766     3.34352291     6.44294423
O      5.96144897     5.51641684     9.66262108
O      7.74390532     4.47087876     3.26466483
O      5.80632176     5.56542234     4.81520325
O      5.80795803     3.35315907     1.68386529
O      7.78846349     4.48883335     7.91616419
O      7.73630642     6.71259449     6.37903661
O     -3.82378485     8.96651447     9.59472246
O     -1.93600537     7.82413842     3.26466483
O     -3.87376598     8.95754439     4.79682539
O     -3.87195266     6.70641873     1.68386529
O     -1.96744143     7.54847237     8.05554341
O      0.00951122     6.72950677     6.31326470
O     -0.08917351     8.67261469     9.43300230
O      1.93600537     7.82413842     3.26466483
O     -0.01446471     8.95108577     4.80378557
O     -0.00005808     6.70641873     1.68386529
O      1.90947042     7.55055688     8.11515597
O      3.90191222     6.73359278     6.38878502
O      4.05418236     9.04917746     9.65556954
O      5.80789995     7.82413842     3.26466483
O      3.88346480     8.95603085     4.79706306
O      3.87195266     6.70641873     1.68386529
O      5.90047918     7.84333938     7.96621259
O      1.95727639     5.57532868    10.42789028
H      8.63902241     4.97704703    11.01206695
H      1.18078598     6.02839358     9.97930737
H      1.78194451     5.62044556    11.38479032
