82
CIF: W-Sc-CeO2.cif | data_image0
Ce     1.93038582     1.11050507     0.88387043
Ce    -0.00764142     2.23572914     4.04330559
Ce     0.00673228     0.04380358     7.21175086
Ce     5.81181033     1.12175166     0.90127712
Ce     3.88611169     2.22679458     4.06106536
Ce     3.83603101     0.00858309     7.32924845
Ce     9.66901012     1.12377363     0.90450652
Ce     7.73787683     2.23596342     3.96709031
Ce     2.03176387     9.79993810     7.37068281
Ce    -0.00709724     4.47602159     0.89067279
Ce    -1.96426845     5.58519050     4.08849948
Ce    -1.75661787     3.34375268     7.33906403
Ce     3.86254305     4.47635356     0.87798423
Ce     1.93107101     5.58378616     4.05116845
Ce     1.93570321     3.35963854     7.19597020
Ce     7.74213807     4.46545905     0.90125422
Ce     5.81876785     5.60427506     4.03204312
Ce    -1.94645625     7.83004003     0.90010904
Ce    -3.86249702     8.97720715     4.02279234
Ce    -3.87625785     6.89980128     7.16861847
Ce     1.92815559     7.82745473     0.89060408
Ce    -0.01894359     8.95908250     4.11011332
Ce    -0.02624754     6.68317490     7.22216564
Ce     5.81127600     7.83258510     0.88371011
Ce     3.87437029     8.95115375     4.05295847
Ce     3.88097891     6.70799948     7.19627424
Sc     5.36402472     3.69170805     6.96835482
W      6.51362000     2.45150458     9.33242274
O     11.61334069     0.00154917     0.10141687
O      1.93233699     1.12821013     3.22557946
O      0.06665864     2.27324448     6.33976266
O     -0.00785227     2.23805103     1.69392277
O     11.60260100     0.01962718     4.83158075
O      1.82167246     1.20915169     8.03728491
O     -1.93899312    10.05733740     0.10496691
O      5.80807493     1.12603979     3.22612468
O      3.94394141     2.30468177     6.45109460
O      3.86763657     2.23577757     1.68132582
O      3.87924774     0.02967151     4.83059489
O      5.97071723     0.80859437     8.75438524
O      7.73821774     0.00761509     0.10924988
O      9.67787988     1.11247316     3.21009037
O      7.38063383     3.54296162     8.10790817
O      7.74357843     2.23531483     1.71563532
O      7.74890882     0.18017264     4.97098025
O      9.75876264     1.05433863     7.95942523
O      9.67032270     3.35425987     0.10911246
O     -0.04029371     4.45412168     3.26777938
O     -2.05544716     5.58830476     6.47584273
O     -1.94403436     5.59119430     1.70564938
O      9.53043875     3.27197365     4.93716163
O      0.11147729     4.53617963     8.05728679
O      1.92738314     3.35244915     0.09928684
O      3.91229383     4.45312711     3.23789274
O      1.90459840     5.59939644     6.31700510
O      1.92862022     5.59252216     1.67404250
O      1.97494472     3.34751311     4.82214312
O      3.81189188     4.57103068     7.90870274
O      5.81155478     3.35101064     0.10766953
O      7.73424744     4.48999621     3.22129583
O      5.86868863     5.60724121     6.44651413
O      5.80528807     5.59217007     1.68114259
O      5.92084891     3.32525869     4.95268667
O      5.73829023     3.15010483    10.70980140
O     -3.87155109     6.71022987     0.10512724
O     -1.93879478     7.83050521     3.25215812
O     -3.88378293     8.97593131     6.37758902
O     -3.87509971     8.94378428     1.69355631
O     -3.88330489     6.74796555     4.83399817
O     -2.00957830     7.72821206     8.08083479
O     -0.01209783     6.71325780     0.10434852
O      1.92476192     7.86357161     3.29098128
O     -0.00227159     8.88193464     6.44803172
O     -0.00628994     8.94736548     1.70514550
O     -0.06009029     6.68535521     4.86347959
O      1.97849583     7.62457644     8.08301305
O      3.86815347     6.71410280     0.09951587
O      5.80080012     7.83525567     3.22706570
O      3.93103498     8.83769283     6.36255475
O      3.86556896     8.94715423     1.69389986
O      3.89759415     6.66582584     4.82305969
O      5.86305087     7.86932804     8.02628153
