83
CIF: W-Mo-CeO2-O.cif | data_image0
Ce     1.93596140     1.11772783     0.89035214
Ce     0.01314679     2.21455903     4.01693515
Ce     5.82429668    10.01693588     7.20336915
Ce     5.80789581     1.11772783     0.89035214
Ce     3.86337825     2.23429316     3.97692309
Ce    -2.06230288     9.88449739     7.22554323
Ce     9.67981860     1.11772783     0.89035214
Ce     7.71940039     2.24030488     4.08494038
Ce     2.04538828     9.93429437     7.31822632
Ce     0.00000000     4.47091133     0.89035214
Ce    -1.96053966     5.58634451     4.08298850
Ce    -1.62887293     3.32530492     7.21243735
Ce     3.87193441     4.47091133     0.89035214
Ce     1.94133968     5.58220347     4.05526944
Ce     1.90536245     3.31311404     7.28866655
Ce     7.74385721     4.47091133     0.89035214
Ce     5.82511911     5.59166672     3.99592608
Ce    -1.93596721     7.82410489     0.89035214
Ce    -3.88269084     8.91565924     4.02334551
Ce    -3.82737734     6.75143691     7.34910286
Ce     1.93596721     7.82410489     0.89035214
Ce     0.00128848     8.97167103     4.08023954
Ce     0.00839608     6.70447260     7.22500199
Ce     5.80789000     7.82410489     0.89035214
Ce     3.86401705     8.96248861     4.02069883
Ce     3.81221136     6.82675405     7.19582303
Mo     5.24655346     3.71794689     7.11812167
O      0.00000000     0.00000000     0.09999685
O      1.93533662     1.10485027     3.20822146
O      0.07863427     2.18640610     6.34386015
O      0.00000000     2.23545567     1.68070743
O     -5.77672629    10.02719561     4.83969654
O      1.98135341     0.95465836     8.01093915
O      3.87192279     0.00000000     0.09999685
O      5.72982717     1.09727735     3.23721277
O      4.27885097     2.17989864     6.83634403
O      3.87192279     2.23545567     1.68070743
O      3.81594887     0.05991441     4.92481480
O      6.89191628     1.12228075     9.26295350
O      7.74385721     0.00000000     0.09999685
O      9.73942337     1.08740599     3.22820717
O      7.67524011     2.41988470     6.90148368
O      7.74385721     2.23545567     1.68070743
O      1.92167458    10.03156591     4.88294762
O      9.91299735     1.14574285     8.01713862
O     -1.93596140     3.35318350     0.09999685
O      0.01851194     4.47196154     3.27484746
O     -1.94043701     5.52140475     6.49283968
O     -1.93596721     5.58864923     1.68070743
O     -1.89156169     3.34046047     4.91190363
O      0.04048662     4.50822691     8.06962832
O      1.93596140     3.35318350     0.09999685
O      3.87246292     4.48716630     3.19426588
O      1.86178823     5.67757658     6.31967052
O      1.93595559     5.58864923     1.68070743
O      2.06404923     3.29836561     4.87854814
O      5.80789581     3.35318350     0.09999685
O      7.72439551     4.52142264     3.24287289
O      5.94303025     5.34786189     6.57923915
O      5.80789000     5.58864923     1.68070743
O      5.59991967     3.41958868     5.00226351
O      8.47929860     3.97466751     9.02584514
O     -3.87192860     6.70637706     0.09999685
O     -1.94864179     7.84350627     3.25541266
O     -3.85871770     8.87627818     6.40523657
O     -3.87192860     8.94183273     1.68070743
O      7.71024363     6.68380525     4.86537294
O     -1.87035326     7.84859613     8.12838655
O     -0.00000581     6.70637706     0.09999685
O      1.93948454     7.80637494     3.26527142
O     -0.06434386     9.03409934     6.52449153
O     -0.00000581     8.94183273     1.68070743
O     -0.07212667     6.76490333     4.88505908
O      3.87192860     6.70637706     0.09999685
O      5.80313104     7.81671528     3.21566369
O      3.90869647     8.92716593     6.36058606
O      3.87192860     8.94183273     1.68070743
O      3.96076790     6.66238583     4.89515539
O      5.69210061     7.83772758     8.01417489
O      1.95621093     7.69496957     8.07644421
O      3.75928466     4.64634110     7.85495786
O      5.57056025     3.74093601     9.12025430
W      7.11890140     2.81034177     8.68348452
