84
CIF: CO+Olatt—CO2.cif | data_image0
Ce     1.93038582     1.11050507     0.88387043
Ce    -0.01877999     2.23182861     4.05584890
Ce     0.01692040     0.02437983     7.22636463
Ce     5.81181033     1.12175166     0.90127712
Ce     3.85505348     2.20566753     4.00754093
Ce    -1.95010095    10.04313522     7.30469384
Ce     9.66901012     1.12377363     0.90450652
Ce     7.74175114     2.22658060     4.00303611
Ce     2.04471647     9.89508029     7.34299203
Ce    -0.00709724     4.47602159     0.89067279
Ce    -1.94853185     5.56836711     4.09427917
Ce    -1.81406808     3.30090485     7.36859021
Ce     3.86254305     4.47635356     0.87798423
Ce     1.95036834     5.56868964     4.05719490
Ce     1.94220992     3.31341173     7.20347817
Ce     7.74213807     4.46545905     0.90125422
Ce     5.82411681     5.62578869     3.99559658
Ce    -1.94645625     7.83004003     0.90010904
Ce    -3.85213465     8.96421358     4.02788685
Ce    -3.83552354     6.86866015     7.16981153
Ce     1.92815559     7.82745473     0.89060408
Ce     0.00151044     8.94464737     4.11136005
Ce     0.02902881     6.66875812     7.25364538
Ce     5.81127600     7.83258510     0.88371011
Ce     3.87640044     8.94771319     4.06179518
Ce     3.93118765     6.69311490     7.21929263
Sc     5.46715707     3.57146153     6.71006822
Os     6.63239234     2.70309090     8.95601393
O     11.61334069     0.00154917     0.10141687
O      1.92438262     1.11391449     3.21595277
O      0.05294380     2.24340713     6.37570737
O     -0.00785227     2.23805103     1.69392277
O      0.00079285     0.00647218     4.84615837
O      1.86902681     1.21192933     8.04852131
O     -1.93899312    10.05733740     0.10496691
O      5.81694256     1.09650281     3.23303036
O      3.94170926     2.27722643     6.37438670
O      3.86763657     2.23577757     1.68132582
O     -1.93109926    10.05767932     4.81837935
O      5.95254605     0.99224951     8.91106149
O      7.73821774     0.00761509     0.10924988
O      9.67912890     1.11184464     3.21939576
O      7.29221625     2.43977059     7.01988483
O      7.74357843     2.23531483     1.71563532
O      7.78045663     0.11290998     4.91462462
O      9.83954134     1.00790215     8.06510005
O      9.67032270     3.35425987     0.10911246
O     -0.02820322     4.46281830     3.26718502
O     -2.08010431     5.54634021     6.48854989
O     -1.94403436     5.59119430     1.70564938
O      9.57223779     3.26653183     4.91154143
O      0.13868996     4.52903614     8.02760202
O      1.92738314     3.35244915     0.09928684
O      3.85686457     4.48200356     3.20979056
O      2.06010157     5.51680812     6.38357447
O      1.92862022     5.59252216     1.67404250
O      1.94752522     3.32689915     4.82542046
O      4.03789836     4.40149863     8.09921767
O      5.81155478     3.35101064     0.10766953
O      7.76062826     4.49079794     3.23107195
O      5.91907192     5.53751313     6.41488497
O      5.80528807     5.59217007     1.68114259
O      5.81193799     3.36921466     4.71365620
O      7.92293342     3.93357380     9.25184507
O     -3.87155109     6.71022987     0.10512724
O     -1.91206870     7.80780371     3.25995587
O     -3.86818426     8.95997958     6.40907675
O     -3.87509971     8.94378428     1.69355631
O     -3.86782379     6.75583594     4.83280067
O     -1.95280268     7.71339418     8.06394124
O     -0.01209783     6.71325780     0.10434852
O      1.92946697     7.83211598     3.28893377
O      0.02833261     8.91227482     6.46677317
O     -0.00628994     8.94736548     1.70514550
O     -0.01091375     6.65378550     4.93030096
O      2.01249340     7.61395108     8.06262399
O      3.86815347     6.71410280     0.09951587
O      5.80850362     7.84051579     3.21777641
O      3.94293490     8.84537541     6.39232661
O      3.86556896     8.94715423     1.69389986
O      3.92376399     6.67741980     4.84803810
O      5.86095695     7.79563840     8.02264669
O      4.38568079     3.96483336    10.59464299
C      5.02210990     3.66785356     9.65112390
