82
CIF: Cu-CeO2-Ov+O2.cif | data_image0
O      0.37318325     0.57320900     0.59999690
O      2.28473100     1.70297899     3.75981264
O      0.23396838     2.72442104     6.95153488
O      0.37318325     2.78222527     2.16203261
O      0.38715449     0.55587734     5.36886731
O      2.27544801     1.17582020     8.77053952
O      4.19942644     0.57320900     0.59999690
O      6.11169009     1.67373434     3.73145726
O      4.10812249     2.84624578     6.97191038
O      4.19942644     2.78222527     2.16203261
O      4.19976684     0.61435742     5.39903406
O      6.09541295     1.70843080     8.52946717
O      8.02555485     0.57320900     0.59999690
O      9.93939613     1.67000928     3.76032451
O      8.03614014     2.76585255     6.92026222
O      8.02555485     2.78222527     2.16203261
O      8.01052083     0.56228682     5.38207744
O      9.85340886     1.60791743     8.61731372
O     -1.53988095     3.88673340     0.59999690
O      0.39542591     4.98391209     3.76713969
O     -1.45523669     6.05690437     6.97962246
O     -1.53993834     6.09584907     2.16203261
O     -1.57051815     3.89927550     5.34854720
O      2.28636224     3.88673340     0.59999690
O      4.19213886     4.98890627     3.74234429
O      2.23124183     5.99908916     7.01463440
O      2.28630485     6.09584907     2.16203261
O      2.31305698     3.91487636     5.45004769
O      4.17409607     4.99409306     8.46132486
O      6.11249065     3.88673340     0.59999690
O      8.01116094     4.98434290     3.73240391
O      6.10914020     6.10154950     6.89995510
O      6.11243325     6.09584907     2.16203261
O      6.10378084     3.85939923     5.38651510
O      7.97028745     4.98585326     8.53701659
O     -3.45300254     7.20035721     0.59999690
O     -1.52974628     8.30767939     3.75613510
O     -3.45524244     9.32690427     6.86561327
O     -3.45300254     9.40937347     2.16203261
O     -3.42042973     7.14574760     5.37402587
O     -1.54202419     8.27045824     8.58216146
O      0.37324065     7.20035721     0.59999690
O      2.28153562     8.30944864     3.73632066
O      0.33120677     9.40875169     6.94683935
O      0.37324065     9.40937347     2.16203261
O      0.40051933     7.21881558     5.39797987
O      2.25778114     8.30546243     8.53135152
O      4.19936905     7.20035721     0.59999690
O      6.11056915     8.28574581     3.75638020
O      4.20254887     9.40632536     6.92609809
O      4.19936905     9.40937347     2.16203261
O      4.15683143     7.19001280     5.39750232
O      6.09700094     8.24346631     8.56789890
O      0.14684243     5.10023361     9.08705146
O     -0.68301665     4.54136048     9.96879861
Ce     2.28624746     1.67771714     1.38101475
Ce     0.35563436     2.76835669     4.64413047
Ce     0.40122175     0.58284463     7.79766069
Ce     6.11249065     1.67771714     1.38101475
Ce     4.20319706     2.76393868     4.53430759
Ce     4.09790093     0.56629559     7.82811025
Ce     9.93861905     1.67771714     1.38101475
Ce     8.02836451     2.77734795     4.54441480
Ce     8.01272236     0.57929842     7.75947282
Ce     0.37318325     4.99124153     1.38101475
Ce    -1.53243750     6.08041830     4.56828964
Ce    -1.55806500     3.78743296     7.78310150
Ce     4.19942644     4.99124153     1.38101475
Ce     2.27501514     6.11680832     4.53404174
Ce     8.02555485     4.99124153     1.38101475
Ce     6.11551048     6.08576072     4.55435159
Ce     6.14670925     3.86677678     7.74459460
Ce    -1.53993834     8.30486534     1.38101475
Ce    -3.44890139     9.40532105     4.56238285
Ce    -3.45794953     7.16816413     7.74353522
Ce     2.28630485     8.30486534     1.38101475
Ce     0.36457320     9.42385849     4.56260405
Ce     0.34029646     7.30583280     7.74255134
Ce     6.11243325     8.30486534     1.38101475
Ce     4.20286681     9.41191636     4.56351525
Ce     4.21978452     7.25102514     7.74675500
Cu     3.06678603     4.35484113     7.11245486
