83
CIF: Cu-CeO2-Ov+CO2.cif | data_image0
O      0.37318991     0.57320463     0.60000009
O      2.28192558     1.68274335     3.75190608
O      0.22083048     2.76592380     6.97600285
O      0.37318991     2.78222090     2.16203581
O      0.38728906     0.57468733     5.38008371
O      2.24608181     1.22703425     8.76701605
O      4.19943310     0.57320463     0.60000009
O      6.10772768     1.67909644     3.72771676
O      4.15067855     2.79587056     6.96169023
O      4.19943310     2.78222090     2.16203581
O      4.19574118     0.59093041     5.37955327
O      6.10805635     1.70523968     8.57163262
O      8.02556151     0.57320463     0.60000009
O      9.94154627     1.67454289     3.75614476
O      8.01047658     2.74977328     6.90206383
O      8.02556151     2.78222090     2.16203581
O      8.02035014     0.56285410     5.37010217
O      9.84317730     1.66717370     8.64989012
O     -1.53987429     3.88672903     0.60000009
O      0.37280029     4.99608059     3.76252619
O     -1.34436931     5.97954073     7.09689030
O     -1.53993168     6.09584470     2.16203581
O     -1.59170337     3.89688010     5.35404079
O      0.53096419     4.73279220     9.56172264
O      2.28636890     3.88672903     0.60000009
O      4.20408245     5.00417167     3.74274424
O      2.17607277     6.07330413     7.03173314
O      2.28631151     6.09584470     2.16203581
O      2.29580323     3.91317180     5.36797281
O      4.25744108     5.07110426     8.52460213
O      6.11249730     3.88672903     0.60000009
O      8.01480220     4.99051342     3.72946903
O      6.14616590     6.10881126     6.90384014
O      6.11243991     6.09584470     2.16203581
O      6.10293396     3.87063781     5.38214531
O      8.00975161     4.95087747     8.54822627
O     -3.45299589     7.20035283     0.60000009
O     -1.53924325     8.30356027     3.73750411
O     -3.45749744     9.34227575     6.87414853
O     -3.45299589     9.40936910     2.16203581
O     -3.36570189     7.13154986     5.41609234
O     -1.53401357     8.29341027     8.56178955
O      0.37324730     7.20035283     0.60000009
O      2.28947669     8.30600781     3.73981343
O      0.35800803     9.44301635     6.92962493
O      0.37324730     9.40936910     2.16203581
O      0.36623791     7.24339242     5.37245741
O      2.26904976     8.34842908     8.58963979
O      4.19937571     7.20035283     0.60000009
O      6.12232106     8.28279832     3.77334869
O      4.20511068     9.42355714     6.94919714
O      4.19937571     9.40936910     2.16203581
O      4.16389489     7.19059249     5.41490113
O      6.13195590     8.24576536     8.57711455
O      2.22755145     3.77859525    10.88358578
Ce     2.28625411     1.67771276     1.38101795
Ce     0.37752777     2.77939837     4.62676090
Ce     0.41400820     0.57987724     7.79019299
Ce     6.11249730     1.67771276     1.38101795
Ce     4.18797295     2.77527623     4.54904975
Ce     4.10524394     0.60450699     7.80482740
Ce     9.93862571     1.67771276     1.38101795
Ce     8.01403868     2.77120913     4.52294873
Ce     8.00851798     0.58043596     7.77473061
Ce     0.37318991     4.99123716     1.38101795
Ce    -1.52378606     6.08286038     4.55612538
Ce    -1.62850068     3.74417048     7.69141087
Ce     4.19943310     4.99123716     1.38101795
Ce     2.27778968     6.10696661     4.55112868
Ce     8.02556151     4.99123716     1.38101795
Ce     6.11805569     6.08266848     4.56254483
Ce     6.10236391     3.87610494     7.75652734
Ce    -1.53993168     8.30486097     1.38101795
Ce    -3.44304287     9.40645001     4.56102189
Ce    -3.43572236     7.17469973     7.76104618
Ce     2.28631151     8.30486097     1.38101795
Ce     0.36610663     9.43109738     4.53837774
Ce     0.38939298     7.36026377     7.69450329
Ce     6.11243991     8.30486097     1.38101795
Ce     4.20376072     9.41507144     4.57169785
Ce     4.23234581     7.23655886     7.76264363
Cu     3.05326363     4.36131638     7.13773538
C      1.39533646     4.24301701    10.21281616
