81
CIF: Cu-CeO2-O2-Ov.cif | data_image0
O      0.37318325     0.57320900     0.59999690
O      2.29027293     1.67507257     3.76549855
O      0.23806175     2.81132315     6.98892233
O      0.37318325     2.78222527     2.16203261
O      0.37496830     0.54805381     5.35777074
O      4.19942644     0.57320900     0.59999690
O      6.11373538     1.67964908     3.72247601
O      4.06566109     2.68956746     7.05219686
O      4.19942644     2.78222527     2.16203261
O      4.24807223     0.55763881     5.35669144
O      6.12154444     1.64514847     8.56216964
O      8.02555485     0.57320900     0.59999690
O      9.93853883     1.67882584     3.75820578
O      8.00738264     2.78287165     6.91463426
O      8.02555485     2.78222527     2.16203261
O      8.02282991     0.57430201     5.35649241
O      9.75150178     1.65682322     8.66350264
O     -1.53988095     3.88673340     0.59999690
O      0.37206114     4.99270820     3.76575241
O     -1.46561009     6.07088116     6.98388641
O     -1.53993834     6.09584907     2.16203261
O     -1.58427254     3.90831178     5.34786205
O      2.28636224     3.88673340     0.59999690
O      4.20710560     4.99304718     3.73284740
O      2.20303447     6.03008514     7.01418312
O      2.28630485     6.09584907     2.16203261
O      2.31891323     3.89597516     5.36344919
O      4.28181962     5.01046607     8.51132462
O      6.11249065     3.88673340     0.59999690
O      7.99972067     5.01406521     3.76090415
O      6.13962140     6.09261228     6.87371196
O      6.11243325     6.09584907     2.16203261
O      6.05690320     3.84674911     5.40434441
O      7.96408171     5.01560912     8.54855916
O     -3.45300254     7.20035721     0.59999690
O     -1.54258239     8.30326893     3.73842307
O     -3.37907996     9.56004810     7.08446445
O     -3.45300254     9.40937347     2.16203261
O     -3.41725896     7.25986302     5.43908248
O     -1.45786896     8.31020620     8.57660851
O      0.37324065     7.20035721     0.59999690
O      2.29450655     8.29999782     3.72524614
O      0.40676104     9.38925582     6.89634907
O      0.37324065     9.40937347     2.16203261
O      0.38773583     7.21620856     5.36944111
O      2.26610231     8.29730438     8.57470226
O      4.19936905     7.20035721     0.59999690
O      6.11815918     8.28746477     3.75674281
O      4.15719172     9.37406255     6.92456469
O      4.19936905     9.40937347     2.16203261
O      4.16096211     7.17667011     5.39535934
O      6.11927189     8.14997322     8.59708572
O      0.10838741     5.13609955     9.15524361
O     -0.69849034     4.49414710    10.00183444
Ce     2.28624746     1.67771714     1.38101475
Ce     0.36202200     2.79118706     4.65640244
Ce     0.23598249     0.56684593     7.77433674
Ce     6.11249065     1.67771714     1.38101475
Ce     4.18929368     2.77072345     4.53879956
Ce     4.35041396     0.50659542     7.67150250
Ce     9.93861905     1.67771714     1.38101475
Ce     8.02332310     2.78066671     4.54722991
Ce     8.03545365     0.57338528     7.76782030
Ce     0.37318325     4.99124153     1.38101475
Ce    -1.53613954     6.09712294     4.57397447
Ce    -1.58736449     3.82613371     7.78069409
Ce     4.19942644     4.99124153     1.38101475
Ce     2.27597161     6.08956585     4.54480664
Ce     8.02555485     4.99124153     1.38101475
Ce     6.10251687     6.09561075     4.55911015
Ce     6.12572158     3.89045463     7.74937710
Ce    -1.53993834     8.30486534     1.38101475
Ce    -3.45382165     9.42629443     4.57414108
Ce    -3.45482299     7.19664770     7.77373633
Ce     2.28630485     8.30486534     1.38101475
Ce     0.39607271     9.40496500     4.50437186
Ce     0.40565768     7.25087448     7.73621161
Ce     6.11243325     8.30486534     1.38101475
Ce     4.19988183     9.41125104     4.54918289
Ce     4.21665780     7.18672277     7.76359387
Cu     3.04104997     4.30850242     7.15673681
