83
CIF: Cu-CeO2+CO.cif | data_image0
O      0.37318991     0.57320463     0.60000009
O      2.29016412     1.70693845     3.75426503
O      0.30069548     2.73621773     6.98234801
O      0.37318991     2.78222090     2.16203581
O      0.37655744     0.58967265     5.37299856
O      2.28514126     1.21630448     8.77677384
O      4.19943310     0.57320463     0.60000009
O      6.11610561     1.67103796     3.74110511
O      4.12603572     2.83693601     6.97549680
O      4.19943310     2.78222090     2.16203581
O      4.20868809     0.60771748     5.40285297
O      6.11156349     1.69126232     8.53407161
O      8.02556151     0.57320463     0.60000009
O      9.93794953     1.67992924     3.75265638
O      8.04085789     2.78173015     6.92529808
O      8.02556151     2.78222090     2.16203581
O      8.01008188     0.56405307     5.39099773
O      9.89606545     1.65469179     8.59518396
O     -1.53987429     3.88672903     0.60000009
O      0.39876011     4.97647705     3.75311473
O     -1.58771864     6.12770127     6.87662230
O     -1.53993168     6.09584470     2.16203581
O     -1.52672801     3.88342272     5.38050139
O     -0.02134537     5.18936984     8.77143734
O      2.28636890     3.88672903     0.60000009
O      4.18706101     4.98409810     3.74885509
O      2.29717172     6.01634178     6.97928541
O      2.28631151     6.09584470     2.16203581
O      2.30464033     3.90130659     5.46980043
O      4.19280285     4.98907007     8.46361454
O      6.11249730     3.88672903     0.60000009
O      8.02242259     4.97762424     3.74337863
O      6.12077326     6.09972519     6.90919211
O      6.11243991     6.09584470     2.16203581
O      6.10586956     3.86485790     5.38800351
O      7.98826259     4.98901432     8.57867362
O     -3.45299589     7.20035283     0.60000009
O     -1.53146305     8.31186126     3.75775344
O     -3.46141832     9.35612511     6.86214606
O     -3.45299589     9.40936910     2.16203581
O     -3.47243799     7.18864141     5.32984612
O     -1.60632676     8.29466063     8.59302314
O      0.37324730     7.20035283     0.60000009
O      2.28389482     8.31246339     3.73950607
O      0.33608351     9.37500824     6.97283151
O      0.37324730     9.40936910     2.16203581
O      0.40626259     7.18747485     5.39176775
O      2.32959912     8.30952709     8.53190728
O      4.19937571     7.20035283     0.60000009
O      6.10011976     8.30921952     3.74135889
O      4.21506903     9.42875761     6.91965953
O      4.19937571     9.40936910     2.16203581
O      4.17891205     7.20787712     5.38492851
O      6.09772527     8.28005412     8.57655992
O      0.28307764     7.28352308    11.81948396
Ce     2.28625411     1.67771276     1.38101795
Ce     0.36502105     2.77855245     4.60509374
Ce     0.41214671     0.57939007     7.80832506
Ce     6.11249730     1.67771276     1.38101795
Ce     4.21661610     2.76136385     4.53733018
Ce     4.14398796     0.53882964     7.80625138
Ce     9.93862571     1.67771276     1.38101795
Ce     8.03362185     2.78138480     4.55936526
Ce     8.01922302     0.56891026     7.75168716
Ce     0.37318991     4.99123716     1.38101795
Ce    -1.53640736     6.09429153     4.56082422
Ce    -1.52089030     3.91683042     7.80848688
Ce     4.19943310     4.99123716     1.38101795
Ce     2.27293248     6.12360416     4.53912070
Ce     8.02556151     4.99123716     1.38101795
Ce     6.11193322     6.09559758     4.55060386
Ce     6.16759070     3.86545014     7.74662766
Ce    -1.53993168     8.30486097     1.38101795
Ce    -3.45573747     9.41197678     4.55484667
Ce    -3.47129588     7.19348468     7.72658330
Ce     2.28631151     8.30486097     1.38101795
Ce     0.36778742     9.40117362     4.58910346
Ce     0.31738248     7.16697905     7.84694550
Ce     6.11243991     8.30486097     1.38101795
Ce     4.20357503     9.41859759     4.55786010
Ce     4.21749930     7.26292207     7.73971805
Cu     3.09191523     4.35800996     7.11055393
C      0.34418774     7.32991440    10.67965415
