82
CIF: Ag-CeO2-Ov+O2.cif | data_image0
O      0.55978923     0.45000431     0.59999690
O      2.45703905     1.50017857     3.72550135
O      0.63993506     2.96722203     7.10869003
O      0.55978923     2.65902057     2.16203261
O      0.54091166     0.56172235     5.45969236
O      2.51220408     1.70818334     8.47849753
O      4.38603242     0.45000431     0.59999690
O      6.31297326     1.54679470     3.73900573
O      4.56288010     2.55739330     6.78794112
O      4.38603242     2.65902057     2.16203261
O      4.36591996     0.39185424     5.33783100
O      6.31744855     1.54496069     8.59602899
O      8.21216082     0.45000431     0.59999690
O     10.12788173     1.54585350     3.73821031
O      8.17194761     2.64089905     6.91817415
O      8.21216082     2.65902057     2.16203261
O      8.22029991     0.44561934     5.37854552
O     10.11899802     1.55453315     8.51485466
O     -1.35327498     3.76352871     0.59999690
O      0.50545367     4.89957472     3.74124657
O     -1.26769043     5.92377282     7.03857752
O     -1.35333237     5.97264438     2.16203261
O     -1.36623818     3.73678594     5.39431610
O      2.47296821     3.76352871     0.59999690
O      4.42528622     4.90953218     3.72567600
O      2.24531160     5.74969777     7.10995938
O      2.47291082     5.97264438     2.16203261
O      2.48604773     3.75629059     5.12061579
O      4.27268957     4.75778101     8.47843862
O      6.29909662     3.76352871     0.59999690
O      8.22806079     4.89374584     3.74361767
O      6.23844496     5.98953402     6.96527412
O      6.29903923     5.97264438     2.16203261
O      6.33970803     3.81094068     5.33851930
O      8.14597798     4.87598211     8.53421326
O     -3.26639657     7.07715251     0.59999690
O     -1.36737987     8.15507662     3.74346413
O     -3.31027651     9.33101400     6.96437723
O     -3.26639657     9.28616878     2.16203261
O     -3.24715001     7.06612851     5.44828178
O     -1.39374021     8.23575078     8.53402259
O      0.55984662     7.07715251     0.59999690
O      2.48158101     8.18372716     3.73819997
O      0.55549170     9.33129893     6.91850800
O      0.55984662     9.28616878     2.16203261
O      0.57641731     7.10252898     5.39416720
O      2.47039698     8.18849998     8.51525639
O      4.38597502     7.07715251     0.59999690
O      6.27859390     8.19349263     3.80122430
O      4.40582244     9.27499461     6.94236781
O      4.38597502     9.28616878     2.16203261
O      4.27951017     7.03781668     5.46028715
O      6.28924992     8.18893169     8.58060355
O     -0.25261368     4.57917821     9.76509487
O      0.40059302     5.72565666     9.76827707
Ce     2.47285343     1.55451244     1.38101475
Ce     0.58816901     2.69772695     4.55746979
Ce     0.57652408     0.50666792     7.76613228
Ce     6.29909662     1.55451244     1.38101475
Ce     4.38294613     2.66119457     4.53768274
Ce     4.38713232     0.52032887     7.71597799
Ce    10.12522502     1.55451244     1.38101475
Ce     8.21616241     2.66297475     4.53167296
Ce     8.20784290     0.45331672     7.73548540
Ce     0.55978923     4.86803684     1.38101475
Ce    -1.35491731     5.97365295     4.57883533
Ce    -1.48624250     3.73399585     7.75892884
Ce     4.38603242     4.86803684     1.38101475
Ce     2.45345034     5.92897046     4.55767784
Ce     8.21216082     4.86803684     1.38101475
Ce     6.28945910     5.97087258     4.56928587
Ce     6.23930045     3.72824452     7.71614492
Ce    -1.35333237     8.18166064     1.38101475
Ce    -3.26915489     9.29561702     4.56911992
Ce    -3.30736895     7.10139019     7.78428861
Ce     2.47291082     8.18166064     1.38101475
Ce     0.55850898     9.28121798     4.53149564
Ce     0.51901123     7.20856774     7.75866011
Ce     6.29903923     8.18166064     1.38101475
Ce     4.36796598     9.29671946     4.57845615
Ce     4.34500099     7.03513015     7.76650397
Ag     2.44583630     3.77937745     7.84714378
