84
CIF: CO+O2 — CO2+Olat.cif | data_image0
O      0.55978923     0.45000431     0.59999690
O      2.45583471     1.49850030     3.72960462
O      0.65443126     2.94552270     7.10160650
O      0.55978923     2.65902057     2.16203261
O      0.53705975     0.55073022     5.46515506
O      2.53349807     1.72174276     8.47980597
O      4.38603242     0.45000431     0.59999690
O      6.31475148     1.54583552     3.74505197
O      4.58326182     2.54669653     6.79203111
O      4.38603242     2.65902057     2.16203261
O      4.36558166     0.38789738     5.34404623
O      6.32831976     1.53504218     8.60283316
O      8.21216082     0.45000431     0.59999690
O     10.12621228     1.54526756     3.74418087
O      8.19079012     2.65484569     6.94322439
O      8.21216082     2.65902057     2.16203261
O      8.21435716     0.45013460     5.39035968
O     10.13662436     1.55219147     8.51178020
O     -1.35327498     3.76352871     0.59999690
O      0.50677333     4.89823550     3.74244287
O     -1.32199428     5.96260310     6.95868968
O     -1.35333237     5.97264438     2.16203261
O     -1.35653374     3.73414602     5.40974746
O      2.47296821     3.76352871     0.59999690
O      4.42508284     4.90711010     3.72783381
O      2.24696748     5.73979718     7.10699974
O      2.47291082     5.97264438     2.16203261
O      2.48867186     3.75313922     5.12628905
O      4.26465217     4.73509750     8.47609021
O      6.29909662     3.76352871     0.59999690
O      8.22711832     4.88914605     3.74729521
O      6.23480846     5.98102384     6.97368925
O      6.29903923     5.97264438     2.16203261
O      6.34420561     3.81042573     5.34424554
O      8.16670046     4.90001683     8.54638283
O     -3.26639657     7.07715251     0.59999690
O     -1.36310927     8.15699921     3.74774901
O     -3.30158562     9.33149142     6.97993280
O     -3.26639657     9.28616878     2.16203261
O     -3.28055469     7.08463811     5.42732339
O     -1.37223039     8.20837258     8.54140061
O      0.55984662     7.07715251     0.59999690
O      2.47743421     8.18465748     3.74239599
O      0.55438463     9.30828951     6.93019751
O      0.55984662     9.28616878     2.16203261
O      0.58305727     7.09742907     5.41021816
O      2.44806808     8.15730874     8.52251131
O      4.38597502     7.07715251     0.59999690
O      6.26639720     8.19812797     3.79453307
O      4.39060432     9.26828050     6.94962478
O      4.38597502     9.28616878     2.16203261
O      4.27767334     7.03622924     5.46426589
O      6.27614437     8.18919083     8.57741221
O     -0.58162931     4.36426402    10.17123012
O      0.11758091     5.12437645     9.22780719
O     -1.59464740     6.37354536    11.33369734
Ce     2.47285343     1.55451244     1.38101475
Ce     0.58641666     2.69638367     4.56345542
Ce     0.57112218     0.50746267     7.76905096
Ce     6.29909662     1.55451244     1.38101475
Ce     4.38611148     2.65855762     4.54001542
Ce     4.39988550     0.51311298     7.71986710
Ce    10.12522502     1.55451244     1.38101475
Ce     8.22216469     2.66612610     4.54693075
Ce     8.21217196     0.45135863     7.74269523
Ce     0.55978923     4.86803684     1.38101475
Ce    -1.36240871     5.97296227     4.57399011
Ce    -1.44550907     3.77274941     7.79791322
Ce     4.38603242     4.86803684     1.38101475
Ce     2.45253110     5.92487486     4.55843007
Ce     8.21216082     4.86803684     1.38101475
Ce     6.28430741     5.97273921     4.56847197
Ce     6.25608982     3.72342163     7.71710537
Ce    -1.35333237     8.18166064     1.38101475
Ce    -3.27482111     9.29584258     4.56834115
Ce    -3.31990300     7.10595584     7.77143712
Ce     2.47291082     8.18166064     1.38101475
Ce     0.55806670     9.27993922     4.53822183
Ce     0.49297176     7.16883206     7.76008178
Ce     6.29903923     8.18166064     1.38101475
Ce     4.36355853     9.29603446     4.58149292
Ce     4.33236743     7.02853628     7.76813639
Ag     2.44652358     3.77203935     7.84731129
C     -1.67520186     5.22055270    11.18197441
