81
CIF: Ru-CeO2.cif | data_image0
O      0.55978538     0.45000321     0.60000009
O      2.47257611     1.57958158     3.75940514
O      0.52187072     2.63759103     6.85449140
O      0.55978538     2.65901948     2.16203581
O      0.55648189     0.42485810     5.36316877
O      2.47335068     1.90823503     8.36873796
O      4.38602857     0.45000321     0.60000009
O      6.29749360     1.55518067     3.74213784
O      4.42223815     2.63789500     6.85456745
O      4.38602857     2.65901948     2.16203581
O      4.38956045     0.42485000     5.36436459
O      6.29269245     1.55833350     8.55441726
O      8.21215698     0.45000321     0.60000009
O     10.12661072     1.55555190     3.74200166
O      8.21284861     2.65231511     6.92932417
O      8.21215698     2.65901948     2.16203581
O      8.21255241     0.45016665     5.37050552
O     10.13129546     1.55723512     8.55553856
O     -1.35327882     3.76352761     0.60000009
O      0.58184757     4.85547140     3.75931645
O     -1.29638257     5.94023531     6.97371909
O     -1.35333621     5.97264328     2.16203581
O     -1.37780421     3.77434304     5.36372217
O      0.86537832     4.69113588     8.36844636
O      2.47296437     3.76352761     0.60000009
O      4.36412487     4.85593520     3.75963249
O      2.47210372     6.01734222     6.85416299
O      2.47290698     5.97264328     2.16203581
O      2.47236597     3.76374977     5.54414963
O      4.08021417     4.69100980     8.36770415
O      6.29909277     3.76352761     0.60000009
O      8.21162556     4.88531806     3.73934079
O      6.24310155     5.94212829     6.97185476
O      6.29903538     5.97264328     2.16203581
O      6.32279373     3.77282453     5.36438509
O      8.21107304     4.87737193     8.54730679
O     -3.26640042     7.07715142     0.60000009
O     -1.36824417     8.17344016     3.73902785
O     -3.26777304     9.34990259     6.97217878
O     -3.26640042     9.28616768     2.16203581
O     -3.26538491     7.07686400     5.42595528
O     -1.36138044     8.17831503     8.54757216
O      0.55984277     7.07715142     0.60000009
O      2.47255711     8.17959504     3.74204726
O      0.56611221     9.28921099     6.92911558
O      0.55984277     9.28616768     2.16203581
O      0.53787501     7.09313747     5.36362414
O      2.47356699     8.17524192     8.55576294
O      4.38597118     7.07715142     0.60000009
O      6.31520322     8.17254058     3.73920773
O      4.38048561     9.28910351     6.92854135
O      4.38597118     9.28616768     2.16203581
O      4.40649000     7.09287440     5.36311695
O      6.30698539     8.17733789     8.54858686
Ce     2.47284958     1.55451135     1.38101795
Ce     0.55014207     2.65382080     4.56111518
Ce     0.55236024     0.48792224     7.71721478
Ce     6.29909277     1.55451135     1.38101795
Ce     4.39498695     2.65372661     4.56117620
Ce     4.39274154     0.48812686     7.71738330
Ce    10.12522118     1.55451135     1.38101795
Ce     8.21199155     2.65947560     4.54862827
Ce     8.21225210     0.44998856     7.73962861
Ce     0.55978538     4.86803574     1.38101795
Ce    -1.35293436     5.97250999     4.56332613
Ce    -1.32268835     3.73861565     7.71777457
Ce     4.38602857     4.86803574     1.38101795
Ce     2.47266291     5.98367121     4.56130203
Ce     8.21215698     4.86803574     1.38101795
Ce     6.29875539     5.97234232     4.56323115
Ce     6.26886483     3.73880978     7.71741654
Ce    -1.35333621     8.18165955     1.38101795
Ce    -3.26623823     9.28658848     4.56320423
Ce    -3.26646646     7.07744543     7.78421883
Ce     2.47290698     8.18165955     1.38101795
Ce     0.55933816     9.28592199     4.54846662
Ce     0.59697187     7.06328512     7.71774153
Ce     6.29903538     8.18165955     1.38101795
Ce     4.38662544     9.28583431     4.54801883
Ce     4.34907766     7.06392857     7.71723895
Ru     2.47357289     3.76171509     7.56358869
