84
CIF: Y-Cu-CeO2-CO.cif | data_image0
Ce     1.93038582     1.11050507     0.88387043
Ce    -0.01384647     2.23178764     4.06331516
Ce    -5.79290816    10.03609863     7.21876388
Ce     5.81181033     1.12175166     0.90127712
Ce     3.84723219     2.18574851     3.98612382
Ce    -1.90308785    10.01524334     7.25290942
Ce     9.66901012     1.12377363     0.90450652
Ce     7.72879894     2.25008253     4.12008216
Ce     1.96742128    10.02609611     7.25038362
Ce    -0.00709724     4.47602159     0.89067279
Ce    -1.93164547     5.57792625     4.07287956
Ce    -1.90527697     3.34949354     7.31102453
Ce     3.86254305     4.47635356     0.87798423
Ce     1.94790883     5.58386925     4.03785598
Ce     1.90110932     3.30914911     7.22177831
Ce     7.74213807     4.46545905     0.90125422
Ce     5.83336923     5.64225207     3.96897748
Ce    -1.94645625     7.83004003     0.90010904
Ce    -3.86059803     8.93450410     4.07080652
Ce    -3.84032983     6.67286154     7.24701254
Ce     1.92815559     7.82745473     0.89060408
Ce     0.00691184     8.94041389     4.05931638
Ce     0.03783961     6.68827070     7.21384931
Ce     5.81127600     7.83258510     0.88371011
Ce     3.86832534     8.95374534     4.03498877
Ce     3.88746903     6.77375962     7.19192048
Cu     4.70614817     4.00766844     6.20793149
Y      6.19719733     3.06245984     8.06616245
O     11.61334069     0.00154917     0.10141687
O      1.92629613     1.10428985     3.22695938
O      0.06095241     2.19073587     6.42545118
O     -0.00785227     2.23805103     1.69392277
O     -5.79643247    10.04623194     4.86284064
O      2.00234933     1.11017901     8.02335106
O     -1.93899312    10.05733740     0.10496691
O      5.80558609     1.10389404     3.24960878
O      3.96825514     2.24063671     6.41713919
O      3.86763657     2.23577757     1.68132582
O     -1.94186529    10.05429937     4.87806483
O      5.89306416     0.90903197     8.33106809
O      7.73821774     0.00761509     0.10924988
O      9.67479659     1.11932463     3.25451077
O      7.61842569     2.22307087     6.57833917
O      7.74357843     2.23531483     1.71563532
O      7.75531301     0.02602949     4.87916822
O      9.71838965     0.93667320     8.06741555
O      9.67032270     3.35425987     0.10911246
O      0.00398502     4.46561647     3.25219662
O     -1.92680216     5.63395864     6.42279166
O     -1.94403436     5.59119430     1.70564938
O      9.65347839     3.32872759     4.86193777
O      0.16652608     4.52989959     8.04702408
O      1.92738314     3.35244915     0.09928684
O      3.83320929     4.48440869     3.19576048
O      2.02294859     5.56777349     6.40042092
O      1.92862022     5.59252216     1.67404250
O      1.95285952     3.32835511     4.87008083
O      4.03241112     4.38633343     7.99034991
O      5.81155478     3.35101064     0.10766953
O      7.75324245     4.47998811     3.24339425
O      5.78828111     5.58675922     6.34405966
O      5.80528807     5.59217007     1.68114259
O      5.73967474     3.40050489     4.70691049
O      7.76707415     4.58022306     8.28390011
O     -3.87155109     6.71022987     0.10512724
O     -1.92716204     7.82199723     3.25773930
O     -3.84770120     8.92266560     6.44231577
O     -3.87509971     8.94378428     1.69355631
O     -3.87299469     6.71138013     4.86452062
O     -1.90636441     7.83164594     8.03634170
O     -0.01209783     6.71325780     0.10434852
O      1.92920860     7.83232420     3.23606426
O      0.01321452     8.94754981     6.41765439
O     -0.00628994     8.94736548     1.70514550
O      0.03026723     6.69790012     4.87834135
O      1.97475703     7.79250581     8.00975435
O      3.86815347     6.71410280     0.09951587
O      5.81897202     7.84670668     3.21427760
O      3.89172996     8.91223389     6.37747469
O      3.86556896     8.94715423     1.69389986
O      3.88071248     6.72280811     4.82140384
O      5.81230983     7.79176559     8.00215462
O      5.96778412     3.13432304    11.88207379
C      6.01447741     3.13785882    10.74344946
