84
CIF: CO+Olatt—CO2.cif | data_image0
Ce     1.93596140     1.11772783     0.89035214
Ce    -0.01182624     2.25069135     4.04761943
Ce     0.01537117     0.00374303     7.17880948
Ce     5.80789581     1.11772783     0.89035214
Ce     3.80896778     2.21449055     3.94282334
Ce    -2.00322397    10.01464924     7.16197455
Ce     9.67981860     1.11772783     0.89035214
Ce     7.76907115     2.23716690     4.02647127
Ce     7.78904425     0.03957420     7.31478510
Ce     0.00000000     4.47091133     0.89035214
Ce    -1.93033026     5.59456528     4.05372824
Ce    -1.85878627     3.43904132     7.28951942
Ce     3.87193441     4.47091133     0.89035214
Ce     1.95617135     5.59418377     4.08242471
Ce     1.87628251     3.34804793     7.23054424
Ce     7.74385721     4.47091133     0.89035214
Ce     5.81476130     5.58728810     4.04740747
Ce    -1.93596721     7.82410489     0.89035214
Ce    -3.88168141     8.92084376     4.02131642
Ce    -3.77425259     6.73157337     7.25936394
Ce     1.93596721     7.82410489     0.89035214
Ce     0.01445259     8.97162374     4.06915921
Ce     0.05731392     6.74787889     7.22475793
Ce     5.80789000     7.82410489     0.89035214
Ce     3.88218937     8.94747201     4.07594103
Ce     3.90254210     6.73710140     7.29383307
Mo     5.63126138     3.14980359     6.83925066
O      0.00000000     0.00000000     0.09999685
O      1.91130895     1.09979399     3.19928609
O      0.01607562     2.23622825     6.38122272
O      0.00000000     2.23545567     1.68070743
O      0.00818303     0.00012642     4.83902184
O      1.99285303     1.00933737     7.95340593
O      3.87192279     0.00000000     0.09999685
O      5.81305849     1.11789690     3.21084337
O      3.97305194     2.33442671     6.28300965
O      3.87192279     2.23545567     1.68070743
O      3.84848500     0.03530125     4.82035449
O      5.68602118     1.62281472     7.93166554
O      7.74385721     0.00000000     0.09999685
O      9.67997508     1.11929459     3.22871730
O      7.47895911     2.65250092     6.50681926
O      7.74385721     2.23545567     1.68070743
O      7.75756943     0.10486846     4.88941103
O      9.75511368     1.26285614     8.00026429
O     -1.93596140     3.35318350     0.09999685
O     -0.01577399     4.49088374     3.25408820
O     -1.89686036     5.64075076     6.33856083
O     -1.93596721     5.58864923     1.68070743
O      9.65049790     3.32559229     4.87862260
O     -0.03466933     4.53905444     8.02936071
O      1.93596140     3.35318350     0.09999685
O      3.88742070     4.47318412     3.22397451
O      1.96677238     5.57347011     6.39951883
O      1.93595559     5.58864923     1.68070743
O      1.93469387     3.33493369     4.78752934
O      5.80789581     3.35318350     0.09999685
O      7.72719381     4.45635784     3.24679513
O      5.95723271     5.11576379     6.51694772
O      5.80789000     5.58864923     1.68070743
O      5.73692355     3.26359305     4.83831905
O      8.30654045     4.79159537     8.44047518
O     -3.87192860     6.70637706     0.09999685
O     -1.93677176     7.81823048     3.25323075
O     -3.82957265     8.93618395     6.33264426
O     -3.87192860     8.94183273     1.68070743
O      7.68273370     6.67994808     4.87384296
O     -1.93680009     7.88939382     8.01393026
O     -0.00000581     6.70637706     0.09999685
O      1.96459848     7.84918404     3.27530367
O     -0.06305696     9.04550739     6.42895182
O     -0.00000581     8.94183273     1.68070743
O      0.04142748     6.75875778     4.86015854
O      3.87192860     6.70637706     0.09999685
O      5.80882921     7.82066146     3.22382038
O      3.91516476     8.97879735     6.43178196
O      3.87192860     8.94183273     1.68070743
O      3.97422301     6.68276817     4.87912329
O      5.97481189     7.82463145     7.96053175
O      4.13044518     4.08971971     8.07362111
O      1.83295731     7.79553103     8.07219082
O      3.81900634     3.93282920    10.55657184
Pd     6.50481670     4.27991134     9.18531505
C      4.71168987     4.01161260     9.79050230
