82
CIF: W-CeO2-Ov+CO.cif | data_image0
O      0.55978923     0.45000431     0.59999690
O      2.54350245     1.57805128     3.78908429
O      0.66066922     2.73241946     7.06842340
O      0.55978923     2.65902057     2.16203261
O      0.56865461     0.35806624     5.40105839
O      2.53562075     2.14119884     8.75749615
O      4.38603242     0.45000431     0.59999690
O      6.29554826     1.53999646     3.73742240
O      4.18419036     2.56317316     6.88209792
O      4.38603242     2.65902057     2.16203261
O      4.42414278     0.41714050     5.35794418
O      6.24981437     1.43553047     8.60206641
O      8.21216082     0.45000431     0.59999690
O     10.05884738     1.51978460     3.76391051
O      8.18703853     2.62370600     6.91055961
O      8.21216082     2.65902057     2.16203261
O      8.17798807     0.42010556     5.39724451
O      9.95768149     1.67297143     8.66694131
O     -1.35327498     3.76352871     0.59999690
O      0.56928531     4.94065126     3.73954316
O     -1.28493833     5.97074717     7.03111709
O     -1.35333237     5.97264438     2.16203261
O     -1.42771632     3.80206155     5.43697870
O      1.22449809     4.92480822     8.29918333
O      2.47296821     3.76352871     0.59999690
O      4.35447321     4.84933328     3.74206725
O      3.84267711     4.74487889     8.28605106
O      2.47291082     5.97264438     2.16203261
O      2.49318086     4.05896877     5.76380084
O      6.29909662     3.76352871     0.59999690
O      8.20590045     4.89195179     3.76754852
O      6.33366035     5.98067786     6.94663471
O      6.29903923     5.97264438     2.16203261
O      6.25684808     3.74005754     5.35359053
O      8.30427885     4.86709328     8.62231018
O     -3.26639657     7.07715251     0.59999690
O     -1.31108220     8.13859504     3.78210488
O     -3.17986577     9.36230145     7.04116572
O     -3.26639657     9.28616878     2.16203261
O     -3.23363361     7.09825272     5.43375423
O     -1.32245633     8.18707981     8.68852517
O      0.55984662     7.07715251     0.59999690
O      2.46962191     8.19253630     3.71582586
O      0.50272591     9.28269295     6.92495232
O      0.55984662     9.28616878     2.16203261
O      0.72387928     7.01875638     5.53158633
O      2.32960004     8.11206433     8.54640318
O      4.38597502     7.07715251     0.59999690
O      6.27700760     8.13529422     3.78430745
O      4.34251866     9.34600428     7.01508212
O      4.38597502     9.28616878     2.16203261
O      4.24564427     7.02451877     5.47062320
O      6.43855244     8.09086701     8.73277957
O      0.43011085     1.94062877    11.72049833
Ce     2.47285343     1.55451244     1.38101475
Ce     0.54384254     2.65061873     4.60856928
Ce     0.53091090     0.47061505     7.90813303
Ce     6.29909662     1.55451244     1.38101475
Ce     4.40896669     2.63180120     4.54793163
Ce     4.42746604     0.44184896     7.74495148
Ce    10.12522502     1.55451244     1.38101475
Ce     8.20108481     2.65191179     4.54253063
Ce     8.18256667     0.45203958     7.75578668
Ce     0.55978923     4.86803684     1.38101475
Ce    -1.34458470     5.96387653     4.58859433
Ce    -1.46145387     3.71176277     7.73317399
Ce     4.38603242     4.86803684     1.38101475
Ce     2.47826161     6.01242274     4.43835759
Ce     8.21216082     4.86803684     1.38101475
Ce     6.28716518     5.96648983     4.60945974
Ce     6.25295672     3.73137031     7.77087532
Ce    -1.35333237     8.18166064     1.38101475
Ce    -3.27438454     9.29401218     4.60624370
Ce    -3.27350696     7.06722126     7.81945599
Ce     2.47291082     8.18166064     1.38101475
Ce     0.57019947     9.27510893     4.55093365
Ce     0.47389502     7.18521277     7.83657725
Ce     6.29903923     8.18166064     1.38101475
Ce     4.39565371     9.29345522     4.60930823
Ce     4.47409152     7.15224676     7.89327357
W      2.45508554     3.63418078     7.66819755
C      0.53890495     1.30224485    10.77917293
