93
CIF: CO+O2 — CO2+Olat.cif | data_image0
O      1.34365542     2.41772556     4.33619039
O      1.34653434     6.38200703     8.21484627
O      1.35275000     6.24576514     0.45001077
O      1.40008336     2.31075046     8.18306601
O      1.35275000     2.41961430     0.45001077
O      1.35043586     6.25510808     4.34020920
O      4.03618438     0.65640734     6.47081221
O      4.05825000     4.33269546     2.36308887
O      4.05825000     0.50653314     2.36308887
O      4.14265191     4.26638890     6.38718149
O      4.04132002     2.42983362     4.34633756
O      4.11752460     5.91378297     8.32650307
O      4.05825000     6.24576514     0.45001077
O      5.44763124     3.19283349     8.78351141
O      4.05825000     2.41961430     0.45001077
O      4.05406506     6.19991438     4.35888448
O      1.31312194     0.46700886     6.23487599
O      1.35275000     4.33269546     2.36308887
O      1.35275000     0.50653314     2.36308887
O      1.35450278     4.34330072     6.26889975
O      6.77058564     2.42905112     4.33811230
O      6.70351656     5.92983950     8.30721696
O      6.76375000     6.24576514     0.45001077
O      6.76375000     2.41961430     0.45001077
O      6.76463077     6.20987394     4.36034358
O      9.48851817     0.46429484     6.23952420
O      9.46925000     4.33269546     2.36308887
O      9.46925000     0.50653314     2.36308887
O      9.45443622     4.34687729     6.26978916
O      9.46953835     2.41507633     4.34194171
O      9.46382643     6.38802892     8.20988660
O      9.46925000     6.24576514     0.45001077
O      9.38970550     2.31111604     8.18403222
O      9.46925000     2.41961430     0.45001077
O      9.46618088     6.25927772     4.34096977
O      6.76299113     0.65816264     6.46653563
O      6.76375000     4.33269546     2.36308887
O      6.76375000     0.50653314     2.36308887
O      6.67441813     4.27793709     6.37368598
O      1.36226803    10.06790725     4.29811334
O      1.28093650    10.09622534     8.24246413
O      1.35275000    10.07192746     0.45001077
O      4.04957328     8.05894748     6.33251631
O      4.05825000     8.15884630     2.36308887
O      4.07130891    10.10225225     4.43043155
O      4.03616377    10.00166077     8.22992288
O      4.05825000    10.07192746     0.45001077
O      1.33160853     8.20119564     6.25515734
O      1.35275000     8.15884630     2.36308887
O      6.74122474    10.10620943     4.43382922
O      6.74232941    10.03801084     8.28986358
O      6.76375000    10.07192746     0.45001077
O      9.47370674     8.21524857     6.25724140
O      9.46925000     8.15884630     2.36308887
O      9.45076172    10.07076400     4.29773231
O      9.50929697    10.10138039     8.25363241
O      9.46925000    10.07192746     0.45001077
O      6.75971694     8.08165927     6.34681909
O      6.76375000     8.15884630     2.36308887
O      4.31840998     0.72121695    10.31115788
O      5.90513815     0.80537584    10.66428210
O      7.11307837     2.63097715    11.96773194
Ce    10.81577803     0.45459261     4.29477829
Ce    10.81282342     4.34349696     8.22303069
Ce     0.00000000     4.33269546     0.45001077
Ce     2.58453764     2.37983487     6.27736038
Ce     2.70550000     6.24576514     2.36308887
Ce     2.70550000     2.41961430     2.36308887
Ce     2.61908698     6.27055518     6.36294385
Ce    10.80958998     0.48660222     8.12302070
Ce     0.00000000     0.50653314     0.45001077
Ce    10.81856816     4.35564869     4.32407615
Ce     5.40877428     0.52207978     4.42828464
Ce     5.41100000     4.33269546     0.45001077
Ce     8.21674695     2.38077057     6.27783508
Ce     8.11650000     6.24576514     2.36308887
Ce     8.11650000     2.41961430     2.36308887
Ce     8.19441180     6.27974161     6.35619803
Ce     5.35114250     0.31686640     8.52695523
Ce     5.41100000     0.50653314     0.45001077
Ce     5.40808444     4.32487579     4.27933207
Ce    10.81635928     8.19354965     4.30921988
Ce     2.73269530    10.07905477     6.42728459
Ce     2.70550000    10.07192746     2.36308887
Ce    10.81343776     8.20064244     8.11453062
Ce     0.00000000     8.15884630     0.45001077
Ce     5.40845158     8.15056074     4.39255369
Ce     8.05667951    10.09285540     6.45696278
Ce     8.11650000    10.07192746     2.36308887
Ce     5.40283679     8.15253467     8.28980747
Ce     5.41100000     8.15884630     0.45001077
W      5.41508394     4.67502000     7.82828638
C      7.24075819     1.66592590    11.31907262
