86
CIF: 2-NH2+H+NO-NH2NO+H_is.cif | data_image0
Ce     5.79820621    10.05348836     8.75042854
Ce     1.93238977     1.12501576     5.57763236
Ce     0.00000000     2.23543938     2.47426506
Ce    -1.98181754    10.02123832     8.70769090
Ce     5.81401414     1.12452174     5.64553794
Ce     3.87189458     2.23543938     2.47426506
Ce     1.93699018    10.02960580     8.75492425
Ce     9.70848031     1.10038454     5.59889777
Ce     7.74390532     2.23543938     2.47426506
Ce     9.67990168     3.25418592     8.77156638
Ce     0.02097895     4.50962632     5.66078299
Ce    -1.93600537     5.58869904     2.47426506
Ce     1.98259702     3.19665657     8.77268827
Ce     3.88055163     4.47295269     5.65385825
Ce     1.93588921     5.58869904     2.47426506
Ce     5.84132336     3.34367579     8.87735309
Ce     7.74785066     4.47136962     5.65070532
Ce     5.80789995     5.58869904     2.47426506
Ce    -3.92488155     6.80842605     8.71736083
Ce    -1.95672487     7.83442354     5.60571333
Ce    -3.87195266     8.94185811     2.47426506
Ce     1.91164868     7.79214944     5.63546288
Ce    -0.00005808     8.94185811     2.47426506
Ce     4.01016090     6.73887182     8.80164831
Ce     5.78937183     7.81852426     5.57138548
Ce     3.87195266     8.94185811     2.47426506
Pt     0.12730091     6.72147766     8.71502885
O     11.60312982     0.00531766     6.37561027
O     -0.03512537     2.21398261     9.50703576
O      1.93594729     1.11771969     3.26466483
O     -0.00519762     2.25226621     4.79972626
O      0.00000000     0.00000000     1.68386529
O      1.89846515     1.07090701     7.91709841
O      3.89952023     0.07677945     6.36050766
O      3.78954682     2.07675707     9.54095495
O      5.80795803     1.11771969     3.26466483
O      3.88549568     2.26789843     4.80828089
O      3.87189458     0.00000000     1.68386529
O      5.87009831     1.06907993     7.99100726
O      1.95766868     9.94663316     6.47576641
O      7.91474155     2.13131793     9.63202058
O      9.67985261     1.11771969     3.26466483
O      7.77215943     2.22527867     4.86595822
O      7.74390532     0.00000000     1.68386529
O      9.66970129     1.10115775     7.91688040
O     -1.81668832     3.37473027     6.50027214
O     -1.70602201     5.86919413     9.48253591
O      0.00000000     4.47087876     3.26466483
O     -1.91809554     5.57769649     4.82902272
O     -1.93594729     3.35315907     1.68386529
O      0.30612244     4.70717930     8.18415004
O      1.91869504     3.32178773     6.42360367
O      3.87201074     4.47087876     3.26466483
O      1.91420589     5.59597140     4.84688409
O      1.93594729     3.35315907     1.68386529
O      3.74076872     4.53297984     8.06912199
O      5.80768330     3.38857009     6.45489621
O      5.91332311     5.74817479     9.56950818
O      7.74390532     4.47087876     3.26466483
O      5.78568219     5.56545317     4.79447412
O      5.80795803     3.35315907     1.68386529
O      7.90285093     4.49088503     8.04801067
O      7.66115718     6.63834944     6.35923415
O     -3.97939725     8.98582409     9.63724172
O     -1.93600537     7.82413842     3.26466483
O     -3.87696911     8.94291195     4.80114265
O     -3.87195266     6.70641873     1.68386529
O     -2.30997336     8.00384173     7.80034258
O     -0.06975689     6.75254212     6.52564015
O     -0.07193320     8.73000187     9.21699652
O      1.93600537     7.82413842     3.26466483
O      0.01337598     8.93155048     4.81294532
O     -0.00005808     6.70641873     1.68386529
O      1.89894849     7.50314067     8.12029807
O      3.88623099     6.72536844     6.41586603
O      3.85157661     8.96583711     9.52018656
O      5.80789995     7.82413842     3.26466483
O      3.85352454     8.93938570     4.79448600
O      3.87195266     6.70641873     1.68386529
O      5.80839834     7.88077796     7.91376114
O      2.58857075     4.35069812    11.05371457
N      0.31076712     6.60355263    10.72586421
N      3.03967886     5.45719076    10.72982859
H      0.32104719     7.59207546    11.01401152
H      1.22904849     6.21938278    10.97583674
H     -1.26466336     5.96470647    10.38966950
