86
CIF: 3-NH2NO+H-NHNO+2H_ts.cif | data_image0
Ce     0.00698805     0.00514440     8.75022194
Ce     1.93402565     1.12719773     5.55994567
Ce     0.00001962     2.23537631     2.47364743
Ce    -2.06224402    10.05496454     8.71055965
Ce     5.81869595     1.11318520     5.64760006
Ce     3.87186325     2.23558912     2.47361128
Ce     7.86117786     0.04964437     8.75696212
Ce     9.71334345     1.10502412     5.58359973
Ce     7.74390288     2.23535734     2.47368579
Ce    -1.90413142     3.32424215     8.74104888
Ce     0.01838372     4.50476589     5.61034993
Ce    -1.93601798     5.58867060     2.47337712
Ce     2.00470870     3.20751387     8.75501787
Ce     3.88356780     4.47361873     5.66808954
Ce     1.93583425     5.58880499     2.47364188
Ce     5.86004430     3.33820340     8.88962048
Ce     7.75155969     4.46864417     5.64024207
Ce     5.80777760     5.58868620     2.47369598
Ce    -3.87405886     6.76052563     8.75322373
Ce    -1.96900914     7.84326836     5.61312256
Ce    -3.87204174     8.94191671     2.47353524
Ce     1.93072474     7.80234766     5.66146806
Ce    -0.00003321     8.94187682     2.47346396
Ce     4.01370389     6.74442427     8.89855463
Ce     5.79032541     7.81046778     5.60545863
Ce     3.87199498     8.94185508     2.47375379
Pt     0.11581708     6.59463550     8.68125642
O     11.61063039     0.00746188     6.37457370
O     -0.00454168     2.26905213     9.48224415
O      1.93594379     1.11784153     3.26389335
O      0.00134593     2.25186241     4.78502249
O     11.61576458     0.00000440     1.68335293
O      1.90426352     1.08099398     7.90673046
O      3.88886197     0.08331907     6.37270452
O      3.75930184     2.07980524     9.60984862
O      5.80797992     1.11752937     3.26398131
O      3.89346364     2.26187455     4.80281281
O      3.87192789     0.00004806     1.68338138
O      5.85967980     0.93382721     8.08767680
O      1.98144825     9.99332605     6.47085235
O      7.94118036     2.15658854     9.62405488
O      9.67989671     1.11768775     3.26398672
O      7.76545262     2.22643234     4.85061466
O      1.93601822    10.05953037     1.68343539
O      9.70459173     1.13516884     7.89907249
O     -1.82121047     3.38084367     6.45727661
O     -1.60445138     5.66017043     9.55226554
O      0.00004105     4.47080882     3.26371803
O     -1.91648258     5.58919463     4.81213535
O      9.67982607     3.35305602     1.68336525
O      0.30325234     4.70003532     8.01187546
O      1.93240869     3.31292619     6.40065264
O      3.87165529     4.47113046     3.26418685
O      1.91046530     5.60607913     4.85083463
O      1.93593034     3.35327950     1.68345427
O      3.75192708     4.47054239     8.08856549
O      5.81016402     3.33248118     6.47670015
O      6.06005086     5.68202424     9.63646535
O      7.74401846     4.47084099     3.26394566
O      5.79508528     5.55151019     4.81281569
O      5.80794395     3.35319311     1.68344922
O      7.90274305     4.47738544     7.99847659
O      7.69239770     6.64799319     6.37107623
O     -3.92583286     9.03968531     9.67540395
O     -1.93616290     7.82427844     3.26335836
O     -3.87590960     8.94396629     4.80323095
O      7.74381569     6.70637194     1.68342731
O     -2.24895435     8.00404511     7.86105347
O     -0.10711535     6.78577337     6.53657411
O     -0.14278880     8.53562428     9.60133751
O      1.93611799     7.82426288     3.26390936
O      0.01660867     8.93911457     4.82622651
O     -0.00003607     6.70644998     1.68335207
O      1.82919980     7.60057831     8.10538500
O      3.88925439     6.71948398     6.41177057
O      3.87603180     9.10949864     9.58425136
O      5.80784965     7.82410673     3.26399879
O      3.85839115     8.93963697     4.80114519
O      3.87188377     6.70642888     1.68350399
O      5.87619483     7.89839288     7.95564595
O      2.73343621     5.70128304    10.91418132
N      0.53327689     5.94859580    10.62767283
N      1.62971596     5.07838468    10.61919823
H     -0.37570123     8.32706621    10.52601430
H      0.75365674     6.74132904    11.25384780
H     -0.59428968     5.57690176    10.49921939
