86
CIF: 4-NHNO+2H-N2+OH+2H_is.cif | data_image0
Ce    11.59111210     0.01719197     8.72612068
Ce     1.92254733     1.12623973     5.60053281
Ce     0.00000000     2.23543938     2.47426506
Ce     3.79616735     0.03692468     8.76839145
Ce     5.81070690     1.11305169     5.64906483
Ce     3.87189458     2.23543938     2.47426506
Ce     7.81904907     0.03482115     8.74518478
Ce     9.69449995     1.11082799     5.57115811
Ce     7.74390532     2.23543938     2.47426506
Ce     9.68991520     3.27431142     8.74655508
Ce     0.01040867     4.52244964     5.60798844
Ce    -1.93600537     5.58869904     2.47426506
Ce     1.93628663     3.28241057     8.82538946
Ce     3.86699289     4.47570010     5.69400803
Ce     1.93588921     5.58869904     2.47426506
Ce     5.82698097     3.34526322     8.89593082
Ce     7.75077280     4.47318056     5.64926210
Ce     5.80789995     5.58869904     2.47426506
Ce     7.67835993     6.75833184     8.76887606
Ce    -1.90313686     7.80655301     5.59817040
Ce    -3.87195266     8.94185811     2.47426506
Ce     1.89782897     7.79186750     5.60854810
Ce    -0.00005808     8.94185811     2.47426506
Ce     3.93789006     6.74609039     8.82564236
Ce     5.79513510     7.83380832     5.60057987
Ce     3.87195266     8.94185811     2.47426506
Pt    -0.07835171     6.75542868     9.02070330
O     11.60667398     0.00745007     6.39346949
O     -0.13515843     2.21489934     9.55384741
O      1.93594729     1.11771969     3.26466483
O     -0.00192314     2.22890753     4.78587960
O      0.00000000     0.00000000     1.68386529
O      1.88726057     1.06731472     7.95948861
O     -1.96757075    10.02253852     6.47199959
O      3.84260946     2.02289165     9.66471117
O      5.80795803     1.11771969     3.26466483
O      3.87850027     2.23414303     4.86111203
O      3.87189458     0.00000000     1.68386529
O      5.83855338     0.92938050     8.06366653
O      1.97468825     9.99705047     6.45652967
O      7.90534444     2.14455888     9.60977925
O      9.67985261     1.11771969     3.26466483
O      7.75094409     2.23326003     4.84353409
O      7.74390532     0.00000000     1.68386529
O      9.68887898     1.11477157     7.89407262
O     -1.85922925     3.35347173     6.45844382
O     -1.75458798     5.78582547     9.97118922
O      0.00000000     4.47087876     3.26466483
O     -2.01768764     5.54950584     4.80224980
O     -1.93594729     3.35315907     1.68386529
O     -0.07425313     4.92175047     8.10549811
O      1.86301181     3.35695278     6.44347696
O      3.87201074     4.47087876     3.26466483
O      2.01000561     5.54693260     4.80536590
O      1.93594729     3.35315907     1.68386529
O      3.82273676     4.50205408     8.05970978
O      5.84651470     3.33249585     6.48775651
O      5.98148899     5.72462957     9.66418870
O      7.74390532     4.47087876     3.26466483
O      5.81294419     5.58542947     4.86185067
O      5.80795803     3.35315907     1.68386529
O      7.92644383     4.54229658     8.06550855
O     -3.85410226     6.75384595     6.47246478
O     -3.83043470     8.92147782     9.55319741
O     -1.93600537     7.82413842     3.26466483
O     -3.87697638     8.94481959     4.80136363
O     -3.87195266     6.70641873     1.68386529
O     -1.63268553     7.65026098     8.04747847
O     -0.00627568     6.71114309     5.98638310
O     -0.07831600     8.69755990     9.96418380
O      1.93600537     7.82413842     3.26466483
O     -0.00688771     9.03315917     4.80240766
O     -0.00005808     6.70641873     1.68386529
O      1.50991649     7.66967151     8.10143932
O      3.83332061     6.77070695     6.44362642
O      3.82318290     9.07309636     9.55305832
O      5.80789995     7.82413842     3.26466483
O      3.87797862     8.94819508     4.78644086
O      3.87195266     6.70641873     1.68386529
O      5.83072043     7.89562408     7.95926465
O      1.56064668     5.81233052    10.01139756
N      0.88296710     6.26865782    12.12270944
N      1.73688347     5.76252183    11.38279576
H     -0.06066090     8.61706437    10.93508569
H      0.11318680     6.67869326    11.52674425
H     -1.67230986     5.81543040    10.94189609
