84
CIF: W-W-CeO2-Ov-CO2.cif | data_image0
Ce     1.93596140     1.11772783     0.89035214
Ce    -0.00499153     2.24120474     4.06749779
Ce    11.58618813     0.02634009     7.25729544
Ce     5.80789581     1.11772783     0.89035214
Ce     3.81190370     2.17021306     3.95235832
Ce    -2.07063411     9.92145259     7.38292106
Ce     9.67981860     1.11772783     0.89035214
Ce     7.79422704     2.20429202     3.97939846
Ce     1.99205183     9.91357883     7.35532142
Ce     0.00000000     4.47091133     0.89035214
Ce    -1.94582962     5.57335143     4.11615161
Ce    -1.75654411     3.38234914     7.33261028
Ce     3.87193441     4.47091133     0.89035214
Ce     1.96430464     5.56824202     4.09689805
Ce     1.80716864     3.30686899     7.37724879
Ce     7.74385721     4.47091133     0.89035214
Ce     5.83811454     5.65959156     3.94562094
Ce    -1.93596721     7.82410489     0.89035214
Ce    -3.87560841     8.93517025     4.08190035
Ce    -3.83777977     6.81032003     7.36538841
Ce     1.93596721     7.82410489     0.89035214
Ce     0.00206499     8.95611634     4.12963281
Ce    -0.03056450     6.71376481     7.29413990
Ce     5.80789000     7.82410489     0.89035214
Ce     3.86194293     8.95884478     4.04238765
Ce     3.81400438     6.87404595     7.25486279
W      5.45439945     3.54309213     6.79141769
W      6.79866045     2.81818135     8.98056307
O      0.00000000     0.00000000     0.09999685
O      1.92563773     1.10070085     3.21701064
O      0.03468273     2.22157975     6.39512718
O      0.00000000     2.23545567     1.68070743
O     -5.79864093    10.04429671     4.86980454
O      1.78488563     1.03210316     8.15099260
O      3.87192279     0.00000000     0.09999685
O      5.71927196     1.08470840     3.22654422
O      4.07018915     2.36418008     6.66907369
O      3.87192279     2.23545567     1.68070743
O      3.81734445     0.08025110     4.91341249
O      6.48348702     1.08410405     9.31894952
O      7.74385721     0.00000000     0.09999685
O      9.76055519     1.07087554     3.21013105
O      7.15486328     2.58916616     7.04600096
O      7.74385721     2.23545567     1.68070743
O      7.73583443     0.00833589     4.91652521
O      9.72698983     1.08740332     8.01836578
O     -1.93596140     3.35318350     0.09999685
O      0.01753298     4.47485045     3.28082902
O     -1.99027595     5.61005041     6.46100954
O     -1.93596721     5.58864923     1.68070743
O      9.67702231     3.34996364     4.90540329
O      0.03439276     4.62289432     8.14058866
O      1.93596140     3.35318350     0.09999685
O      3.91015725     4.45787539     3.24083627
O      2.13185478     5.56284369     6.47415179
O      1.93595559     5.58864923     1.68070743
O      2.02089393     3.30173285     4.86453196
O      5.80789581     3.35318350     0.09999685
O      7.72647471     4.55121215     3.21963469
O      5.71323073     5.34760515     6.61816325
O      5.80789000     5.58864923     1.68070743
O      5.82124390     3.33449510     4.92973547
O      8.12112876     3.99868794     9.26755914
O     -3.87192860     6.70637706     0.09999685
O     -1.93756834     7.82374160     3.31751485
O     -3.90744439     8.90883495     6.45033864
O     -3.87192860     8.94183273     1.68070743
O      7.63667164     6.68601530     4.89743658
O     -1.86800219     7.74768513     8.21112414
O     -0.00000581     6.70637706     0.09999685
O      1.94105134     7.81073899     3.28237449
O     -0.03874044     8.95547875     6.49737675
O     -0.00000581     8.94183273     1.68070743
O      0.04274103     6.67681604     4.93881934
O      3.87192860     6.70637706     0.09999685
O      5.81384298     7.83629329     3.20923713
O      3.86930856     8.90339608     6.38915100
O      3.87192860     8.94183273     1.68070743
O      3.97291541     6.69505466     4.87645543
O      5.64533671     7.81555549     8.07563629
O      4.25824205     4.26271355     8.49513125
O      1.95772304     7.71930510     8.13918794
O      4.66214469     4.04840805    10.73141640
C      4.98326596     3.85766234     9.57412422
