85
CIF: W-W-CeO2-O-CO.cif | data_image0
Ce     1.93596140     1.11772783     0.89035214
Ce    -0.02078786     2.22758691     4.04381545
Ce    -5.79751637    10.05263986     7.19758509
Ce     5.80789581     1.11772783     0.89035214
Ce     3.84356097     2.19551791     3.97799163
Ce    -1.93334811    10.00491308     7.34584969
Ce     9.67981860     1.11772783     0.89035214
Ce     7.75639451     2.23932645     3.98422695
Ce     2.03880307     9.87874661     7.25023518
Ce     0.00000000     4.47091133     0.89035214
Ce    -1.95235090     5.58654292     4.10804508
Ce    -1.83823943     3.33786845     7.34761525
Ce     3.87193441     4.47091133     0.89035214
Ce     1.94887376     5.58274105     4.08109449
Ce     1.83584415     3.32244610     7.21172170
Ce     7.74385721     4.47091133     0.89035214
Ce     5.82153376     5.63719167     3.98700345
Ce    -1.93596721     7.82410489     0.89035214
Ce    -3.84876674     8.94312843     4.04823867
Ce    -3.79695296     6.87108813     7.30772217
Ce     1.93596721     7.82410489     0.89035214
Ce    -0.00597740     8.95763837     4.07887271
Ce     0.01122838     6.69246018     7.24411604
Ce     5.80789000     7.82410489     0.89035214
Ce     3.88430619     8.93958549     4.03636117
Ce     3.89955688     6.75034734     7.30497251
W      5.40724668     3.56261047     6.83576515
W      6.56661161     2.69471952     9.00888459
O      0.00000000     0.00000000     0.09999685
O      1.92365911     1.12034808     3.21223254
O      0.01249031     2.23576693     6.35789858
O      0.00000000     2.23545567     1.68070743
O     -5.80216884    10.05631884     4.82171837
O      1.86605584     1.23486683     8.01588653
O      3.87192279     0.00000000     0.09999685
O      5.82243747     1.13852323     3.21862982
O      4.09302657     2.22807893     6.43051545
O      3.87192279     2.23545567     1.68070743
O      3.88589238     0.02438979     4.80086372
O      6.37720242     0.85404890     8.84107331
O      7.74385721     0.00000000     0.09999685
O      9.67908169     1.11334107     3.20355336
O      7.11946007     2.53445888     6.86445035
O      7.74385721     2.23545567     1.68070743
O      7.77279993     0.14504121     4.90560502
O      9.63724247     0.97756109     7.92889042
O     -1.93596140     3.35318350     0.09999685
O     -0.01315691     4.45595730     3.28910540
O     -1.94421725     5.55788228     6.44524629
O     -1.93596721     5.58864923     1.68070743
O      9.55685136     3.26991802     4.87815587
O      0.13143300     4.47472908     8.08924575
O      1.93596140     3.35318350     0.09999685
O      3.87331978     4.45441191     3.21255890
O      1.90738472     5.54778368     6.37763242
O      1.93595559     5.58864923     1.68070743
O      1.98985246     3.29845583     4.86805243
O      5.80789581     3.35318350     0.09999685
O      7.72883695     4.46875182     3.22426287
O      5.98509085     5.35171158     6.55428455
O      5.80789000     5.58864923     1.68070743
O      5.77496048     3.38403923     4.85264905
O      8.10794706     3.65244380     9.16148596
O     -3.87192860     6.70637706     0.09999685
O     -1.92668134     7.81549115     3.25092462
O     -3.82777447     8.99745825     6.39351631
O     -3.87192860     8.94183273     1.68070743
O      7.70800990     6.71818750     4.83000802
O     -1.76681124     7.77378524     8.12246751
O     -0.00000581     6.70637706     0.09999685
O      1.94596950     7.84347088     3.28342047
O      0.07385410     9.00274571     6.41779356
O     -0.00000581     8.94183273     1.68070743
O     -0.01606870     6.72670639     4.87147332
O      3.87192860     6.70637706     0.09999685
O      5.80653747     7.83640823     3.20949440
O      3.87173133     8.90708110     6.31999879
O      3.87192860     8.94183273     1.68070743
O      3.95657333     6.64198461     4.84401057
O      5.82345529     8.00156098     8.05729776
O      1.90511076     7.81814434     8.06721097
O      3.98936894     4.31756393     7.83031051
O      5.46937370     3.21641084    10.24825585
O      4.99586111     3.56696467    13.43315136
C      5.82542775     2.81735611    13.19300935
