84
CIF: 1-NH3-NH2+H_fs.cif | data_image0
Ce     0.00716429     0.01753657     8.93571895
Ce     1.92118965     1.08773583     5.59832232
Ce     0.00000000     2.23543938     2.47426506
Ce     3.78231884     0.09531459     8.79250910
Ce     5.80490207     1.11625101     5.64207343
Ce     3.87189458     2.23543938     2.47426506
Ce     7.87221942     0.02500195     8.76428055
Ce     9.69155324     1.11457283     5.60354998
Ce     7.74390532     2.23543938     2.47426506
Ce     9.70941617     3.27194927     8.73102135
Ce    -0.01135704     4.41498652     5.62160509
Ce    -1.93600537     5.58869904     2.47426506
Ce     1.85480231     3.28795532     8.68316906
Ce     3.85825599     4.48085785     5.62908622
Ce     1.93588921     5.58869904     2.47426506
Ce     5.80142515     3.34153546     8.84095639
Ce     7.73560052     4.48823447     5.65163641
Ce     5.80789995     5.58869904     2.47426506
Ce     7.61447726     6.70940422     8.88892429
Ce    -1.95408987     7.82382968     5.63827628
Ce    -3.87195266     8.94185811     2.47426506
Ce     1.99806303     7.87834069     5.62035637
Ce    -0.00005808     8.94185811     2.47426506
Ce     3.90038984     6.80441155     8.73573102
Ce     5.83351806     7.83149974     5.62729786
Ce     3.87195266     8.94185811     2.47426506
V     -0.33148996     7.08880409     8.60600757
O      0.00057085     0.00503972     6.39302386
O     -0.00692809     2.40128198     9.71217946
O      1.93594729     1.11771969     3.26466483
O     -0.00752214     2.24846987     4.80761492
O      0.00000000     0.00000000     1.68386529
O      1.92153375     1.18402031     7.97196294
O      3.85709935     0.04570692     6.51151219
O      3.84590264     2.25334400     9.59039599
O      5.80795803     1.11771969     3.26466483
O      3.89845165     2.23253394     4.81749630
O      3.87189458     0.00000000     1.68386529
O      5.81885169     1.06197622     8.10306044
O      7.75165321     0.08940336     6.42236918
O      7.77688996     2.21067324     9.62951434
O      9.67985261     1.11771969     3.26466483
O      7.70092351     2.26260682     4.81959482
O      7.74390532     0.00000000     1.68386529
O      9.69137905     1.13379572     7.99089623
O      9.64012357     3.30725469     6.41122035
O     -1.61915054     5.82222461     9.72878925
O      0.00000000     4.47087876     3.26466483
O     -1.88272721     5.53655819     4.86521997
O     -1.93594729     3.35315907     1.68386529
O     -0.02456678     4.31504145     7.89178969
O      1.95171077     3.32481154     6.36568081
O      3.87201074     4.47087876     3.26466483
O      1.86261447     5.63564405     4.87399134
O      1.93594729     3.35315907     1.68386529
O      3.63793786     4.57174486     8.07098801
O      5.75911679     3.37815366     6.55030657
O      5.65978658     5.47924557     9.63529105
O      7.74390532     4.47087876     3.26466483
O      5.81083197     5.54529343     4.80093581
O      5.80795803     3.35315907     1.68386529
O      7.82650101     4.43784053     8.08999895
O      7.65468170     6.67216761     6.46017917
O     -3.69660288     9.08071993     9.68815348
O     -1.93600537     7.82413842     3.26466483
O     -3.90056962     8.96530586     4.80142827
O     -3.87195266     6.70641873     1.68386529
O     -1.93265017     7.71029145     8.11591280
O      0.11036002     6.83009044     6.92209498
O      0.07455882     8.57854449     9.35476658
O      1.93600537     7.82413842     3.26466483
O      0.06951057     8.94681851     4.84962973
O     -0.00005808     6.70641873     1.68386529
O      2.26144941     7.99361524     7.86579364
O      3.93830797     6.66702941     6.37233493
O      3.74986438     8.93221222     9.78081154
O      5.80789995     7.82413842     3.26466483
O      3.86542087     8.94754906     4.81555217
O      3.87195266     6.70641873     1.68386529
O      5.72724523     7.84043840     8.04126762
N      1.12290876     6.10349619     9.80169236
H     -1.24819220     5.78114379    10.62872753
H      1.38589457     6.77249558    10.54063638
H      0.72083868     5.31363978    10.32712005
