82
CIF: Sc-Ti-CeO2.cif | data_image0
Ce     1.93038582     1.11050507     0.88387043
Ce    -0.02509427     2.21929499     4.07466816
Ce    -5.55793267     9.94170689     7.18826100
Ce     5.81181033     1.12175166     0.90127712
Ce     3.81042823     2.16329968     3.98448850
Ce    -1.82946904    10.00919639     7.41013816
Ce     9.66901012     1.12377363     0.90450652
Ce     7.71149154     2.25462360     4.09538538
Ce     1.91685506     9.81660304     7.35088006
Ce    -0.00709724     4.47602159     0.89067279
Ce    -1.93578416     5.56988553     4.05885829
Ce    -1.74140888     3.46115337     7.31128764
Ce     3.86254305     4.47635356     0.87798423
Ce     1.94098807     5.59009522     4.03961372
Ce     1.98731630     3.30326312     7.20520021
Ce     7.74213807     4.46545905     0.90125422
Ce     5.83487472     5.67700914     3.97468268
Ce    -1.94645625     7.83004003     0.90010904
Ce    -3.81472505     8.90765814     4.06866507
Ce    -3.76454818     6.60145316     7.34397243
Ce     1.92815559     7.82745473     0.89060408
Ce     0.00358824     8.94782162     4.07854461
Ce     0.04715509     6.65745856     7.23157163
Ce     5.81127600     7.83258510     0.88371011
Ce     3.87844788     8.97953806     4.07896543
Ce     3.95983022     6.67714381     7.21175730
Ti     5.37018586     3.60471118     6.56415254
Sc     7.24866554     2.53218343     8.81693176
O     11.61334069     0.00154917     0.10141687
O      1.91266194     1.09535045     3.23181516
O      0.03398988     2.07564726     6.49979410
O     -0.00785227     2.23805103     1.69392277
O     -5.73541151     9.98945834     4.90310001
O      1.95290044     1.15151529     8.09202848
O     -1.93899312    10.05733740     0.10496691
O      5.74792080     1.07326659     3.24913909
O      4.00008465     2.26297473     6.38229678
O      3.86763657     2.23577757     1.68132582
O     -1.93480846    10.03156046     4.86669820
O      6.14653018     0.79911616     8.61255994
O      7.73821774     0.00761509     0.10924988
O      9.73712228     1.06935518     3.26654536
O      6.90405902     2.64272204     6.82342491
O      7.74357843     2.23531483     1.71563532
O      1.97642054    10.05915964     5.02493403
O      8.86757270     1.51915346     8.43100725
O      9.67032270     3.35425987     0.10911246
O      0.01155953     4.45981609     3.25239531
O     -1.91629441     5.61991450     6.42304950
O     -1.94403436     5.59119430     1.70564938
O     -1.90281667     3.33569161     4.92095129
O      0.22777955     4.49995160     8.05974141
O      1.92738314     3.35244915     0.09928684
O      3.80197815     4.52324618     3.19857513
O      2.02916164     5.56971131     6.37979763
O      1.92862022     5.59252216     1.67404250
O      1.92026586     3.30129366     4.89306488
O      4.03503704     4.39729109     7.83289772
O      5.81155478     3.35101064     0.10766953
O      7.73771881     4.55184807     3.24219253
O      5.88149990     5.46602656     6.36666600
O      5.80528807     5.59217007     1.68114259
O      5.60340308     3.47136232     4.71017309
O      7.94380203     4.47815210     8.52227291
O     -3.87155109     6.71022987     0.10512724
O     -1.91348431     7.80795493     3.25448423
O     -3.79578242     8.86405286     6.50027710
O     -3.87509971     8.94378428     1.69355631
O     -3.86307238     6.71813684     4.88970576
O     -1.86600836     7.63108682     8.14323849
O     -0.01209783     6.71325780     0.10434852
O      1.95146833     7.84548027     3.27050019
O      0.05794299     8.86517044     6.47609093
O     -0.00628994     8.94736548     1.70514550
O      0.02412835     6.68618772     4.87642223
O      2.02844378     7.69550220     8.08274992
O      3.86815347     6.71410280     0.09951587
O      5.81631857     7.85303822     3.22014333
O      3.97711362     9.02932036     6.61383505
O      3.86556896     8.94715423     1.69389986
O      3.93163588     6.78263204     4.91450711
O      5.90038613     7.68700384     8.03716328
