90
CIF: H+OH→H2O.cif | data_image0
O      0.00261135     0.00382715     0.19995339
O      1.91233945     1.11049238     3.34115871
O      0.12056275     2.23526947     6.58028015
O      0.00261135     2.21285656     1.76196664
O     11.45894950     0.01642283     4.98230061
O      1.93995584     1.16252862     8.09307057
O      3.82876252     0.00382715     0.19995339
O      5.74390048     1.10641697     3.32991510
O      3.77970429     2.27300927     6.55934258
O      3.82876252     2.21285656     1.76196664
O      3.82983072     0.02657850     4.98314716
O      5.72995191     1.12907999     8.15908391
O      7.65492518     0.00382715     0.19995339
O      9.56847242     1.10572110     3.32719744
O      7.64343816     2.20975741     6.54477132
O      7.65492518     2.21285656     1.76196664
O      7.66193999     0.01428043     4.95468064
O      9.59753932     0.97125429     8.18816939
O     -1.91046424     3.31737126     0.19995339
O      0.03124975     4.41675260     3.36205203
O     -1.87124824     5.59060480     6.54382243
O     -1.91046998     5.52641062     1.76196664
O     -1.89086538     3.30562087     4.96266945
O     -0.31077961     4.81412700     8.71425645
O      1.91568694     3.31737126     0.19995339
O      3.80614606     4.40744565     3.35687937
O      1.92489016     5.68698232     6.57889712
O      1.91568120     5.52641062     1.76196664
O      1.92127711     3.26525450     5.05387567
O      4.21017396     4.55760488     8.62193042
O      5.74184959     3.31737126     0.19995339
O      7.65500680     4.42553448     3.35103896
O      5.65622224     5.50815875     6.51158621
O      5.74184385     5.52641062     1.76196664
O      5.74323328     3.29460209     4.97118770
O      7.54284788     4.50830149     8.18531491
O     -3.82354556     6.63092532     0.19995339
O     -1.92379199     7.74167159     3.35235589
O     -3.83380569     8.84417817     6.52885324
O     -3.82354556     8.83995473     1.76196664
O      7.63682351     6.61971841     4.99309443
O     -1.91394101     7.81769910     8.16674781
O      0.00260561     6.63092532     0.19995339
O      1.91265440     7.73157037     3.34291216
O      0.01151510     8.87123771     6.50129799
O      0.00260561     8.83995473     1.76196664
O      0.00235350     6.64826874     4.95367122
O      1.87959609     7.84719505     8.20631240
O      3.82876826     6.63092532     0.19995339
O      5.75031336     7.74096785     3.34115846
O      3.80634870     8.80861022     6.49930719
O      3.82876826     8.83995473     1.76196664
O      3.83062772     6.63620254     4.94461219
O      5.72811407     7.74414196     8.15264045
Ce     1.91568694     1.10834185     0.98097142
Ce    -0.02437145     2.21837167     4.13648007
Ce     5.68753769     9.89389752     7.33415829
Ce     5.74184959     1.10834185     0.98097142
Ce     3.85069297     2.21047247     4.12178108
Ce    -1.86508151     9.92159131     7.33670363
Ce     9.56800076     1.10834185     0.98097142
Ce     7.67137448     2.21967148     4.16299137
Ce     7.66633371     0.03037417     7.33990585
Ce     0.00261135     4.42188597     0.98097142
Ce    -1.90377348     5.51962823     4.18144312
Ce    -1.88708330     3.34290445     7.46230193
Ce     3.82877400     4.42188597     0.98097142
Ce     1.91511250     5.53541384     4.22663813
Ce     7.65492518     4.42188597     0.98097142
Ce     5.73062148     5.52202038     4.15764748
Ce     5.80133116     3.31996675     7.33790266
Ce    -1.91046998     7.73544003     0.98097142
Ce    -3.82880983     8.83956988     4.15568446
Ce     7.64262806     6.62979340     7.33920302
Ce     1.91569268     7.73544003     0.98097142
Ce     0.00668460     8.84293945     4.13355564
Ce     0.02819527     6.71391355     7.35076005
Ce     5.74184385     7.73544003     0.98097142
Ce     3.82072539     8.83484546     4.13280517
Ce     3.77080909     6.67249519     7.35606119
Ni     1.94045252     2.38019956     6.69841215
C      3.58341676     7.03296739    10.83743873
C      3.28410031     5.83953799    10.37236764
C      3.96489873     4.58083735    10.01723634
H      2.85146547     7.84453908    10.86616736
H      4.59925806     7.26651200    11.19703284
H      0.38005433     4.53920343     9.34263345
H      2.10791405     3.07697187     7.93196639
H      3.36867906     3.69865200    10.32703340
H      4.92378801     4.53445799    10.58813522
