82
CIF: Re-Rh-CeO2.cif | data_image0
Ce     1.93038582     1.11050507     0.88387043
Ce    -0.01406131     2.23990554     4.03803525
Ce     0.01737327     0.02104725     7.26295494
Ce     5.81181033     1.12175166     0.90127712
Ce     3.83725488     2.19289214     4.00295593
Ce    -2.01651502    10.02322432     7.32825249
Ce     9.66901012     1.12377363     0.90450652
Ce     7.75612012     2.22184309     4.04371688
Ce     2.08288948     9.83333469     7.31759555
Ce    -0.00709724     4.47602159     0.89067279
Ce    -1.95680231     5.58045066     4.08861496
Ce    -1.70643047     3.33239046     7.30790995
Ce     3.86254305     4.47635356     0.87798423
Ce     1.94196933     5.58066773     4.05343467
Ce     1.87691198     3.33980360     7.23435732
Ce     7.74213807     4.46545905     0.90125422
Ce     5.82477633     5.64298755     3.99686504
Ce    -1.94645625     7.83004003     0.90010904
Ce    -3.86710065     8.96115463     4.04410769
Ce    -3.85251769     6.86527458     7.23209573
Ce     1.92815559     7.82745473     0.89060408
Ce    -0.00905189     8.95601086     4.10862301
Ce    -0.00989623     6.70289693     7.24390439
Ce     5.81127600     7.83258510     0.88371011
Ce     3.87162409     8.94902774     4.04655082
Ce     3.87528492     6.74410203     7.24499601
Rh     5.02843405     3.82092677     6.73246700
Re     6.60350889     2.88933855     8.02856660
O     11.61334069     0.00154917     0.10141687
O      1.92790937     1.11632523     3.22152069
O      0.07712172     2.23716985     6.38106429
O     -0.00785227     2.23805103     1.69392277
O     -5.80001658    10.05798829     4.86722041
O      1.81549987     1.19562267     8.10611488
O     -1.93899312    10.05733740     0.10496691
O      5.74623502     1.10192370     3.25233980
O      3.86854542     2.24325969     6.48905048
O      3.86763657     2.23577757     1.68132582
O      3.84652268     0.00756536     4.86493256
O      5.97521097     1.42567145     8.82291860
O      7.73821774     0.00761509     0.10924988
O      9.73000775     1.08634038     3.23004143
O      7.63358233     2.27471267     6.68650681
O      7.74357843     2.23531483     1.71563532
O      1.96158642    10.02407035     4.92069711
O      9.82476449     1.03603023     8.07151624
O      9.67032270     3.35425987     0.10911246
O     -0.00056115     4.48576931     3.25246416
O     -2.06085205     5.58736564     6.52761892
O     -1.94403436     5.59119430     1.70564938
O     -1.90864814     3.36437535     4.90764177
O      0.12819314     4.53768002     8.08883607
O      1.92738314     3.35244915     0.09928684
O      3.88856123     4.46497973     3.22218156
O      1.93925535     5.59271375     6.36002971
O      1.92862022     5.59252216     1.67404250
O      1.96855970     3.34092143     4.84890971
O      3.76205017     4.54266165     8.08026228
O      5.81155478     3.35101064     0.10766953
O      7.71984818     4.54030224     3.24873821
O      5.88468569     5.60253798     6.51551278
O      5.80528807     5.59217007     1.68114259
O      5.75222173     3.40330254     4.96529209
O      7.57647512     4.14559729     8.82206379
O     -3.87155109     6.71022987     0.10512724
O     -1.93960997     7.82413768     3.26339167
O     -3.88309877     8.94744513     6.44165592
O     -3.87509971     8.94378428     1.69355631
O     -3.89421894     6.75602364     4.88492349
O     -1.98504336     7.72518083     8.13465569
O     -0.01209783     6.71325780     0.10434852
O      1.92693186     7.81030683     3.26889027
O     -0.00145830     8.93764132     6.54108248
O     -0.00628994     8.94736548     1.70514550
O     -0.05214476     6.70522991     4.92037319
O      1.99202552     7.64458436     8.12097178
O      3.86815347     6.71410280     0.09951587
O      5.80866877     7.83497721     3.22313368
O      3.94584464     8.84984045     6.41949554
O      3.86556896     8.94715423     1.69389986
O      3.91946414     6.66905334     4.87107273
O      5.85162891     7.83682933     8.08116956
