81
CIF: Os-W-CeO2-Ov.cif | data_image0
Ce     1.93596140     1.11772783     0.89035214
Ce    -0.00063642     2.23430959     4.02836023
Ce    -5.79565246    10.05803458     7.22516480
Ce     5.80789581     1.11772783     0.89035214
Ce     3.82941866     2.21464845     3.95980901
Ce    -2.01165995     9.96451319     7.36444809
Ce     9.67981860     1.11772783     0.89035214
Ce     7.76984743     2.21262056     3.96146233
Ce     1.94831906    10.03672398     7.33619253
Ce     0.00000000     4.47091133     0.89035214
Ce    -1.96269115     5.57478726     4.10085702
Ce    -1.83231219     3.33731625     7.26318203
Ce     3.87193441     4.47091133     0.89035214
Ce     1.94109575     5.58506502     4.11308089
Ce     1.77849250     3.29564715     7.27966383
Ce     7.74385721     4.47091133     0.89035214
Ce     5.79804215     5.64263273     3.96312250
Ce    -1.93596721     7.82410489     0.89035214
Ce    -3.87281763     8.93854404     4.07528299
Ce    -3.85365941     6.79616110     7.38080229
Ce     1.93596721     7.82410489     0.89035214
Ce    -0.00725394     8.96379113     4.11197168
Ce    -0.00617342     6.72184049     7.28141373
Ce     5.80789000     7.82410489     0.89035214
Ce     3.85773454     8.95270831     4.05674961
Ce     3.81183400     6.90240132     7.29007388
W      5.84414642     3.34876562     6.76441343
Os     6.61146033     2.91447616     9.01605109
O      0.00000000     0.00000000     0.09999685
O      1.92393132     1.10764651     3.20156570
O     -0.03354893     2.26440931     6.34826614
O      0.00000000     2.23545567     1.68070743
O      0.00625748     0.00072081     4.83421959
O      1.81007251     1.06008351     8.06105562
O      3.87192279     0.00000000     0.09999685
O      5.79681336     1.11967395     3.21129671
O      4.22113132     2.47394702     6.72411033
O      3.87192279     2.23545567     1.68070743
O      3.84526282     0.13063844     4.87880671
O      6.02034539     1.20641263     9.02201961
O      7.74385721     0.00000000     0.09999685
O      9.69302754     1.11440838     3.20520329
O      7.47721048     2.44842856     6.32740308
O      7.74385721     2.23545567     1.68070743
O      7.74686920     0.06848273     4.82143312
O      9.74887813     1.25013790     8.00277495
O     -1.93596140     3.35318350     0.09999685
O      0.00408610     4.47200975     3.27925463
O     -2.01912682     5.47818202     6.45447250
O     -1.93596721     5.58864923     1.68070743
O      9.64106373     3.30501053     4.84801059
O     -0.09972236     4.47481840     8.10853683
O      1.93596140     3.35318350     0.09999685
O      3.85428068     4.48751394     3.21305325
O      1.97408550     5.55316928     6.46425342
O      1.93595559     5.58864923     1.68070743
O      2.00982143     3.28134974     4.85677730
O      5.80789581     3.35318350     0.09999685
O      7.74357469     4.47348421     3.21344523
O      5.73618585     5.18955371     6.72027380
O      5.80789000     5.58864923     1.68070743
O      5.76465698     3.38122200     4.73579013
O      7.93226520     4.16386408     8.87790722
O     -3.87192860     6.70637706     0.09999685
O     -1.95417408     7.82680598     3.30050004
O     -3.85678283     8.91755158     6.38709719
O     -3.87192860     8.94183273     1.68070743
O      7.63031219     6.64429819     4.88800847
O     -1.83813730     7.74338386     8.14726906
O     -0.00000581     6.70637706     0.09999685
O      1.92832262     7.81232280     3.28770027
O     -0.01604782     8.99902266     6.41976161
O     -0.00000581     8.94183273     1.68070743
O     -0.02452864     6.69221572     4.91834208
O      3.87192860     6.70637706     0.09999685
O      5.80951938     7.83720394     3.21082807
O      3.85059872     8.99964815     6.39502582
O      3.87192860     8.94183273     1.68070743
O      3.95506789     6.69878211     4.86452541
O      5.79411721     7.97094310     8.08752596
O      1.80765881     7.79352119     8.14075533
