81
CIF: Ti-CeO2.cif | data_image0
O      0.55978538     0.45000321     0.60000009
O      2.47106662     1.59868015     3.76955939
O      0.31238269     2.51641951     6.80914870
O      0.55978538     2.65901948     2.16203581
O      0.57563486     0.38631282     5.34678397
O      2.47136107     1.97472635     8.30605725
O      4.38602857     0.45000321     0.60000009
O      6.28849889     1.56030741     3.74475579
O      4.62674907     2.52029342     6.81299517
O      4.38602857     2.65901948     2.16203581
O      4.37140794     0.38951205     5.34684671
O      6.32643688     1.53864955     8.61741284
O      8.21215698     0.45000321     0.60000009
O     10.13669123     1.55934392     3.74393763
O      8.21216137     2.64529976     6.92540706
O      8.21215698     2.65901948     2.16203581
O      8.21313815     0.44944744     5.35911737
O     10.09470282     1.53903859     8.61708377
O     -1.35327882     3.76352761     0.60000009
O      0.60006006     4.84499121     3.77018736
O     -1.29805910     5.94106919     7.00463346
O     -1.35333621     5.97264328     2.16203581
O     -1.40243252     3.80921259     5.34536291
O      0.92765984     4.65609765     8.30821320
O      2.47296437     3.76352761     0.60000009
O      4.34664355     4.84709750     3.76950006
O      2.47274261     6.25754319     6.80930194
O      2.47290698     5.97264328     2.16203581
O      2.47161302     3.76437856     5.66448668
O      4.02246032     4.65994013     8.30655707
O      6.29909277     3.76352761     0.60000009
O      8.21083682     4.89179409     3.71896359
O      6.24766980     5.94387964     7.00392649
O      6.29903538     5.97264328     2.16203581
O      6.34448864     3.80619628     5.34665259
O      8.21359352     4.85346500     8.55322117
O     -3.26640042     7.07715142     0.60000009
O     -1.37505155     8.17088131     3.71879409
O     -3.26728607     9.34535641     7.00397179
O     -3.26640042     9.28616768     2.16203581
O     -3.26482725     7.07629733     5.43755468
O     -1.34023223     8.18785737     8.55339581
O      0.55984277     7.07715142     0.60000009
O      2.47407393     8.16906905     3.74414404
O      0.57113934     9.29303395     6.92544768
O      0.55984277     9.28616768     2.16203581
O      0.49559136     7.09692433     5.34514055
O      2.47079746     8.21566576     8.61665270
O      4.38597118     7.07715142     0.60000009
O      6.32087528     8.16906642     3.72010669
O      4.37478351     9.29239496     6.92635977
O      4.38597118     9.28616768     2.16203581
O      4.44920868     7.09496552     5.34679097
O      6.28693089     8.18863836     8.55557955
Ce     2.47284958     1.55451135     1.38101795
Ce     0.55316648     2.65546305     4.57220236
Ce     0.52333295     0.47627250     7.71312579
Ce     6.29909277     1.55451135     1.38101795
Ce     4.39081177     2.65617337     4.57308376
Ce     4.42108412     0.47685828     7.71248406
Ce    10.12522118     1.55451135     1.38101795
Ce     8.21218426     2.65868215     4.53719647
Ce     8.21127887     0.45023809     7.77211645
Ce     0.55978538     4.86803574     1.38101795
Ce    -1.35715412     5.97480040     4.55564677
Ce    -1.34893265     3.71876271     7.71315179
Ce     4.38602857     4.86803574     1.38101795
Ce     2.47258417     5.98003817     4.57210444
Ce     8.21215698     4.86803574     1.38101795
Ce     6.30320578     5.97448950     4.55573049
Ce     6.29349014     3.71959400     7.71240458
Ce    -1.35333621     8.18165955     1.38101795
Ce    -3.26613642     9.28170705     4.55581619
Ce    -3.26600185     7.07690144     7.77719120
Ce     2.47290698     8.18165955     1.38101795
Ce     0.55969019     9.28605515     4.53712479
Ce     0.60058968     7.09550961     7.71314468
Ce     6.29903538     8.18165955     1.38101795
Ce     4.38740713     9.28516728     4.53796338
Ce     4.34515094     7.09522479     7.71303235
Ti     2.47392194     3.76400443     7.67054464
