    41
 Tv_1:   7.865150   0.000000   0.000000 Tv_2:  -3.932575   6.811420   0.000000 Tv_3:   0.000000   0.000000  23.027330
Pd      2.00840538      3.38114787      7.13273849
Ce      3.93257893      2.27047096      0.80273272
Ce     -0.03042240      4.55822931      3.98639926
Ce     -3.93169410      6.81057509      7.22906182
Ce      1.96629143      5.67618082      0.80273272
Ce      1.98440094      1.18111380      4.02731883
Ce     -1.89578823      3.40187502      7.17722730
Ce     -1.96628357      5.67618082      0.80273272
Ce      5.90451361      1.13168333      3.99415947
Ce      0.00000393      2.27047096      0.80273272
Ce      3.90122844      4.50178308      4.02715763
Ce      0.03849204      6.75147921      7.17713519
O       3.93257107      4.54094874      1.60546545
O       3.94670474      0.07761613      4.76557503
O       0.17965182      2.49076590      7.65329432
O      -1.96628750      3.40570985      0.00000000
O       2.00116158      5.70302462      3.20303252
O       2.23453237      1.38282037      6.57863185
O       5.89885857      1.13523889      1.60546545
O       1.89478542      3.44700068      4.76320321
O      -2.10474953      5.75509793      8.02801806
O       0.00000000      0.00000000      0.00000000
O       3.90718630      2.28335136      3.17703467
O      -0.37994180      4.76028327      6.22691241
O       1.96628357      1.13523889      1.60546545
O       5.83663737      3.35525767      4.76520659
O       1.86547594      5.41023575      7.65324826
O       3.93257500      0.00000000      0.00000000
O      -0.00576909      2.22593790      3.20374637
O       3.85198081      4.18454120      6.57863185
O      -0.00000393      4.54094874      1.60546545
O      -3.80959945      6.74039703      4.96927479
O       4.94975519      1.68297239      8.70057729
O       1.96628750      3.40570985      0.00000000
O      -1.98597397      5.68737198      3.19720661
O       5.95673821      1.10182206      6.39275525
H       2.33385742      2.13542095      9.35337906
H       4.54921456      1.91288505      9.55652617
H       1.45533196      3.70223139      9.60108405
H       3.25131930      3.72081975      9.35245797
C       2.30944793      3.20758609      9.13362925
