    38
 Tv_1:   7.865150   0.000000   0.000000 Tv_2:  -3.932575   6.811420   0.000000 Tv_3:   0.000000   0.000000  23.027330
Ru      1.98119196      3.41015090      8.21334201
Ce      3.93257893      2.27047096      0.80273272
Ce      0.03054038      4.52327311      4.00742321
Ce     -3.83838983      6.75824976      7.14888065
Ce      1.96629143      5.67618082      0.80273272
Ce      1.96708188      1.16957525      4.00698569
Ce     -1.96472627      3.51126642      7.14970964
Ce     -1.96628357      5.67618082      0.80273272
Ce      5.89994003      1.13475528      3.95625649
Ce      0.00000393      2.27047096      0.80273272
Ce      3.90261664      4.52276906      4.00714688
Ce     -0.08813687      6.75928510      7.15023927
O       3.93257107      4.54094874      1.60546545
O       4.03888430      0.06042410      4.84582527
O       0.38159742      2.48910391      8.03937053
O      -1.96628750      3.40570985      0.00000000
O       1.96627177      5.69478280      3.16759346
O       1.96803356      0.86213501      6.32477857
O       5.89885857      1.13523889      1.60546545
O       1.96667289      3.40512407      4.65343193
O      -1.96374312      5.67618082      8.15738560
O       0.00000000      0.00000000      0.00000000
O       3.95025979      2.25994051      3.16860666
O      -0.23613147      4.67825334      6.32498581
O       1.96628357      1.13523889      1.60546545
O       5.89916531      3.28443252      4.84587133
O       1.96780154      5.26204650      8.04001530
O       3.93257500      0.00000000      0.00000000
O      -0.01649322      2.26050586      3.16807703
O       4.16718456      4.67610774      6.32671286
O      -0.00000393      4.54094874      1.60546545
O       7.76239968      0.05894603      4.84324621
O       3.58213538      2.47599193      8.04061401
O       1.96628750      3.40570985      0.00000000
O      -1.96613020      5.67599691      3.25033066
O       5.90629507      1.13607669      6.86299635
O       1.96910322      3.40474263     11.16673525
C       1.97794758      3.40844123      9.99733835
