    41
 Tv_1:   7.865150   0.000000   0.000000 Tv_2:  -3.932575   6.811420   0.000000 Tv_3:   0.000000   0.000000  23.027330
Pd      1.85910910      3.46898794      7.19507348
Ce      3.94151374      2.26677917      0.79564031
Ce      0.01006346      4.53616712      3.96215148
Ce      0.00000000      0.00000000      7.22054170
Ce      1.97760938      5.67043198      0.79241648
Ce      1.99216778      1.16821978      4.01175235
Ce     -1.95666449      3.38904231      7.19788281
Ce     -1.95598415      5.67114718      0.79370601
Ce      5.90935854      1.13038916      3.99537992
Ce      0.01109379      2.26514443      0.79165658
Ce      3.91790256      4.50363578      4.01232803
Ce      3.95348843      0.00000000      7.19760648
O       3.94486430      4.53472310      1.60148172
O       3.91949526      0.00938614      4.85335521
O       0.11380479      2.42442267      7.91723357
O      -1.95853639      3.40153445     23.02016850
O       1.99718181      5.75477779      3.18995300
O       2.12645341      1.45749397      6.53149491
O       5.90977540      1.12981700      1.59070493
O       1.95839875      3.41111812      4.42437908
O      -1.99582114      5.69422427      7.84393758
O      -3.92114300      6.80545971     23.02122776
O       3.99964900      2.23267440      3.17998216
O       0.03099262      4.52371585      6.32199226
O       1.97873410      1.12950367      1.60012311
O       5.88509455      3.41386312      4.85300980
O       1.89092757      5.50276207      7.91619734
O       0.00860447      6.80824558     23.02003034
O      -0.05198471      2.20603493      3.18910099
O       3.73466423      4.24164815      6.53142583
O       0.01296570      4.53507730      1.59284647
O      -3.83841342      6.75829063      4.95833680
O       4.56588868      1.90550147      8.59552661
O       1.97720826      3.40022666     23.02182647
O      -1.96432908      5.67663718      3.19110436
O       5.93658376      1.11490680      6.44401408
H       3.13655103      1.64897660     11.82580046
H       4.05472078      2.19938018      9.37898545
H       2.32610631      3.10664085     10.94905790
H       3.98839004      3.32227677     11.80903656
C       3.16981275      2.68218723     11.48870337
