85
CIF: Cu-Fe-CeO2-O-CO.cif | data_image0
Ce     1.93038582     1.11050507     0.88387043
Ce    -0.00653476     2.23739820     4.02721068
Ce    -5.77334911    10.04618451     7.20553430
Ce     5.81181033     1.12175166     0.90127712
Ce     3.85062384     2.22486392     3.99347623
Ce     3.91649071     0.00783708     7.21776820
Ce     9.66901012     1.12377363     0.90450652
Ce     7.75855209     2.22729245     4.09489184
Ce     1.97679329    10.03413949     7.21234670
Ce    -0.00709724     4.47602159     0.89067279
Ce    -1.94610346     5.58784981     4.06612710
Ce    -1.89479071     3.31240790     7.23230783
Ce     3.86254305     4.47635356     0.87798423
Ce     1.93295704     5.59944144     4.05574780
Ce     1.84418235     3.34143647     7.17864760
Ce     7.74213807     4.46545905     0.90125422
Ce     5.79620504     5.61322503     4.01945601
Ce    -1.94645625     7.83004003     0.90010904
Ce    -3.87274717     8.94468088     4.06337651
Ce    -3.83364429     6.70020141     7.24725652
Ce     1.92815559     7.82745473     0.89060408
Ce    -0.00453079     8.95046600     4.05134621
Ce    -0.00399018     6.72397183     7.21108192
Ce     5.81127600     7.83258510     0.88371011
Ce     3.87178600     8.93106619     4.05154216
Ce     3.85012051     6.76914320     7.28957413
Fe     4.99224952     3.80020471     6.60951795
Cu     6.74344441     2.81246248     8.04939158
O     11.61334069     0.00154917     0.10141687
O      1.93342202     1.11426880     3.21632829
O      0.00191211     2.21605849     6.37681579
O     -0.00785227     2.23805103     1.69392277
O     -5.78208172    10.05018788     4.84919955
O      1.98688233     1.13507634     7.95253613
O     -1.93899312    10.05733740     0.10496691
O      5.80494885     1.14691688     3.24877586
O      3.93024193     2.31568726     6.38601785
O      3.86763657     2.23577757     1.68132582
O      3.86595218     0.05029000     4.87005005
O      5.94640453     1.08524339     8.11192212
O      7.73821774     0.00761509     0.10924988
O      9.67611489     1.12154559     3.25771389
O      7.91533127     2.13187473     6.37442198
O      7.74357843     2.23531483     1.71563532
O      1.92268427    10.02365537     4.82920490
O      9.78556331     1.08185361     8.07138318
O      9.67032270     3.35425987     0.10911246
O      0.00393087     4.48468787     3.23643099
O     -1.94885126     5.59544437     6.44040187
O     -1.94403436     5.59119430     1.70564938
O     -1.91421268     3.38382797     4.83814536
O      0.01724035     4.43345827     8.02477080
O      1.92738314     3.35244915     0.09928684
O      3.86570966     4.46904079     3.21725371
O      1.86789564     5.56491798     6.39318555
O      1.92862022     5.59252216     1.67404250
O      1.92984169     3.33235349     4.84285500
O      5.81155478     3.35101064     0.10766953
O      7.71520716     4.46561265     3.26188696
O      5.78637687     5.42862574     6.44842406
O      5.80528807     5.59217007     1.68114259
O      5.74112617     3.37905022     4.92215297
O      7.87549291     4.33595354     8.14742427
O     -3.87155109     6.71022987     0.10512724
O     -1.95844652     7.82990607     3.25858614
O     -3.79977262     8.94634923     6.39494245
O     -3.87509971     8.94378428     1.69355631
O      7.69794067     6.69257058     4.90685007
O     -1.92962800     7.84069472     8.02061932
O     -0.01209783     6.71325780     0.10434852
O      1.92630252     7.81214149     3.23442778
O     -0.03411396     8.97493728     6.39337314
O     -0.00628994     8.94736548     1.70514550
O     -0.02298690     6.72412432     4.85973397
O      1.80975758     7.87259552     8.03524340
O      3.86815347     6.71410280     0.09951587
O      5.81811752     7.82553808     3.22705258
O      3.89754844     8.99261162     6.39732888
O      3.86556896     8.94715423     1.69389986
O      3.88596290     6.70712090     4.82937069
O      5.97655444     7.83964493     7.99437627
O      3.88563955     4.34893904     7.89891467
O      5.45877492     3.66704595    10.68994403
O      5.77690179     3.27950249    12.99017469
C      5.62022154     3.47086881    11.83953752
