84
CIF: Pt-Rh-CeO2-Ov-CO2.cif | data_image0
Ce     1.93038582     1.11050507     0.88387043
Ce    -0.00951656     2.22968819     4.02604257
Ce    -5.78935830    10.04709628     7.22785215
Ce     5.81181033     1.12175166     0.90127712
Ce     3.85106605     2.21520048     4.01167714
Ce    -1.91107114    10.03486066     7.22067403
Ce     9.66901012     1.12377363     0.90450652
Ce     7.73322054     2.24089577     4.08694288
Ce     1.97386179    10.03645901     7.22282514
Ce    -0.00709724     4.47602159     0.89067279
Ce    -1.92995877     5.58045699     4.05782031
Ce    -1.89879759     3.32977461     7.22328885
Ce     3.86254305     4.47635356     0.87798423
Ce     1.95668195     5.57562855     4.05799473
Ce     1.84697323     3.26292292     7.18777265
Ce     7.74213807     4.46545905     0.90125422
Ce     5.81408374     5.61574891     4.01153085
Ce    -1.94645625     7.83004003     0.90010904
Ce    -3.86301226     8.93575178     4.06204658
Ce    -3.84014769     6.69363743     7.22116325
Ce     1.92815559     7.82745473     0.89060408
Ce     0.00936987     8.93933452     4.05784202
Ce     0.02380446     6.69107107     7.21568361
Ce     5.81127600     7.83258510     0.88371011
Ce     3.87147659     8.95170845     4.02591972
Ce     3.90412062     6.82587164     7.18738021
Rh     4.86459911     3.89618479     6.44483486
Pt     6.54805086     2.92168105     8.08302602
O     11.61334069     0.00154917     0.10141687
O      1.93218853     1.10898278     3.22650680
O     -0.00318943     2.21593898     6.38916855
O     -0.00785227     2.23805103     1.69392277
O     -5.79538179    10.05130288     4.85034095
O      1.90856159     1.10274872     8.00706002
O     -1.93899312    10.05733740     0.10496691
O      5.80825425     1.10672174     3.24508567
O      3.79609407     2.19865729     6.40534103
O      3.86763657     2.23577757     1.68132582
O     -1.92982179    10.04780943     4.86277957
O      5.81131666     1.00870380     8.07991791
O      7.73821774     0.00761509     0.10924988
O      9.67173373     1.12176662     3.24453606
O      7.84313509     2.17730960     6.47570841
O      7.74357843     2.23531483     1.71563532
O      7.74672411     0.00269886     4.86318629
O      9.75494422     1.07179083     8.03845880
O      9.67032270     3.35425987     0.10911246
O     -0.00204583     4.47480152     3.23330013
O     -1.90953906     5.57444721     6.41540260
O     -1.94403436     5.59119430     1.70564938
O      9.67821425     3.34806796     4.86313640
O      0.01645160     4.42990591     7.99438431
O      1.92738314     3.35244915     0.09928684
O      3.84092769     4.48808790     3.21049336
O      2.04314315     5.52532641     6.50347241
O      1.92862022     5.59252216     1.67404250
O      1.89630798     3.34577891     4.84376069
O      4.12913091     4.31639899     8.33199753
O      5.81155478     3.35101064     0.10766953
O      7.75286971     4.47521113     3.24478549
O      5.80006592     5.67037082     6.40593816
O      5.80528807     5.59217007     1.68114259
O      5.77820963     3.36979769     4.74347823
O      7.83561989     4.51829717     8.08099587
O     -3.87155109     6.71022987     0.10512724
O     -1.92235161     7.81544628     3.25706516
O     -3.84559611     8.92468359     6.42222695
O     -3.87509971     8.94378428     1.69355631
O     -3.85996407     6.70504113     4.86322021
O     -1.89268198     7.79719818     7.99501819
O     -0.01209783     6.71325780     0.10434852
O      1.93098947     7.82298288     3.23329426
O      0.02421130     8.92312839     6.41461374
O     -0.00628994     8.94736548     1.70514550
O      0.04788472     6.67760530     4.89776073
O      1.97829261     7.82770506     7.99435786
O      3.86815347     6.71410280     0.09951587
O      5.81313106     7.83097239     3.22616391
O      3.88610604     8.95126487     6.38860910
O      3.86556896     8.94715423     1.69389986
O      3.85769285     6.74266054     4.84332095
O      5.80534837     7.85234507     8.00766045
O      4.96214447     3.79736915    10.39056404
C      5.09192464     3.74799446     9.18795408
