83
CIF: O2—Olatt+Osur.cif | data_image0
Ce     1.93038582     1.11050507     0.88387043
Ce    -0.00110779     2.23922834     4.05318619
Ce    -5.77402889    10.04429813     7.21643764
Ce     5.81181033     1.12175166     0.90127712
Ce     3.84116658     2.22707496     4.02046675
Ce    -1.95493102    10.05570390     7.19263831
Ce     9.66901012     1.12377363     0.90450652
Ce     7.72215062     2.24757965     4.09623213
Ce     2.00590935    10.03596134     7.25312252
Ce    -0.00709724     4.47602159     0.89067279
Ce    -1.94396458     5.58419886     4.06184765
Ce    -1.87733890     3.32014864     7.24001729
Ce     3.86254305     4.47635356     0.87798423
Ce     1.93835819     5.58046502     4.06969456
Ce     1.90944427     3.30355812     7.28324623
Ce     7.74213807     4.46545905     0.90125422
Ce     5.80476064     5.61583399     4.00053389
Ce    -1.94645625     7.83004003     0.90010904
Ce    -3.87325774     8.93869920     4.03907620
Ce     7.73835627     6.70566162     7.18696509
Ce     1.92815559     7.82745473     0.89060408
Ce     0.00186759     8.94977076     4.07098336
Ce    -0.00800151     6.70405775     7.23945570
Ce     5.81127600     7.83258510     0.88371011
Ce     3.86852398     8.95679258     4.03279721
Ce     3.89254747     6.78799265     7.18700610
Cu     4.98190497     3.83373242     6.46208921
Co     6.61176072     2.89679195     8.06979184
O     11.61334069     0.00154917     0.10141687
O      1.92432279     1.10858763     3.22653972
O     -0.01084313     2.19585841     6.41539982
O     -0.00785227     2.23805103     1.69392277
O      5.81284743    10.04829253     4.85012798
O      1.97513600     0.95683677     8.02929917
O     -1.93899312    10.05733740     0.10496691
O      5.81137817     1.11015097     3.25521354
O      3.89107083     2.20388353     6.34676294
O      3.86763657     2.23577757     1.68132582
O     -1.94725506    10.04244089     4.84801892
O      6.00295967     1.17518444     8.13922592
O      7.73821774     0.00761509     0.10924988
O      9.66778283     1.12538469     3.25045863
O      7.76948052     2.22412333     6.60113165
O      7.74357843     2.23531483     1.71563532
O      7.75692793     0.03158595     4.89603475
O      9.76540876     1.04835889     8.05208591
O      9.67032270     3.35425987     0.10911246
O     -0.02181671     4.48631696     3.24741120
O     -2.00471795     5.58058202     6.42489065
O     -1.94403436     5.59119430     1.70564938
O      9.65470152     3.33385001     4.88762301
O     -0.09829775     4.54874508     8.03182653
O      1.92738314     3.35244915     0.09928684
O      3.85096876     4.49240954     3.21745139
O      2.03183566     5.60963479     6.48119173
O      1.92862022     5.59252216     1.67404250
O      1.90929095     3.36500334     4.81346331
O      5.81155478     3.35101064     0.10766953
O      7.74986268     4.47232122     3.24375399
O      5.78081199     5.62681557     6.35856827
O      5.80528807     5.59217007     1.68114259
O      5.78965847     3.37997266     4.77216600
O      7.78488183     4.30285569     8.11182512
O     -3.87155109     6.71022987     0.10512724
O     -1.92404371     7.81510208     3.25382574
O     -3.85234968     8.90088520     6.38231202
O     -3.87509971     8.94378428     1.69355631
O      7.73277219     6.70827054     4.84634091
O     -1.94499006     7.81510617     7.99161068
O     -0.01209783     6.71325780     0.10434852
O      1.91777813     7.83471668     3.25080602
O     -0.00227654     8.99077096     6.45689559
O     -0.00628994     8.94736548     1.70514550
O      0.00695494     6.69960312     4.92116452
O      1.96218484     7.84257238     8.02938238
O      3.86815347     6.71410280     0.09951587
O      5.80550987     7.83534328     3.21562807
O      3.89699691     8.92951185     6.40449080
O      3.86556896     8.94715423     1.69389986
O      3.86444442     6.73833806     4.83373899
O      5.83798107     7.80713171     7.99258814
O      4.12751141     4.36357693     8.10340553
O      5.44296586     3.58257016     9.08993696
